p cnf 133 1398
-129 -132 0
-128 -129 0
-126 -133 0
-125 -133 0
-125 -131 0
-125 -126 0
-123 -131 0
-123 -125 0
-122 -132 0
-122 -129 0
-121 -132 0
-121 -131 0
-121 -125 0
-121 -123 0
-120 -128 0
-119 -128 0
-119 -120 0
-118 -130 0
-118 -126 0
-117 -124 0
-116 -130 0
-116 -124 0
-116 -118 0
-115 -127 0
-115 -124 0
-115 -117 0
-114 -130 0
-113 -124 0
-113 -117 0
-113 -115 0
-112 -133 0
-112 -127 0
-112 -126 0
-112 -125 0
-112 -115 0
-111 -131 0
-111 -113 0
-110 -129 0
-110 -128 0
-110 -113 0
-110 -111 0
-109 -130 0
-109 -120 0
-109 -114 0
-108 -127 0
-108 -120 0
-108 -115 0
-108 -112 0
-108 -109 0
-107 -131 0
-107 -124 0
-107 -116 0
-107 -111 0
-106 -131 0
-106 -130 0
-106 -114 0
-106 -111 0
-106 -109 0
-106 -107 0
-105 -130 0
-105 -118 0
-105 -116 0
-104 -122 0
-104 -117 0
-103 -133 0
-103 -124 0
-103 -117 0
-103 -115 0
-103 -113 0
-102 -133 0
-102 -120 0
-102 -109 0
-102 -108 0
-102 -103 0
-101 -122 0
-101 -113 0
-101 -111 0
-101 -110 0
-101 -104 0
-100 -123 0
-100 -113 0
-100 -111 0
-100 -110 0
-100 -101 0
-99 -119 0
-99 -113 0
-99 -111 0
-99 -110 0
-99 -101 0
-99 -100 0
-98 -130 0
-98 -124 0
-98 -117 0
-98 -115 0
-98 -114 0
-98 -113 0
-98 -109 0
-98 -106 0
-98 -103 0
-97 -132 0
-97 -121 0
-97 -113 0
-97 -111 0
-97 -110 0
-97 -101 0
-97 -100 0
-97 -99 0
-96 -128 0
-96 -124 0
-96 -120 0
-96 -119 0
-96 -117 0
-96 -115 0
-96 -113 0
-96 -103 0
-96 -98 0
-95 -129 0
-95 -128 0
-95 -110 0
-95 -105 0
-94 -131 0
-94 -125 0
-94 -123 0
-94 -121 0
-94 -114 0
-93 -132 0
-93 -129 0
-93 -124 0
-93 -122 0
-93 -117 0
-93 -115 0
-93 -113 0
-93 -103 0
-93 -98 0
-93 -96 0
-92 -119 0
-92 -105 0
-92 -99 0
-92 -95 0
-91 -133 0
-91 -130 0
-91 -118 0
-91 -116 0
-91 -105 0
-91 -103 0
-91 -102 0
-90 -132 0
-90 -129 0
-90 -122 0
-90 -119 0
-90 -99 0
-90 -93 0
-90 -92 0
-89 -122 0
-89 -105 0
-89 -104 0
-89 -101 0
-89 -95 0
-89 -92 0
-88 -133 0
-88 -128 0
-88 -126 0
-88 -125 0
-88 -120 0
-88 -119 0
-88 -112 0
-88 -96 0
-87 -123 0
-87 -105 0
-87 -100 0
-87 -95 0
-87 -92 0
-87 -89 0
-86 -132 0
-86 -128 0
-86 -121 0
-86 -120 0
-86 -119 0
-86 -97 0
-86 -96 0
-86 -88 0
-85 -133 0
-85 -132 0
-85 -121 0
-85 -103 0
-85 -102 0
-85 -97 0
-85 -91 0
-85 -86 0
-84 -127 0
-84 -124 0
-84 -116 0
-84 -107 0
-83 -131 0
-83 -125 0
-83 -123 0
-83 -121 0
-83 -119 0
-83 -99 0
-83 -94 0
-83 -92 0
-83 -90 0
-82 -130 0
-82 -122 0
-82 -114 0
-82 -109 0
-82 -106 0
-82 -104 0
-82 -101 0
-82 -98 0
-82 -89 0
-81 -133 0
-81 -119 0
-81 -103 0
-81 -102 0
-81 -99 0
-81 -92 0
-81 -91 0
-81 -90 0
-81 -85 0
-81 -83 0
-80 -131 0
-80 -117 0
-80 -111 0
-80 -107 0
-80 -106 0
-80 -104 0
-79 -124 0
-79 -122 0
-79 -116 0
-79 -107 0
-79 -104 0
-79 -101 0
-79 -89 0
-79 -84 0
-79 -82 0
-78 -127 0
-78 -119 0
-78 -115 0
-78 -112 0
-78 -108 0
-78 -99 0
-78 -92 0
-78 -90 0
-78 -83 0
-78 -81 0
-77 -124 0
-77 -120 0
-77 -116 0
-77 -109 0
-77 -108 0
-77 -107 0
-77 -102 0
-77 -84 0
-77 -79 0
-76 -133 0
-76 -126 0
-76 -125 0
-76 -113 0
-76 -112 0
-76 -111 0
-76 -110 0
-76 -101 0
-76 -100 0
-76 -99 0
-76 -97 0
-76 -88 0
-75 -133 0
-75 -122 0
-75 -104 0
-75 -103 0
-75 -102 0
-75 -101 0
-75 -91 0
-75 -89 0
-75 -85 0
-75 -82 0
-75 -81 0
-75 -79 0
-74 -126 0
-74 -123 0
-74 -118 0
-74 -100 0
-74 -87 0
-73 -131 0
-73 -111 0
-73 -107 0
-73 -106 0
-73 -105 0
-73 -95 0
-73 -92 0
-73 -89 0
-73 -87 0
-73 -80 0
-72 -132 0
-72 -129 0
-72 -122 0
-72 -120 0
-72 -109 0
-72 -108 0
-72 -102 0
-72 -93 0
-72 -90 0
-72 -77 0
-71 -117 0
-71 -114 0
-71 -104 0
-71 -94 0
-71 -80 0
-70 -129 0
-70 -128 0
-70 -127 0
-70 -115 0
-70 -112 0
-70 -110 0
-70 -108 0
-70 -95 0
-70 -78 0
-69 -130 0
-69 -128 0
-69 -120 0
-69 -119 0
-69 -118 0
-69 -116 0
-69 -105 0
-69 -96 0
-69 -91 0
-69 -88 0
-69 -86 0
-68 -120 0
-68 -117 0
-68 -109 0
-68 -108 0
-68 -104 0
-68 -102 0
-68 -80 0
-68 -77 0
-68 -72 0
-68 -71 0
-67 -130 0
-67 -118 0
-67 -117 0
-67 -116 0
-67 -105 0
-67 -104 0
-67 -91 0
-67 -80 0
-67 -71 0
-67 -69 0
-67 -68 0
-66 -114 0
-66 -113 0
-66 -111 0
-66 -110 0
-66 -101 0
-66 -100 0
-66 -99 0
-66 -97 0
-66 -94 0
-66 -76 0
-66 -71 0
-65 -131 0
-65 -125 0
-65 -123 0
-65 -122 0
-65 -121 0
-65 -104 0
-65 -101 0
-65 -94 0
-65 -89 0
-65 -83 0
-65 -82 0
-65 -79 0
-65 -75 0
-64 -131 0
-64 -127 0
-64 -125 0
-64 -123 0
-64 -121 0
-64 -94 0
-64 -84 0
-64 -83 0
-64 -65 0
-63 -132 0
-63 -131 0
-63 -129 0
-63 -122 0
-63 -111 0
-63 -107 0
-63 -106 0
-63 -93 0
-63 -90 0
-63 -80 0
-63 -73 0
-63 -72 0
-62 -131 0
-62 -125 0
-62 -124 0
-62 -123 0
-62 -121 0
-62 -117 0
-62 -115 0
-62 -113 0
-62 -103 0
-62 -98 0
-62 -96 0
-62 -94 0
-62 -93 0
-62 -83 0
-62 -65 0
-62 -64 0
-61 -131 0
-61 -129 0
-61 -128 0
-61 -125 0
-61 -123 0
-61 -121 0
-61 -110 0
-61 -95 0
-61 -94 0
-61 -83 0
-61 -70 0
-61 -65 0
-61 -64 0
-61 -62 0
-60 -127 0
-60 -123 0
-60 -115 0
-60 -112 0
-60 -108 0
-60 -100 0
-60 -87 0
-60 -78 0
-60 -74 0
-60 -70 0
-59 -133 0
-59 -126 0
-59 -125 0
-59 -112 0
-59 -105 0
-59 -95 0
-59 -92 0
-59 -89 0
-59 -88 0
-59 -87 0
-59 -76 0
-59 -73 0
-58 -133 0
-58 -123 0
-58 -103 0
-58 -102 0
-58 -100 0
-58 -91 0
-58 -87 0
-58 -85 0
-58 -81 0
-58 -75 0
-58 -74 0
-58 -60 0
-57 -133 0
-57 -130 0
-57 -126 0
-57 -125 0
-57 -114 0
-57 -112 0
-57 -109 0
-57 -106 0
-57 -98 0
-57 -88 0
-57 -82 0
-57 -76 0
-57 -59 0
-56 -130 0
-56 -123 0
-56 -114 0
-56 -109 0
-56 -106 0
-56 -100 0
-56 -98 0
-56 -87 0
-56 -82 0
-56 -74 0
-56 -60 0
-56 -58 0
-56 -57 0
-55 -130 0
-55 -119 0
-55 -114 0
-55 -109 0
-55 -106 0
-55 -99 0
-55 -98 0
-55 -92 0
-55 -90 0
-55 -83 0
-55 -82 0
-55 -81 0
-55 -78 0
-55 -57 0
-55 -56 0
-54 -131 0
-54 -128 0
-54 -120 0
-54 -119 0
-54 -111 0
-54 -107 0
-54 -106 0
-54 -96 0
-54 -88 0
-54 -86 0
-54 -80 0
-54 -73 0
-54 -69 0
-54 -63 0
-53 -133 0
-53 -129 0
-53 -128 0
-53 -110 0
-53 -103 0
-53 -102 0
-53 -95 0
-53 -91 0
-53 -85 0
-53 -81 0
-53 -75 0
-53 -70 0
-53 -61 0
-53 -58 0
-52 -128 0
-52 -120 0
-52 -119 0
-52 -114 0
-52 -96 0
-52 -94 0
-52 -88 0
-52 -86 0
-52 -71 0
-52 -69 0
-52 -66 0
-52 -54 0
-51 -129 0
-51 -128 0
-51 -126 0
-51 -118 0
-51 -110 0
-51 -95 0
-51 -74 0
-51 -70 0
-51 -61 0
-51 -53 0
-50 -133 0
-50 -131 0
-50 -111 0
-50 -107 0
-50 -106 0
-50 -103 0
-50 -102 0
-50 -91 0
-50 -85 0
-50 -81 0
-50 -80 0
-50 -75 0
-50 -73 0
-50 -63 0
-50 -58 0
-50 -54 0
-50 -53 0
-49 -133 0
-49 -114 0
-49 -103 0
-49 -102 0
-49 -94 0
-49 -91 0
-49 -85 0
-49 -81 0
-49 -75 0
-49 -71 0
-49 -66 0
-49 -58 0
-49 -53 0
-49 -52 0
-49 -50 0
-48 -132 0
-48 -121 0
-48 -117 0
-48 -104 0
-48 -97 0
-48 -86 0
-48 -85 0
-48 -80 0
-48 -71 0
-48 -68 0
-48 -67 0
-47 -130 0
-47 -129 0
-47 -128 0
-47 -114 0
-47 -110 0
-47 -109 0
-47 -106 0
-47 -98 0
-47 -95 0
-47 -82 0
-47 -70 0
-47 -61 0
-47 -57 0
-47 -56 0
-47 -55 0
-47 -53 0
-47 -51 0
-46 -128 0
-46 -123 0
-46 -120 0
-46 -119 0
-46 -100 0
-46 -96 0
-46 -88 0
-46 -87 0
-46 -86 0
-46 -74 0
-46 -69 0
-46 -60 0
-46 -58 0
-46 -56 0
-46 -54 0
-46 -52 0
-45 -126 0
-45 -120 0
-45 -118 0
-45 -109 0
-45 -108 0
-45 -102 0
-45 -77 0
-45 -74 0
-45 -72 0
-45 -68 0
-45 -51 0
-44 -120 0
-44 -109 0
-44 -108 0
-44 -105 0
-44 -102 0
-44 -95 0
-44 -92 0
-44 -89 0
-44 -87 0
-44 -77 0
-44 -73 0
-44 -72 0
-44 -68 0
-44 -59 0
-44 -45 0
-43 -130 0
-43 -127 0
-43 -118 0
-43 -116 0
-43 -115 0
-43 -112 0
-43 -108 0
-43 -105 0
-43 -91 0
-43 -78 0
-43 -70 0
-43 -69 0
-43 -67 0
-43 -60 0
-42 -123 0
-42 -117 0
-42 -104 0
-42 -100 0
-42 -87 0
-42 -80 0
-42 -74 0
-42 -71 0
-42 -68 0
-42 -67 0
-42 -60 0
-42 -58 0
-42 -56 0
-42 -48 0
-42 -46 0
-41 -132 0
-41 -121 0
-41 -105 0
-41 -97 0
-41 -95 0
-41 -92 0
-41 -89 0
-41 -87 0
-41 -86 0
-41 -85 0
-41 -73 0
-41 -59 0
-41 -48 0
-41 -44 0
-40 -131 0
-40 -127 0
-40 -115 0
-40 -112 0
-40 -111 0
-40 -108 0
-40 -107 0
-40 -106 0
-40 -80 0
-40 -78 0
-40 -73 0
-40 -70 0
-40 -63 0
-40 -60 0
-40 -54 0
-40 -50 0
-40 -43 0
-39 -132 0
-39 -129 0
-39 -127 0
-39 -122 0
-39 -93 0
-39 -90 0
-39 -84 0
-39 -72 0
-39 -64 0
-39 -63 0
-38 -132 0
-38 -130 0
-38 -121 0
-38 -114 0
-38 -109 0
-38 -106 0
-38 -98 0
-38 -97 0
-38 -86 0
-38 -85 0
-38 -82 0
-38 -57 0
-38 -56 0
-38 -55 0
-38 -48 0
-38 -47 0
-38 -41 0
-37 -128 0
-37 -127 0
-37 -120 0
-37 -119 0
-37 -96 0
-37 -88 0
-37 -86 0
-37 -84 0
-37 -69 0
-37 -64 0
-37 -54 0
-37 -52 0
-37 -46 0
-37 -39 0
-36 -132 0
-36 -130 0
-36 -129 0
-36 -122 0
-36 -118 0
-36 -116 0
-36 -105 0
-36 -93 0
-36 -91 0
-36 -90 0
-36 -72 0
-36 -69 0
-36 -67 0
-36 -63 0
-36 -43 0
-36 -39 0
-35 -126 0
-35 -119 0
-35 -118 0
-35 -99 0
-35 -92 0
-35 -90 0
-35 -83 0
-35 -81 0
-35 -78 0
-35 -74 0
-35 -55 0
-35 -51 0
-35 -45 0
-34 -132 0
-34 -124 0
-34 -121 0
-34 -116 0
-34 -107 0
-34 -97 0
-34 -86 0
-34 -85 0
-34 -84 0
-34 -79 0
-34 -77 0
-34 -48 0
-34 -41 0
-34 -38 0
-33 -127 0
-33 -115 0
-33 -114 0
-33 -112 0
-33 -108 0
-33 -94 0
-33 -78 0
-33 -71 0
-33 -70 0
-33 -66 0
-33 -60 0
-33 -52 0
-33 -49 0
-33 -43 0
-33 -40 0
-32 -126 0
-32 -122 0
-32 -118 0
-32 -104 0
-32 -101 0
-32 -89 0
-32 -82 0
-32 -79 0
-32 -75 0
-32 -74 0
-32 -65 0
-32 -51 0
-32 -45 0
-32 -35 0
-31 -130 0
-31 -118 0
-31 -116 0
-31 -113 0
-31 -111 0
-31 -110 0
-31 -105 0
-31 -101 0
-31 -100 0
-31 -99 0
-31 -97 0
-31 -91 0
-31 -76 0
-31 -69 0
-31 -67 0
-31 -66 0
-31 -43 0
-31 -36 0
-30 -132 0
-30 -126 0
-30 -121 0
-30 -118 0
-30 -97 0
-30 -86 0
-30 -85 0
-30 -74 0
-30 -51 0
-30 -48 0
-30 -45 0
-30 -41 0
-30 -38 0
-30 -35 0
-30 -34 0
-30 -32 0
-29 -124 0
-29 -123 0
-29 -116 0
-29 -107 0
-29 -100 0
-29 -87 0
-29 -84 0
-29 -79 0
-29 -77 0
-29 -74 0
-29 -60 0
-29 -58 0
-29 -56 0
-29 -46 0
-29 -42 0
-29 -34 0
-28 -131 0
-28 -130 0
-28 -125 0
-28 -123 0
-28 -121 0
-28 -118 0
-28 -116 0
-28 -105 0
-28 -94 0
-28 -91 0
-28 -83 0
-28 -69 0
-28 -67 0
-28 -65 0
-28 -64 0
-28 -62 0
-28 -61 0
-28 -43 0
-28 -36 0
-28 -31 0
-27 -131 0
-27 -125 0
-27 -123 0
-27 -121 0
-27 -120 0
-27 -109 0
-27 -108 0
-27 -102 0
-27 -94 0
-27 -83 0
-27 -77 0
-27 -72 0
-27 -68 0
-27 -65 0
-27 -64 0
-27 -62 0
-27 -61 0
-27 -45 0
-27 -44 0
-27 -28 0
-26 -124 0
-26 -119 0
-26 -116 0
-26 -107 0
-26 -99 0
-26 -92 0
-26 -90 0
-26 -84 0
-26 -83 0
-26 -81 0
-26 -79 0
-26 -78 0
-26 -77 0
-26 -55 0
-26 -35 0
-26 -34 0
-26 -29 0
-25 -127 0
-25 -117 0
-25 -104 0
-25 -84 0
-25 -80 0
-25 -71 0
-25 -68 0
-25 -67 0
-25 -64 0
-25 -48 0
-25 -42 0
-25 -39 0
-25 -37 0
-24 -127 0
-24 -105 0
-24 -95 0
-24 -92 0
-24 -89 0
-24 -87 0
-24 -84 0
-24 -73 0
-24 -64 0
-24 -59 0
-24 -44 0
-24 -41 0
-24 -39 0
-24 -37 0
-24 -25 0
-23 -127 0
-23 -126 0
-23 -118 0
-23 -84 0
-23 -74 0
-23 -64 0
-23 -51 0
-23 -45 0
-23 -39 0
-23 -37 0
-23 -35 0
-23 -32 0
-23 -30 0
-23 -25 0
-23 -24 0
-22 -133 0
-22 -127 0
-22 -103 0
-22 -102 0
-22 -91 0
-22 -85 0
-22 -84 0
-22 -81 0
-22 -75 0
-22 -64 0
-22 -58 0
-22 -53 0
-22 -50 0
-22 -49 0
-22 -39 0
-22 -37 0
-22 -25 0
-22 -24 0
-22 -23 0
-21 -128 0
-21 -122 0
-21 -120 0
-21 -119 0
-21 -104 0
-21 -101 0
-21 -96 0
-21 -89 0
-21 -88 0
-21 -86 0
-21 -82 0
-21 -79 0
-21 -75 0
-21 -69 0
-21 -65 0
-21 -54 0
-21 -52 0
-21 -46 0
-21 -37 0
-21 -32 0
-20 -130 0
-20 -127 0
-20 -114 0
-20 -109 0
-20 -106 0
-20 -98 0
-20 -84 0
-20 -82 0
-20 -64 0
-20 -57 0
-20 -56 0
-20 -55 0
-20 -47 0
-20 -39 0
-20 -38 0
-20 -37 0
-20 -25 0
-20 -24 0
-20 -23 0
-20 -22 0
-19 -127 0
-19 -122 0
-19 -115 0
-19 -112 0
-19 -108 0
-19 -104 0
-19 -101 0
-19 -89 0
-19 -82 0
-19 -79 0
-19 -78 0
-19 -75 0
-19 -70 0
-19 -65 0
-19 -60 0
-19 -43 0
-19 -40 0
-19 -33 0
-19 -32 0
-19 -21 0
-18 -126 0
-18 -124 0
-18 -118 0
-18 -117 0
-18 -115 0
-18 -113 0
-18 -103 0
-18 -98 0
-18 -96 0
-18 -93 0
-18 -74 0
-18 -62 0
-18 -51 0
-18 -45 0
-18 -35 0
-18 -32 0
-18 -30 0
-18 -23 0
-17 -124 0
-17 -117 0
-17 -115 0
-17 -113 0
-17 -105 0
-17 -103 0
-17 -98 0
-17 -96 0
-17 -95 0
-17 -93 0
-17 -92 0
-17 -89 0
-17 -87 0
-17 -73 0
-17 -62 0
-17 -59 0
-17 -44 0
-17 -41 0
-17 -24 0
-17 -18 0
-16 -114 0
-16 -105 0
-16 -95 0
-16 -94 0
-16 -92 0
-16 -89 0
-16 -87 0
-16 -73 0
-16 -71 0
-16 -66 0
-16 -59 0
-16 -52 0
-16 -49 0
-16 -44 0
-16 -41 0
-16 -33 0
-16 -24 0
-16 -17 0
-15 -131 0
-15 -126 0
-15 -118 0
-15 -111 0
-15 -107 0
-15 -106 0
-15 -80 0
-15 -74 0
-15 -73 0
-15 -63 0
-15 -54 0
-15 -51 0
-15 -50 0
-15 -45 0
-15 -40 0
-15 -35 0
-15 -32 0
-15 -30 0
-15 -23 0
-15 -18 0
-14 -119 0
-14 -117 0
-14 -104 0
-14 -99 0
-14 -92 0
-14 -90 0
-14 -83 0
-14 -81 0
-14 -80 0
-14 -78 0
-14 -71 0
-14 -68 0
-14 -67 0
-14 -55 0
-14 -48 0
-14 -42 0
-14 -35 0
-14 -26 0
-14 -25 0
-13 -127 0
-13 -113 0
-13 -111 0
-13 -110 0
-13 -101 0
-13 -100 0
-13 -99 0
-13 -97 0
-13 -84 0
-13 -76 0
-13 -66 0
-13 -64 0
-13 -39 0
-13 -37 0
-13 -31 0
-13 -25 0
-13 -24 0
-13 -23 0
-13 -22 0
-13 -20 0
-12 -124 0
-12 -116 0
-12 -114 0
-12 -107 0
-12 -94 0
-12 -84 0
-12 -79 0
-12 -77 0
-12 -71 0
-12 -66 0
-12 -52 0
-12 -49 0
-12 -34 0
-12 -33 0
-12 -29 0
-12 -26 0
-12 -16 0
-11 -133 0
-11 -126 0
-11 -125 0
-11 -117 0
-11 -112 0
-11 -104 0
-11 -88 0
-11 -80 0
-11 -76 0
-11 -71 0
-11 -68 0
-11 -67 0
-11 -59 0
-11 -57 0
-11 -48 0
-11 -42 0
-11 -25 0
-11 -14 0
-10 -133 0
-10 -132 0
-10 -129 0
-10 -126 0
-10 -125 0
-10 -122 0
-10 -112 0
-10 -93 0
-10 -90 0
-10 -88 0
-10 -76 0
-10 -72 0
-10 -63 0
-10 -59 0
-10 -57 0
-10 -39 0
-10 -36 0
-10 -11 0
-8 -132 0
-8 -129 0
-8 -122 0
-8 -114 0
-8 -94 0
-8 -93 0
-8 -90 0
-8 -72 0
-8 -71 0
-8 -66 0
-8 -63 0
-8 -52 0
-8 -49 0
-8 -39 0
-8 -36 0
-8 -33 0
-8 -16 0
-8 -12 0
-8 -10 0
-7 -133 0
-7 -126 0
-7 -125 0
-7 -124 0
-7 -116 0
-7 -112 0
-7 -107 0
-7 -88 0
-7 -84 0
-7 -79 0
-7 -77 0
-7 -76 0
-7 -59 0
-7 -57 0
-7 -34 0
-7 -29 0
-7 -26 0
-7 -12 0
-7 -11 0
-7 -10 0
-6 -132 0
-6 -129 0
-6 -123 0
-6 -122 0
-6 -100 0
-6 -93 0
-6 -90 0
-6 -87 0
-6 -74 0
-6 -72 0
-6 -63 0
-6 -60 0
-6 -58 0
-6 -56 0
-6 -46 0
-6 -42 0
-6 -39 0
-6 -36 0
-6 -29 0
-6 -10 0
-6 -8 0
-5 -120 0
-5 -113 0
-5 -111 0
-5 -110 0
-5 -109 0
-5 -108 0
-5 -102 0
-5 -101 0
-5 -100 0
-5 -99 0
-5 -97 0
-5 -77 0
-5 -76 0
-5 -72 0
-5 -68 0
-5 -66 0
-5 -45 0
-5 -44 0
-5 -31 0
-5 -27 0
-5 -13 0
-4 -129 0
-4 -128 0
-4 -117 0
-4 -110 0
-4 -104 0
-4 -95 0
-4 -80 0
-4 -71 0
-4 -70 0
-4 -68 0
-4 -67 0
-4 -61 0
-4 -53 0
-4 -51 0
-4 -48 0
-4 -47 0
-4 -42 0
-4 -25 0
-4 -14 0
-4 -11 0
-3 -129 0
-3 -128 0
-3 -124 0
-3 -116 0
-3 -110 0
-3 -107 0
-3 -95 0
-3 -84 0
-3 -79 0
-3 -77 0
-3 -70 0
-3 -61 0
-3 -53 0
-3 -51 0
-3 -47 0
-3 -34 0
-3 -29 0
-3 -26 0
-3 -12 0
-3 -7 0
-3 -4 0
-2 -126 0
-2 -118 0
-2 -114 0
-2 -94 0
-2 -74 0
-2 -71 0
-2 -66 0
-2 -52 0
-2 -51 0
-2 -49 0
-2 -45 0
-2 -35 0
-2 -33 0
-2 -32 0
-2 -30 0
-2 -23 0
-2 -18 0
-2 -16 0
-2 -15 0
-2 -12 0
-2 -8 0
-1 -132 0
-1 -127 0
-1 -121 0
-1 -115 0
-1 -112 0
-1 -108 0
-1 -97 0
-1 -86 0
-1 -85 0
-1 -78 0
-1 -70 0
-1 -60 0
-1 -48 0
-1 -43 0
-1 -41 0
-1 -40 0
-1 -38 0
-1 -34 0
-1 -33 0
-1 -30 0
-1 -19 0
1 30 34 38 41 48 85 86 97 121 132 0
2 8 12 16 33 49 52 66 71 94 114 0
3 4 47 51 53 61 70 95 110 128 129 0
5 27 44 45 68 72 77 102 108 109 120 0
7 10 11 57 59 76 88 112 125 126 133 0
13 20 22 23 24 25 37 39 64 84 127 0
14 26 35 55 78 81 83 90 92 99 119 0
15 40 50 54 63 73 80 106 107 111 131 0
17 18 62 93 96 98 103 113 115 117 124 0
19 21 32 65 75 79 82 89 101 104 122 0
28 31 36 43 67 69 91 105 116 118 130 0
6 9 29 42 46 56 58 60 74 87 100 123 0
