p cnf 73 549
-70 -72 0
-69 -71 0
-68 -73 0
-68 -69 0
-67 -71 0
-67 -69 0
-66 -67 0
-65 -72 0
-65 -71 0
-65 -70 0
-65 -69 0
-65 -67 0
-64 -67 0
-64 -66 0
-63 -73 0
-62 -63 0
-61 -71 0
-61 -69 0
-61 -67 0
-61 -65 0
-60 -71 0
-59 -70 0
-58 -70 0
-58 -62 0
-58 -59 0
-57 -72 0
-57 -70 0
-57 -65 0
-56 -62 0
-56 -58 0
-56 -57 0
-55 -73 0
-55 -68 0
-55 -62 0
-55 -58 0
-55 -56 0
-54 -73 0
-54 -72 0
-54 -70 0
-54 -68 0
-54 -65 0
-54 -57 0
-54 -55 0
-53 -72 0
-53 -70 0
-53 -66 0
-53 -65 0
-53 -57 0
-53 -54 0
-52 -70 0
-52 -61 0
-52 -59 0
-52 -58 0
-51 -67 0
-51 -66 0
-51 -64 0
-51 -57 0
-51 -56 0
-50 -73 0
-50 -68 0
-50 -61 0
-50 -55 0
-50 -54 0
-50 -52 0
-49 -67 0
-49 -66 0
-49 -64 0
-49 -63 0
-49 -62 0
-49 -51 0
-48 -71 0
-48 -69 0
-48 -67 0
-48 -65 0
-48 -62 0
-48 -61 0
-48 -58 0
-48 -56 0
-48 -55 0
-47 -73 0
-47 -71 0
-47 -68 0
-47 -60 0
-47 -55 0
-47 -54 0
-47 -50 0
-46 -59 0
-46 -57 0
-46 -56 0
-46 -51 0
-45 -63 0
-45 -62 0
-45 -61 0
-45 -52 0
-45 -50 0
-45 -49 0
-44 -71 0
-44 -70 0
-44 -60 0
-44 -59 0
-44 -58 0
-44 -52 0
-44 -47 0
-43 -71 0
-43 -63 0
-43 -62 0
-43 -60 0
-43 -49 0
-43 -47 0
-43 -45 0
-43 -44 0
-42 -71 0
-42 -66 0
-42 -60 0
-42 -53 0
-42 -47 0
-42 -44 0
-42 -43 0
-41 -63 0
-41 -62 0
-41 -59 0
-41 -49 0
-41 -46 0
-41 -45 0
-41 -43 0
-40 -69 0
-40 -68 0
-40 -57 0
-40 -56 0
-40 -51 0
-40 -46 0
-38 -73 0
-38 -63 0
-38 -60 0
-37 -64 0
-37 -59 0
-37 -46 0
-37 -41 0
-36 -66 0
-36 -62 0
-36 -58 0
-36 -56 0
-36 -55 0
-36 -53 0
-36 -48 0
-36 -42 0
-35 -64 0
-35 -61 0
-35 -52 0
-35 -50 0
-35 -45 0
-35 -37 0
-34 -70 0
-34 -67 0
-34 -66 0
-34 -64 0
-34 -59 0
-34 -58 0
-34 -52 0
-34 -51 0
-34 -49 0
-34 -44 0
-33 -73 0
-33 -68 0
-33 -67 0
-33 -66 0
-33 -64 0
-33 -55 0
-33 -54 0
-33 -51 0
-33 -50 0
-33 -49 0
-33 -47 0
-33 -34 0
-32 -73 0
-32 -68 0
-32 -59 0
-32 -55 0
-32 -54 0
-32 -50 0
-32 -47 0
-32 -46 0
-32 -41 0
-32 -37 0
-32 -33 0
-31 -72 0
-31 -67 0
-31 -66 0
-31 -64 0
-31 -51 0
-31 -49 0
-31 -34 0
-31 -33 0
-30 -69 0
-30 -68 0
-30 -63 0
-30 -62 0
-30 -49 0
-30 -45 0
-30 -43 0
-30 -41 0
-30 -40 0
-29 -66 0
-29 -61 0
-29 -53 0
-29 -52 0
-29 -50 0
-29 -45 0
-29 -42 0
-29 -36 0
-29 -35 0
-28 -72 0
-28 -71 0
-28 -60 0
-28 -47 0
-28 -44 0
-28 -43 0
-28 -42 0
-28 -31 0
-27 -72 0
-27 -70 0
-27 -65 0
-27 -63 0
-27 -62 0
-27 -57 0
-27 -54 0
-27 -53 0
-27 -49 0
-27 -45 0
-27 -43 0
-27 -41 0
-27 -30 0
-26 -70 0
-26 -69 0
-26 -68 0
-26 -59 0
-26 -58 0
-26 -52 0
-26 -44 0
-26 -40 0
-26 -34 0
-26 -30 0
-25 -73 0
-25 -72 0
-25 -63 0
-25 -38 0
-25 -31 0
-25 -28 0
-24 -72 0
-24 -70 0
-24 -65 0
-24 -64 0
-24 -57 0
-24 -54 0
-24 -53 0
-24 -37 0
-24 -35 0
-24 -27 0
-23 -69 0
-23 -68 0
-23 -66 0
-23 -53 0
-23 -42 0
-23 -40 0
-23 -36 0
-23 -30 0
-23 -29 0
-23 -26 0
-22 -71 0
-22 -60 0
-22 -57 0
-22 -56 0
-22 -51 0
-22 -47 0
-22 -46 0
-22 -44 0
-22 -43 0
-22 -42 0
-22 -40 0
-22 -28 0
-21 -60 0
-21 -59 0
-21 -46 0
-21 -41 0
-21 -38 0
-21 -37 0
-21 -32 0
-20 -73 0
-20 -71 0
-20 -69 0
-20 -67 0
-20 -65 0
-20 -63 0
-20 -61 0
-20 -48 0
-20 -38 0
-20 -25 0
-19 -72 0
-19 -69 0
-19 -68 0
-19 -40 0
-19 -31 0
-19 -30 0
-19 -28 0
-19 -26 0
-19 -25 0
-19 -23 0
-18 -62 0
-18 -60 0
-18 -58 0
-18 -56 0
-18 -55 0
-18 -48 0
-18 -38 0
-18 -36 0
-18 -21 0
-17 -72 0
-17 -61 0
-17 -52 0
-17 -50 0
-17 -45 0
-17 -35 0
-17 -31 0
-17 -29 0
-17 -28 0
-17 -25 0
-17 -19 0
-16 -61 0
-16 -60 0
-16 -52 0
-16 -50 0
-16 -45 0
-16 -38 0
-16 -35 0
-16 -29 0
-16 -21 0
-16 -18 0
-16 -17 0
-15 -72 0
-15 -62 0
-15 -58 0
-15 -56 0
-15 -55 0
-15 -48 0
-15 -36 0
-15 -31 0
-15 -28 0
-15 -25 0
-15 -19 0
-15 -18 0
-15 -17 0
-14 -73 0
-14 -70 0
-14 -63 0
-14 -59 0
-14 -58 0
-14 -52 0
-14 -44 0
-14 -38 0
-14 -34 0
-14 -26 0
-14 -25 0
-14 -20 0
-13 -73 0
-13 -64 0
-13 -63 0
-13 -38 0
-13 -37 0
-13 -35 0
-13 -25 0
-13 -24 0
-13 -20 0
-13 -14 0
-12 -72 0
-12 -70 0
-12 -65 0
-12 -60 0
-12 -57 0
-12 -54 0
-12 -53 0
-12 -38 0
-12 -27 0
-12 -24 0
-12 -21 0
-12 -18 0
-12 -16 0
-11 -61 0
-11 -57 0
-11 -56 0
-11 -52 0
-11 -51 0
-11 -50 0
-11 -46 0
-11 -45 0
-11 -40 0
-11 -35 0
-11 -29 0
-11 -22 0
-11 -17 0
-11 -16 0
-10 -69 0
-10 -68 0
-10 -60 0
-10 -40 0
-10 -38 0
-10 -30 0
-10 -26 0
-10 -23 0
-10 -21 0
-10 -19 0
-10 -18 0
-10 -16 0
-10 -12 0
-9 -72 0
-9 -59 0
-9 -46 0
-9 -41 0
-9 -37 0
-9 -32 0
-9 -31 0
-9 -28 0
-9 -25 0
-9 -21 0
-9 -19 0
-9 -17 0
-9 -15 0
-8 -64 0
-8 -62 0
-8 -58 0
-8 -56 0
-8 -55 0
-8 -48 0
-8 -37 0
-8 -36 0
-8 -35 0
-8 -24 0
-8 -18 0
-8 -15 0
-8 -13 0
-7 -69 0
-7 -68 0
-7 -64 0
-7 -40 0
-7 -37 0
-7 -35 0
-7 -30 0
-7 -26 0
-7 -24 0
-7 -23 0
-7 -19 0
-7 -13 0
-7 -10 0
-7 -8 0
-6 -71 0
-6 -64 0
-6 -60 0
-6 -47 0
-6 -44 0
-6 -43 0
-6 -42 0
-6 -37 0
-6 -35 0
-6 -28 0
-6 -24 0
-6 -22 0
-6 -13 0
-6 -8 0
-6 -7 0
-5 -67 0
-5 -66 0
-5 -64 0
-5 -60 0
-5 -51 0
-5 -49 0
-5 -38 0
-5 -34 0
-5 -33 0
-5 -31 0
-5 -21 0
-5 -18 0
-5 -16 0
-5 -12 0
-5 -10 0
-4 -73 0
-4 -63 0
-4 -57 0
-4 -56 0
-4 -51 0
-4 -46 0
-4 -40 0
-4 -38 0
-4 -25 0
-4 -22 0
-4 -20 0
-4 -14 0
-4 -13 0
-4 -11 0
-3 -71 0
-3 -69 0
-3 -67 0
-3 -65 0
-3 -61 0
-3 -59 0
-3 -48 0
-3 -46 0
-3 -41 0
-3 -37 0
-3 -32 0
-3 -21 0
-3 -20 0
-3 -9 0
-2 -73 0
-2 -66 0
-2 -63 0
-2 -53 0
-2 -42 0
-2 -38 0
-2 -36 0
-2 -29 0
-2 -25 0
-2 -23 0
-2 -20 0
-2 -14 0
-2 -13 0
-2 -4 0
-1 -66 0
-1 -59 0
-1 -53 0
-1 -46 0
-1 -42 0
-1 -41 0
-1 -37 0
-1 -36 0
-1 -32 0
-1 -29 0
-1 -23 0
-1 -21 0
-1 -9 0
-1 -3 0
-1 -2 0
1 2 23 29 36 42 53 66 0
3 20 48 61 65 67 69 71 0
5 10 12 16 18 21 38 60 0
6 7 8 13 24 35 37 64 0
9 15 17 19 25 28 31 72 0
14 26 34 44 52 58 59 70 0
27 30 41 43 45 49 62 63 0
32 33 47 50 54 55 68 73 0
4 11 22 39 40 46 51 56 57 0
