p cnf 91 775
-90 -91 0
-89 -91 0
-89 -90 0
-87 -91 0
-86 -89 0
-84 -90 0
-84 -88 0
-83 -85 0
-82 -88 0
-82 -84 0
-82 -83 0
-81 -83 0
-81 -82 0
-80 -87 0
-80 -83 0
-80 -82 0
-80 -81 0
-79 -89 0
-79 -86 0
-78 -90 0
-78 -84 0
-77 -79 0
-76 -90 0
-76 -84 0
-76 -81 0
-76 -78 0
-74 -88 0
-74 -78 0
-73 -88 0
-73 -87 0
-73 -80 0
-73 -74 0
-72 -75 0
-71 -88 0
-71 -86 0
-71 -74 0
-71 -73 0
-70 -85 0
-70 -78 0
-70 -74 0
-69 -91 0
-69 -90 0
-69 -89 0
-68 -85 0
-68 -83 0
-68 -77 0
-67 -90 0
-67 -84 0
-67 -79 0
-67 -78 0
-67 -77 0
-67 -76 0
-66 -86 0
-66 -75 0
-66 -72 0
-66 -71 0
-65 -91 0
-65 -87 0
-65 -75 0
-64 -91 0
-64 -87 0
-64 -72 0
-64 -65 0
-63 -89 0
-63 -86 0
-63 -79 0
-63 -72 0
-63 -64 0
-62 -89 0
-62 -86 0
-62 -81 0
-62 -79 0
-62 -76 0
-62 -63 0
-61 -75 0
-61 -69 0
-61 -65 0
-60 -90 0
-60 -87 0
-60 -84 0
-60 -80 0
-60 -78 0
-60 -76 0
-60 -73 0
-60 -67 0
-59 -91 0
-59 -90 0
-59 -89 0
-59 -85 0
-59 -70 0
-59 -69 0
-58 -90 0
-58 -85 0
-58 -84 0
-58 -83 0
-58 -78 0
-58 -76 0
-58 -68 0
-58 -67 0
-58 -60 0
-57 -78 0
-57 -77 0
-57 -74 0
-57 -70 0
-57 -68 0
-56 -85 0
-56 -83 0
-56 -69 0
-56 -68 0
-56 -61 0
-56 -58 0
-55 -88 0
-55 -84 0
-55 -82 0
-55 -69 0
-55 -61 0
-55 -56 0
-54 -88 0
-54 -85 0
-54 -83 0
-54 -74 0
-54 -73 0
-54 -71 0
-54 -68 0
-54 -58 0
-54 -56 0
-53 -81 0
-53 -76 0
-53 -69 0
-53 -62 0
-53 -61 0
-53 -56 0
-53 -55 0
-52 -86 0
-52 -85 0
-52 -71 0
-52 -70 0
-52 -66 0
-52 -59 0
-51 -89 0
-51 -87 0
-51 -86 0
-51 -80 0
-51 -79 0
-51 -73 0
-51 -63 0
-51 -62 0
-51 -60 0
-50 -83 0
-50 -82 0
-50 -81 0
-50 -80 0
-50 -72 0
-50 -64 0
-50 -63 0
-49 -86 0
-49 -83 0
-49 -82 0
-49 -81 0
-49 -80 0
-49 -71 0
-49 -66 0
-49 -52 0
-49 -50 0
-48 -78 0
-48 -74 0
-48 -70 0
-48 -69 0
-48 -61 0
-48 -57 0
-48 -56 0
-48 -55 0
-48 -53 0
-47 -79 0
-47 -77 0
-47 -75 0
-47 -72 0
-47 -67 0
-47 -66 0
-46 -72 0
-46 -69 0
-46 -64 0
-46 -63 0
-46 -61 0
-46 -56 0
-46 -55 0
-46 -53 0
-46 -50 0
-46 -48 0
-45 -90 0
-45 -84 0
-45 -78 0
-45 -76 0
-45 -75 0
-45 -67 0
-45 -65 0
-45 -61 0
-45 -60 0
-45 -58 0
-44 -77 0
-44 -72 0
-44 -68 0
-44 -64 0
-44 -63 0
-44 -57 0
-44 -50 0
-44 -46 0
-43 -91 0
-43 -87 0
-43 -79 0
-43 -77 0
-43 -67 0
-43 -65 0
-43 -64 0
-43 -47 0
-42 -91 0
-42 -90 0
-42 -89 0
-42 -83 0
-42 -82 0
-42 -81 0
-42 -80 0
-42 -69 0
-42 -59 0
-42 -50 0
-42 -49 0
-41 -77 0
-41 -75 0
-41 -68 0
-41 -65 0
-41 -61 0
-41 -57 0
-41 -45 0
-41 -44 0
-40 -89 0
-40 -86 0
-40 -79 0
-40 -75 0
-40 -65 0
-40 -63 0
-40 -62 0
-40 -61 0
-40 -51 0
-40 -45 0
-40 -41 0
-39 -85 0
-39 -83 0
-39 -75 0
-39 -72 0
-39 -68 0
-39 -66 0
-39 -58 0
-39 -56 0
-39 -54 0
-39 -47 0
-38 -85 0
-38 -81 0
-38 -76 0
-38 -70 0
-38 -62 0
-38 -59 0
-38 -53 0
-38 -52 0
-37 -91 0
-37 -90 0
-37 -89 0
-37 -77 0
-37 -69 0
-37 -68 0
-37 -59 0
-37 -57 0
-37 -44 0
-37 -42 0
-37 -41 0
-36 -79 0
-36 -77 0
-36 -69 0
-36 -67 0
-36 -61 0
-36 -56 0
-36 -55 0
-36 -53 0
-36 -48 0
-36 -47 0
-36 -46 0
-36 -43 0
-35 -91 0
-35 -87 0
-35 -78 0
-35 -74 0
-35 -70 0
-35 -65 0
-35 -64 0
-35 -57 0
-35 -48 0
-35 -43 0
-34 -81 0
-34 -77 0
-34 -76 0
-34 -68 0
-34 -62 0
-34 -57 0
-34 -53 0
-34 -44 0
-34 -41 0
-34 -38 0
-34 -37 0
-33 -91 0
-33 -87 0
-33 -86 0
-33 -71 0
-33 -66 0
-33 -65 0
-33 -64 0
-33 -52 0
-33 -49 0
-33 -43 0
-33 -35 0
-32 -81 0
-32 -76 0
-32 -75 0
-32 -72 0
-32 -66 0
-32 -62 0
-32 -53 0
-32 -47 0
-32 -39 0
-32 -38 0
-32 -34 0
-31 -83 0
-31 -82 0
-31 -81 0
-31 -80 0
-31 -79 0
-31 -77 0
-31 -67 0
-31 -50 0
-31 -49 0
-31 -47 0
-31 -43 0
-31 -42 0
-31 -36 0
-30 -91 0
-30 -90 0
-30 -89 0
-30 -88 0
-30 -74 0
-30 -73 0
-30 -71 0
-30 -69 0
-30 -59 0
-30 -54 0
-30 -42 0
-30 -37 0
-29 -87 0
-29 -85 0
-29 -80 0
-29 -73 0
-29 -70 0
-29 -60 0
-29 -59 0
-29 -52 0
-29 -51 0
-29 -38 0
-28 -88 0
-28 -79 0
-28 -77 0
-28 -74 0
-28 -73 0
-28 -71 0
-28 -67 0
-28 -54 0
-28 -47 0
-28 -43 0
-28 -36 0
-28 -31 0
-28 -30 0
-27 -83 0
-27 -82 0
-27 -81 0
-27 -80 0
-27 -78 0
-27 -74 0
-27 -70 0
-27 -57 0
-27 -50 0
-27 -49 0
-27 -48 0
-27 -42 0
-27 -35 0
-27 -31 0
-26 -89 0
-26 -86 0
-26 -79 0
-26 -78 0
-26 -74 0
-26 -70 0
-26 -63 0
-26 -62 0
-26 -57 0
-26 -51 0
-26 -48 0
-26 -40 0
-26 -35 0
-26 -27 0
-25 -91 0
-25 -87 0
-25 -81 0
-25 -76 0
-25 -65 0
-25 -64 0
-25 -62 0
-25 -53 0
-25 -43 0
-25 -38 0
-25 -35 0
-25 -34 0
-25 -33 0
-25 -32 0
-24 -88 0
-24 -85 0
-24 -84 0
-24 -82 0
-24 -70 0
-24 -59 0
-24 -55 0
-24 -52 0
-24 -38 0
-24 -29 0
-23 -91 0
-23 -90 0
-23 -89 0
-23 -75 0
-23 -72 0
-23 -69 0
-23 -66 0
-23 -59 0
-23 -47 0
-23 -42 0
-23 -39 0
-23 -37 0
-23 -32 0
-23 -30 0
-22 -88 0
-22 -81 0
-22 -76 0
-22 -74 0
-22 -73 0
-22 -71 0
-22 -62 0
-22 -54 0
-22 -53 0
-22 -38 0
-22 -34 0
-22 -32 0
-22 -30 0
-22 -28 0
-22 -25 0
-21 -85 0
-21 -75 0
-21 -70 0
-21 -65 0
-21 -61 0
-21 -59 0
-21 -52 0
-21 -45 0
-21 -41 0
-21 -40 0
-21 -38 0
-21 -29 0
-21 -24 0
-20 -88 0
-20 -74 0
-20 -73 0
-20 -72 0
-20 -71 0
-20 -64 0
-20 -63 0
-20 -54 0
-20 -50 0
-20 -46 0
-20 -44 0
-20 -30 0
-20 -28 0
-20 -22 0
-19 -83 0
-19 -82 0
-19 -81 0
-19 -80 0
-19 -75 0
-19 -65 0
-19 -61 0
-19 -50 0
-19 -49 0
-19 -45 0
-19 -42 0
-19 -41 0
-19 -40 0
-19 -31 0
-19 -27 0
-19 -21 0
-18 -78 0
-18 -75 0
-18 -74 0
-18 -72 0
-18 -70 0
-18 -66 0
-18 -57 0
-18 -48 0
-18 -47 0
-18 -39 0
-18 -35 0
-18 -32 0
-18 -27 0
-18 -26 0
-18 -23 0
-17 -91 0
-17 -88 0
-17 -87 0
-17 -84 0
-17 -82 0
-17 -65 0
-17 -64 0
-17 -55 0
-17 -43 0
-17 -35 0
-17 -33 0
-17 -25 0
-17 -24 0
-16 -88 0
-16 -75 0
-16 -74 0
-16 -73 0
-16 -71 0
-16 -65 0
-16 -61 0
-16 -54 0
-16 -45 0
-16 -41 0
-16 -40 0
-16 -30 0
-16 -28 0
-16 -22 0
-16 -21 0
-16 -20 0
-16 -19 0
-15 -88 0
-15 -84 0
-15 -82 0
-15 -75 0
-15 -72 0
-15 -66 0
-15 -55 0
-15 -47 0
-15 -39 0
-15 -32 0
-15 -24 0
-15 -23 0
-15 -18 0
-15 -17 0
-14 -85 0
-14 -72 0
-14 -70 0
-14 -64 0
-14 -63 0
-14 -59 0
-14 -52 0
-14 -50 0
-14 -46 0
-14 -44 0
-14 -38 0
-14 -29 0
-14 -24 0
-14 -21 0
-14 -20 0
-13 -89 0
-13 -86 0
-13 -85 0
-13 -83 0
-13 -79 0
-13 -68 0
-13 -63 0
-13 -62 0
-13 -58 0
-13 -56 0
-13 -54 0
-13 -51 0
-13 -40 0
-13 -39 0
-13 -26 0
-12 -86 0
-12 -77 0
-12 -71 0
-12 -68 0
-12 -66 0
-12 -57 0
-12 -52 0
-12 -49 0
-12 -44 0
-12 -41 0
-12 -37 0
-12 -34 0
-12 -33 0
-11 -89 0
-11 -88 0
-11 -86 0
-11 -84 0
-11 -82 0
-11 -79 0
-11 -63 0
-11 -62 0
-11 -55 0
-11 -51 0
-11 -40 0
-11 -26 0
-11 -24 0
-11 -17 0
-11 -15 0
-11 -13 0
-10 -90 0
-10 -84 0
-10 -78 0
-10 -76 0
-10 -72 0
-10 -67 0
-10 -64 0
-10 -63 0
-10 -60 0
-10 -58 0
-10 -50 0
-10 -46 0
-10 -45 0
-10 -44 0
-10 -20 0
-10 -14 0
-9 -87 0
-9 -80 0
-9 -75 0
-9 -73 0
-9 -72 0
-9 -66 0
-9 -60 0
-9 -51 0
-9 -47 0
-9 -39 0
-9 -32 0
-9 -29 0
-9 -23 0
-9 -18 0
-9 -15 0
-8 -86 0
-8 -71 0
-8 -69 0
-8 -66 0
-8 -61 0
-8 -56 0
-8 -55 0
-8 -53 0
-8 -52 0
-8 -49 0
-8 -48 0
-8 -46 0
-8 -36 0
-8 -33 0
-8 -12 0
-7 -91 0
-7 -87 0
-7 -85 0
-7 -83 0
-7 -68 0
-7 -65 0
-7 -64 0
-7 -58 0
-7 -56 0
-7 -54 0
-7 -43 0
-7 -39 0
-7 -35 0
-7 -33 0
-7 -25 0
-7 -17 0
-7 -13 0
-6 -88 0
-6 -84 0
-6 -82 0
-6 -77 0
-6 -68 0
-6 -57 0
-6 -55 0
-6 -44 0
-6 -41 0
-6 -37 0
-6 -34 0
-6 -24 0
-6 -17 0
-6 -15 0
-6 -12 0
-6 -11 0
-4 -87 0
-4 -80 0
-4 -73 0
-4 -69 0
-4 -61 0
-4 -60 0
-4 -56 0
-4 -55 0
-4 -53 0
-4 -51 0
-4 -48 0
-4 -46 0
-4 -36 0
-4 -29 0
-4 -9 0
-4 -8 0
-3 -85 0
-3 -79 0
-3 -77 0
-3 -70 0
-3 -67 0
-3 -59 0
-3 -52 0
-3 -47 0
-3 -43 0
-3 -38 0
-3 -36 0
-3 -31 0
-3 -29 0
-3 -28 0
-3 -24 0
-3 -21 0
-3 -14 0
-2 -90 0
-2 -86 0
-2 -84 0
-2 -78 0
-2 -76 0
-2 -71 0
-2 -67 0
-2 -66 0
-2 -60 0
-2 -58 0
-2 -52 0
-2 -49 0
-2 -45 0
-2 -33 0
-2 -12 0
-2 -10 0
-2 -8 0
-1 -87 0
-1 -80 0
-1 -77 0
-1 -73 0
-1 -68 0
-1 -60 0
-1 -57 0
-1 -51 0
-1 -44 0
-1 -41 0
-1 -37 0
-1 -34 0
-1 -29 0
-1 -12 0
-1 -9 0
-1 -6 0
-1 -4 0
1 4 9 29 51 60 73 80 87 0
2 8 12 33 49 52 66 71 86 0
3 28 31 36 43 47 67 77 79 0
6 11 15 17 24 55 82 84 88 0
7 13 39 54 56 58 68 83 85 0
10 14 20 44 46 50 63 64 72 0
16 19 21 40 41 45 61 65 75 0
18 26 27 35 48 57 70 74 78 0
22 25 32 34 38 53 62 76 81 0
5 23 30 37 42 59 69 89 90 91 0
