p cnf 31 141
-29 -31 0
-26 -31 0
-26 -28 0
-25 -30 0
-23 -30 0
-22 -28 0
-22 -24 0
-21 -31 0
-21 -30 0
-21 -26 0
-21 -23 0
-20 -29 0
-20 -25 0
-19 -25 0
-19 -24 0
-19 -20 0
-18 -29 0
-18 -28 0
-18 -26 0
-18 -20 0
-17 -28 0
-17 -26 0
-17 -24 0
-17 -19 0
-17 -18 0
-16 -31 0
-16 -26 0
-16 -24 0
-16 -22 0
-16 -21 0
-15 -30 0
-15 -28 0
-15 -26 0
-15 -25 0
-15 -18 0
-15 -17 0
-14 -31 0
-14 -29 0
-14 -28 0
-14 -22 0
-13 -28 0
-13 -25 0
-13 -22 0
-13 -20 0
-13 -19 0
-13 -14 0
-12 -29 0
-12 -24 0
-12 -22 0
-12 -20 0
-12 -18 0
-12 -16 0
-11 -30 0
-11 -24 0
-11 -23 0
-11 -21 0
-11 -19 0
-11 -17 0
-10 -31 0
-10 -29 0
-10 -23 0
-10 -14 0
-9 -30 0
-9 -25 0
-9 -24 0
-9 -22 0
-9 -16 0
-9 -15 0
-9 -12 0
-8 -31 0
-8 -26 0
-8 -25 0
-8 -21 0
-8 -20 0
-8 -19 0
-8 -16 0
-8 -13 0
-7 -28 0
-7 -26 0
-7 -23 0
-7 -18 0
-7 -17 0
-7 -15 0
-7 -10 0
-6 -24 0
-6 -23 0
-6 -22 0
-6 -16 0
-6 -12 0
-6 -10 0
-6 -9 0
-6 -7 0
-5 -30 0
-5 -29 0
-5 -23 0
-5 -21 0
-5 -20 0
-5 -18 0
-5 -12 0
-5 -11 0
-4 -30 0
-4 -28 0
-4 -23 0
-4 -22 0
-4 -21 0
-4 -14 0
-4 -13 0
-4 -11 0
-4 -5 0
-3 -31 0
-3 -29 0
-3 -24 0
-3 -19 0
-3 -17 0
-3 -14 0
-3 -11 0
-3 -10 0
-2 -31 0
-2 -30 0
-2 -29 0
-2 -25 0
-2 -15 0
-2 -14 0
-2 -10 0
-2 -9 0
-2 -3 0
-1 -25 0
-1 -23 0
-1 -20 0
-1 -19 0
-1 -13 0
-1 -10 0
-1 -8 0
-1 -7 0
-1 -6 0
1 6 7 10 23 0
2 9 15 25 30 0
4 13 14 22 28 0
5 12 18 20 29 0
8 16 21 26 31 0
3 11 17 19 24 27 0
