p cnf 31 141
-28 -30 0
-27 -28 0
-26 -30 0
-26 -28 0
-25 -31 0
-24 -29 0
-24 -28 0
-24 -27 0
-23 -29 0
-23 -25 0
-23 -24 0
-22 -31 0
-22 -29 0
-22 -24 0
-22 -23 0
-21 -26 0
-20 -31 0
-20 -27 0
-20 -22 0
-19 -30 0
-19 -29 0
-19 -28 0
-19 -26 0
-18 -27 0
-18 -26 0
-18 -21 0
-18 -20 0
-17 -29 0
-17 -26 0
-17 -24 0
-17 -23 0
-17 -22 0
-17 -21 0
-17 -18 0
-16 -31 0
-16 -28 0
-16 -27 0
-16 -25 0
-16 -24 0
-15 -29 0
-15 -21 0
-15 -19 0
-14 -27 0
-14 -25 0
-14 -23 0
-14 -20 0
-14 -18 0
-13 -30 0
-13 -27 0
-13 -20 0
-13 -18 0
-13 -14 0
-12 -31 0
-12 -26 0
-12 -25 0
-12 -21 0
-12 -18 0
-12 -17 0
-12 -16 0
-11 -30 0
-11 -29 0
-11 -24 0
-11 -23 0
-11 -22 0
-11 -17 0
-11 -13 0
-10 -31 0
-10 -30 0
-10 -25 0
-10 -16 0
-10 -13 0
-10 -12 0
-10 -11 0
-9 -31 0
-9 -22 0
-9 -21 0
-9 -20 0
-9 -15 0
-8 -25 0
-8 -23 0
-8 -21 0
-8 -15 0
-8 -14 0
-8 -9 0
-7 -29 0
-7 -27 0
-7 -20 0
-7 -19 0
-7 -18 0
-7 -15 0
-7 -14 0
-7 -13 0
-6 -30 0
-6 -21 0
-6 -15 0
-6 -13 0
-6 -11 0
-6 -10 0
-6 -9 0
-6 -8 0
-5 -31 0
-5 -30 0
-5 -28 0
-5 -26 0
-5 -22 0
-5 -20 0
-5 -19 0
-5 -9 0
-3 -31 0
-3 -29 0
-3 -25 0
-3 -19 0
-3 -16 0
-3 -15 0
-3 -12 0
-3 -10 0
-3 -7 0
-2 -30 0
-2 -28 0
-2 -26 0
-2 -25 0
-2 -23 0
-2 -19 0
-2 -14 0
-2 -8 0
-2 -5 0
-1 -28 0
-1 -27 0
-1 -24 0
-1 -21 0
-1 -16 0
-1 -15 0
-1 -9 0
-1 -8 0
-1 -6 0
1 16 24 27 28 0
2 8 14 23 25 0
3 7 15 19 29 0
5 9 20 22 31 0
6 10 11 13 30 0
4 12 17 18 21 26 0
