p cnf 91 775
-86 -88 0
-85 -87 0
-84 -87 0
-83 -86 0
-82 -84 0
-81 -88 0
-81 -86 0
-80 -87 0
-80 -86 0
-80 -84 0
-80 -83 0
-79 -85 0
-79 -84 0
-79 -82 0
-78 -91 0
-78 -88 0
-78 -86 0
-78 -81 0
-77 -88 0
-77 -86 0
-77 -84 0
-77 -82 0
-77 -81 0
-77 -79 0
-77 -78 0
-76 -90 0
-75 -91 0
-75 -84 0
-75 -82 0
-75 -79 0
-75 -77 0
-74 -89 0
-74 -87 0
-74 -85 0
-73 -91 0
-73 -78 0
-72 -86 0
-72 -83 0
-72 -82 0
-72 -80 0
-71 -89 0
-71 -84 0
-71 -82 0
-71 -79 0
-71 -77 0
-71 -75 0
-71 -74 0
-70 -89 0
-70 -81 0
-70 -74 0
-70 -71 0
-69 -90 0
-69 -85 0
-69 -79 0
-68 -91 0
-68 -89 0
-68 -78 0
-68 -74 0
-68 -73 0
-68 -71 0
-68 -70 0
-66 -89 0
-66 -85 0
-66 -79 0
-66 -69 0
-65 -91 0
-65 -78 0
-65 -73 0
-65 -68 0
-64 -89 0
-64 -66 0
-64 -65 0
-63 -91 0
-63 -76 0
-63 -75 0
-62 -89 0
-62 -76 0
-62 -74 0
-62 -71 0
-62 -70 0
-62 -68 0
-62 -63 0
-61 -87 0
-61 -85 0
-61 -74 0
-61 -73 0
-60 -89 0
-60 -83 0
-60 -66 0
-60 -64 0
-59 -89 0
-59 -73 0
-59 -66 0
-59 -64 0
-59 -61 0
-59 -60 0
-58 -90 0
-58 -86 0
-58 -83 0
-58 -80 0
-58 -76 0
-58 -72 0
-57 -89 0
-57 -86 0
-57 -83 0
-57 -80 0
-57 -74 0
-57 -72 0
-57 -71 0
-57 -70 0
-57 -68 0
-57 -62 0
-57 -58 0
-56 -86 0
-56 -83 0
-56 -80 0
-56 -72 0
-56 -65 0
-56 -64 0
-56 -58 0
-56 -57 0
-55 -90 0
-55 -73 0
-55 -69 0
-55 -61 0
-55 -59 0
-54 -91 0
-54 -89 0
-54 -75 0
-54 -66 0
-54 -64 0
-54 -63 0
-54 -60 0
-54 -59 0
-53 -87 0
-53 -85 0
-53 -82 0
-53 -74 0
-53 -72 0
-53 -61 0
-52 -88 0
-52 -83 0
-52 -60 0
-51 -91 0
-51 -81 0
-51 -75 0
-51 -70 0
-51 -63 0
-51 -54 0
-50 -91 0
-50 -88 0
-50 -75 0
-50 -63 0
-50 -54 0
-50 -52 0
-50 -51 0
-49 -82 0
-49 -81 0
-49 -72 0
-49 -70 0
-49 -53 0
-49 -51 0
-48 -90 0
-48 -69 0
-48 -65 0
-48 -64 0
-48 -56 0
-48 -55 0
-47 -91 0
-47 -83 0
-47 -78 0
-47 -73 0
-47 -68 0
-47 -65 0
-47 -60 0
-47 -52 0
-46 -86 0
-46 -83 0
-46 -80 0
-46 -73 0
-46 -72 0
-46 -61 0
-46 -59 0
-46 -58 0
-46 -57 0
-46 -56 0
-46 -55 0
-45 -91 0
-45 -87 0
-45 -84 0
-45 -80 0
-45 -78 0
-45 -73 0
-45 -68 0
-45 -65 0
-45 -47 0
-44 -88 0
-44 -65 0
-44 -64 0
-44 -56 0
-44 -52 0
-44 -50 0
-44 -48 0
-43 -89 0
-43 -87 0
-43 -84 0
-43 -80 0
-43 -66 0
-43 -64 0
-43 -60 0
-43 -59 0
-43 -54 0
-43 -45 0
-42 -83 0
-42 -81 0
-42 -70 0
-42 -60 0
-42 -52 0
-42 -51 0
-42 -49 0
-42 -47 0
-41 -91 0
-41 -82 0
-41 -78 0
-41 -73 0
-41 -72 0
-41 -68 0
-41 -65 0
-41 -53 0
-41 -49 0
-41 -47 0
-41 -45 0
-40 -81 0
-40 -73 0
-40 -70 0
-40 -61 0
-40 -59 0
-40 -55 0
-40 -51 0
-40 -49 0
-40 -46 0
-40 -42 0
-39 -86 0
-39 -85 0
-39 -83 0
-39 -80 0
-39 -79 0
-39 -72 0
-39 -69 0
-39 -66 0
-39 -58 0
-39 -57 0
-39 -56 0
-39 -46 0
-38 -83 0
-38 -76 0
-38 -63 0
-38 -62 0
-38 -60 0
-38 -52 0
-38 -47 0
-38 -42 0
-37 -91 0
-37 -85 0
-37 -79 0
-37 -78 0
-37 -73 0
-37 -69 0
-37 -68 0
-37 -66 0
-37 -65 0
-37 -47 0
-37 -45 0
-37 -41 0
-37 -39 0
-36 -88 0
-36 -87 0
-36 -86 0
-36 -85 0
-36 -81 0
-36 -78 0
-36 -77 0
-36 -74 0
-36 -61 0
-36 -53 0
-35 -88 0
-35 -85 0
-35 -79 0
-35 -69 0
-35 -66 0
-35 -52 0
-35 -50 0
-35 -44 0
-35 -39 0
-35 -37 0
-34 -87 0
-34 -84 0
-34 -81 0
-34 -80 0
-34 -70 0
-34 -51 0
-34 -49 0
-34 -45 0
-34 -43 0
-34 -42 0
-34 -40 0
-33 -84 0
-33 -82 0
-33 -79 0
-33 -77 0
-33 -75 0
-33 -73 0
-33 -71 0
-33 -61 0
-33 -59 0
-33 -55 0
-33 -46 0
-33 -40 0
-32 -90 0
-32 -89 0
-32 -76 0
-32 -66 0
-32 -64 0
-32 -60 0
-32 -59 0
-32 -58 0
-32 -54 0
-32 -43 0
-31 -81 0
-31 -70 0
-31 -65 0
-31 -64 0
-31 -56 0
-31 -51 0
-31 -49 0
-31 -48 0
-31 -44 0
-31 -42 0
-31 -40 0
-31 -34 0
-30 -89 0
-30 -82 0
-30 -72 0
-30 -66 0
-30 -64 0
-30 -60 0
-30 -59 0
-30 -54 0
-30 -53 0
-30 -49 0
-30 -43 0
-30 -41 0
-30 -32 0
-29 -90 0
-29 -88 0
-29 -86 0
-29 -81 0
-29 -78 0
-29 -77 0
-29 -69 0
-29 -55 0
-29 -48 0
-29 -36 0
-28 -90 0
-28 -89 0
-28 -74 0
-28 -71 0
-28 -70 0
-28 -69 0
-28 -68 0
-28 -62 0
-28 -57 0
-28 -55 0
-28 -48 0
-28 -29 0
-27 -87 0
-27 -85 0
-27 -74 0
-27 -65 0
-27 -64 0
-27 -61 0
-27 -56 0
-27 -53 0
-27 -48 0
-27 -44 0
-27 -36 0
-27 -31 0
-26 -87 0
-26 -85 0
-26 -83 0
-26 -74 0
-26 -61 0
-26 -60 0
-26 -53 0
-26 -52 0
-26 -47 0
-26 -42 0
-26 -38 0
-26 -36 0
-26 -27 0
-25 -76 0
-25 -73 0
-25 -63 0
-25 -62 0
-25 -61 0
-25 -59 0
-25 -55 0
-25 -46 0
-25 -40 0
-25 -38 0
-25 -33 0
-24 -90 0
-24 -84 0
-24 -82 0
-24 -79 0
-24 -77 0
-24 -76 0
-24 -75 0
-24 -71 0
-24 -58 0
-24 -33 0
-24 -32 0
-23 -89 0
-23 -88 0
-23 -86 0
-23 -81 0
-23 -78 0
-23 -77 0
-23 -66 0
-23 -64 0
-23 -60 0
-23 -59 0
-23 -54 0
-23 -43 0
-23 -36 0
-23 -32 0
-23 -30 0
-23 -29 0
-22 -85 0
-22 -79 0
-22 -76 0
-22 -69 0
-22 -66 0
-22 -63 0
-22 -62 0
-22 -39 0
-22 -38 0
-22 -37 0
-22 -35 0
-22 -25 0
-21 -90 0
-21 -87 0
-21 -84 0
-21 -80 0
-21 -69 0
-21 -55 0
-21 -48 0
-21 -45 0
-21 -43 0
-21 -34 0
-21 -29 0
-21 -28 0
-20 -84 0
-20 -82 0
-20 -79 0
-20 -77 0
-20 -75 0
-20 -71 0
-20 -65 0
-20 -64 0
-20 -56 0
-20 -48 0
-20 -44 0
-20 -33 0
-20 -31 0
-20 -27 0
-20 -24 0
-19 -89 0
-19 -88 0
-19 -74 0
-19 -71 0
-19 -70 0
-19 -68 0
-19 -62 0
-19 -57 0
-19 -52 0
-19 -50 0
-19 -44 0
-19 -35 0
-19 -28 0
-18 -88 0
-18 -82 0
-18 -72 0
-18 -53 0
-18 -52 0
-18 -50 0
-18 -49 0
-18 -44 0
-18 -41 0
-18 -35 0
-18 -30 0
-18 -19 0
-17 -88 0
-17 -87 0
-17 -84 0
-17 -80 0
-17 -52 0
-17 -50 0
-17 -45 0
-17 -44 0
-17 -43 0
-17 -35 0
-17 -34 0
-17 -21 0
-17 -19 0
-17 -18 0
-16 -82 0
-16 -76 0
-16 -72 0
-16 -63 0
-16 -62 0
-16 -53 0
-16 -49 0
-16 -41 0
-16 -38 0
-16 -30 0
-16 -25 0
-16 -22 0
-16 -18 0
-15 -76 0
-15 -65 0
-15 -64 0
-15 -63 0
-15 -62 0
-15 -56 0
-15 -48 0
-15 -44 0
-15 -38 0
-15 -31 0
-15 -27 0
-15 -25 0
-15 -22 0
-15 -20 0
-15 -16 0
-14 -88 0
-14 -73 0
-14 -61 0
-14 -59 0
-14 -55 0
-14 -52 0
-14 -50 0
-14 -46 0
-14 -44 0
-14 -40 0
-14 -35 0
-14 -33 0
-14 -25 0
-14 -19 0
-14 -18 0
-14 -17 0
-13 -91 0
-13 -86 0
-13 -83 0
-13 -80 0
-13 -75 0
-13 -72 0
-13 -63 0
-13 -58 0
-13 -57 0
-13 -56 0
-13 -54 0
-13 -51 0
-13 -50 0
-13 -46 0
-13 -39 0
-12 -90 0
-12 -88 0
-12 -76 0
-12 -58 0
-12 -52 0
-12 -50 0
-12 -44 0
-12 -35 0
-12 -32 0
-12 -24 0
-12 -19 0
-12 -18 0
-12 -17 0
-12 -14 0
-11 -90 0
-11 -82 0
-11 -72 0
-11 -69 0
-11 -55 0
-11 -53 0
-11 -49 0
-11 -48 0
-11 -41 0
-11 -30 0
-11 -29 0
-11 -28 0
-11 -21 0
-11 -18 0
-11 -16 0
-10 -91 0
-10 -90 0
-10 -75 0
-10 -69 0
-10 -63 0
-10 -55 0
-10 -54 0
-10 -51 0
-10 -50 0
-10 -48 0
-10 -29 0
-10 -28 0
-10 -21 0
-10 -13 0
-10 -11 0
-9 -91 0
-9 -87 0
-9 -85 0
-9 -75 0
-9 -74 0
-9 -63 0
-9 -61 0
-9 -54 0
-9 -53 0
-9 -51 0
-9 -50 0
-9 -36 0
-9 -27 0
-9 -26 0
-9 -13 0
-9 -10 0
-8 -90 0
-8 -87 0
-8 -85 0
-8 -76 0
-8 -74 0
-8 -61 0
-8 -58 0
-8 -53 0
-8 -36 0
-8 -32 0
-8 -27 0
-8 -26 0
-8 -24 0
-8 -12 0
-8 -9 0
-7 -88 0
-7 -86 0
-7 -81 0
-7 -78 0
-7 -77 0
-7 -76 0
-7 -63 0
-7 -62 0
-7 -38 0
-7 -36 0
-7 -29 0
-7 -25 0
-7 -23 0
-7 -22 0
-7 -16 0
-7 -15 0
-6 -85 0
-6 -81 0
-6 -79 0
-6 -70 0
-6 -69 0
-6 -66 0
-6 -51 0
-6 -49 0
-6 -42 0
-6 -40 0
-6 -39 0
-6 -37 0
-6 -35 0
-6 -34 0
-6 -31 0
-6 -22 0
-5 -91 0
-5 -90 0
-5 -78 0
-5 -76 0
-5 -73 0
-5 -68 0
-5 -65 0
-5 -58 0
-5 -47 0
-5 -45 0
-5 -41 0
-5 -37 0
-5 -32 0
-5 -24 0
-5 -12 0
-5 -8 0
-4 -90 0
-4 -83 0
-4 -69 0
-4 -60 0
-4 -55 0
-4 -52 0
-4 -48 0
-4 -47 0
-4 -42 0
-4 -38 0
-4 -29 0
-4 -28 0
-4 -26 0
-4 -21 0
-4 -11 0
-4 -10 0
-3 -90 0
-3 -81 0
-3 -76 0
-3 -70 0
-3 -58 0
-3 -51 0
-3 -49 0
-3 -42 0
-3 -40 0
-3 -34 0
-3 -32 0
-3 -31 0
-3 -24 0
-3 -12 0
-3 -8 0
-3 -6 0
-3 -5 0
-2 -87 0
-2 -84 0
-2 -80 0
-2 -76 0
-2 -63 0
-2 -62 0
-2 -45 0
-2 -43 0
-2 -38 0
-2 -34 0
-2 -25 0
-2 -22 0
-2 -21 0
-2 -17 0
-2 -16 0
-2 -15 0
-2 -7 0
-1 -84 0
-1 -83 0
-1 -82 0
-1 -79 0
-1 -77 0
-1 -75 0
-1 -71 0
-1 -60 0
-1 -52 0
-1 -47 0
-1 -42 0
-1 -38 0
-1 -33 0
-1 -26 0
-1 -24 0
-1 -20 0
-1 -4 0
1 4 26 38 42 47 52 60 83 0
2 17 21 34 43 45 80 84 87 0
3 5 8 12 24 32 58 76 90 0
6 22 35 37 39 66 69 79 85 0
7 23 29 36 77 78 81 86 88 0
9 10 13 50 51 54 63 75 91 0
11 16 18 30 41 49 53 72 82 0
14 25 33 40 46 55 59 61 73 0
15 20 27 31 44 48 56 64 65 0
19 28 57 62 67 68 70 71 74 89 0
