p cnf 43 238
-42 -43 0
-40 -42 0
-39 -42 0
-39 -41 0
-39 -40 0
-37 -43 0
-37 -42 0
-37 -41 0
-36 -43 0
-36 -42 0
-36 -37 0
-35 -43 0
-35 -41 0
-35 -39 0
-33 -38 0
-32 -38 0
-31 -33 0
-30 -43 0
-30 -42 0
-30 -38 0
-30 -37 0
-30 -36 0
-30 -32 0
-29 -31 0
-28 -42 0
-28 -40 0
-28 -39 0
-28 -32 0
-27 -36 0
-27 -31 0
-27 -29 0
-26 -42 0
-26 -40 0
-26 -39 0
-26 -31 0
-26 -29 0
-26 -28 0
-26 -27 0
-25 -41 0
-25 -37 0
-25 -32 0
-25 -28 0
-24 -38 0
-24 -32 0
-24 -31 0
-24 -30 0
-24 -29 0
-24 -27 0
-24 -26 0
-23 -32 0
-23 -29 0
-23 -28 0
-23 -25 0
-22 -42 0
-22 -40 0
-22 -39 0
-22 -38 0
-22 -33 0
-22 -28 0
-22 -26 0
-21 -40 0
-21 -36 0
-21 -27 0
-20 -41 0
-20 -40 0
-20 -37 0
-20 -25 0
-20 -21 0
-19 -43 0
-19 -35 0
-19 -32 0
-19 -28 0
-19 -25 0
-19 -23 0
-18 -41 0
-18 -39 0
-18 -35 0
-18 -33 0
-18 -31 0
-17 -43 0
-17 -42 0
-17 -37 0
-17 -36 0
-17 -33 0
-17 -31 0
-17 -30 0
-17 -18 0
-16 -43 0
-16 -42 0
-16 -37 0
-16 -36 0
-16 -30 0
-16 -29 0
-16 -23 0
-16 -17 0
-15 -38 0
-15 -36 0
-15 -33 0
-15 -27 0
-15 -22 0
-15 -21 0
-14 -40 0
-14 -38 0
-14 -32 0
-14 -30 0
-14 -24 0
-14 -21 0
-14 -20 0
-13 -43 0
-13 -40 0
-13 -35 0
-13 -21 0
-13 -20 0
-13 -19 0
-13 -14 0
-12 -40 0
-12 -29 0
-12 -23 0
-12 -21 0
-12 -20 0
-12 -16 0
-12 -14 0
-12 -13 0
-11 -41 0
-11 -38 0
-11 -37 0
-11 -33 0
-11 -25 0
-11 -22 0
-11 -20 0
-11 -15 0
-10 -33 0
-10 -32 0
-10 -31 0
-10 -28 0
-10 -25 0
-10 -23 0
-10 -19 0
-10 -18 0
-10 -17 0
-9 -41 0
-9 -39 0
-9 -36 0
-9 -35 0
-9 -27 0
-9 -21 0
-9 -18 0
-9 -15 0
-8 -36 0
-8 -32 0
-8 -28 0
-8 -27 0
-8 -25 0
-8 -23 0
-8 -21 0
-8 -19 0
-8 -15 0
-8 -10 0
-8 -9 0
-7 -43 0
-7 -38 0
-7 -35 0
-7 -33 0
-7 -22 0
-7 -19 0
-7 -15 0
-7 -13 0
-7 -11 0
-6 -41 0
-6 -37 0
-6 -31 0
-6 -29 0
-6 -27 0
-6 -26 0
-6 -25 0
-6 -24 0
-6 -20 0
-6 -11 0
-5 -41 0
-5 -39 0
-5 -38 0
-5 -35 0
-5 -32 0
-5 -30 0
-5 -24 0
-5 -18 0
-5 -14 0
-5 -9 0
-4 -43 0
-4 -35 0
-4 -31 0
-4 -29 0
-4 -27 0
-4 -26 0
-4 -24 0
-4 -19 0
-4 -13 0
-4 -7 0
-4 -6 0
-3 -38 0
-3 -33 0
-3 -29 0
-3 -23 0
-3 -22 0
-3 -16 0
-3 -15 0
-3 -12 0
-3 -11 0
-3 -7 0
-2 -40 0
-2 -33 0
-2 -31 0
-2 -21 0
-2 -20 0
-2 -18 0
-2 -17 0
-2 -14 0
-2 -13 0
-2 -12 0
-2 -10 0
-1 -41 0
-1 -39 0
-1 -35 0
-1 -29 0
-1 -23 0
-1 -18 0
-1 -16 0
-1 -12 0
-1 -9 0
-1 -5 0
-1 -3 0
1 3 12 16 23 29 0
2 10 17 18 31 33 0
4 7 13 19 35 43 0
6 11 20 25 37 41 0
8 9 15 21 27 36 0
22 26 28 39 40 42 0
5 14 24 30 32 34 38 0
