p cnf 111 1056
-107 -110 0
-107 -109 0
-106 -109 0
-106 -107 0
-105 -110 0
-105 -107 0
-104 -108 0
-103 -111 0
-102 -110 0
-102 -107 0
-102 -105 0
-100 -105 0
-99 -108 0
-99 -104 0
-98 -106 0
-98 -99 0
-97 -101 0
-96 -105 0
-96 -103 0
-96 -100 0
-95 -110 0
-95 -107 0
-95 -105 0
-95 -104 0
-95 -102 0
-94 -111 0
-94 -103 0
-93 -111 0
-93 -109 0
-93 -107 0
-93 -106 0
-92 -109 0
-91 -110 0
-91 -108 0
-91 -107 0
-91 -105 0
-91 -102 0
-91 -95 0
-90 -111 0
-90 -93 0
-90 -92 0
-89 -111 0
-89 -101 0
-89 -93 0
-89 -90 0
-88 -108 0
-88 -104 0
-88 -102 0
-88 -99 0
-87 -108 0
-87 -105 0
-87 -104 0
-87 -100 0
-87 -99 0
-87 -96 0
-87 -88 0
-86 -105 0
-86 -100 0
-86 -96 0
-86 -94 0
-86 -87 0
-85 -110 0
-85 -94 0
-85 -86 0
-84 -101 0
-84 -97 0
-84 -92 0
-84 -90 0
-83 -111 0
-83 -109 0
-83 -103 0
-83 -94 0
-83 -92 0
-82 -109 0
-82 -104 0
-82 -95 0
-82 -92 0
-82 -83 0
-81 -102 0
-81 -94 0
-81 -88 0
-81 -86 0
-81 -85 0
-80 -92 0
-80 -90 0
-80 -84 0
-79 -102 0
-79 -88 0
-79 -81 0
-79 -80 0
-78 -109 0
-78 -107 0
-78 -106 0
-78 -93 0
-78 -80 0
-78 -79 0
-77 -106 0
-77 -101 0
-77 -98 0
-77 -89 0
-76 -99 0
-76 -98 0
-76 -94 0
-76 -86 0
-76 -85 0
-76 -81 0
-75 -104 0
-75 -101 0
-75 -97 0
-75 -95 0
-75 -84 0
-75 -82 0
-74 -111 0
-74 -99 0
-74 -98 0
-74 -93 0
-74 -90 0
-74 -89 0
-74 -76 0
-73 -111 0
-73 -108 0
-73 -104 0
-73 -103 0
-73 -99 0
-73 -94 0
-73 -88 0
-73 -87 0
-73 -83 0
-72 -109 0
-72 -102 0
-72 -92 0
-72 -88 0
-72 -83 0
-72 -82 0
-72 -81 0
-72 -79 0
-71 -104 0
-71 -100 0
-71 -95 0
-71 -82 0
-71 -75 0
-70 -101 0
-70 -100 0
-70 -89 0
-70 -77 0
-70 -71 0
-69 -109 0
-69 -101 0
-69 -92 0
-69 -89 0
-69 -83 0
-69 -82 0
-69 -77 0
-69 -72 0
-69 -70 0
-68 -102 0
-68 -100 0
-68 -88 0
-68 -81 0
-68 -79 0
-68 -72 0
-68 -71 0
-68 -70 0
-67 -111 0
-67 -103 0
-67 -94 0
-67 -83 0
-67 -80 0
-67 -79 0
-67 -78 0
-67 -73 0
-66 -108 0
-66 -94 0
-66 -91 0
-66 -86 0
-66 -85 0
-66 -81 0
-66 -76 0
-65 -108 0
-65 -106 0
-65 -98 0
-65 -91 0
-65 -77 0
-65 -66 0
-64 -103 0
-64 -99 0
-64 -98 0
-64 -96 0
-64 -76 0
-64 -74 0
-63 -108 0
-63 -103 0
-63 -96 0
-63 -91 0
-63 -66 0
-63 -65 0
-63 -64 0
-61 -100 0
-61 -99 0
-61 -98 0
-61 -76 0
-61 -74 0
-61 -71 0
-61 -70 0
-61 -68 0
-61 -64 0
-60 -109 0
-60 -107 0
-60 -106 0
-60 -103 0
-60 -96 0
-60 -93 0
-60 -78 0
-60 -64 0
-60 -63 0
-59 -105 0
-59 -100 0
-59 -96 0
-59 -87 0
-59 -86 0
-59 -80 0
-59 -79 0
-59 -78 0
-59 -67 0
-58 -100 0
-58 -92 0
-58 -90 0
-58 -84 0
-58 -80 0
-58 -71 0
-58 -70 0
-58 -68 0
-58 -61 0
-57 -111 0
-57 -102 0
-57 -93 0
-57 -90 0
-57 -89 0
-57 -88 0
-57 -81 0
-57 -79 0
-57 -74 0
-57 -72 0
-57 -68 0
-56 -103 0
-56 -101 0
-56 -96 0
-56 -89 0
-56 -77 0
-56 -70 0
-56 -69 0
-56 -64 0
-56 -63 0
-56 -60 0
-55 -106 0
-55 -105 0
-55 -100 0
-55 -98 0
-55 -96 0
-55 -87 0
-55 -86 0
-55 -77 0
-55 -65 0
-55 -59 0
-54 -100 0
-54 -97 0
-54 -71 0
-54 -70 0
-54 -68 0
-54 -61 0
-54 -58 0
-53 -108 0
-53 -100 0
-53 -91 0
-53 -71 0
-53 -70 0
-53 -68 0
-53 -66 0
-53 -65 0
-53 -63 0
-53 -61 0
-53 -58 0
-53 -54 0
-52 -109 0
-52 -107 0
-52 -106 0
-52 -101 0
-52 -97 0
-52 -93 0
-52 -84 0
-52 -78 0
-52 -75 0
-52 -60 0
-51 -109 0
-51 -99 0
-51 -98 0
-51 -92 0
-51 -83 0
-51 -82 0
-51 -76 0
-51 -74 0
-51 -72 0
-51 -69 0
-51 -64 0
-51 -61 0
-50 -103 0
-50 -96 0
-50 -92 0
-50 -90 0
-50 -84 0
-50 -80 0
-50 -64 0
-50 -63 0
-50 -60 0
-50 -58 0
-50 -56 0
-49 -111 0
-49 -108 0
-49 -93 0
-49 -91 0
-49 -90 0
-49 -89 0
-49 -74 0
-49 -66 0
-49 -65 0
-49 -63 0
-49 -57 0
-49 -53 0
-48 -110 0
-48 -106 0
-48 -98 0
-48 -85 0
-48 -77 0
-48 -65 0
-48 -55 0
-47 -108 0
-47 -104 0
-47 -99 0
-47 -97 0
-47 -88 0
-47 -87 0
-47 -73 0
-47 -54 0
-46 -106 0
-46 -98 0
-46 -92 0
-46 -90 0
-46 -84 0
-46 -80 0
-46 -77 0
-46 -65 0
-46 -58 0
-46 -55 0
-46 -50 0
-46 -48 0
-45 -109 0
-45 -97 0
-45 -92 0
-45 -83 0
-45 -82 0
-45 -72 0
-45 -69 0
-45 -54 0
-45 -51 0
-45 -47 0
-44 -103 0
-44 -102 0
-44 -96 0
-44 -88 0
-44 -81 0
-44 -79 0
-44 -72 0
-44 -68 0
-44 -64 0
-44 -63 0
-44 -60 0
-44 -57 0
-44 -56 0
-44 -50 0
-43 -108 0
-43 -104 0
-43 -101 0
-43 -99 0
-43 -89 0
-43 -88 0
-43 -87 0
-43 -77 0
-43 -73 0
-43 -70 0
-43 -69 0
-43 -56 0
-43 -47 0
-42 -108 0
-42 -101 0
-42 -97 0
-42 -91 0
-42 -84 0
-42 -75 0
-42 -66 0
-42 -65 0
-42 -63 0
-42 -53 0
-42 -52 0
-42 -49 0
-41 -110 0
-41 -107 0
-41 -105 0
-41 -102 0
-41 -95 0
-41 -92 0
-41 -91 0
-41 -90 0
-41 -84 0
-41 -80 0
-41 -58 0
-41 -50 0
-41 -46 0
-40 -110 0
-40 -100 0
-40 -85 0
-40 -71 0
-40 -70 0
-40 -68 0
-40 -61 0
-40 -58 0
-40 -54 0
-40 -53 0
-40 -48 0
-39 -99 0
-39 -98 0
-39 -80 0
-39 -79 0
-39 -78 0
-39 -76 0
-39 -74 0
-39 -67 0
-39 -64 0
-39 -61 0
-39 -59 0
-39 -51 0
-38 -110 0
-38 -101 0
-38 -97 0
-38 -85 0
-38 -84 0
-38 -75 0
-38 -52 0
-38 -48 0
-38 -42 0
-38 -40 0
-37 -111 0
-37 -103 0
-37 -101 0
-37 -97 0
-37 -94 0
-37 -84 0
-37 -83 0
-37 -75 0
-37 -73 0
-37 -67 0
-37 -52 0
-37 -42 0
-37 -38 0
-36 -108 0
-36 -91 0
-36 -80 0
-36 -79 0
-36 -78 0
-36 -67 0
-36 -66 0
-36 -65 0
-36 -63 0
-36 -59 0
-36 -53 0
-36 -49 0
-36 -42 0
-36 -39 0
-35 -110 0
-35 -107 0
-35 -105 0
-35 -102 0
-35 -97 0
-35 -95 0
-35 -91 0
-35 -54 0
-35 -47 0
-35 -45 0
-35 -41 0
-34 -104 0
-34 -95 0
-34 -94 0
-34 -86 0
-34 -85 0
-34 -82 0
-34 -81 0
-34 -76 0
-34 -75 0
-34 -71 0
-34 -66 0
-33 -101 0
-33 -99 0
-33 -98 0
-33 -97 0
-33 -84 0
-33 -76 0
-33 -75 0
-33 -74 0
-33 -64 0
-33 -61 0
-33 -52 0
-33 -51 0
-33 -42 0
-33 -39 0
-33 -38 0
-33 -37 0
-32 -110 0
-32 -108 0
-32 -104 0
-32 -99 0
-32 -88 0
-32 -87 0
-32 -85 0
-32 -73 0
-32 -48 0
-32 -47 0
-32 -43 0
-32 -40 0
-32 -38 0
-31 -111 0
-31 -105 0
-31 -100 0
-31 -96 0
-31 -93 0
-31 -90 0
-31 -89 0
-31 -87 0
-31 -86 0
-31 -74 0
-31 -59 0
-31 -57 0
-31 -55 0
-31 -49 0
-30 -105 0
-30 -101 0
-30 -100 0
-30 -97 0
-30 -96 0
-30 -87 0
-30 -86 0
-30 -84 0
-30 -75 0
-30 -59 0
-30 -55 0
-30 -52 0
-30 -42 0
-30 -38 0
-30 -37 0
-30 -33 0
-30 -31 0
-29 -111 0
-29 -106 0
-29 -103 0
-29 -98 0
-29 -94 0
-29 -83 0
-29 -77 0
-29 -73 0
-29 -67 0
-29 -65 0
-29 -55 0
-29 -48 0
-29 -46 0
-29 -37 0
-28 -109 0
-28 -107 0
-28 -106 0
-28 -100 0
-28 -93 0
-28 -78 0
-28 -71 0
-28 -70 0
-28 -68 0
-28 -61 0
-28 -60 0
-28 -58 0
-28 -54 0
-28 -53 0
-28 -52 0
-28 -40 0
-27 -101 0
-27 -94 0
-27 -89 0
-27 -86 0
-27 -85 0
-27 -81 0
-27 -77 0
-27 -76 0
-27 -70 0
-27 -69 0
-27 -66 0
-27 -56 0
-27 -43 0
-27 -34 0
-26 -109 0
-26 -108 0
-26 -92 0
-26 -91 0
-26 -83 0
-26 -82 0
-26 -72 0
-26 -69 0
-26 -66 0
-26 -65 0
-26 -63 0
-26 -53 0
-26 -51 0
-26 -49 0
-26 -45 0
-26 -42 0
-26 -36 0
-25 -111 0
-25 -110 0
-25 -107 0
-25 -105 0
-25 -103 0
-25 -102 0
-25 -95 0
-25 -94 0
-25 -91 0
-25 -83 0
-25 -73 0
-25 -67 0
-25 -41 0
-25 -37 0
-25 -35 0
-25 -29 0
-24 -97 0
-24 -94 0
-24 -86 0
-24 -85 0
-24 -81 0
-24 -76 0
-24 -66 0
-24 -54 0
-24 -47 0
-24 -45 0
-24 -35 0
-24 -34 0
-24 -27 0
-23 -94 0
-23 -92 0
-23 -90 0
-23 -86 0
-23 -85 0
-23 -84 0
-23 -81 0
-23 -80 0
-23 -76 0
-23 -66 0
-23 -58 0
-23 -50 0
-23 -46 0
-23 -41 0
-23 -34 0
-23 -27 0
-23 -24 0
-22 -110 0
-22 -107 0
-22 -105 0
-22 -102 0
-22 -99 0
-22 -98 0
-22 -95 0
-22 -91 0
-22 -76 0
-22 -74 0
-22 -64 0
-22 -61 0
-22 -51 0
-22 -41 0
-22 -39 0
-22 -35 0
-22 -33 0
-22 -25 0
-21 -110 0
-21 -85 0
-21 -80 0
-21 -79 0
-21 -78 0
-21 -67 0
-21 -59 0
-21 -48 0
-21 -40 0
-21 -39 0
-21 -38 0
-21 -36 0
-21 -32 0
-20 -104 0
-20 -95 0
-20 -82 0
-20 -80 0
-20 -79 0
-20 -78 0
-20 -75 0
-20 -71 0
-20 -67 0
-20 -59 0
-20 -39 0
-20 -36 0
-20 -34 0
-20 -21 0
-19 -109 0
-19 -105 0
-19 -100 0
-19 -96 0
-19 -92 0
-19 -87 0
-19 -86 0
-19 -83 0
-19 -82 0
-19 -72 0
-19 -69 0
-19 -59 0
-19 -55 0
-19 -51 0
-19 -45 0
-19 -31 0
-19 -30 0
-19 -26 0
-18 -110 0
-18 -103 0
-18 -96 0
-18 -85 0
-18 -64 0
-18 -63 0
-18 -60 0
-18 -56 0
-18 -50 0
-18 -48 0
-18 -44 0
-18 -40 0
-18 -38 0
-18 -32 0
-18 -21 0
-17 -111 0
-17 -110 0
-17 -93 0
-17 -90 0
-17 -89 0
-17 -85 0
-17 -74 0
-17 -57 0
-17 -49 0
-17 -48 0
-17 -40 0
-17 -38 0
-17 -32 0
-17 -31 0
-17 -21 0
-17 -18 0
-16 -111 0
-16 -97 0
-16 -93 0
-16 -90 0
-16 -89 0
-16 -74 0
-16 -57 0
-16 -54 0
-16 -49 0
-16 -47 0
-16 -45 0
-16 -35 0
-16 -31 0
-16 -24 0
-16 -17 0
-15 -109 0
-15 -108 0
-15 -107 0
-15 -106 0
-15 -104 0
-15 -99 0
-15 -93 0
-15 -88 0
-15 -87 0
-15 -78 0
-15 -73 0
-15 -60 0
-15 -52 0
-15 -47 0
-15 -43 0
-15 -32 0
-15 -28 0
-14 -101 0
-14 -89 0
-14 -80 0
-14 -79 0
-14 -78 0
-14 -77 0
-14 -70 0
-14 -69 0
-14 -67 0
-14 -59 0
-14 -56 0
-14 -43 0
-14 -39 0
-14 -36 0
-14 -27 0
-14 -21 0
-14 -20 0
-13 -108 0
-13 -104 0
-13 -99 0
-13 -92 0
-13 -90 0
-13 -88 0
-13 -87 0
-13 -84 0
-13 -80 0
-13 -73 0
-13 -58 0
-13 -50 0
-13 -47 0
-13 -46 0
-13 -43 0
-13 -41 0
-13 -32 0
-13 -23 0
-13 -15 0
-12 -97 0
-12 -80 0
-12 -79 0
-12 -78 0
-12 -67 0
-12 -59 0
-12 -54 0
-12 -47 0
-12 -45 0
-12 -39 0
-12 -36 0
-12 -35 0
-12 -24 0
-12 -21 0
-12 -20 0
-12 -16 0
-12 -14 0
-11 -111 0
-11 -104 0
-11 -95 0
-11 -93 0
-11 -90 0
-11 -89 0
-11 -82 0
-11 -75 0
-11 -74 0
-11 -71 0
-11 -57 0
-11 -49 0
-11 -34 0
-11 -31 0
-11 -20 0
-11 -17 0
-11 -16 0
-10 -102 0
-10 -101 0
-10 -97 0
-10 -88 0
-10 -84 0
-10 -81 0
-10 -79 0
-10 -75 0
-10 -72 0
-10 -68 0
-10 -57 0
-10 -52 0
-10 -44 0
-10 -42 0
-10 -38 0
-10 -37 0
-10 -33 0
-10 -30 0
-9 -106 0
-9 -98 0
-9 -97 0
-9 -77 0
-9 -65 0
-9 -55 0
-9 -54 0
-9 -48 0
-9 -47 0
-9 -46 0
-9 -45 0
-9 -35 0
-9 -29 0
-9 -24 0
-9 -16 0
-9 -12 0
-8 -109 0
-8 -107 0
-8 -106 0
-8 -94 0
-8 -93 0
-8 -86 0
-8 -85 0
-8 -81 0
-8 -78 0
-8 -76 0
-8 -66 0
-8 -60 0
-8 -52 0
-8 -34 0
-8 -28 0
-8 -27 0
-8 -24 0
-8 -23 0
-8 -15 0
-7 -110 0
-7 -109 0
-7 -92 0
-7 -85 0
-7 -83 0
-7 -82 0
-7 -72 0
-7 -69 0
-7 -51 0
-7 -48 0
-7 -45 0
-7 -40 0
-7 -38 0
-7 -32 0
-7 -26 0
-7 -21 0
-7 -19 0
-7 -18 0
-7 -17 0
-6 -110 0
-6 -107 0
-6 -105 0
-6 -102 0
-6 -101 0
-6 -95 0
-6 -91 0
-6 -89 0
-6 -77 0
-6 -70 0
-6 -69 0
-6 -56 0
-6 -43 0
-6 -41 0
-6 -35 0
-6 -27 0
-6 -25 0
-6 -22 0
-6 -14 0
-5 -103 0
-5 -97 0
-5 -96 0
-5 -64 0
-5 -63 0
-5 -60 0
-5 -56 0
-5 -54 0
-5 -50 0
-5 -47 0
-5 -45 0
-5 -44 0
-5 -35 0
-5 -24 0
-5 -18 0
-5 -16 0
-5 -12 0
-5 -9 0
-4 -106 0
-4 -104 0
-4 -98 0
-4 -95 0
-4 -82 0
-4 -77 0
-4 -75 0
-4 -71 0
-4 -65 0
-4 -55 0
-4 -48 0
-4 -46 0
-4 -34 0
-4 -29 0
-4 -20 0
-4 -11 0
-4 -9 0
-3 -111 0
-3 -103 0
-3 -100 0
-3 -94 0
-3 -83 0
-3 -73 0
-3 -71 0
-3 -70 0
-3 -68 0
-3 -67 0
-3 -61 0
-3 -58 0
-3 -54 0
-3 -53 0
-3 -40 0
-3 -37 0
-3 -29 0
-3 -28 0
-3 -25 0
-2 -106 0
-2 -102 0
-2 -98 0
-2 -88 0
-2 -81 0
-2 -79 0
-2 -77 0
-2 -72 0
-2 -68 0
-2 -65 0
-2 -57 0
-2 -55 0
-2 -48 0
-2 -46 0
-2 -44 0
-2 -29 0
-2 -10 0
-2 -9 0
-2 -4 0
-1 -104 0
-1 -103 0
-1 -96 0
-1 -95 0
-1 -82 0
-1 -75 0
-1 -71 0
-1 -64 0
-1 -63 0
-1 -60 0
-1 -56 0
-1 -50 0
-1 -44 0
-1 -34 0
-1 -20 0
-1 -18 0
-1 -11 0
-1 -5 0
-1 -4 0
1 4 11 20 34 71 75 82 95 104 0
2 10 44 57 68 72 79 81 88 102 0
3 25 29 37 67 73 83 94 103 111 0
5 9 12 16 24 35 45 47 54 97 0
6 14 27 43 56 69 70 77 89 101 0
7 17 18 21 32 38 40 48 85 110 0
8 15 28 52 60 78 93 106 107 109 0
13 23 41 46 50 58 80 84 90 92 0
22 33 39 51 61 64 74 76 98 99 0
26 36 42 49 53 63 65 66 91 108 0
19 30 31 55 59 62 86 87 96 100 105 0
