p cnf 91 775
-86 -87 0
-85 -91 0
-85 -88 0
-84 -89 0
-83 -86 0
-82 -88 0
-81 -89 0
-81 -87 0
-81 -84 0
-80 -90 0
-79 -90 0
-79 -80 0
-78 -87 0
-78 -86 0
-78 -82 0
-77 -88 0
-77 -86 0
-77 -83 0
-77 -82 0
-76 -84 0
-76 -79 0
-75 -86 0
-75 -83 0
-75 -77 0
-74 -91 0
-74 -89 0
-74 -84 0
-74 -81 0
-73 -89 0
-73 -88 0
-73 -82 0
-73 -77 0
-72 -89 0
-72 -79 0
-72 -76 0
-72 -73 0
-71 -88 0
-71 -85 0
-71 -83 0
-70 -84 0
-70 -76 0
-70 -75 0
-69 -91 0
-69 -87 0
-69 -86 0
-69 -78 0
-69 -74 0
-68 -91 0
-68 -75 0
-68 -74 0
-68 -70 0
-68 -69 0
-67 -89 0
-67 -80 0
-67 -73 0
-67 -72 0
-66 -87 0
-66 -86 0
-66 -78 0
-66 -69 0
-65 -87 0
-65 -86 0
-65 -78 0
-65 -69 0
-65 -66 0
-64 -90 0
-64 -88 0
-64 -82 0
-64 -80 0
-64 -79 0
-64 -77 0
-64 -73 0
-63 -90 0
-63 -66 0
-62 -79 0
-62 -76 0
-62 -72 0
-62 -66 0
-62 -63 0
-61 -79 0
-61 -76 0
-61 -72 0
-61 -65 0
-61 -62 0
-60 -90 0
-60 -65 0
-60 -63 0
-60 -61 0
-59 -91 0
-59 -85 0
-59 -84 0
-59 -76 0
-59 -70 0
-58 -86 0
-58 -83 0
-58 -80 0
-58 -77 0
-58 -75 0
-58 -67 0
-57 -88 0
-57 -87 0
-57 -86 0
-57 -85 0
-57 -78 0
-57 -71 0
-57 -69 0
-57 -66 0
-57 -65 0
-56 -90 0
-56 -83 0
-56 -80 0
-56 -79 0
-56 -71 0
-56 -64 0
-55 -89 0
-55 -87 0
-55 -86 0
-55 -78 0
-55 -73 0
-55 -72 0
-55 -69 0
-55 -67 0
-55 -66 0
-55 -65 0
-55 -57 0
-54 -90 0
-54 -89 0
-54 -84 0
-54 -81 0
-54 -80 0
-54 -79 0
-54 -74 0
-54 -64 0
-54 -56 0
-53 -82 0
-53 -80 0
-53 -78 0
-53 -67 0
-53 -58 0
-52 -91 0
-52 -89 0
-52 -85 0
-52 -73 0
-52 -72 0
-52 -67 0
-52 -59 0
-52 -55 0
-51 -75 0
-51 -70 0
-51 -68 0
-51 -65 0
-51 -61 0
-51 -60 0
-50 -91 0
-50 -85 0
-50 -82 0
-50 -78 0
-50 -59 0
-50 -53 0
-50 -52 0
-49 -90 0
-49 -87 0
-49 -81 0
-49 -63 0
-49 -60 0
-48 -88 0
-48 -82 0
-48 -77 0
-48 -73 0
-48 -65 0
-48 -64 0
-48 -61 0
-48 -60 0
-48 -51 0
-47 -89 0
-47 -84 0
-47 -81 0
-47 -74 0
-47 -66 0
-47 -63 0
-47 -62 0
-47 -54 0
-46 -88 0
-46 -82 0
-46 -77 0
-46 -73 0
-46 -66 0
-46 -64 0
-46 -63 0
-46 -62 0
-46 -48 0
-46 -47 0
-45 -80 0
-45 -67 0
-45 -66 0
-45 -63 0
-45 -62 0
-45 -58 0
-45 -53 0
-45 -47 0
-45 -46 0
-44 -87 0
-44 -83 0
-44 -81 0
-44 -71 0
-44 -56 0
-44 -49 0
-43 -82 0
-43 -79 0
-43 -78 0
-43 -76 0
-43 -72 0
-43 -62 0
-43 -61 0
-43 -53 0
-43 -50 0
-42 -86 0
-42 -83 0
-42 -79 0
-42 -77 0
-42 -76 0
-42 -75 0
-42 -72 0
-42 -62 0
-42 -61 0
-42 -58 0
-42 -43 0
-41 -91 0
-41 -85 0
-41 -66 0
-41 -63 0
-41 -62 0
-41 -59 0
-41 -52 0
-41 -50 0
-41 -47 0
-41 -46 0
-41 -45 0
-40 -84 0
-40 -80 0
-40 -76 0
-40 -70 0
-40 -67 0
-40 -59 0
-40 -58 0
-40 -53 0
-40 -45 0
-39 -91 0
-39 -79 0
-39 -76 0
-39 -74 0
-39 -72 0
-39 -69 0
-39 -68 0
-39 -62 0
-39 -61 0
-39 -43 0
-39 -42 0
-38 -90 0
-38 -84 0
-38 -76 0
-38 -70 0
-38 -63 0
-38 -60 0
-38 -59 0
-38 -49 0
-38 -40 0
-37 -91 0
-37 -86 0
-37 -85 0
-37 -83 0
-37 -77 0
-37 -75 0
-37 -59 0
-37 -58 0
-37 -52 0
-37 -50 0
-37 -42 0
-37 -41 0
-36 -89 0
-36 -84 0
-36 -81 0
-36 -74 0
-36 -65 0
-36 -61 0
-36 -60 0
-36 -54 0
-36 -51 0
-36 -48 0
-36 -47 0
-35 -87 0
-35 -81 0
-35 -80 0
-35 -67 0
-35 -58 0
-35 -53 0
-35 -49 0
-35 -45 0
-35 -44 0
-35 -40 0
-34 -89 0
-34 -86 0
-34 -84 0
-34 -83 0
-34 -81 0
-34 -77 0
-34 -75 0
-34 -74 0
-34 -58 0
-34 -54 0
-34 -47 0
-34 -42 0
-34 -37 0
-34 -36 0
-33 -90 0
-33 -86 0
-33 -83 0
-33 -77 0
-33 -75 0
-33 -63 0
-33 -60 0
-33 -58 0
-33 -49 0
-33 -42 0
-33 -38 0
-33 -37 0
-33 -34 0
-32 -89 0
-32 -84 0
-32 -82 0
-32 -81 0
-32 -78 0
-32 -74 0
-32 -54 0
-32 -53 0
-32 -50 0
-32 -47 0
-32 -43 0
-32 -36 0
-32 -34 0
-31 -88 0
-31 -85 0
-31 -80 0
-31 -71 0
-31 -67 0
-31 -58 0
-31 -57 0
-31 -53 0
-31 -45 0
-31 -40 0
-31 -35 0
-30 -89 0
-30 -75 0
-30 -73 0
-30 -72 0
-30 -70 0
-30 -68 0
-30 -67 0
-30 -55 0
-30 -52 0
-30 -51 0
-29 -83 0
-29 -82 0
-29 -78 0
-29 -71 0
-29 -56 0
-29 -53 0
-29 -50 0
-29 -44 0
-29 -43 0
-29 -32 0
-28 -90 0
-28 -88 0
-28 -85 0
-28 -71 0
-28 -63 0
-28 -60 0
-28 -57 0
-28 -49 0
-28 -38 0
-28 -33 0
-28 -31 0
-27 -91 0
-27 -90 0
-27 -85 0
-27 -80 0
-27 -79 0
-27 -64 0
-27 -59 0
-27 -56 0
-27 -54 0
-27 -52 0
-27 -50 0
-27 -41 0
-27 -37 0
-26 -89 0
-26 -83 0
-26 -73 0
-26 -72 0
-26 -71 0
-26 -67 0
-26 -56 0
-26 -55 0
-26 -52 0
-26 -44 0
-26 -30 0
-26 -29 0
-25 -90 0
-25 -82 0
-25 -78 0
-25 -63 0
-25 -60 0
-25 -53 0
-25 -50 0
-25 -49 0
-25 -43 0
-25 -38 0
-25 -33 0
-25 -32 0
-25 -29 0
-25 -28 0
-24 -83 0
-24 -71 0
-24 -65 0
-24 -61 0
-24 -60 0
-24 -56 0
-24 -51 0
-24 -48 0
-24 -44 0
-24 -36 0
-24 -29 0
-24 -26 0
-23 -91 0
-23 -88 0
-23 -82 0
-23 -77 0
-23 -74 0
-23 -73 0
-23 -69 0
-23 -68 0
-23 -64 0
-23 -48 0
-23 -46 0
-23 -39 0
-22 -91 0
-22 -85 0
-22 -65 0
-22 -61 0
-22 -60 0
-22 -59 0
-22 -52 0
-22 -51 0
-22 -50 0
-22 -48 0
-22 -41 0
-22 -37 0
-22 -36 0
-22 -27 0
-22 -24 0
-21 -90 0
-21 -87 0
-21 -86 0
-21 -80 0
-21 -79 0
-21 -78 0
-21 -69 0
-21 -66 0
-21 -65 0
-21 -64 0
-21 -57 0
-21 -56 0
-21 -55 0
-21 -54 0
-21 -27 0
-20 -88 0
-20 -84 0
-20 -82 0
-20 -77 0
-20 -76 0
-20 -73 0
-20 -70 0
-20 -64 0
-20 -59 0
-20 -48 0
-20 -46 0
-20 -40 0
-20 -38 0
-20 -23 0
-19 -87 0
-19 -86 0
-19 -84 0
-19 -78 0
-19 -76 0
-19 -70 0
-19 -69 0
-19 -66 0
-19 -65 0
-19 -59 0
-19 -57 0
-19 -55 0
-19 -40 0
-19 -38 0
-19 -21 0
-19 -20 0
-17 -90 0
-17 -89 0
-17 -73 0
-17 -72 0
-17 -67 0
-17 -63 0
-17 -60 0
-17 -55 0
-17 -52 0
-17 -49 0
-17 -38 0
-17 -33 0
-17 -30 0
-17 -28 0
-17 -26 0
-17 -25 0
-16 -80 0
-16 -67 0
-16 -65 0
-16 -61 0
-16 -60 0
-16 -58 0
-16 -53 0
-16 -51 0
-16 -48 0
-16 -45 0
-16 -40 0
-16 -36 0
-16 -35 0
-16 -31 0
-16 -24 0
-16 -22 0
-15 -87 0
-15 -81 0
-15 -75 0
-15 -70 0
-15 -68 0
-15 -51 0
-15 -49 0
-15 -44 0
-15 -35 0
-15 -30 0
-14 -83 0
-14 -71 0
-14 -66 0
-14 -63 0
-14 -62 0
-14 -56 0
-14 -47 0
-14 -46 0
-14 -45 0
-14 -44 0
-14 -41 0
-14 -29 0
-14 -26 0
-14 -24 0
-13 -75 0
-13 -70 0
-13 -68 0
-13 -66 0
-13 -63 0
-13 -62 0
-13 -51 0
-13 -47 0
-13 -46 0
-13 -45 0
-13 -41 0
-13 -30 0
-13 -15 0
-13 -14 0
-12 -88 0
-12 -87 0
-12 -82 0
-12 -81 0
-12 -77 0
-12 -73 0
-12 -64 0
-12 -49 0
-12 -48 0
-12 -46 0
-12 -44 0
-12 -35 0
-12 -23 0
-12 -20 0
-12 -15 0
-11 -90 0
-11 -80 0
-11 -79 0
-11 -75 0
-11 -70 0
-11 -68 0
-11 -64 0
-11 -56 0
-11 -54 0
-11 -51 0
-11 -30 0
-11 -27 0
-11 -21 0
-11 -15 0
-11 -13 0
-10 -82 0
-10 -78 0
-10 -75 0
-10 -70 0
-10 -68 0
-10 -53 0
-10 -51 0
-10 -50 0
-10 -43 0
-10 -32 0
-10 -30 0
-10 -29 0
-10 -25 0
-10 -15 0
-10 -13 0
-10 -11 0
-9 -87 0
-9 -81 0
-9 -79 0
-9 -76 0
-9 -72 0
-9 -62 0
-9 -61 0
-9 -49 0
-9 -44 0
-9 -43 0
-9 -42 0
-9 -39 0
-9 -35 0
-9 -15 0
-9 -12 0
-8 -91 0
-8 -87 0
-8 -85 0
-8 -81 0
-8 -59 0
-8 -52 0
-8 -50 0
-8 -49 0
-8 -44 0
-8 -41 0
-8 -37 0
-8 -35 0
-8 -27 0
-8 -22 0
-8 -15 0
-8 -12 0
-8 -9 0
-7 -91 0
-7 -90 0
-7 -74 0
-7 -69 0
-7 -68 0
-7 -63 0
-7 -60 0
-7 -49 0
-7 -39 0
-7 -38 0
-7 -33 0
-7 -28 0
-7 -25 0
-7 -23 0
-7 -17 0
-6 -91 0
-6 -83 0
-6 -74 0
-6 -71 0
-6 -69 0
-6 -68 0
-6 -56 0
-6 -44 0
-6 -39 0
-6 -29 0
-6 -26 0
-6 -24 0
-6 -23 0
-6 -14 0
-6 -7 0
-5 -88 0
-5 -85 0
-5 -79 0
-5 -76 0
-5 -72 0
-5 -71 0
-5 -62 0
-5 -61 0
-5 -57 0
-5 -43 0
-5 -42 0
-5 -39 0
-5 -31 0
-5 -28 0
-5 -9 0
-4 -88 0
-4 -85 0
-4 -75 0
-4 -71 0
-4 -70 0
-4 -68 0
-4 -57 0
-4 -51 0
-4 -31 0
-4 -30 0
-4 -28 0
-4 -15 0
-4 -13 0
-4 -11 0
-4 -10 0
-4 -5 0
-3 -91 0
-3 -80 0
-3 -74 0
-3 -69 0
-3 -68 0
-3 -67 0
-3 -58 0
-3 -53 0
-3 -45 0
-3 -40 0
-3 -39 0
-3 -35 0
-3 -31 0
-3 -23 0
-3 -16 0
-3 -7 0
-3 -6 0
-2 -89 0
-2 -88 0
-2 -85 0
-2 -84 0
-2 -81 0
-2 -74 0
-2 -71 0
-2 -57 0
-2 -54 0
-2 -47 0
-2 -36 0
-2 -34 0
-2 -32 0
-2 -31 0
-2 -28 0
-2 -5 0
-2 -4 0
-1 -84 0
-1 -83 0
-1 -76 0
-1 -71 0
-1 -70 0
-1 -59 0
-1 -56 0
-1 -44 0
-1 -40 0
-1 -38 0
-1 -29 0
-1 -26 0
-1 -24 0
-1 -20 0
-1 -19 0
-1 -14 0
-1 -6 0
1 19 20 38 40 59 70 76 84 0
2 4 5 28 31 57 71 85 88 0
3 6 7 23 39 68 69 74 91 0
8 9 12 15 35 44 49 81 87 0
10 25 29 32 43 50 53 78 82 0
13 14 41 45 46 47 62 63 66 0
16 22 24 36 48 51 60 61 65 0
17 26 30 52 55 67 72 73 89 0
33 34 37 42 58 75 77 83 86 0
11 18 21 27 54 56 64 79 80 90 0
