p cnf 73 549
-70 -71 0
-69 -70 0
-68 -73 0
-67 -72 0
-66 -72 0
-66 -71 0
-66 -70 0
-65 -68 0
-64 -65 0
-63 -68 0
-63 -65 0
-62 -69 0
-61 -72 0
-61 -67 0
-61 -62 0
-60 -73 0
-60 -63 0
-59 -63 0
-59 -60 0
-58 -65 0
-58 -64 0
-58 -59 0
-57 -73 0
-57 -72 0
-57 -68 0
-57 -67 0
-57 -61 0
-56 -71 0
-56 -70 0
-56 -67 0
-56 -66 0
-55 -69 0
-55 -65 0
-55 -64 0
-55 -62 0
-55 -58 0
-54 -62 0
-54 -61 0
-53 -73 0
-53 -62 0
-53 -61 0
-53 -60 0
-53 -54 0
-52 -72 0
-52 -66 0
-52 -54 0
-51 -73 0
-51 -70 0
-51 -69 0
-51 -60 0
-51 -53 0
-50 -67 0
-50 -56 0
-50 -54 0
-50 -52 0
-49 -73 0
-49 -60 0
-49 -53 0
-49 -51 0
-48 -71 0
-48 -54 0
-48 -52 0
-48 -50 0
-47 -64 0
-47 -62 0
-47 -61 0
-47 -54 0
-47 -53 0
-46 -69 0
-46 -63 0
-46 -62 0
-46 -60 0
-46 -59 0
-46 -55 0
-45 -71 0
-45 -68 0
-45 -65 0
-45 -63 0
-45 -48 0
-44 -73 0
-44 -65 0
-44 -64 0
-44 -60 0
-44 -58 0
-44 -55 0
-44 -53 0
-44 -51 0
-44 -49 0
-43 -71 0
-43 -70 0
-43 -66 0
-43 -65 0
-43 -64 0
-43 -58 0
-43 -56 0
-43 -55 0
-43 -44 0
-42 -70 0
-42 -69 0
-42 -54 0
-42 -52 0
-42 -51 0
-42 -50 0
-42 -48 0
-41 -63 0
-41 -60 0
-41 -59 0
-41 -54 0
-41 -52 0
-41 -50 0
-41 -48 0
-41 -46 0
-41 -42 0
-39 -68 0
-39 -67 0
-39 -65 0
-39 -63 0
-39 -56 0
-39 -50 0
-39 -45 0
-38 -73 0
-38 -71 0
-38 -60 0
-38 -53 0
-38 -51 0
-38 -49 0
-38 -48 0
-38 -45 0
-38 -44 0
-37 -69 0
-37 -62 0
-37 -55 0
-37 -49 0
-37 -46 0
-36 -71 0
-36 -70 0
-36 -66 0
-36 -62 0
-36 -61 0
-36 -56 0
-36 -54 0
-36 -53 0
-36 -47 0
-36 -43 0
-35 -64 0
-35 -63 0
-35 -60 0
-35 -59 0
-35 -47 0
-35 -46 0
-35 -41 0
-34 -73 0
-34 -72 0
-34 -66 0
-34 -60 0
-34 -53 0
-34 -52 0
-34 -51 0
-34 -49 0
-34 -44 0
-34 -38 0
-33 -73 0
-33 -68 0
-33 -57 0
-33 -54 0
-33 -52 0
-33 -50 0
-33 -48 0
-33 -42 0
-33 -41 0
-32 -72 0
-32 -67 0
-32 -65 0
-32 -64 0
-32 -61 0
-32 -58 0
-32 -57 0
-32 -55 0
-32 -44 0
-32 -43 0
-31 -67 0
-31 -59 0
-31 -58 0
-31 -56 0
-31 -50 0
-31 -39 0
-30 -70 0
-30 -69 0
-30 -59 0
-30 -58 0
-30 -51 0
-30 -42 0
-30 -31 0
-29 -72 0
-29 -67 0
-29 -61 0
-29 -57 0
-29 -49 0
-29 -37 0
-29 -32 0
-28 -73 0
-28 -71 0
-28 -70 0
-28 -68 0
-28 -66 0
-28 -57 0
-28 -56 0
-28 -43 0
-28 -36 0
-28 -33 0
-27 -70 0
-27 -69 0
-27 -68 0
-27 -65 0
-27 -63 0
-27 -51 0
-27 -45 0
-27 -42 0
-27 -39 0
-27 -30 0
-26 -73 0
-26 -68 0
-26 -64 0
-26 -57 0
-26 -47 0
-26 -35 0
-26 -33 0
-26 -28 0
-25 -73 0
-25 -68 0
-25 -59 0
-25 -58 0
-25 -57 0
-25 -33 0
-25 -31 0
-25 -30 0
-25 -28 0
-25 -26 0
-24 -73 0
-24 -67 0
-24 -60 0
-24 -56 0
-24 -53 0
-24 -51 0
-24 -50 0
-24 -49 0
-24 -44 0
-24 -39 0
-24 -38 0
-24 -34 0
-24 -31 0
-23 -59 0
-23 -58 0
-23 -49 0
-23 -37 0
-23 -31 0
-23 -30 0
-23 -29 0
-23 -25 0
-22 -73 0
-22 -69 0
-22 -68 0
-22 -62 0
-22 -57 0
-22 -55 0
-22 -46 0
-22 -37 0
-22 -33 0
-22 -28 0
-22 -26 0
-22 -25 0
-21 -68 0
-21 -65 0
-21 -63 0
-21 -62 0
-21 -61 0
-21 -54 0
-21 -53 0
-21 -47 0
-21 -45 0
-21 -39 0
-21 -36 0
-21 -27 0
-20 -71 0
-20 -70 0
-20 -66 0
-20 -63 0
-20 -60 0
-20 -59 0
-20 -56 0
-20 -46 0
-20 -43 0
-20 -41 0
-20 -36 0
-20 -35 0
-20 -28 0
-19 -69 0
-19 -67 0
-19 -62 0
-19 -56 0
-19 -55 0
-19 -50 0
-19 -46 0
-19 -39 0
-19 -37 0
-19 -31 0
-19 -24 0
-19 -22 0
-18 -68 0
-18 -65 0
-18 -63 0
-18 -49 0
-18 -45 0
-18 -39 0
-18 -37 0
-18 -29 0
-18 -27 0
-18 -23 0
-18 -21 0
-17 -54 0
-17 -52 0
-17 -50 0
-17 -49 0
-17 -48 0
-17 -42 0
-17 -41 0
-17 -37 0
-17 -33 0
-17 -29 0
-17 -23 0
-17 -18 0
-16 -72 0
-16 -68 0
-16 -66 0
-16 -65 0
-16 -63 0
-16 -52 0
-16 -45 0
-16 -39 0
-16 -34 0
-16 -27 0
-16 -21 0
-16 -18 0
-15 -71 0
-15 -70 0
-15 -66 0
-15 -56 0
-15 -49 0
-15 -43 0
-15 -37 0
-15 -36 0
-15 -29 0
-15 -28 0
-15 -23 0
-15 -20 0
-15 -18 0
-15 -17 0
-14 -72 0
-14 -70 0
-14 -69 0
-14 -67 0
-14 -61 0
-14 -57 0
-14 -51 0
-14 -42 0
-14 -32 0
-14 -30 0
-14 -29 0
-14 -27 0
-13 -72 0
-13 -67 0
-13 -63 0
-13 -61 0
-13 -60 0
-13 -59 0
-13 -57 0
-13 -46 0
-13 -41 0
-13 -35 0
-13 -32 0
-13 -29 0
-13 -20 0
-13 -14 0
-12 -72 0
-12 -66 0
-12 -64 0
-12 -52 0
-12 -47 0
-12 -35 0
-12 -34 0
-12 -26 0
-12 -16 0
-11 -72 0
-11 -71 0
-11 -67 0
-11 -61 0
-11 -57 0
-11 -48 0
-11 -45 0
-11 -38 0
-11 -32 0
-11 -29 0
-11 -14 0
-11 -13 0
-10 -72 0
-10 -69 0
-10 -66 0
-10 -62 0
-10 -55 0
-10 -52 0
-10 -46 0
-10 -37 0
-10 -34 0
-10 -22 0
-10 -19 0
-10 -16 0
-10 -12 0
-9 -70 0
-9 -69 0
-9 -64 0
-9 -51 0
-9 -47 0
-9 -42 0
-9 -35 0
-9 -30 0
-9 -27 0
-9 -26 0
-9 -14 0
-9 -12 0
-8 -71 0
-8 -69 0
-8 -62 0
-8 -55 0
-8 -48 0
-8 -46 0
-8 -45 0
-8 -38 0
-8 -37 0
-8 -22 0
-8 -19 0
-8 -11 0
-8 -10 0
-7 -64 0
-7 -49 0
-7 -47 0
-7 -37 0
-7 -35 0
-7 -29 0
-7 -26 0
-7 -23 0
-7 -18 0
-7 -17 0
-7 -15 0
-7 -12 0
-7 -9 0
-6 -67 0
-6 -64 0
-6 -56 0
-6 -50 0
-6 -47 0
-6 -39 0
-6 -35 0
-6 -31 0
-6 -26 0
-6 -24 0
-6 -19 0
-6 -12 0
-6 -9 0
-6 -7 0
-5 -71 0
-5 -64 0
-5 -48 0
-5 -47 0
-5 -45 0
-5 -38 0
-5 -35 0
-5 -26 0
-5 -12 0
-5 -11 0
-5 -9 0
-5 -8 0
-5 -7 0
-5 -6 0
-4 -62 0
-4 -61 0
-4 -59 0
-4 -58 0
-4 -54 0
-4 -53 0
-4 -47 0
-4 -36 0
-4 -31 0
-4 -30 0
-4 -25 0
-4 -23 0
-4 -21 0
-3 -72 0
-3 -66 0
-3 -59 0
-3 -58 0
-3 -52 0
-3 -34 0
-3 -31 0
-3 -30 0
-3 -25 0
-3 -23 0
-3 -16 0
-3 -12 0
-3 -10 0
-3 -4 0
-2 -65 0
-2 -64 0
-2 -58 0
-2 -55 0
-2 -54 0
-2 -52 0
-2 -50 0
-2 -48 0
-2 -44 0
-2 -43 0
-2 -42 0
-2 -41 0
-2 -33 0
-2 -32 0
-2 -17 0
-1 -71 0
-1 -59 0
-1 -58 0
-1 -48 0
-1 -45 0
-1 -38 0
-1 -31 0
-1 -30 0
-1 -25 0
-1 -23 0
-1 -11 0
-1 -8 0
-1 -5 0
-1 -4 0
-1 -3 0
1 5 8 11 38 45 48 71 0
2 32 43 44 55 58 64 65 0
3 10 12 16 34 52 66 72 0
4 21 36 47 53 54 61 62 0
6 19 24 31 39 50 56 67 0
7 15 17 18 23 29 37 49 0
13 20 35 41 46 59 60 63 0
22 25 26 28 33 57 68 73 0
9 14 27 30 40 42 51 69 70 0
