p cnf 31 141
-27 -31 0
-26 -31 0
-26 -30 0
-25 -29 0
-25 -27 0
-23 -30 0
-23 -27 0
-23 -26 0
-23 -25 0
-22 -30 0
-22 -24 0
-21 -31 0
-21 -28 0
-21 -26 0
-20 -29 0
-20 -28 0
-20 -25 0
-19 -31 0
-19 -26 0
-19 -24 0
-19 -22 0
-19 -21 0
-18 -31 0
-18 -27 0
-18 -24 0
-17 -30 0
-17 -28 0
-17 -26 0
-17 -23 0
-17 -20 0
-16 -29 0
-16 -28 0
-16 -21 0
-15 -28 0
-15 -24 0
-15 -22 0
-15 -20 0
-15 -19 0
-15 -17 0
-14 -28 0
-14 -24 0
-14 -21 0
-14 -18 0
-14 -16 0
-13 -29 0
-13 -24 0
-13 -22 0
-13 -19 0
-13 -16 0
-13 -15 0
-12 -30 0
-12 -26 0
-12 -24 0
-12 -23 0
-12 -18 0
-12 -17 0
-12 -14 0
-11 -29 0
-11 -25 0
-11 -24 0
-11 -20 0
-11 -18 0
-11 -14 0
-11 -12 0
-9 -31 0
-9 -29 0
-9 -26 0
-9 -25 0
-9 -21 0
-9 -20 0
-9 -19 0
-9 -11 0
-8 -31 0
-8 -29 0
-8 -27 0
-8 -18 0
-8 -16 0
-8 -13 0
-7 -31 0
-7 -28 0
-7 -27 0
-7 -20 0
-7 -18 0
-7 -17 0
-7 -15 0
-7 -8 0
-6 -27 0
-6 -25 0
-6 -24 0
-6 -23 0
-6 -22 0
-6 -19 0
-6 -15 0
-6 -13 0
-5 -30 0
-5 -29 0
-5 -26 0
-5 -23 0
-5 -17 0
-5 -16 0
-5 -13 0
-5 -12 0
-5 -8 0
-4 -30 0
-4 -28 0
-4 -22 0
-4 -21 0
-4 -16 0
-4 -14 0
-3 -28 0
-3 -27 0
-3 -25 0
-3 -23 0
-3 -21 0
-3 -16 0
-3 -14 0
-3 -6 0
-3 -4 0
-2 -30 0
-2 -29 0
-2 -25 0
-2 -22 0
-2 -20 0
-2 -11 0
-2 -9 0
-2 -4 0
-1 -31 0
-1 -30 0
-1 -27 0
-1 -22 0
-1 -18 0
-1 -8 0
-1 -7 0
-1 -4 0
-1 -2 0
1 2 4 22 30 0
3 6 23 25 27 0
5 8 13 16 29 0
7 15 17 20 28 0
9 19 21 26 31 0
10 11 12 14 18 24 0
