p cnf 57 372
-54 -55 0
-53 -57 0
-53 -55 0
-52 -57 0
-52 -53 0
-51 -54 0
-49 -57 0
-48 -55 0
-48 -54 0
-48 -52 0
-47 -57 0
-47 -54 0
-47 -53 0
-47 -52 0
-47 -51 0
-46 -55 0
-46 -53 0
-46 -49 0
-44 -56 0
-44 -52 0
-44 -48 0
-43 -55 0
-43 -54 0
-43 -50 0
-43 -48 0
-42 -57 0
-42 -53 0
-42 -52 0
-42 -50 0
-42 -47 0
-42 -43 0
-41 -55 0
-41 -53 0
-41 -50 0
-41 -46 0
-40 -52 0
-40 -48 0
-40 -44 0
-39 -52 0
-39 -49 0
-39 -48 0
-39 -46 0
-39 -44 0
-39 -40 0
-38 -57 0
-38 -53 0
-38 -52 0
-38 -47 0
-38 -45 0
-38 -42 0
-37 -54 0
-37 -51 0
-37 -47 0
-37 -40 0
-36 -56 0
-36 -50 0
-36 -44 0
-36 -43 0
-36 -42 0
-35 -51 0
-35 -50 0
-35 -43 0
-35 -42 0
-35 -36 0
-34 -56 0
-34 -40 0
-34 -37 0
-33 -56 0
-33 -55 0
-33 -53 0
-33 -46 0
-33 -44 0
-33 -41 0
-33 -36 0
-32 -55 0
-32 -53 0
-32 -46 0
-32 -45 0
-32 -41 0
-32 -33 0
-31 -49 0
-31 -46 0
-31 -45 0
-31 -39 0
-31 -38 0
-30 -54 0
-30 -51 0
-30 -50 0
-30 -47 0
-30 -41 0
-30 -37 0
-29 -57 0
-29 -49 0
-29 -40 0
-29 -37 0
-29 -34 0
-28 -57 0
-28 -49 0
-28 -45 0
-28 -32 0
-28 -29 0
-27 -56 0
-27 -51 0
-27 -35 0
-27 -34 0
-26 -57 0
-26 -55 0
-26 -54 0
-26 -49 0
-26 -48 0
-26 -43 0
-26 -29 0
-26 -28 0
-25 -56 0
-25 -45 0
-25 -44 0
-25 -38 0
-25 -36 0
-25 -33 0
-25 -31 0
-24 -56 0
-24 -49 0
-24 -46 0
-24 -39 0
-24 -34 0
-24 -31 0
-24 -27 0
-23 -56 0
-23 -50 0
-23 -41 0
-23 -34 0
-23 -30 0
-23 -27 0
-23 -24 0
-22 -56 0
-22 -54 0
-22 -51 0
-22 -47 0
-22 -44 0
-22 -37 0
-22 -36 0
-22 -33 0
-22 -30 0
-22 -25 0
-21 -52 0
-21 -50 0
-21 -48 0
-21 -44 0
-21 -41 0
-21 -40 0
-21 -39 0
-21 -30 0
-21 -23 0
-19 -54 0
-19 -51 0
-19 -49 0
-19 -47 0
-19 -46 0
-19 -39 0
-19 -37 0
-19 -31 0
-19 -30 0
-19 -24 0
-19 -22 0
-18 -57 0
-18 -56 0
-18 -49 0
-18 -44 0
-18 -36 0
-18 -33 0
-18 -29 0
-18 -28 0
-18 -26 0
-18 -25 0
-18 -22 0
-17 -55 0
-17 -53 0
-17 -46 0
-17 -41 0
-17 -40 0
-17 -37 0
-17 -34 0
-17 -33 0
-17 -32 0
-17 -29 0
-16 -50 0
-16 -45 0
-16 -41 0
-16 -38 0
-16 -31 0
-16 -30 0
-16 -25 0
-16 -23 0
-16 -21 0
-15 -54 0
-15 -51 0
-15 -47 0
-15 -45 0
-15 -37 0
-15 -32 0
-15 -30 0
-15 -28 0
-15 -22 0
-15 -19 0
-14 -50 0
-14 -43 0
-14 -42 0
-14 -40 0
-14 -37 0
-14 -36 0
-14 -35 0
-14 -34 0
-14 -29 0
-14 -17 0
-13 -45 0
-13 -40 0
-13 -38 0
-13 -37 0
-13 -34 0
-13 -31 0
-13 -29 0
-13 -25 0
-13 -17 0
-13 -16 0
-13 -14 0
-12 -51 0
-12 -45 0
-12 -38 0
-12 -35 0
-12 -31 0
-12 -27 0
-12 -25 0
-12 -16 0
-12 -13 0
-11 -57 0
-11 -56 0
-11 -53 0
-11 -52 0
-11 -47 0
-11 -42 0
-11 -38 0
-11 -34 0
-11 -27 0
-11 -24 0
-11 -23 0
-10 -56 0
-10 -55 0
-10 -54 0
-10 -48 0
-10 -43 0
-10 -34 0
-10 -27 0
-10 -26 0
-10 -24 0
-10 -23 0
-10 -11 0
-9 -57 0
-9 -51 0
-9 -49 0
-9 -35 0
-9 -29 0
-9 -28 0
-9 -27 0
-9 -26 0
-9 -18 0
-9 -12 0
-8 -56 0
-8 -45 0
-8 -34 0
-8 -32 0
-8 -28 0
-8 -27 0
-8 -24 0
-8 -23 0
-8 -15 0
-8 -11 0
-8 -10 0
-7 -55 0
-7 -54 0
-7 -48 0
-7 -45 0
-7 -43 0
-7 -38 0
-7 -31 0
-7 -26 0
-7 -25 0
-7 -16 0
-7 -13 0
-7 -12 0
-7 -10 0
-6 -50 0
-6 -49 0
-6 -46 0
-6 -43 0
-6 -42 0
-6 -39 0
-6 -36 0
-6 -35 0
-6 -31 0
-6 -24 0
-6 -19 0
-6 -14 0
-5 -52 0
-5 -48 0
-5 -45 0
-5 -44 0
-5 -40 0
-5 -39 0
-5 -32 0
-5 -28 0
-5 -21 0
-5 -15 0
-5 -8 0
-4 -52 0
-4 -51 0
-4 -48 0
-4 -44 0
-4 -40 0
-4 -39 0
-4 -35 0
-4 -27 0
-4 -21 0
-4 -12 0
-4 -9 0
-4 -5 0
-3 -55 0
-3 -53 0
-3 -51 0
-3 -46 0
-3 -41 0
-3 -35 0
-3 -33 0
-3 -32 0
-3 -27 0
-3 -17 0
-3 -12 0
-3 -9 0
-3 -4 0
-2 -57 0
-2 -50 0
-2 -49 0
-2 -41 0
-2 -30 0
-2 -29 0
-2 -28 0
-2 -26 0
-2 -23 0
-2 -21 0
-2 -18 0
-2 -16 0
-2 -9 0
-1 -50 0
-1 -45 0
-1 -43 0
-1 -42 0
-1 -36 0
-1 -35 0
-1 -32 0
-1 -28 0
-1 -15 0
-1 -14 0
-1 -8 0
-1 -6 0
-1 -5 0
1 5 8 15 28 32 45 0
2 16 21 23 30 41 50 0
3 4 9 12 27 35 51 0
6 19 24 31 39 46 49 0
11 38 42 47 52 53 57 0
13 14 17 29 34 37 40 0
18 22 25 33 36 44 56 0
7 10 20 26 43 48 54 55 0
