p cnf 57 372
-53 -57 0
-53 -55 0
-51 -56 0
-51 -54 0
-50 -55 0
-50 -54 0
-50 -53 0
-49 -56 0
-48 -54 0
-48 -51 0
-47 -55 0
-47 -53 0
-47 -50 0
-47 -49 0
-46 -57 0
-46 -48 0
-45 -52 0
-43 -54 0
-43 -50 0
-43 -44 0
-42 -57 0
-42 -46 0
-42 -44 0
-41 -54 0
-41 -51 0
-41 -48 0
-41 -44 0
-41 -42 0
-40 -55 0
-40 -54 0
-40 -51 0
-40 -48 0
-40 -41 0
-39 -56 0
-39 -55 0
-39 -49 0
-39 -40 0
-38 -57 0
-38 -53 0
-38 -44 0
-38 -43 0
-37 -57 0
-37 -52 0
-37 -46 0
-37 -45 0
-37 -42 0
-36 -48 0
-36 -46 0
-36 -45 0
-35 -57 0
-35 -56 0
-35 -53 0
-35 -49 0
-35 -39 0
-35 -38 0
-33 -49 0
-33 -47 0
-33 -44 0
-33 -43 0
-33 -38 0
-32 -56 0
-32 -55 0
-32 -53 0
-32 -51 0
-32 -50 0
-32 -47 0
-31 -57 0
-31 -55 0
-31 -46 0
-31 -42 0
-31 -40 0
-31 -39 0
-31 -37 0
-30 -54 0
-30 -50 0
-30 -45 0
-30 -43 0
-30 -36 0
-29 -52 0
-29 -45 0
-29 -44 0
-29 -43 0
-29 -38 0
-29 -37 0
-29 -33 0
-28 -56 0
-28 -52 0
-28 -51 0
-28 -32 0
-27 -48 0
-27 -46 0
-27 -44 0
-27 -43 0
-27 -38 0
-27 -36 0
-27 -33 0
-27 -29 0
-26 -57 0
-26 -53 0
-26 -45 0
-26 -38 0
-26 -36 0
-26 -35 0
-26 -30 0
-25 -52 0
-25 -44 0
-25 -42 0
-25 -41 0
-25 -28 0
-24 -57 0
-24 -54 0
-24 -50 0
-24 -46 0
-24 -43 0
-24 -42 0
-24 -37 0
-24 -31 0
-24 -30 0
-23 -56 0
-23 -54 0
-23 -50 0
-23 -49 0
-23 -43 0
-23 -39 0
-23 -35 0
-23 -30 0
-23 -24 0
-22 -55 0
-22 -45 0
-22 -40 0
-22 -39 0
-22 -36 0
-22 -31 0
-22 -30 0
-22 -26 0
-21 -55 0
-21 -53 0
-21 -50 0
-21 -48 0
-21 -47 0
-21 -46 0
-21 -36 0
-21 -32 0
-21 -27 0
-20 -54 0
-20 -51 0
-20 -49 0
-20 -48 0
-20 -47 0
-20 -41 0
-20 -40 0
-20 -33 0
-19 -52 0
-19 -49 0
-19 -47 0
-19 -33 0
-19 -28 0
-19 -25 0
-19 -20 0
-18 -49 0
-18 -47 0
-18 -45 0
-18 -36 0
-18 -33 0
-18 -30 0
-18 -26 0
-18 -22 0
-18 -20 0
-18 -19 0
-17 -54 0
-17 -52 0
-17 -51 0
-17 -48 0
-17 -45 0
-17 -41 0
-17 -40 0
-17 -37 0
-17 -29 0
-17 -20 0
-16 -57 0
-16 -53 0
-16 -52 0
-16 -38 0
-16 -35 0
-16 -28 0
-16 -26 0
-16 -25 0
-16 -19 0
-15 -52 0
-15 -48 0
-15 -46 0
-15 -36 0
-15 -28 0
-15 -27 0
-15 -25 0
-15 -21 0
-15 -19 0
-15 -16 0
-14 -56 0
-14 -51 0
-14 -44 0
-14 -43 0
-14 -38 0
-14 -33 0
-14 -32 0
-14 -29 0
-14 -28 0
-14 -27 0
-13 -55 0
-13 -52 0
-13 -40 0
-13 -39 0
-13 -31 0
-13 -28 0
-13 -25 0
-13 -22 0
-13 -19 0
-13 -16 0
-13 -15 0
-12 -57 0
-12 -56 0
-12 -51 0
-12 -46 0
-12 -42 0
-12 -37 0
-12 -32 0
-12 -31 0
-12 -28 0
-12 -24 0
-12 -14 0
-11 -55 0
-11 -53 0
-11 -50 0
-11 -47 0
-11 -44 0
-11 -42 0
-11 -41 0
-11 -32 0
-11 -25 0
-11 -21 0
-10 -56 0
-10 -51 0
-10 -45 0
-10 -36 0
-10 -32 0
-10 -30 0
-10 -28 0
-10 -26 0
-10 -22 0
-10 -18 0
-10 -14 0
-10 -12 0
-9 -56 0
-9 -49 0
-9 -44 0
-9 -42 0
-9 -41 0
-9 -39 0
-9 -35 0
-9 -25 0
-9 -23 0
-9 -11 0
-8 -56 0
-8 -49 0
-8 -48 0
-8 -46 0
-8 -39 0
-8 -36 0
-8 -35 0
-8 -27 0
-8 -23 0
-8 -21 0
-8 -15 0
-8 -9 0
-7 -55 0
-7 -44 0
-7 -43 0
-7 -40 0
-7 -39 0
-7 -38 0
-7 -33 0
-7 -31 0
-7 -29 0
-7 -27 0
-7 -22 0
-7 -14 0
-7 -13 0
-6 -45 0
-6 -44 0
-6 -42 0
-6 -41 0
-6 -36 0
-6 -30 0
-6 -26 0
-6 -25 0
-6 -22 0
-6 -18 0
-6 -11 0
-6 -10 0
-6 -9 0
-5 -54 0
-5 -52 0
-5 -50 0
-5 -43 0
-5 -30 0
-5 -28 0
-5 -25 0
-5 -24 0
-5 -23 0
-5 -19 0
-5 -16 0
-5 -15 0
-5 -13 0
-4 -57 0
-4 -54 0
-4 -53 0
-4 -51 0
-4 -48 0
-4 -41 0
-4 -40 0
-4 -38 0
-4 -35 0
-4 -26 0
-4 -20 0
-4 -17 0
-4 -16 0
-3 -57 0
-3 -49 0
-3 -47 0
-3 -46 0
-3 -42 0
-3 -37 0
-3 -33 0
-3 -31 0
-3 -24 0
-3 -20 0
-3 -19 0
-3 -18 0
-3 -12 0
-2 -56 0
-2 -52 0
-2 -49 0
-2 -45 0
-2 -39 0
-2 -37 0
-2 -35 0
-2 -29 0
-2 -23 0
-2 -17 0
-2 -9 0
-2 -8 0
-1 -55 0
-1 -53 0
-1 -52 0
-1 -50 0
-1 -47 0
-1 -45 0
-1 -37 0
-1 -32 0
-1 -29 0
-1 -21 0
-1 -17 0
-1 -11 0
-1 -2 0
1 2 17 29 37 45 52 0
3 18 19 20 33 47 49 0
4 16 26 35 38 53 57 0
5 23 24 30 43 50 54 0
6 9 11 25 41 42 44 0
8 15 21 27 36 46 48 0
10 12 14 28 32 51 56 0
7 13 22 31 34 39 40 55 0
