p cnf 43 238
-42 -43 0
-41 -42 0
-40 -42 0
-40 -41 0
-39 -43 0
-39 -42 0
-38 -43 0
-37 -43 0
-37 -42 0
-37 -39 0
-36 -37 0
-35 -40 0
-34 -41 0
-34 -39 0
-33 -38 0
-33 -37 0
-33 -36 0
-32 -43 0
-32 -42 0
-32 -39 0
-32 -37 0
-31 -40 0
-31 -35 0
-30 -43 0
-30 -42 0
-30 -39 0
-30 -37 0
-30 -35 0
-30 -32 0
-29 -40 0
-29 -39 0
-29 -35 0
-29 -34 0
-29 -31 0
-28 -39 0
-28 -34 0
-28 -29 0
-27 -41 0
-27 -34 0
-27 -32 0
-26 -38 0
-26 -35 0
-26 -33 0
-26 -30 0
-25 -36 0
-25 -32 0
-25 -27 0
-24 -36 0
-24 -31 0
-24 -25 0
-23 -31 0
-23 -28 0
-23 -24 0
-22 -36 0
-22 -35 0
-22 -30 0
-22 -26 0
-22 -25 0
-22 -24 0
-21 -38 0
-21 -33 0
-21 -31 0
-21 -26 0
-21 -24 0
-21 -23 0
-20 -35 0
-20 -30 0
-20 -28 0
-20 -26 0
-20 -23 0
-20 -22 0
-19 -42 0
-19 -41 0
-19 -40 0
-19 -38 0
-19 -33 0
-19 -26 0
-19 -21 0
-18 -39 0
-18 -38 0
-18 -34 0
-18 -33 0
-18 -29 0
-18 -28 0
-18 -26 0
-18 -21 0
-18 -19 0
-17 -39 0
-17 -36 0
-17 -34 0
-17 -29 0
-17 -28 0
-17 -25 0
-17 -24 0
-17 -22 0
-17 -18 0
-15 -43 0
-15 -40 0
-15 -38 0
-15 -35 0
-15 -31 0
-15 -29 0
-14 -43 0
-14 -41 0
-14 -38 0
-14 -34 0
-14 -27 0
-14 -15 0
-13 -43 0
-13 -42 0
-13 -39 0
-13 -37 0
-13 -32 0
-13 -31 0
-13 -30 0
-13 -24 0
-13 -23 0
-13 -21 0
-12 -38 0
-12 -33 0
-12 -32 0
-12 -27 0
-12 -26 0
-12 -25 0
-12 -21 0
-12 -19 0
-12 -18 0
-11 -32 0
-11 -28 0
-11 -27 0
-11 -25 0
-11 -23 0
-11 -20 0
-11 -12 0
-10 -41 0
-10 -34 0
-10 -31 0
-10 -27 0
-10 -24 0
-10 -23 0
-10 -21 0
-10 -14 0
-10 -13 0
-9 -41 0
-9 -37 0
-9 -36 0
-9 -34 0
-9 -33 0
-9 -27 0
-9 -14 0
-9 -10 0
-8 -41 0
-8 -35 0
-8 -34 0
-8 -30 0
-8 -27 0
-8 -26 0
-8 -22 0
-8 -20 0
-8 -14 0
-8 -10 0
-8 -9 0
-7 -43 0
-7 -38 0
-7 -36 0
-7 -25 0
-7 -24 0
-7 -22 0
-7 -17 0
-7 -15 0
-7 -14 0
-6 -40 0
-6 -37 0
-6 -36 0
-6 -35 0
-6 -33 0
-6 -31 0
-6 -29 0
-6 -15 0
-6 -9 0
-5 -37 0
-5 -36 0
-5 -33 0
-5 -28 0
-5 -23 0
-5 -20 0
-5 -11 0
-5 -9 0
-5 -6 0
-4 -43 0
-4 -38 0
-4 -28 0
-4 -23 0
-4 -20 0
-4 -15 0
-4 -14 0
-4 -11 0
-4 -7 0
-4 -5 0
-3 -42 0
-3 -41 0
-3 -40 0
-3 -36 0
-3 -25 0
-3 -24 0
-3 -22 0
-3 -19 0
-3 -17 0
-3 -7 0
-2 -40 0
-2 -35 0
-2 -32 0
-2 -31 0
-2 -29 0
-2 -27 0
-2 -25 0
-2 -15 0
-2 -12 0
-2 -11 0
-2 -6 0
-1 -42 0
-1 -41 0
-1 -40 0
-1 -28 0
-1 -23 0
-1 -20 0
-1 -19 0
-1 -11 0
-1 -5 0
-1 -4 0
-1 -3 0
1 3 19 40 41 42 0
2 11 12 25 27 32 0
5 6 9 33 36 37 0
8 20 22 26 30 35 0
10 13 21 23 24 31 0
17 18 28 29 34 39 0
4 7 14 15 16 38 43 0
