p cnf 111 1056
-105 -108 0
-104 -107 0
-103 -111 0
-103 -110 0
-102 -110 0
-101 -109 0
-101 -107 0
-101 -104 0
-100 -107 0
-100 -106 0
-99 -109 0
-98 -106 0
-98 -100 0
-97 -108 0
-97 -106 0
-97 -100 0
-97 -98 0
-96 -108 0
-96 -107 0
-96 -105 0
-96 -100 0
-95 -111 0
-95 -104 0
-95 -103 0
-94 -111 0
-93 -107 0
-93 -100 0
-93 -96 0
-92 -108 0
-92 -107 0
-92 -104 0
-92 -101 0
-92 -97 0
-91 -111 0
-91 -94 0
-90 -109 0
-90 -101 0
-90 -94 0
-89 -104 0
-89 -95 0
-89 -91 0
-88 -108 0
-88 -97 0
-88 -94 0
-88 -92 0
-88 -90 0
-87 -111 0
-87 -110 0
-87 -102 0
-87 -94 0
-87 -91 0
-86 -102 0
-86 -93 0
-85 -110 0
-85 -103 0
-85 -91 0
-85 -89 0
-84 -108 0
-84 -97 0
-84 -92 0
-84 -88 0
-83 -109 0
-83 -104 0
-83 -99 0
-83 -95 0
-83 -89 0
-82 -110 0
-82 -104 0
-82 -102 0
-82 -95 0
-82 -89 0
-82 -87 0
-82 -83 0
-81 -111 0
-81 -94 0
-81 -91 0
-81 -87 0
-81 -84 0
-80 -106 0
-80 -94 0
-80 -90 0
-80 -88 0
-79 -106 0
-79 -105 0
-79 -100 0
-79 -98 0
-79 -97 0
-78 -109 0
-78 -102 0
-78 -99 0
-78 -86 0
-78 -83 0
-77 -105 0
-77 -91 0
-77 -89 0
-77 -85 0
-77 -79 0
-76 -104 0
-76 -95 0
-76 -89 0
-76 -84 0
-76 -83 0
-76 -82 0
-76 -81 0
-75 -98 0
-75 -84 0
-75 -81 0
-75 -76 0
-74 -106 0
-74 -84 0
-74 -81 0
-74 -80 0
-74 -76 0
-74 -75 0
-73 -98 0
-73 -93 0
-73 -86 0
-73 -75 0
-72 -111 0
-72 -108 0
-72 -103 0
-72 -97 0
-72 -95 0
-72 -92 0
-72 -88 0
-72 -84 0
-71 -109 0
-71 -101 0
-71 -90 0
-71 -84 0
-71 -81 0
-71 -76 0
-71 -75 0
-71 -74 0
-70 -106 0
-70 -91 0
-70 -89 0
-70 -85 0
-70 -80 0
-70 -77 0
-70 -74 0
-69 -111 0
-69 -105 0
-69 -103 0
-69 -95 0
-69 -79 0
-69 -77 0
-69 -72 0
-68 -105 0
-68 -93 0
-68 -86 0
-68 -79 0
-68 -77 0
-68 -73 0
-68 -69 0
-67 -110 0
-67 -103 0
-67 -85 0
-67 -84 0
-67 -81 0
-67 -76 0
-67 -75 0
-67 -74 0
-67 -71 0
-66 -110 0
-66 -109 0
-66 -102 0
-66 -101 0
-66 -90 0
-66 -87 0
-66 -82 0
-66 -71 0
-65 -111 0
-65 -109 0
-65 -103 0
-65 -101 0
-65 -95 0
-65 -90 0
-65 -72 0
-65 -71 0
-65 -69 0
-65 -66 0
-64 -111 0
-64 -108 0
-64 -105 0
-64 -96 0
-64 -94 0
-64 -91 0
-64 -87 0
-64 -81 0
-63 -107 0
-63 -104 0
-63 -101 0
-63 -98 0
-63 -92 0
-63 -75 0
-63 -73 0
-62 -111 0
-62 -107 0
-62 -104 0
-62 -101 0
-62 -94 0
-62 -92 0
-62 -91 0
-62 -87 0
-62 -81 0
-62 -64 0
-62 -63 0
-61 -106 0
-61 -100 0
-61 -99 0
-61 -98 0
-61 -97 0
-61 -79 0
-60 -111 0
-60 -103 0
-60 -99 0
-60 -95 0
-60 -72 0
-60 -69 0
-60 -65 0
-60 -61 0
-59 -109 0
-59 -99 0
-59 -98 0
-59 -83 0
-59 -78 0
-59 -75 0
-59 -73 0
-59 -63 0
-58 -110 0
-58 -108 0
-58 -102 0
-58 -97 0
-58 -92 0
-58 -88 0
-58 -87 0
-58 -84 0
-58 -82 0
-58 -72 0
-58 -66 0
-57 -111 0
-57 -106 0
-57 -100 0
-57 -98 0
-57 -97 0
-57 -94 0
-57 -91 0
-57 -87 0
-57 -81 0
-57 -79 0
-57 -64 0
-57 -62 0
-57 -61 0
-56 -110 0
-56 -107 0
-56 -104 0
-56 -103 0
-56 -101 0
-56 -92 0
-56 -85 0
-56 -67 0
-56 -63 0
-56 -62 0
-55 -110 0
-55 -109 0
-55 -103 0
-55 -99 0
-55 -85 0
-55 -83 0
-55 -78 0
-55 -67 0
-55 -59 0
-55 -56 0
-54 -110 0
-54 -106 0
-54 -102 0
-54 -87 0
-54 -82 0
-54 -80 0
-54 -74 0
-54 -70 0
-54 -66 0
-54 -58 0
-53 -110 0
-53 -103 0
-53 -93 0
-53 -86 0
-53 -85 0
-53 -73 0
-53 -68 0
-53 -67 0
-53 -56 0
-53 -55 0
-52 -108 0
-52 -105 0
-52 -102 0
-52 -96 0
-52 -86 0
-52 -78 0
-52 -64 0
-51 -109 0
-51 -107 0
-51 -100 0
-51 -99 0
-51 -96 0
-51 -93 0
-51 -83 0
-51 -78 0
-51 -59 0
-51 -55 0
-50 -111 0
-50 -94 0
-50 -93 0
-50 -91 0
-50 -87 0
-50 -86 0
-50 -81 0
-50 -73 0
-50 -68 0
-50 -64 0
-50 -62 0
-50 -57 0
-50 -53 0
-49 -102 0
-49 -94 0
-49 -90 0
-49 -88 0
-49 -86 0
-49 -80 0
-49 -78 0
-49 -52 0
-48 -104 0
-48 -95 0
-48 -93 0
-48 -89 0
-48 -86 0
-48 -83 0
-48 -82 0
-48 -76 0
-48 -73 0
-48 -68 0
-48 -53 0
-48 -50 0
-47 -106 0
-47 -93 0
-47 -86 0
-47 -80 0
-47 -74 0
-47 -73 0
-47 -70 0
-47 -68 0
-47 -54 0
-47 -53 0
-47 -50 0
-47 -48 0
-46 -105 0
-46 -94 0
-46 -90 0
-46 -88 0
-46 -80 0
-46 -79 0
-46 -77 0
-46 -69 0
-46 -68 0
-46 -49 0
-45 -111 0
-45 -109 0
-45 -99 0
-45 -94 0
-45 -91 0
-45 -87 0
-45 -83 0
-45 -81 0
-45 -78 0
-45 -64 0
-45 -62 0
-45 -59 0
-45 -57 0
-45 -55 0
-45 -51 0
-45 -50 0
-44 -109 0
-44 -106 0
-44 -99 0
-44 -83 0
-44 -80 0
-44 -78 0
-44 -74 0
-44 -70 0
-44 -59 0
-44 -55 0
-44 -54 0
-44 -51 0
-44 -47 0
-44 -45 0
-43 -99 0
-43 -94 0
-43 -90 0
-43 -88 0
-43 -80 0
-43 -61 0
-43 -60 0
-43 -49 0
-43 -46 0
-42 -107 0
-42 -104 0
-42 -102 0
-42 -101 0
-42 -92 0
-42 -86 0
-42 -78 0
-42 -63 0
-42 -62 0
-42 -56 0
-42 -52 0
-42 -49 0
-41 -108 0
-41 -105 0
-41 -98 0
-41 -96 0
-41 -75 0
-41 -73 0
-41 -64 0
-41 -63 0
-41 -59 0
-41 -52 0
-40 -109 0
-40 -105 0
-40 -99 0
-40 -83 0
-40 -79 0
-40 -78 0
-40 -77 0
-40 -69 0
-40 -68 0
-40 -59 0
-40 -55 0
-40 -51 0
-40 -46 0
-40 -45 0
-40 -44 0
-39 -107 0
-39 -104 0
-39 -101 0
-39 -99 0
-39 -92 0
-39 -63 0
-39 -62 0
-39 -61 0
-39 -60 0
-39 -56 0
-39 -43 0
-39 -42 0
-38 -111 0
-38 -107 0
-38 -103 0
-38 -100 0
-38 -96 0
-38 -95 0
-38 -93 0
-38 -72 0
-38 -69 0
-38 -65 0
-38 -60 0
-38 -51 0
-37 -106 0
-37 -102 0
-37 -100 0
-37 -98 0
-37 -97 0
-37 -86 0
-37 -79 0
-37 -78 0
-37 -61 0
-37 -57 0
-37 -52 0
-37 -49 0
-37 -42 0
-36 -108 0
-36 -105 0
-36 -104 0
-36 -96 0
-36 -95 0
-36 -89 0
-36 -83 0
-36 -82 0
-36 -76 0
-36 -64 0
-36 -52 0
-36 -48 0
-36 -41 0
-35 -108 0
-35 -97 0
-35 -93 0
-35 -92 0
-35 -88 0
-35 -86 0
-35 -84 0
-35 -73 0
-35 -72 0
-35 -68 0
-35 -58 0
-35 -53 0
-35 -50 0
-35 -48 0
-35 -47 0
-34 -102 0
-34 -91 0
-34 -89 0
-34 -86 0
-34 -85 0
-34 -78 0
-34 -77 0
-34 -70 0
-34 -52 0
-34 -49 0
-34 -42 0
-34 -37 0
-33 -98 0
-33 -94 0
-33 -90 0
-33 -88 0
-33 -80 0
-33 -75 0
-33 -73 0
-33 -63 0
-33 -59 0
-33 -49 0
-33 -46 0
-33 -43 0
-33 -41 0
-32 -109 0
-32 -108 0
-32 -99 0
-32 -97 0
-32 -92 0
-32 -88 0
-32 -84 0
-32 -83 0
-32 -78 0
-32 -72 0
-32 -59 0
-32 -58 0
-32 -55 0
-32 -51 0
-32 -45 0
-32 -44 0
-32 -40 0
-32 -35 0
-31 -109 0
-31 -108 0
-31 -105 0
-31 -101 0
-31 -96 0
-31 -90 0
-31 -71 0
-31 -66 0
-31 -65 0
-31 -64 0
-31 -52 0
-31 -41 0
-31 -36 0
-30 -99 0
-30 -91 0
-30 -89 0
-30 -85 0
-30 -77 0
-30 -70 0
-30 -61 0
-30 -60 0
-30 -43 0
-30 -39 0
-30 -34 0
-29 -110 0
-29 -108 0
-29 -105 0
-29 -103 0
-29 -96 0
-29 -85 0
-29 -67 0
-29 -64 0
-29 -56 0
-29 -55 0
-29 -53 0
-29 -52 0
-29 -41 0
-29 -36 0
-29 -31 0
-28 -108 0
-28 -105 0
-28 -99 0
-28 -96 0
-28 -64 0
-28 -61 0
-28 -60 0
-28 -52 0
-28 -43 0
-28 -41 0
-28 -39 0
-28 -36 0
-28 -31 0
-28 -30 0
-28 -29 0
-27 -109 0
-27 -101 0
-27 -93 0
-27 -90 0
-27 -86 0
-27 -73 0
-27 -71 0
-27 -68 0
-27 -66 0
-27 -65 0
-27 -53 0
-27 -50 0
-27 -48 0
-27 -47 0
-27 -35 0
-27 -31 0
-26 -109 0
-26 -101 0
-26 -91 0
-26 -90 0
-26 -89 0
-26 -85 0
-26 -77 0
-26 -71 0
-26 -70 0
-26 -66 0
-26 -65 0
-26 -34 0
-26 -31 0
-26 -30 0
-26 -27 0
-25 -107 0
-25 -100 0
-25 -96 0
-25 -93 0
-25 -91 0
-25 -89 0
-25 -85 0
-25 -77 0
-25 -70 0
-25 -51 0
-25 -38 0
-25 -34 0
-25 -30 0
-25 -26 0
-24 -110 0
-24 -102 0
-24 -99 0
-24 -87 0
-24 -82 0
-24 -66 0
-24 -61 0
-24 -60 0
-24 -58 0
-24 -54 0
-24 -43 0
-24 -39 0
-24 -30 0
-24 -28 0
-23 -111 0
-23 -103 0
-23 -102 0
-23 -95 0
-23 -86 0
-23 -78 0
-23 -72 0
-23 -69 0
-23 -65 0
-23 -60 0
-23 -52 0
-23 -49 0
-23 -42 0
-23 -38 0
-23 -37 0
-23 -34 0
-22 -110 0
-22 -107 0
-22 -102 0
-22 -100 0
-22 -96 0
-22 -93 0
-22 -87 0
-22 -82 0
-22 -66 0
-22 -58 0
-22 -54 0
-22 -51 0
-22 -38 0
-22 -25 0
-22 -24 0
-21 -104 0
-21 -95 0
-21 -94 0
-21 -90 0
-21 -89 0
-21 -88 0
-21 -83 0
-21 -82 0
-21 -80 0
-21 -76 0
-21 -49 0
-21 -48 0
-21 -46 0
-21 -43 0
-21 -36 0
-21 -33 0
-20 -105 0
-20 -84 0
-20 -81 0
-20 -79 0
-20 -77 0
-20 -76 0
-20 -75 0
-20 -74 0
-20 -71 0
-20 -69 0
-20 -68 0
-20 -67 0
-20 -46 0
-20 -40 0
-19 -102 0
-19 -86 0
-19 -84 0
-19 -81 0
-19 -78 0
-19 -76 0
-19 -75 0
-19 -74 0
-19 -71 0
-19 -67 0
-19 -52 0
-19 -49 0
-19 -42 0
-19 -37 0
-19 -34 0
-19 -23 0
-19 -20 0
-18 -99 0
-18 -93 0
-18 -86 0
-18 -73 0
-18 -68 0
-18 -61 0
-18 -60 0
-18 -53 0
-18 -50 0
-18 -48 0
-18 -47 0
-18 -43 0
-18 -39 0
-18 -35 0
-18 -30 0
-18 -28 0
-18 -27 0
-18 -24 0
-17 -107 0
-17 -100 0
-17 -96 0
-17 -94 0
-17 -93 0
-17 -90 0
-17 -88 0
-17 -80 0
-17 -51 0
-17 -49 0
-17 -46 0
-17 -43 0
-17 -38 0
-17 -33 0
-17 -25 0
-17 -22 0
-17 -21 0
-15 -110 0
-15 -103 0
-15 -94 0
-15 -90 0
-15 -88 0
-15 -85 0
-15 -80 0
-15 -67 0
-15 -56 0
-15 -55 0
-15 -53 0
-15 -49 0
-15 -46 0
-15 -43 0
-15 -33 0
-15 -29 0
-15 -21 0
-15 -17 0
-14 -111 0
-14 -103 0
-14 -98 0
-14 -95 0
-14 -75 0
-14 -73 0
-14 -72 0
-14 -69 0
-14 -65 0
-14 -63 0
-14 -60 0
-14 -59 0
-14 -41 0
-14 -38 0
-14 -33 0
-14 -23 0
-13 -107 0
-13 -100 0
-13 -96 0
-13 -93 0
-13 -84 0
-13 -81 0
-13 -76 0
-13 -75 0
-13 -74 0
-13 -71 0
-13 -67 0
-13 -51 0
-13 -38 0
-13 -25 0
-13 -22 0
-13 -20 0
-13 -19 0
-13 -17 0
-12 -107 0
-12 -105 0
-12 -104 0
-12 -101 0
-12 -92 0
-12 -79 0
-12 -77 0
-12 -69 0
-12 -68 0
-12 -63 0
-12 -62 0
-12 -56 0
-12 -46 0
-12 -42 0
-12 -40 0
-12 -39 0
-12 -20 0
-11 -111 0
-11 -106 0
-11 -103 0
-11 -95 0
-11 -80 0
-11 -74 0
-11 -72 0
-11 -70 0
-11 -69 0
-11 -65 0
-11 -60 0
-11 -54 0
-11 -47 0
-11 -44 0
-11 -38 0
-11 -23 0
-11 -14 0
-10 -108 0
-10 -97 0
-10 -92 0
-10 -91 0
-10 -89 0
-10 -88 0
-10 -85 0
-10 -84 0
-10 -77 0
-10 -72 0
-10 -70 0
-10 -58 0
-10 -35 0
-10 -34 0
-10 -32 0
-10 -30 0
-10 -26 0
-10 -25 0
-9 -98 0
-9 -91 0
-9 -89 0
-9 -85 0
-9 -77 0
-9 -75 0
-9 -73 0
-9 -70 0
-9 -63 0
-9 -59 0
-9 -41 0
-9 -34 0
-9 -33 0
-9 -30 0
-9 -26 0
-9 -25 0
-9 -14 0
-9 -10 0
-8 -107 0
-8 -106 0
-8 -104 0
-8 -101 0
-8 -92 0
-8 -80 0
-8 -74 0
-8 -70 0
-8 -63 0
-8 -62 0
-8 -56 0
-8 -54 0
-8 -47 0
-8 -44 0
-8 -42 0
-8 -39 0
-8 -12 0
-8 -11 0
-7 -110 0
-7 -106 0
-7 -103 0
-7 -100 0
-7 -98 0
-7 -97 0
-7 -85 0
-7 -79 0
-7 -67 0
-7 -61 0
-7 -57 0
-7 -56 0
-7 -55 0
-7 -53 0
-7 -37 0
-7 -29 0
-7 -15 0
-6 -99 0
-6 -84 0
-6 -81 0
-6 -76 0
-6 -75 0
-6 -74 0
-6 -71 0
-6 -67 0
-6 -61 0
-6 -60 0
-6 -43 0
-6 -39 0
-6 -30 0
-6 -28 0
-6 -24 0
-6 -20 0
-6 -19 0
-6 -18 0
-6 -13 0
-5 -108 0
-5 -106 0
-5 -105 0
-5 -96 0
-5 -80 0
-5 -74 0
-5 -70 0
-5 -64 0
-5 -54 0
-5 -52 0
-5 -47 0
-5 -44 0
-5 -41 0
-5 -36 0
-5 -31 0
-5 -29 0
-5 -28 0
-5 -11 0
-5 -8 0
-4 -106 0
-4 -104 0
-4 -100 0
-4 -98 0
-4 -97 0
-4 -95 0
-4 -89 0
-4 -83 0
-4 -82 0
-4 -79 0
-4 -76 0
-4 -61 0
-4 -57 0
-4 -48 0
-4 -37 0
-4 -36 0
-4 -21 0
-4 -7 0
-3 -110 0
-3 -105 0
-3 -102 0
-3 -87 0
-3 -82 0
-3 -79 0
-3 -77 0
-3 -69 0
-3 -68 0
-3 -66 0
-3 -58 0
-3 -54 0
-3 -46 0
-3 -40 0
-3 -24 0
-3 -22 0
-3 -20 0
-3 -12 0
-2 -110 0
-2 -102 0
-2 -98 0
-2 -87 0
-2 -82 0
-2 -75 0
-2 -73 0
-2 -66 0
-2 -63 0
-2 -59 0
-2 -58 0
-2 -54 0
-2 -41 0
-2 -33 0
-2 -24 0
-2 -22 0
-2 -14 0
-2 -9 0
-2 -3 0
-1 -109 0
-1 -106 0
-1 -101 0
-1 -100 0
-1 -98 0
-1 -97 0
-1 -90 0
-1 -79 0
-1 -71 0
-1 -66 0
-1 -65 0
-1 -61 0
-1 -57 0
-1 -37 0
-1 -31 0
-1 -27 0
-1 -26 0
-1 -7 0
-1 -4 0
1 26 27 31 65 66 71 90 101 109 0
2 9 14 33 41 59 63 73 75 98 0
3 12 20 40 46 68 69 77 79 105 0
4 21 36 48 76 82 83 89 95 104 0
5 8 11 44 47 54 70 74 80 106 0
6 18 24 28 30 39 43 60 61 99 0
7 15 29 53 55 56 67 85 103 110 0
13 17 22 25 38 51 93 96 100 107 0
19 23 34 37 42 49 52 78 86 102 0
45 50 57 62 64 81 87 91 94 111 0
10 16 32 35 58 72 84 88 92 97 108 0
