p cnf 31 141
-28 -30 0
-28 -29 0
-27 -29 0
-27 -28 0
-26 -29 0
-25 -30 0
-25 -28 0
-24 -27 0
-24 -26 0
-23 -26 0
-23 -24 0
-22 -26 0
-22 -24 0
-22 -23 0
-21 -31 0
-21 -22 0
-20 -30 0
-20 -29 0
-20 -26 0
-19 -31 0
-19 -29 0
-19 -28 0
-19 -27 0
-18 -30 0
-18 -28 0
-18 -26 0
-18 -25 0
-18 -24 0
-18 -23 0
-18 -22 0
-17 -31 0
-17 -25 0
-17 -19 0
-15 -30 0
-15 -27 0
-15 -24 0
-15 -20 0
-14 -29 0
-14 -28 0
-14 -27 0
-14 -22 0
-14 -21 0
-14 -19 0
-13 -29 0
-13 -26 0
-13 -25 0
-13 -20 0
-13 -17 0
-12 -31 0
-12 -23 0
-12 -21 0
-11 -30 0
-11 -22 0
-11 -21 0
-11 -20 0
-11 -15 0
-11 -14 0
-10 -25 0
-10 -23 0
-10 -17 0
-10 -13 0
-10 -12 0
-9 -25 0
-9 -22 0
-9 -21 0
-9 -17 0
-9 -14 0
-9 -13 0
-9 -11 0
-9 -10 0
-8 -31 0
-8 -26 0
-8 -24 0
-8 -23 0
-8 -22 0
-8 -19 0
-8 -18 0
-8 -17 0
-7 -31 0
-7 -29 0
-7 -26 0
-7 -21 0
-7 -20 0
-7 -13 0
-7 -12 0
-6 -31 0
-6 -30 0
-6 -28 0
-6 -25 0
-6 -21 0
-6 -18 0
-6 -12 0
-6 -7 0
-5 -29 0
-5 -28 0
-5 -27 0
-5 -23 0
-5 -19 0
-5 -14 0
-5 -12 0
-5 -10 0
-4 -31 0
-4 -27 0
-4 -24 0
-4 -21 0
-4 -15 0
-4 -12 0
-4 -7 0
-4 -6 0
-3 -30 0
-3 -23 0
-3 -20 0
-3 -15 0
-3 -12 0
-3 -11 0
-3 -10 0
-3 -5 0
-2 -27 0
-2 -25 0
-2 -24 0
-2 -17 0
-2 -15 0
-2 -13 0
-2 -10 0
-2 -9 0
-2 -4 0
-1 -31 0
-1 -30 0
-1 -20 0
-1 -19 0
-1 -17 0
-1 -15 0
-1 -11 0
-1 -8 0
-1 -3 0
1 8 17 19 31 0
2 4 15 24 27 0
3 5 10 12 23 0
7 13 20 26 29 0
9 11 14 21 22 0
6 16 18 25 28 30 0
