p cnf 111 1056
-109 -111 0
-105 -108 0
-104 -110 0
-103 -107 0
-101 -105 0
-100 -110 0
-100 -106 0
-99 -110 0
-99 -108 0
-99 -105 0
-99 -100 0
-98 -107 0
-98 -106 0
-98 -103 0
-98 -100 0
-97 -106 0
-97 -102 0
-97 -100 0
-97 -98 0
-96 -110 0
-96 -104 0
-95 -106 0
-95 -100 0
-95 -98 0
-95 -97 0
-94 -95 0
-93 -108 0
-93 -107 0
-93 -105 0
-93 -103 0
-93 -99 0
-93 -98 0
-92 -105 0
-92 -103 0
-92 -101 0
-91 -111 0
-91 -109 0
-91 -106 0
-90 -111 0
-90 -109 0
-90 -96 0
-90 -91 0
-89 -109 0
-89 -94 0
-88 -104 0
-88 -103 0
-88 -92 0
-87 -101 0
-87 -95 0
-87 -94 0
-86 -110 0
-86 -104 0
-86 -102 0
-86 -97 0
-86 -96 0
-85 -103 0
-85 -95 0
-85 -94 0
-85 -92 0
-85 -88 0
-85 -87 0
-84 -107 0
-84 -103 0
-84 -101 0
-84 -98 0
-84 -93 0
-84 -87 0
-83 -111 0
-82 -108 0
-82 -107 0
-81 -103 0
-81 -96 0
-81 -92 0
-81 -90 0
-81 -88 0
-81 -85 0
-80 -107 0
-80 -96 0
-80 -90 0
-80 -82 0
-80 -81 0
-79 -111 0
-79 -102 0
-79 -83 0
-78 -111 0
-78 -109 0
-78 -107 0
-78 -103 0
-78 -98 0
-78 -93 0
-78 -91 0
-78 -90 0
-78 -84 0
-77 -108 0
-77 -106 0
-77 -100 0
-77 -98 0
-77 -97 0
-77 -95 0
-77 -82 0
-76 -107 0
-76 -103 0
-76 -102 0
-76 -98 0
-76 -93 0
-76 -84 0
-76 -79 0
-76 -78 0
-75 -106 0
-75 -103 0
-75 -92 0
-75 -91 0
-75 -88 0
-75 -85 0
-75 -81 0
-74 -102 0
-74 -97 0
-74 -86 0
-74 -83 0
-73 -111 0
-73 -108 0
-73 -105 0
-73 -99 0
-73 -93 0
-73 -83 0
-73 -79 0
-72 -111 0
-72 -109 0
-72 -95 0
-72 -94 0
-72 -91 0
-72 -90 0
-72 -87 0
-72 -85 0
-72 -78 0
-71 -111 0
-71 -109 0
-71 -105 0
-71 -101 0
-71 -92 0
-71 -91 0
-71 -90 0
-71 -78 0
-71 -72 0
-70 -104 0
-70 -101 0
-70 -88 0
-70 -87 0
-70 -84 0
-69 -108 0
-69 -106 0
-69 -105 0
-69 -99 0
-69 -93 0
-69 -91 0
-69 -75 0
-69 -73 0
-68 -111 0
-68 -101 0
-68 -87 0
-68 -84 0
-68 -83 0
-68 -79 0
-68 -73 0
-68 -70 0
-67 -110 0
-67 -104 0
-67 -96 0
-67 -95 0
-67 -94 0
-67 -87 0
-67 -86 0
-67 -85 0
-67 -72 0
-66 -103 0
-66 -102 0
-66 -97 0
-66 -92 0
-66 -88 0
-66 -86 0
-66 -85 0
-66 -81 0
-66 -75 0
-66 -74 0
-65 -109 0
-65 -89 0
-65 -83 0
-65 -74 0
-64 -107 0
-64 -104 0
-64 -88 0
-64 -82 0
-64 -80 0
-64 -70 0
-63 -95 0
-63 -94 0
-63 -87 0
-63 -85 0
-63 -83 0
-63 -74 0
-63 -72 0
-63 -67 0
-63 -65 0
-62 -110 0
-62 -100 0
-62 -99 0
-62 -94 0
-62 -89 0
-61 -111 0
-61 -109 0
-61 -102 0
-61 -97 0
-61 -91 0
-61 -90 0
-61 -86 0
-61 -78 0
-61 -74 0
-61 -72 0
-61 -71 0
-61 -66 0
-60 -96 0
-60 -94 0
-60 -90 0
-60 -89 0
-60 -81 0
-60 -80 0
-60 -62 0
-59 -102 0
-59 -95 0
-59 -94 0
-59 -87 0
-59 -85 0
-59 -79 0
-59 -76 0
-59 -72 0
-59 -67 0
-59 -63 0
-58 -102 0
-58 -97 0
-58 -94 0
-58 -89 0
-58 -86 0
-58 -74 0
-58 -66 0
-58 -62 0
-58 -61 0
-58 -60 0
-57 -111 0
-57 -94 0
-57 -89 0
-57 -83 0
-57 -79 0
-57 -73 0
-57 -68 0
-57 -62 0
-57 -60 0
-57 -58 0
-56 -110 0
-56 -101 0
-56 -100 0
-56 -99 0
-56 -87 0
-56 -84 0
-56 -70 0
-56 -68 0
-56 -62 0
-55 -108 0
-55 -105 0
-55 -99 0
-55 -95 0
-55 -94 0
-55 -93 0
-55 -87 0
-55 -85 0
-55 -73 0
-55 -72 0
-55 -69 0
-55 -67 0
-55 -63 0
-55 -59 0
-54 -109 0
-54 -101 0
-54 -89 0
-54 -87 0
-54 -84 0
-54 -70 0
-54 -68 0
-54 -65 0
-54 -56 0
-53 -107 0
-53 -102 0
-53 -97 0
-53 -86 0
-53 -82 0
-53 -80 0
-53 -74 0
-53 -66 0
-53 -64 0
-53 -61 0
-53 -58 0
-52 -106 0
-52 -100 0
-52 -98 0
-52 -97 0
-52 -96 0
-52 -95 0
-52 -90 0
-52 -81 0
-52 -80 0
-52 -77 0
-52 -60 0
-51 -106 0
-51 -102 0
-51 -91 0
-51 -79 0
-51 -76 0
-51 -75 0
-51 -69 0
-51 -59 0
-50 -108 0
-50 -101 0
-50 -87 0
-50 -84 0
-50 -82 0
-50 -77 0
-50 -70 0
-50 -68 0
-50 -56 0
-50 -54 0
-49 -108 0
-49 -102 0
-49 -82 0
-49 -79 0
-49 -77 0
-49 -76 0
-49 -59 0
-49 -51 0
-49 -50 0
-48 -107 0
-48 -103 0
-48 -98 0
-48 -93 0
-48 -84 0
-48 -83 0
-48 -78 0
-48 -76 0
-48 -74 0
-48 -65 0
-48 -63 0
-47 -109 0
-47 -106 0
-47 -100 0
-47 -98 0
-47 -97 0
-47 -95 0
-47 -89 0
-47 -77 0
-47 -65 0
-47 -54 0
-47 -52 0
-46 -107 0
-46 -105 0
-46 -101 0
-46 -92 0
-46 -82 0
-46 -80 0
-46 -71 0
-46 -64 0
-46 -53 0
-45 -108 0
-45 -105 0
-45 -102 0
-45 -99 0
-45 -97 0
-45 -93 0
-45 -86 0
-45 -74 0
-45 -73 0
-45 -69 0
-45 -66 0
-45 -61 0
-45 -58 0
-45 -55 0
-45 -53 0
-44 -101 0
-44 -96 0
-44 -90 0
-44 -87 0
-44 -84 0
-44 -81 0
-44 -80 0
-44 -70 0
-44 -68 0
-44 -60 0
-44 -56 0
-44 -54 0
-44 -52 0
-44 -50 0
-43 -108 0
-43 -83 0
-43 -82 0
-43 -77 0
-43 -74 0
-43 -65 0
-43 -63 0
-43 -50 0
-43 -49 0
-43 -48 0
-42 -110 0
-42 -105 0
-42 -104 0
-42 -101 0
-42 -96 0
-42 -92 0
-42 -86 0
-42 -71 0
-42 -67 0
-42 -46 0
-41 -110 0
-41 -106 0
-41 -104 0
-41 -96 0
-41 -91 0
-41 -86 0
-41 -75 0
-41 -69 0
-41 -67 0
-41 -51 0
-41 -42 0
-39 -106 0
-39 -101 0
-39 -91 0
-39 -87 0
-39 -84 0
-39 -75 0
-39 -70 0
-39 -69 0
-39 -68 0
-39 -56 0
-39 -54 0
-39 -51 0
-39 -50 0
-39 -44 0
-39 -41 0
-38 -110 0
-38 -102 0
-38 -100 0
-38 -99 0
-38 -79 0
-38 -76 0
-38 -62 0
-38 -59 0
-38 -56 0
-38 -51 0
-38 -49 0
-37 -96 0
-37 -90 0
-37 -83 0
-37 -81 0
-37 -80 0
-37 -74 0
-37 -65 0
-37 -63 0
-37 -60 0
-37 -52 0
-37 -48 0
-37 -44 0
-37 -43 0
-36 -105 0
-36 -101 0
-36 -94 0
-36 -92 0
-36 -89 0
-36 -71 0
-36 -62 0
-36 -60 0
-36 -58 0
-36 -57 0
-36 -46 0
-36 -42 0
-35 -107 0
-35 -95 0
-35 -94 0
-35 -87 0
-35 -85 0
-35 -82 0
-35 -80 0
-35 -72 0
-35 -67 0
-35 -64 0
-35 -63 0
-35 -59 0
-35 -55 0
-35 -53 0
-35 -46 0
-34 -106 0
-34 -105 0
-34 -101 0
-34 -100 0
-34 -98 0
-34 -97 0
-34 -95 0
-34 -92 0
-34 -77 0
-34 -71 0
-34 -52 0
-34 -47 0
-34 -46 0
-34 -42 0
-34 -36 0
-33 -111 0
-33 -103 0
-33 -92 0
-33 -88 0
-33 -85 0
-33 -83 0
-33 -81 0
-33 -79 0
-33 -75 0
-33 -73 0
-33 -68 0
-33 -66 0
-33 -57 0
-32 -108 0
-32 -105 0
-32 -104 0
-32 -99 0
-32 -93 0
-32 -88 0
-32 -73 0
-32 -70 0
-32 -69 0
-32 -64 0
-32 -55 0
-32 -45 0
-31 -109 0
-31 -102 0
-31 -89 0
-31 -79 0
-31 -76 0
-31 -65 0
-31 -59 0
-31 -54 0
-31 -51 0
-31 -49 0
-31 -47 0
-31 -38 0
-30 -105 0
-30 -101 0
-30 -92 0
-30 -83 0
-30 -74 0
-30 -71 0
-30 -65 0
-30 -63 0
-30 -48 0
-30 -46 0
-30 -43 0
-30 -42 0
-30 -37 0
-30 -36 0
-30 -34 0
-29 -110 0
-29 -100 0
-29 -99 0
-29 -83 0
-29 -74 0
-29 -65 0
-29 -63 0
-29 -62 0
-29 -56 0
-29 -48 0
-29 -43 0
-29 -38 0
-29 -37 0
-29 -30 0
-28 -111 0
-28 -106 0
-28 -100 0
-28 -98 0
-28 -97 0
-28 -95 0
-28 -83 0
-28 -79 0
-28 -77 0
-28 -73 0
-28 -68 0
-28 -57 0
-28 -52 0
-28 -47 0
-28 -34 0
-28 -33 0
-27 -109 0
-27 -107 0
-27 -89 0
-27 -82 0
-27 -80 0
-27 -65 0
-27 -64 0
-27 -54 0
-27 -53 0
-27 -47 0
-27 -46 0
-27 -35 0
-27 -31 0
-26 -111 0
-26 -107 0
-26 -83 0
-26 -82 0
-26 -80 0
-26 -79 0
-26 -73 0
-26 -68 0
-26 -64 0
-26 -57 0
-26 -53 0
-26 -46 0
-26 -35 0
-26 -33 0
-26 -28 0
-26 -27 0
-25 -111 0
-25 -110 0
-25 -104 0
-25 -96 0
-25 -86 0
-25 -83 0
-25 -79 0
-25 -73 0
-25 -68 0
-25 -67 0
-25 -57 0
-25 -42 0
-25 -41 0
-25 -33 0
-25 -28 0
-25 -26 0
-24 -102 0
-24 -96 0
-24 -90 0
-24 -81 0
-24 -80 0
-24 -79 0
-24 -76 0
-24 -60 0
-24 -59 0
-24 -52 0
-24 -51 0
-24 -49 0
-24 -44 0
-24 -38 0
-24 -37 0
-24 -31 0
-23 -108 0
-23 -94 0
-23 -89 0
-23 -82 0
-23 -77 0
-23 -62 0
-23 -60 0
-23 -58 0
-23 -57 0
-23 -50 0
-23 -49 0
-23 -43 0
-23 -36 0
-22 -107 0
-22 -103 0
-22 -98 0
-22 -94 0
-22 -93 0
-22 -89 0
-22 -84 0
-22 -78 0
-22 -76 0
-22 -62 0
-22 -60 0
-22 -58 0
-22 -57 0
-22 -48 0
-22 -36 0
-22 -23 0
-21 -107 0
-21 -106 0
-21 -91 0
-21 -82 0
-21 -80 0
-21 -75 0
-21 -69 0
-21 -64 0
-21 -53 0
-21 -51 0
-21 -46 0
-21 -41 0
-21 -39 0
-21 -35 0
-21 -27 0
-21 -26 0
-20 -108 0
-20 -103 0
-20 -92 0
-20 -88 0
-20 -85 0
-20 -82 0
-20 -81 0
-20 -77 0
-20 -75 0
-20 -66 0
-20 -50 0
-20 -49 0
-20 -43 0
-20 -33 0
-20 -23 0
-19 -110 0
-19 -109 0
-19 -104 0
-19 -96 0
-19 -89 0
-19 -86 0
-19 -67 0
-19 -65 0
-19 -54 0
-19 -47 0
-19 -42 0
-19 -41 0
-19 -31 0
-19 -27 0
-19 -25 0
-18 -111 0
-18 -109 0
-18 -108 0
-18 -91 0
-18 -90 0
-18 -82 0
-18 -78 0
-18 -77 0
-18 -72 0
-18 -71 0
-18 -61 0
-18 -50 0
-18 -49 0
-18 -43 0
-18 -23 0
-18 -20 0
-17 -109 0
-17 -108 0
-17 -105 0
-17 -99 0
-17 -93 0
-17 -89 0
-17 -73 0
-17 -69 0
-17 -65 0
-17 -55 0
-17 -54 0
-17 -47 0
-17 -45 0
-17 -32 0
-17 -31 0
-17 -27 0
-17 -19 0
-16 -104 0
-16 -88 0
-16 -83 0
-16 -74 0
-16 -70 0
-16 -65 0
-16 -64 0
-16 -63 0
-16 -48 0
-16 -43 0
-16 -37 0
-16 -32 0
-16 -30 0
-16 -29 0
-15 -111 0
-15 -110 0
-15 -109 0
-15 -100 0
-15 -99 0
-15 -91 0
-15 -90 0
-15 -78 0
-15 -72 0
-15 -71 0
-15 -62 0
-15 -61 0
-15 -56 0
-15 -38 0
-15 -29 0
-15 -18 0
-14 -104 0
-14 -94 0
-14 -89 0
-14 -88 0
-14 -70 0
-14 -64 0
-14 -62 0
-14 -60 0
-14 -58 0
-14 -57 0
-14 -36 0
-14 -32 0
-14 -23 0
-14 -22 0
-14 -16 0
-13 -105 0
-13 -102 0
-13 -101 0
-13 -92 0
-13 -79 0
-13 -76 0
-13 -71 0
-13 -59 0
-13 -51 0
-13 -49 0
-13 -46 0
-13 -42 0
-13 -38 0
-13 -36 0
-13 -34 0
-13 -31 0
-13 -30 0
-13 -24 0
-12 -109 0
-12 -103 0
-12 -92 0
-12 -89 0
-12 -88 0
-12 -85 0
-12 -81 0
-12 -75 0
-12 -66 0
-12 -65 0
-12 -54 0
-12 -47 0
-12 -33 0
-12 -31 0
-12 -27 0
-12 -20 0
-12 -19 0
-12 -17 0
-11 -110 0
-11 -107 0
-11 -104 0
-11 -103 0
-11 -98 0
-11 -96 0
-11 -93 0
-11 -86 0
-11 -84 0
-11 -78 0
-11 -76 0
-11 -67 0
-11 -48 0
-11 -42 0
-11 -41 0
-11 -25 0
-11 -22 0
-11 -19 0
-10 -110 0
-10 -107 0
-10 -100 0
-10 -99 0
-10 -82 0
-10 -80 0
-10 -64 0
-10 -62 0
-10 -56 0
-10 -53 0
-10 -46 0
-10 -38 0
-10 -35 0
-10 -29 0
-10 -27 0
-10 -26 0
-10 -21 0
-10 -15 0
-9 -104 0
-9 -102 0
-9 -88 0
-9 -79 0
-9 -76 0
-9 -70 0
-9 -64 0
-9 -59 0
-9 -51 0
-9 -49 0
-9 -38 0
-9 -32 0
-9 -31 0
-9 -24 0
-9 -16 0
-9 -14 0
-9 -13 0
-8 -106 0
-8 -104 0
-8 -100 0
-8 -98 0
-8 -97 0
-8 -95 0
-8 -88 0
-8 -77 0
-8 -70 0
-8 -64 0
-8 -52 0
-8 -47 0
-8 -34 0
-8 -32 0
-8 -28 0
-8 -16 0
-8 -14 0
-8 -9 0
-7 -102 0
-7 -101 0
-7 -97 0
-7 -87 0
-7 -86 0
-7 -84 0
-7 -74 0
-7 -70 0
-7 -68 0
-7 -66 0
-7 -61 0
-7 -58 0
-7 -56 0
-7 -54 0
-7 -53 0
-7 -50 0
-7 -45 0
-7 -44 0
-7 -39 0
-6 -108 0
-6 -105 0
-6 -99 0
-6 -96 0
-6 -93 0
-6 -90 0
-6 -81 0
-6 -80 0
-6 -73 0
-6 -69 0
-6 -60 0
-6 -55 0
-6 -52 0
-6 -45 0
-6 -44 0
-6 -37 0
-6 -32 0
-6 -24 0
-6 -17 0
-5 -110 0
-5 -108 0
-5 -104 0
-5 -96 0
-5 -86 0
-5 -82 0
-5 -77 0
-5 -67 0
-5 -50 0
-5 -49 0
-5 -43 0
-5 -42 0
-5 -41 0
-5 -25 0
-5 -23 0
-5 -20 0
-5 -19 0
-5 -18 0
-5 -11 0
-4 -106 0
-4 -94 0
-4 -91 0
-4 -89 0
-4 -75 0
-4 -69 0
-4 -62 0
-4 -60 0
-4 -58 0
-4 -57 0
-4 -51 0
-4 -41 0
-4 -39 0
-4 -36 0
-4 -23 0
-4 -22 0
-4 -21 0
-4 -14 0
-3 -111 0
-3 -109 0
-3 -104 0
-3 -91 0
-3 -90 0
-3 -88 0
-3 -78 0
-3 -72 0
-3 -71 0
-3 -70 0
-3 -64 0
-3 -61 0
-3 -32 0
-3 -18 0
-3 -16 0
-3 -15 0
-3 -14 0
-3 -9 0
-3 -8 0
-2 -110 0
-2 -103 0
-2 -100 0
-2 -99 0
-2 -92 0
-2 -88 0
-2 -85 0
-2 -81 0
-2 -75 0
-2 -66 0
-2 -62 0
-2 -56 0
-2 -38 0
-2 -33 0
-2 -29 0
-2 -20 0
-2 -15 0
-2 -12 0
-2 -10 0
-1 -106 0
-1 -91 0
-1 -83 0
-1 -75 0
-1 -74 0
-1 -69 0
-1 -65 0
-1 -63 0
-1 -51 0
-1 -48 0
-1 -43 0
-1 -41 0
-1 -39 0
-1 -37 0
-1 -30 0
-1 -29 0
-1 -21 0
-1 -16 0
-1 -4 0
1 4 21 39 41 51 69 75 91 106 0
2 10 15 29 38 56 62 99 100 110 0
3 8 9 14 16 32 64 70 88 104 0
5 18 20 23 43 49 50 77 82 108 0
6 24 37 44 52 60 80 81 90 96 0
7 45 53 58 61 66 74 86 97 102 0
11 22 48 76 78 84 93 98 103 107 0
13 30 34 36 42 46 71 92 101 105 0
25 26 28 33 57 68 73 79 83 111 0
35 55 59 63 67 72 85 87 94 95 0
12 17 19 27 31 40 47 54 65 89 109 0
