p cnf 43 238
-40 -41 0
-39 -43 0
-38 -42 0
-38 -41 0
-38 -40 0
-37 -41 0
-36 -41 0
-36 -37 0
-35 -43 0
-35 -36 0
-34 -36 0
-34 -35 0
-33 -42 0
-33 -38 0
-33 -36 0
-33 -35 0
-33 -34 0
-32 -42 0
-32 -41 0
-32 -37 0
-32 -36 0
-31 -39 0
-31 -36 0
-31 -35 0
-31 -34 0
-31 -33 0
-30 -41 0
-30 -40 0
-30 -38 0
-30 -34 0
-29 -36 0
-29 -35 0
-29 -34 0
-29 -33 0
-29 -31 0
-28 -43 0
-28 -41 0
-28 -40 0
-28 -38 0
-28 -35 0
-28 -30 0
-27 -40 0
-26 -43 0
-26 -39 0
-26 -29 0
-25 -42 0
-25 -34 0
-25 -32 0
-25 -30 0
-24 -42 0
-24 -39 0
-24 -32 0
-24 -31 0
-24 -25 0
-23 -37 0
-23 -34 0
-23 -30 0
-23 -25 0
-22 -43 0
-22 -40 0
-22 -39 0
-22 -27 0
-22 -26 0
-21 -39 0
-21 -31 0
-21 -27 0
-21 -24 0
-20 -41 0
-20 -40 0
-20 -38 0
-20 -30 0
-20 -29 0
-20 -28 0
-20 -26 0
-19 -29 0
-19 -27 0
-19 -26 0
-19 -21 0
-19 -20 0
-18 -41 0
-18 -37 0
-18 -36 0
-18 -32 0
-18 -27 0
-18 -21 0
-18 -19 0
-17 -43 0
-17 -35 0
-17 -28 0
-17 -27 0
-17 -21 0
-17 -19 0
-17 -18 0
-16 -42 0
-16 -40 0
-16 -32 0
-16 -27 0
-16 -25 0
-16 -24 0
-16 -22 0
-15 -43 0
-15 -37 0
-15 -35 0
-15 -28 0
-15 -23 0
-15 -17 0
-14 -42 0
-14 -38 0
-14 -37 0
-14 -33 0
-14 -23 0
-14 -15 0
-13 -39 0
-13 -37 0
-13 -31 0
-13 -24 0
-13 -23 0
-13 -21 0
-13 -15 0
-13 -14 0
-11 -37 0
-11 -29 0
-11 -26 0
-11 -23 0
-11 -20 0
-11 -19 0
-11 -15 0
-11 -14 0
-11 -13 0
-10 -43 0
-10 -41 0
-10 -39 0
-10 -37 0
-10 -36 0
-10 -32 0
-10 -26 0
-10 -22 0
-10 -18 0
-9 -43 0
-9 -39 0
-9 -34 0
-9 -30 0
-9 -26 0
-9 -25 0
-9 -23 0
-9 -22 0
-9 -10 0
-8 -40 0
-8 -36 0
-8 -35 0
-8 -34 0
-8 -33 0
-8 -31 0
-8 -29 0
-8 -27 0
-8 -22 0
-8 -16 0
-7 -42 0
-7 -38 0
-7 -33 0
-7 -27 0
-7 -21 0
-7 -19 0
-7 -18 0
-7 -17 0
-7 -14 0
-6 -40 0
-6 -37 0
-6 -27 0
-6 -23 0
-6 -22 0
-6 -16 0
-6 -15 0
-6 -14 0
-6 -13 0
-6 -11 0
-6 -8 0
-5 -43 0
-5 -42 0
-5 -39 0
-5 -38 0
-5 -33 0
-5 -26 0
-5 -22 0
-5 -14 0
-5 -10 0
-5 -9 0
-5 -7 0
-4 -34 0
-4 -30 0
-4 -27 0
-4 -25 0
-4 -23 0
-4 -21 0
-4 -19 0
-4 -18 0
-4 -17 0
-4 -9 0
-4 -7 0
-3 -42 0
-3 -32 0
-3 -29 0
-3 -26 0
-3 -25 0
-3 -24 0
-3 -20 0
-3 -19 0
-3 -16 0
-3 -11 0
-2 -41 0
-2 -40 0
-2 -39 0
-2 -38 0
-2 -31 0
-2 -30 0
-2 -28 0
-2 -24 0
-2 -21 0
-2 -20 0
-2 -13 0
-1 -43 0
-1 -42 0
-1 -35 0
-1 -32 0
-1 -28 0
-1 -25 0
-1 -24 0
-1 -17 0
-1 -16 0
-1 -15 0
-1 -3 0
1 15 17 28 35 43 0
2 13 21 24 31 39 0
3 11 19 20 26 29 0
4 9 23 25 30 34 0
5 7 14 33 38 42 0
10 18 32 36 37 41 0
6 8 12 16 22 27 40 0
