p cnf 43 238
-40 -42 0
-39 -42 0
-39 -40 0
-38 -39 0
-37 -42 0
-37 -40 0
-37 -39 0
-36 -43 0
-36 -38 0
-35 -43 0
-35 -40 0
-34 -39 0
-34 -38 0
-33 -41 0
-33 -38 0
-33 -36 0
-31 -41 0
-31 -32 0
-30 -42 0
-30 -38 0
-30 -36 0
-30 -33 0
-29 -41 0
-29 -33 0
-29 -32 0
-28 -43 0
-28 -41 0
-28 -36 0
-28 -31 0
-27 -43 0
-27 -36 0
-27 -32 0
-27 -29 0
-27 -28 0
-26 -42 0
-26 -41 0
-26 -31 0
-26 -30 0
-26 -28 0
-25 -37 0
-25 -34 0
-24 -43 0
-24 -36 0
-24 -34 0
-24 -28 0
-24 -27 0
-24 -25 0
-23 -42 0
-23 -32 0
-23 -30 0
-23 -29 0
-23 -27 0
-23 -26 0
-22 -39 0
-22 -38 0
-22 -34 0
-22 -32 0
-22 -29 0
-22 -27 0
-22 -23 0
-21 -38 0
-21 -36 0
-21 -33 0
-21 -32 0
-21 -31 0
-21 -30 0
-19 -41 0
-19 -37 0
-19 -31 0
-19 -28 0
-19 -26 0
-19 -25 0
-18 -42 0
-18 -41 0
-18 -40 0
-18 -39 0
-18 -37 0
-18 -33 0
-18 -29 0
-17 -43 0
-17 -37 0
-17 -35 0
-17 -25 0
-17 -19 0
-16 -43 0
-16 -42 0
-16 -40 0
-16 -39 0
-16 -37 0
-16 -36 0
-16 -28 0
-16 -27 0
-16 -24 0
-16 -18 0
-15 -43 0
-15 -39 0
-15 -38 0
-15 -35 0
-15 -34 0
-15 -22 0
-15 -17 0
-14 -40 0
-14 -38 0
-14 -36 0
-14 -35 0
-14 -33 0
-14 -30 0
-14 -21 0
-13 -37 0
-13 -32 0
-13 -29 0
-13 -27 0
-13 -25 0
-13 -23 0
-13 -22 0
-13 -19 0
-13 -17 0
-12 -41 0
-12 -34 0
-12 -33 0
-12 -29 0
-12 -25 0
-12 -24 0
-12 -18 0
-11 -34 0
-11 -32 0
-11 -31 0
-11 -25 0
-11 -24 0
-11 -21 0
-11 -12 0
-10 -42 0
-10 -34 0
-10 -30 0
-10 -26 0
-10 -25 0
-10 -24 0
-10 -23 0
-10 -12 0
-10 -11 0
-9 -42 0
-9 -40 0
-9 -39 0
-9 -37 0
-9 -32 0
-9 -31 0
-9 -21 0
-9 -18 0
-9 -16 0
-9 -11 0
-8 -40 0
-8 -35 0
-8 -32 0
-8 -29 0
-8 -27 0
-8 -23 0
-8 -22 0
-8 -14 0
-8 -13 0
-7 -41 0
-7 -39 0
-7 -38 0
-7 -34 0
-7 -31 0
-7 -28 0
-7 -26 0
-7 -22 0
-7 -19 0
-7 -15 0
-6 -43 0
-6 -35 0
-6 -32 0
-6 -31 0
-6 -21 0
-6 -17 0
-6 -15 0
-6 -11 0
-6 -9 0
-5 -41 0
-5 -40 0
-5 -35 0
-5 -31 0
-5 -28 0
-5 -26 0
-5 -19 0
-5 -14 0
-5 -8 0
-5 -7 0
-4 -43 0
-4 -41 0
-4 -35 0
-4 -33 0
-4 -29 0
-4 -18 0
-4 -17 0
-4 -15 0
-4 -12 0
-4 -6 0
-3 -38 0
-3 -37 0
-3 -36 0
-3 -33 0
-3 -30 0
-3 -25 0
-3 -21 0
-3 -19 0
-3 -17 0
-3 -14 0
-3 -13 0
-2 -43 0
-2 -42 0
-2 -35 0
-2 -30 0
-2 -26 0
-2 -23 0
-2 -17 0
-2 -15 0
-2 -10 0
-2 -6 0
-2 -4 0
-1 -40 0
-1 -35 0
-1 -34 0
-1 -25 0
-1 -24 0
-1 -14 0
-1 -12 0
-1 -11 0
-1 -10 0
-1 -8 0
-1 -5 0
2 10 23 26 30 42 0
3 13 17 19 25 37 0
4 12 18 29 33 41 0
6 9 11 21 31 32 0
7 15 22 34 38 39 0
16 24 27 28 36 43 0
1 5 8 14 20 35 40 0
