p cnf 31 141
-29 -31 0
-27 -31 0
-27 -30 0
-26 -28 0
-25 -28 0
-25 -26 0
-24 -30 0
-24 -27 0
-24 -25 0
-23 -31 0
-23 -27 0
-21 -31 0
-21 -30 0
-21 -29 0
-20 -30 0
-20 -28 0
-20 -26 0
-20 -25 0
-20 -21 0
-19 -30 0
-19 -29 0
-19 -27 0
-19 -24 0
-18 -29 0
-18 -23 0
-18 -19 0
-17 -29 0
-17 -28 0
-17 -26 0
-17 -25 0
-17 -20 0
-17 -19 0
-17 -18 0
-16 -31 0
-16 -29 0
-16 -28 0
-16 -21 0
-15 -31 0
-15 -27 0
-15 -23 0
-14 -26 0
-14 -15 0
-13 -31 0
-13 -28 0
-13 -27 0
-13 -26 0
-13 -25 0
-13 -23 0
-13 -20 0
-13 -17 0
-13 -15 0
-12 -29 0
-12 -19 0
-12 -18 0
-12 -17 0
-12 -15 0
-12 -14 0
-11 -26 0
-11 -23 0
-11 -18 0
-11 -14 0
-10 -31 0
-10 -29 0
-10 -25 0
-10 -24 0
-10 -21 0
-10 -16 0
-9 -25 0
-9 -24 0
-9 -23 0
-9 -18 0
-9 -11 0
-9 -10 0
-8 -30 0
-8 -23 0
-8 -21 0
-8 -20 0
-8 -18 0
-8 -11 0
-8 -9 0
-7 -30 0
-7 -27 0
-7 -26 0
-7 -24 0
-7 -19 0
-7 -14 0
-7 -11 0
-6 -30 0
-6 -28 0
-6 -27 0
-6 -24 0
-6 -19 0
-6 -16 0
-6 -7 0
-5 -25 0
-5 -24 0
-5 -15 0
-5 -14 0
-5 -12 0
-5 -10 0
-5 -9 0
-4 -28 0
-4 -23 0
-4 -18 0
-4 -16 0
-4 -11 0
-4 -9 0
-4 -8 0
-4 -6 0
-3 -28 0
-3 -16 0
-3 -15 0
-3 -14 0
-3 -12 0
-3 -6 0
-3 -5 0
-3 -4 0
-2 -31 0
-2 -29 0
-2 -26 0
-2 -21 0
-2 -16 0
-2 -14 0
-2 -11 0
-2 -10 0
-2 -7 0
-1 -30 0
-1 -21 0
-1 -20 0
-1 -15 0
-1 -14 0
-1 -12 0
-1 -8 0
-1 -5 0
-1 -3 0
1 8 20 21 30 0
2 7 11 14 26 0
3 4 6 16 28 0
12 17 18 19 29 0
13 15 23 27 31 0
5 9 10 22 24 25 0
