p cnf 21 75
-20 -21 0
-17 -19 0
-15 -20 0
-15 -19 0
-14 -18 0
-13 -19 0
-13 -15 0
-13 -14 0
-12 -21 0
-12 -18 0
-12 -14 0
-11 -19 0
-11 -18 0
-11 -17 0
-11 -14 0
-11 -12 0
-10 -21 0
-10 -19 0
-10 -15 0
-10 -13 0
-10 -12 0
-9 -21 0
-9 -20 0
-9 -14 0
-9 -13 0
-8 -21 0
-8 -20 0
-8 -19 0
-8 -17 0
-8 -11 0
-8 -9 0
-7 -21 0
-7 -17 0
-7 -12 0
-7 -10 0
-6 -17 0
-6 -14 0
-6 -13 0
-6 -9 0
-6 -7 0
-5 -19 0
-5 -18 0
-5 -15 0
-5 -13 0
-5 -10 0
-4 -20 0
-4 -17 0
-4 -15 0
-4 -7 0
-4 -6 0
-3 -21 0
-3 -20 0
-3 -18 0
-3 -9 0
-3 -8 0
-3 -5 0
-2 -20 0
-2 -18 0
-2 -15 0
-2 -14 0
-2 -12 0
-2 -11 0
-2 -4 0
-1 -18 0
-1 -17 0
-1 -7 0
-1 -6 0
-1 -5 0
-1 -4 0
-1 -3 0
1 3 5 18 0
2 4 15 20 0
7 10 12 21 0
8 11 17 19 0
6 9 13 14 16 0
