p cnf 73 549
-69 -73 0
-69 -72 0
-68 -71 0
-66 -70 0
-66 -68 0
-65 -73 0
-64 -72 0
-64 -71 0
-64 -69 0
-64 -68 0
-63 -72 0
-63 -68 0
-63 -66 0
-62 -72 0
-62 -69 0
-62 -65 0
-62 -64 0
-61 -73 0
-61 -69 0
-60 -71 0
-60 -68 0
-60 -64 0
-59 -72 0
-59 -70 0
-59 -69 0
-59 -66 0
-59 -64 0
-59 -62 0
-58 -68 0
-58 -66 0
-58 -63 0
-57 -73 0
-57 -72 0
-57 -65 0
-57 -63 0
-56 -72 0
-56 -69 0
-56 -64 0
-56 -62 0
-56 -59 0
-54 -70 0
-54 -55 0
-53 -70 0
-53 -54 0
-52 -73 0
-52 -65 0
-52 -57 0
-52 -55 0
-52 -54 0
-51 -70 0
-51 -66 0
-51 -59 0
-51 -55 0
-50 -61 0
-50 -58 0
-49 -61 0
-49 -53 0
-49 -50 0
-48 -65 0
-48 -62 0
-48 -61 0
-48 -50 0
-48 -49 0
-47 -72 0
-47 -71 0
-47 -63 0
-47 -57 0
-46 -73 0
-46 -71 0
-46 -69 0
-46 -61 0
-46 -47 0
-45 -71 0
-45 -68 0
-45 -64 0
-45 -60 0
-45 -55 0
-45 -51 0
-44 -71 0
-44 -65 0
-44 -62 0
-44 -48 0
-44 -47 0
-44 -46 0
-43 -72 0
-43 -63 0
-43 -60 0
-43 -57 0
-43 -47 0
-42 -71 0
-42 -70 0
-42 -66 0
-42 -59 0
-42 -51 0
-42 -47 0
-42 -46 0
-42 -44 0
-41 -73 0
-41 -65 0
-41 -57 0
-41 -53 0
-41 -52 0
-41 -49 0
-40 -73 0
-40 -65 0
-40 -57 0
-40 -56 0
-40 -52 0
-40 -41 0
-39 -70 0
-39 -66 0
-39 -61 0
-39 -59 0
-39 -51 0
-39 -50 0
-39 -49 0
-39 -48 0
-39 -42 0
-38 -73 0
-38 -65 0
-38 -58 0
-38 -57 0
-38 -52 0
-38 -50 0
-38 -41 0
-38 -40 0
-37 -68 0
-37 -66 0
-37 -65 0
-37 -63 0
-37 -62 0
-37 -58 0
-37 -48 0
-37 -44 0
-36 -70 0
-36 -65 0
-36 -62 0
-36 -54 0
-36 -53 0
-36 -48 0
-36 -44 0
-36 -37 0
-35 -72 0
-35 -63 0
-35 -57 0
-35 -55 0
-35 -51 0
-35 -47 0
-35 -45 0
-35 -43 0
-34 -71 0
-34 -55 0
-34 -54 0
-34 -52 0
-34 -47 0
-34 -46 0
-34 -44 0
-34 -42 0
-33 -71 0
-33 -70 0
-33 -68 0
-33 -64 0
-33 -60 0
-33 -54 0
-33 -53 0
-33 -45 0
-33 -36 0
-32 -73 0
-32 -70 0
-32 -66 0
-32 -65 0
-32 -59 0
-32 -57 0
-32 -52 0
-32 -51 0
-32 -42 0
-32 -41 0
-32 -40 0
-32 -39 0
-32 -38 0
-31 -73 0
-31 -69 0
-31 -61 0
-31 -60 0
-31 -46 0
-31 -43 0
-30 -55 0
-30 -53 0
-30 -51 0
-30 -49 0
-30 -45 0
-30 -41 0
-30 -35 0
-29 -68 0
-29 -66 0
-29 -63 0
-29 -58 0
-29 -55 0
-29 -54 0
-29 -52 0
-29 -37 0
-29 -34 0
-28 -65 0
-28 -62 0
-28 -60 0
-28 -48 0
-28 -44 0
-28 -43 0
-28 -37 0
-28 -36 0
-28 -31 0
-27 -73 0
-27 -69 0
-27 -61 0
-27 -55 0
-27 -51 0
-27 -46 0
-27 -45 0
-27 -35 0
-27 -31 0
-27 -30 0
-26 -70 0
-26 -58 0
-26 -54 0
-26 -53 0
-26 -50 0
-26 -38 0
-26 -36 0
-26 -33 0
-25 -60 0
-25 -58 0
-25 -50 0
-25 -43 0
-25 -38 0
-25 -31 0
-25 -28 0
-25 -26 0
-24 -70 0
-24 -66 0
-24 -60 0
-24 -59 0
-24 -51 0
-24 -43 0
-24 -42 0
-24 -39 0
-24 -32 0
-24 -31 0
-24 -28 0
-24 -25 0
-23 -58 0
-23 -55 0
-23 -51 0
-23 -50 0
-23 -45 0
-23 -38 0
-23 -35 0
-23 -30 0
-23 -27 0
-23 -26 0
-23 -25 0
-22 -72 0
-22 -69 0
-22 -64 0
-22 -62 0
-22 -59 0
-22 -56 0
-22 -53 0
-22 -49 0
-22 -41 0
-22 -30 0
-21 -68 0
-21 -66 0
-21 -63 0
-21 -58 0
-21 -56 0
-21 -40 0
-21 -37 0
-21 -29 0
-20 -73 0
-20 -71 0
-20 -68 0
-20 -65 0
-20 -64 0
-20 -60 0
-20 -57 0
-20 -52 0
-20 -45 0
-20 -41 0
-20 -40 0
-20 -38 0
-20 -33 0
-20 -32 0
-19 -71 0
-19 -68 0
-19 -64 0
-19 -61 0
-19 -60 0
-19 -50 0
-19 -49 0
-19 -48 0
-19 -45 0
-19 -39 0
-19 -33 0
-19 -20 0
-18 -71 0
-18 -53 0
-18 -49 0
-18 -47 0
-18 -46 0
-18 -44 0
-18 -42 0
-18 -41 0
-18 -34 0
-18 -30 0
-18 -22 0
-17 -72 0
-17 -69 0
-17 -64 0
-17 -62 0
-17 -59 0
-17 -58 0
-17 -56 0
-17 -50 0
-17 -38 0
-17 -26 0
-17 -25 0
-17 -23 0
-17 -22 0
-16 -68 0
-16 -66 0
-16 -63 0
-16 -58 0
-16 -53 0
-16 -49 0
-16 -41 0
-16 -37 0
-16 -30 0
-16 -29 0
-16 -22 0
-16 -21 0
-16 -18 0
-15 -73 0
-15 -70 0
-15 -69 0
-15 -61 0
-15 -54 0
-15 -53 0
-15 -46 0
-15 -36 0
-15 -33 0
-15 -31 0
-15 -27 0
-15 -26 0
-14 -70 0
-14 -56 0
-14 -54 0
-14 -53 0
-14 -40 0
-14 -36 0
-14 -33 0
-14 -26 0
-14 -21 0
-14 -15 0
-13 -61 0
-13 -56 0
-13 -50 0
-13 -49 0
-13 -48 0
-13 -40 0
-13 -39 0
-13 -21 0
-13 -19 0
-13 -14 0
-12 -60 0
-12 -55 0
-12 -54 0
-12 -52 0
-12 -43 0
-12 -34 0
-12 -31 0
-12 -29 0
-12 -28 0
-12 -25 0
-12 -24 0
-11 -60 0
-11 -53 0
-11 -49 0
-11 -43 0
-11 -41 0
-11 -31 0
-11 -30 0
-11 -28 0
-11 -25 0
-11 -24 0
-11 -22 0
-11 -18 0
-11 -16 0
-11 -12 0
-10 -65 0
-10 -62 0
-10 -55 0
-10 -51 0
-10 -48 0
-10 -45 0
-10 -44 0
-10 -37 0
-10 -36 0
-10 -35 0
-10 -30 0
-10 -28 0
-10 -27 0
-10 -23 0
-9 -71 0
-9 -58 0
-9 -50 0
-9 -47 0
-9 -46 0
-9 -44 0
-9 -42 0
-9 -38 0
-9 -34 0
-9 -26 0
-9 -25 0
-9 -23 0
-9 -18 0
-9 -17 0
-8 -73 0
-8 -69 0
-8 -68 0
-8 -66 0
-8 -63 0
-8 -61 0
-8 -58 0
-8 -46 0
-8 -37 0
-8 -31 0
-8 -29 0
-8 -27 0
-8 -21 0
-8 -16 0
-8 -15 0
-7 -56 0
-7 -55 0
-7 -51 0
-7 -45 0
-7 -40 0
-7 -35 0
-7 -30 0
-7 -27 0
-7 -23 0
-7 -21 0
-7 -14 0
-7 -13 0
-7 -10 0
-6 -61 0
-6 -55 0
-6 -54 0
-6 -52 0
-6 -50 0
-6 -49 0
-6 -48 0
-6 -39 0
-6 -34 0
-6 -29 0
-6 -19 0
-6 -13 0
-6 -12 0
-5 -71 0
-5 -56 0
-5 -47 0
-5 -46 0
-5 -44 0
-5 -42 0
-5 -40 0
-5 -34 0
-5 -21 0
-5 -18 0
-5 -14 0
-5 -13 0
-5 -9 0
-5 -7 0
-4 -72 0
-4 -63 0
-4 -61 0
-4 -57 0
-4 -50 0
-4 -49 0
-4 -48 0
-4 -47 0
-4 -43 0
-4 -39 0
-4 -35 0
-4 -19 0
-4 -13 0
-4 -6 0
-3 -72 0
-3 -70 0
-3 -63 0
-3 -57 0
-3 -54 0
-3 -53 0
-3 -47 0
-3 -43 0
-3 -36 0
-3 -35 0
-3 -33 0
-3 -26 0
-3 -15 0
-3 -14 0
-3 -4 0
-2 -72 0
-2 -69 0
-2 -64 0
-2 -62 0
-2 -59 0
-2 -56 0
-2 -55 0
-2 -54 0
-2 -52 0
-2 -34 0
-2 -29 0
-2 -22 0
-2 -17 0
-2 -12 0
-2 -6 0
-1 -60 0
-1 -56 0
-1 -43 0
-1 -40 0
-1 -31 0
-1 -28 0
-1 -25 0
-1 -24 0
-1 -21 0
-1 -14 0
-1 -13 0
-1 -12 0
-1 -11 0
-1 -7 0
-1 -5 0
1 5 7 13 14 21 40 56 0
2 6 12 29 34 52 54 55 0
3 4 35 43 47 57 63 72 0
8 15 27 31 46 61 69 73 0
9 17 23 25 26 38 50 58 0
11 16 18 22 30 41 49 53 0
19 20 33 45 60 64 68 71 0
24 32 39 42 51 59 66 70 0
10 28 36 37 44 48 62 65 67 0
