p cnf 91 775
-88 -89 0
-87 -91 0
-86 -91 0
-86 -90 0
-84 -90 0
-84 -88 0
-83 -91 0
-83 -86 0
-82 -90 0
-82 -85 0
-82 -84 0
-81 -90 0
-81 -86 0
-81 -85 0
-80 -89 0
-79 -88 0
-79 -84 0
-78 -91 0
-78 -89 0
-78 -86 0
-78 -83 0
-78 -80 0
-77 -79 0
-76 -90 0
-76 -86 0
-76 -81 0
-75 -90 0
-75 -89 0
-75 -88 0
-75 -86 0
-75 -81 0
-75 -76 0
-74 -85 0
-74 -81 0
-74 -77 0
-73 -85 0
-73 -82 0
-73 -80 0
-72 -89 0
-72 -88 0
-72 -75 0
-71 -90 0
-71 -89 0
-71 -84 0
-71 -82 0
-71 -80 0
-71 -78 0
-70 -91 0
-70 -86 0
-70 -83 0
-70 -78 0
-69 -80 0
-69 -73 0
-69 -72 0
-68 -87 0
-68 -83 0
-67 -91 0
-67 -87 0
-67 -79 0
-67 -77 0
-66 -83 0
-66 -79 0
-66 -77 0
-66 -68 0
-66 -67 0
-65 -91 0
-65 -87 0
-65 -85 0
-65 -81 0
-65 -74 0
-65 -67 0
-64 -89 0
-64 -85 0
-64 -81 0
-64 -80 0
-64 -78 0
-64 -74 0
-64 -71 0
-64 -65 0
-63 -89 0
-63 -88 0
-63 -77 0
-63 -75 0
-63 -74 0
-63 -72 0
-62 -88 0
-62 -84 0
-62 -79 0
-61 -91 0
-61 -86 0
-61 -83 0
-61 -78 0
-61 -72 0
-61 -70 0
-61 -69 0
-60 -85 0
-60 -82 0
-60 -76 0
-60 -73 0
-59 -90 0
-59 -84 0
-59 -82 0
-59 -77 0
-59 -74 0
-59 -71 0
-59 -63 0
-58 -85 0
-58 -81 0
-58 -74 0
-58 -65 0
-58 -64 0
-57 -87 0
-57 -72 0
-57 -69 0
-57 -68 0
-57 -61 0
-56 -90 0
-56 -84 0
-56 -82 0
-56 -72 0
-56 -71 0
-56 -69 0
-56 -61 0
-56 -59 0
-56 -57 0
-55 -79 0
-55 -77 0
-55 -72 0
-55 -69 0
-55 -67 0
-55 -66 0
-55 -61 0
-55 -57 0
-55 -56 0
-54 -89 0
-54 -87 0
-54 -80 0
-54 -78 0
-54 -71 0
-54 -68 0
-54 -64 0
-54 -57 0
-53 -80 0
-53 -73 0
-53 -70 0
-53 -69 0
-52 -83 0
-52 -80 0
-52 -73 0
-52 -69 0
-52 -68 0
-52 -66 0
-52 -53 0
-51 -87 0
-51 -85 0
-51 -82 0
-51 -73 0
-51 -68 0
-51 -60 0
-51 -57 0
-51 -54 0
-50 -90 0
-50 -86 0
-50 -81 0
-50 -80 0
-50 -76 0
-50 -75 0
-50 -73 0
-50 -69 0
-50 -53 0
-50 -52 0
-49 -88 0
-49 -87 0
-49 -84 0
-49 -79 0
-49 -68 0
-49 -62 0
-49 -57 0
-49 -54 0
-49 -51 0
-48 -76 0
-48 -70 0
-48 -60 0
-48 -53 0
-47 -85 0
-47 -81 0
-47 -74 0
-47 -72 0
-47 -69 0
-47 -65 0
-47 -64 0
-47 -61 0
-47 -58 0
-47 -57 0
-47 -56 0
-47 -55 0
-46 -88 0
-46 -84 0
-46 -79 0
-46 -76 0
-46 -62 0
-46 -60 0
-46 -49 0
-46 -48 0
-45 -79 0
-45 -77 0
-45 -67 0
-45 -66 0
-45 -58 0
-45 -55 0
-44 -88 0
-44 -84 0
-44 -80 0
-44 -79 0
-44 -73 0
-44 -69 0
-44 -62 0
-44 -53 0
-44 -52 0
-44 -50 0
-44 -49 0
-44 -46 0
-43 -76 0
-43 -60 0
-43 -58 0
-43 -48 0
-43 -46 0
-43 -45 0
-42 -91 0
-42 -87 0
-42 -67 0
-42 -65 0
-42 -62 0
-41 -83 0
-41 -76 0
-41 -68 0
-41 -66 0
-41 -60 0
-41 -52 0
-41 -48 0
-41 -46 0
-41 -43 0
-40 -70 0
-40 -62 0
-40 -53 0
-40 -48 0
-40 -42 0
-39 -87 0
-39 -68 0
-39 -58 0
-39 -57 0
-39 -54 0
-39 -51 0
-39 -49 0
-39 -45 0
-39 -43 0
-38 -85 0
-38 -82 0
-38 -79 0
-38 -77 0
-38 -73 0
-38 -67 0
-38 -66 0
-38 -60 0
-38 -55 0
-38 -51 0
-38 -45 0
-37 -85 0
-37 -81 0
-37 -74 0
-37 -70 0
-37 -65 0
-37 -64 0
-37 -58 0
-37 -53 0
-37 -48 0
-37 -47 0
-37 -40 0
-36 -89 0
-36 -88 0
-36 -85 0
-36 -82 0
-36 -75 0
-36 -73 0
-36 -72 0
-36 -63 0
-36 -60 0
-36 -51 0
-36 -38 0
-35 -91 0
-35 -86 0
-35 -83 0
-35 -78 0
-35 -77 0
-35 -74 0
-35 -70 0
-35 -63 0
-35 -61 0
-35 -59 0
-34 -87 0
-34 -70 0
-34 -68 0
-34 -57 0
-34 -54 0
-34 -53 0
-34 -51 0
-34 -49 0
-34 -48 0
-34 -40 0
-34 -39 0
-34 -37 0
-33 -91 0
-33 -89 0
-33 -88 0
-33 -87 0
-33 -75 0
-33 -72 0
-33 -67 0
-33 -65 0
-33 -63 0
-33 -42 0
-33 -36 0
-32 -91 0
-32 -87 0
-32 -80 0
-32 -73 0
-32 -69 0
-32 -67 0
-32 -65 0
-32 -53 0
-32 -52 0
-32 -50 0
-32 -44 0
-32 -42 0
-32 -33 0
-31 -72 0
-31 -69 0
-31 -62 0
-31 -61 0
-31 -57 0
-31 -56 0
-31 -55 0
-31 -47 0
-31 -42 0
-31 -40 0
-30 -62 0
-30 -58 0
-30 -45 0
-30 -43 0
-30 -42 0
-30 -40 0
-30 -39 0
-30 -31 0
-29 -91 0
-29 -86 0
-29 -85 0
-29 -83 0
-29 -82 0
-29 -78 0
-29 -73 0
-29 -70 0
-29 -61 0
-29 -60 0
-29 -51 0
-29 -38 0
-29 -36 0
-29 -35 0
-28 -90 0
-28 -84 0
-28 -82 0
-28 -71 0
-28 -59 0
-28 -58 0
-28 -56 0
-28 -45 0
-28 -43 0
-28 -39 0
-28 -30 0
-27 -77 0
-27 -76 0
-27 -74 0
-27 -63 0
-27 -60 0
-27 -59 0
-27 -48 0
-27 -46 0
-27 -43 0
-27 -41 0
-27 -35 0
-26 -87 0
-26 -77 0
-26 -74 0
-26 -68 0
-26 -63 0
-26 -59 0
-26 -57 0
-26 -54 0
-26 -51 0
-26 -49 0
-26 -39 0
-26 -35 0
-26 -34 0
-26 -27 0
-24 -83 0
-24 -68 0
-24 -66 0
-24 -62 0
-24 -52 0
-24 -42 0
-24 -41 0
-24 -40 0
-24 -31 0
-24 -30 0
-23 -89 0
-23 -88 0
-23 -75 0
-23 -72 0
-23 -70 0
-23 -63 0
-23 -53 0
-23 -48 0
-23 -40 0
-23 -37 0
-23 -36 0
-23 -34 0
-23 -33 0
-22 -90 0
-22 -87 0
-22 -86 0
-22 -81 0
-22 -76 0
-22 -75 0
-22 -68 0
-22 -57 0
-22 -54 0
-22 -51 0
-22 -50 0
-22 -49 0
-22 -39 0
-22 -34 0
-22 -26 0
-21 -85 0
-21 -83 0
-21 -81 0
-21 -74 0
-21 -68 0
-21 -66 0
-21 -65 0
-21 -64 0
-21 -58 0
-21 -52 0
-21 -47 0
-21 -41 0
-21 -37 0
-21 -24 0
-20 -89 0
-20 -80 0
-20 -79 0
-20 -78 0
-20 -77 0
-20 -71 0
-20 -67 0
-20 -66 0
-20 -64 0
-20 -55 0
-20 -54 0
-20 -45 0
-20 -38 0
-19 -88 0
-19 -85 0
-19 -84 0
-19 -81 0
-19 -79 0
-19 -74 0
-19 -65 0
-19 -64 0
-19 -62 0
-19 -58 0
-19 -49 0
-19 -47 0
-19 -46 0
-19 -44 0
-19 -37 0
-19 -21 0
-18 -80 0
-18 -77 0
-18 -74 0
-18 -73 0
-18 -69 0
-18 -63 0
-18 -59 0
-18 -53 0
-18 -52 0
-18 -50 0
-18 -44 0
-18 -35 0
-18 -32 0
-18 -27 0
-18 -26 0
-17 -91 0
-17 -90 0
-17 -87 0
-17 -84 0
-17 -82 0
-17 -71 0
-17 -67 0
-17 -65 0
-17 -59 0
-17 -56 0
-17 -42 0
-17 -33 0
-17 -32 0
-17 -28 0
-16 -85 0
-16 -82 0
-16 -73 0
-16 -62 0
-16 -60 0
-16 -51 0
-16 -42 0
-16 -40 0
-16 -38 0
-16 -36 0
-16 -31 0
-16 -30 0
-16 -29 0
-16 -24 0
-15 -80 0
-15 -73 0
-15 -69 0
-15 -58 0
-15 -53 0
-15 -52 0
-15 -50 0
-15 -45 0
-15 -44 0
-15 -43 0
-15 -39 0
-15 -32 0
-15 -30 0
-15 -28 0
-15 -18 0
-14 -90 0
-14 -84 0
-14 -83 0
-14 -82 0
-14 -71 0
-14 -68 0
-14 -66 0
-14 -59 0
-14 -56 0
-14 -52 0
-14 -41 0
-14 -28 0
-14 -24 0
-14 -21 0
-14 -17 0
-13 -89 0
-13 -80 0
-13 -78 0
-13 -76 0
-13 -71 0
-13 -64 0
-13 -60 0
-13 -54 0
-13 -48 0
-13 -46 0
-13 -43 0
-13 -41 0
-13 -27 0
-13 -20 0
-12 -89 0
-12 -88 0
-12 -75 0
-12 -72 0
-12 -63 0
-12 -58 0
-12 -45 0
-12 -43 0
-12 -39 0
-12 -36 0
-12 -33 0
-12 -30 0
-12 -28 0
-12 -23 0
-12 -15 0
-11 -91 0
-11 -87 0
-11 -76 0
-11 -67 0
-11 -65 0
-11 -60 0
-11 -48 0
-11 -46 0
-11 -43 0
-11 -42 0
-11 -41 0
-11 -33 0
-11 -32 0
-11 -27 0
-11 -17 0
-11 -13 0
-10 -90 0
-10 -86 0
-10 -81 0
-10 -79 0
-10 -77 0
-10 -76 0
-10 -75 0
-10 -67 0
-10 -66 0
-10 -55 0
-10 -50 0
-10 -45 0
-10 -38 0
-10 -22 0
-10 -20 0
-9 -89 0
-9 -88 0
-9 -83 0
-9 -75 0
-9 -72 0
-9 -68 0
-9 -66 0
-9 -63 0
-9 -52 0
-9 -41 0
-9 -36 0
-9 -33 0
-9 -24 0
-9 -23 0
-9 -21 0
-9 -14 0
-9 -12 0
-8 -90 0
-8 -86 0
-8 -81 0
-8 -76 0
-8 -75 0
-8 -62 0
-8 -50 0
-8 -42 0
-8 -40 0
-8 -31 0
-8 -30 0
-8 -24 0
-8 -22 0
-8 -16 0
-8 -10 0
-7 -76 0
-7 -72 0
-7 -69 0
-7 -61 0
-7 -60 0
-7 -57 0
-7 -56 0
-7 -55 0
-7 -48 0
-7 -47 0
-7 -46 0
-7 -43 0
-7 -41 0
-7 -31 0
-7 -27 0
-7 -13 0
-7 -11 0
-6 -77 0
-6 -74 0
-6 -63 0
-6 -62 0
-6 -59 0
-6 -42 0
-6 -40 0
-6 -35 0
-6 -31 0
-6 -30 0
-6 -27 0
-6 -26 0
-6 -24 0
-6 -18 0
-6 -16 0
-6 -8 0
-5 -90 0
-5 -84 0
-5 -82 0
-5 -71 0
-5 -70 0
-5 -59 0
-5 -56 0
-5 -53 0
-5 -48 0
-5 -40 0
-5 -37 0
-5 -34 0
-5 -28 0
-5 -23 0
-5 -17 0
-5 -14 0
-4 -89 0
-4 -80 0
-4 -78 0
-4 -71 0
-4 -64 0
-4 -62 0
-4 -54 0
-4 -42 0
-4 -40 0
-4 -31 0
-4 -30 0
-4 -24 0
-4 -20 0
-4 -16 0
-4 -13 0
-4 -8 0
-4 -6 0
-3 -91 0
-3 -88 0
-3 -86 0
-3 -84 0
-3 -83 0
-3 -79 0
-3 -78 0
-3 -70 0
-3 -62 0
-3 -61 0
-3 -49 0
-3 -46 0
-3 -44 0
-3 -35 0
-3 -29 0
-3 -19 0
-2 -79 0
-2 -77 0
-2 -70 0
-2 -67 0
-2 -66 0
-2 -55 0
-2 -53 0
-2 -48 0
-2 -45 0
-2 -40 0
-2 -38 0
-2 -37 0
-2 -34 0
-2 -23 0
-2 -20 0
-2 -10 0
-2 -5 0
-1 -91 0
-1 -86 0
-1 -83 0
-1 -78 0
-1 -70 0
-1 -61 0
-1 -58 0
-1 -45 0
-1 -43 0
-1 -39 0
-1 -35 0
-1 -30 0
-1 -29 0
-1 -28 0
-1 -15 0
-1 -12 0
-1 -3 0
1 12 15 28 30 39 43 45 58 0
2 5 23 34 37 40 48 53 70 0
3 19 44 46 49 62 79 84 88 0
4 13 20 54 64 71 78 80 89 0
7 31 47 55 56 57 61 69 72 0
8 10 22 50 75 76 81 86 90 0
9 14 21 24 41 52 66 68 83 0
11 17 32 33 42 65 67 87 91 0
16 29 36 38 51 60 73 82 85 0
6 18 25 26 27 35 59 63 74 77 0
