p cnf 31 141
-29 -30 0
-28 -31 0
-27 -30 0
-26 -28 0
-25 -31 0
-24 -28 0
-24 -26 0
-24 -25 0
-23 -30 0
-23 -29 0
-23 -26 0
-22 -26 0
-22 -23 0
-21 -29 0
-21 -22 0
-20 -30 0
-20 -27 0
-20 -22 0
-20 -21 0
-19 -26 0
-19 -23 0
-19 -22 0
-18 -25 0
-18 -24 0
-18 -22 0
-18 -21 0
-18 -20 0
-17 -30 0
-17 -27 0
-17 -20 0
-17 -19 0
-16 -31 0
-16 -28 0
-16 -27 0
-15 -30 0
-15 -29 0
-15 -25 0
-15 -24 0
-15 -23 0
-15 -18 0
-14 -31 0
-14 -28 0
-14 -22 0
-14 -21 0
-14 -20 0
-14 -18 0
-14 -16 0
-13 -30 0
-13 -28 0
-13 -27 0
-13 -26 0
-13 -24 0
-13 -20 0
-13 -17 0
-12 -29 0
-12 -27 0
-12 -21 0
-12 -16 0
-11 -27 0
-11 -25 0
-11 -24 0
-11 -18 0
-11 -16 0
-11 -15 0
-11 -12 0
-10 -27 0
-10 -26 0
-10 -23 0
-10 -22 0
-10 -19 0
-10 -16 0
-10 -12 0
-10 -11 0
-9 -31 0
-9 -29 0
-9 -25 0
-9 -21 0
-9 -12 0
-8 -29 0
-8 -28 0
-8 -26 0
-8 -24 0
-8 -21 0
-8 -13 0
-8 -12 0
-8 -9 0
-7 -31 0
-7 -30 0
-7 -29 0
-7 -28 0
-7 -23 0
-7 -16 0
-7 -15 0
-7 -14 0
-6 -29 0
-6 -21 0
-6 -19 0
-6 -17 0
-6 -12 0
-6 -9 0
-6 -8 0
-5 -25 0
-5 -24 0
-5 -19 0
-5 -18 0
-5 -17 0
-5 -15 0
-5 -11 0
-5 -6 0
-4 -31 0
-4 -28 0
-4 -19 0
-4 -17 0
-4 -16 0
-4 -14 0
-4 -7 0
-4 -6 0
-4 -5 0
-3 -31 0
-3 -30 0
-3 -27 0
-3 -25 0
-3 -20 0
-3 -17 0
-3 -13 0
-3 -9 0
-1 -31 0
-1 -26 0
-1 -25 0
-1 -23 0
-1 -22 0
-1 -19 0
-1 -10 0
-1 -9 0
-1 -3 0
1 3 9 25 31 0
4 5 6 17 19 0
7 15 23 29 30 0
10 11 12 16 27 0
14 18 20 21 22 0
2 8 13 24 26 28 0
