p cnf 73 549
-72 -73 0
-68 -69 0
-66 -71 0
-66 -69 0
-66 -68 0
-64 -73 0
-63 -73 0
-63 -72 0
-63 -65 0
-62 -70 0
-62 -67 0
-61 -73 0
-61 -72 0
-61 -63 0
-60 -65 0
-59 -70 0
-59 -64 0
-58 -67 0
-58 -64 0
-58 -62 0
-58 -59 0
-57 -72 0
-57 -70 0
-57 -62 0
-56 -69 0
-56 -67 0
-56 -62 0
-56 -58 0
-55 -71 0
-55 -67 0
-55 -66 0
-55 -62 0
-55 -58 0
-55 -56 0
-54 -69 0
-54 -65 0
-54 -63 0
-54 -56 0
-53 -73 0
-53 -72 0
-53 -67 0
-53 -63 0
-53 -62 0
-53 -61 0
-53 -58 0
-53 -56 0
-53 -55 0
-52 -71 0
-52 -66 0
-52 -65 0
-52 -63 0
-52 -55 0
-52 -54 0
-51 -70 0
-51 -69 0
-51 -68 0
-51 -66 0
-51 -62 0
-51 -57 0
-50 -67 0
-50 -60 0
-49 -71 0
-49 -66 0
-49 -61 0
-49 -55 0
-49 -52 0
-48 -71 0
-48 -65 0
-48 -60 0
-47 -70 0
-47 -62 0
-47 -61 0
-47 -57 0
-47 -51 0
-47 -49 0
-46 -73 0
-46 -67 0
-46 -64 0
-46 -50 0
-45 -71 0
-45 -67 0
-45 -50 0
-45 -48 0
-45 -46 0
-44 -72 0
-44 -71 0
-44 -66 0
-44 -57 0
-44 -55 0
-44 -52 0
-44 -49 0
-43 -72 0
-43 -69 0
-43 -57 0
-43 -56 0
-43 -54 0
-43 -44 0
-42 -67 0
-42 -61 0
-42 -50 0
-42 -49 0
-42 -47 0
-42 -46 0
-42 -45 0
-41 -67 0
-41 -65 0
-41 -63 0
-41 -54 0
-41 -52 0
-41 -50 0
-41 -46 0
-41 -45 0
-41 -42 0
-40 -69 0
-40 -60 0
-40 -56 0
-40 -54 0
-40 -50 0
-40 -43 0
-39 -73 0
-39 -72 0
-39 -70 0
-39 -63 0
-39 -61 0
-39 -59 0
-39 -53 0
-38 -71 0
-38 -64 0
-38 -59 0
-38 -58 0
-38 -48 0
-38 -45 0
-37 -65 0
-37 -64 0
-37 -63 0
-37 -59 0
-37 -58 0
-37 -54 0
-37 -52 0
-37 -41 0
-37 -38 0
-36 -68 0
-36 -65 0
-36 -63 0
-36 -54 0
-36 -52 0
-36 -41 0
-36 -37 0
-35 -70 0
-35 -65 0
-35 -63 0
-35 -62 0
-35 -57 0
-35 -54 0
-35 -52 0
-35 -51 0
-35 -47 0
-35 -41 0
-35 -37 0
-35 -36 0
-34 -72 0
-34 -65 0
-34 -60 0
-34 -57 0
-34 -48 0
-34 -44 0
-34 -43 0
-33 -71 0
-33 -66 0
-33 -60 0
-33 -55 0
-33 -52 0
-33 -50 0
-33 -49 0
-33 -44 0
-33 -40 0
-32 -73 0
-32 -71 0
-32 -66 0
-32 -64 0
-32 -55 0
-32 -52 0
-32 -49 0
-32 -46 0
-32 -44 0
-32 -33 0
-31 -69 0
-31 -61 0
-31 -56 0
-31 -54 0
-31 -49 0
-31 -47 0
-31 -43 0
-31 -42 0
-31 -40 0
-30 -70 0
-30 -67 0
-30 -59 0
-30 -50 0
-30 -46 0
-30 -45 0
-30 -42 0
-30 -41 0
-30 -39 0
-29 -64 0
-29 -61 0
-29 -59 0
-29 -58 0
-29 -49 0
-29 -47 0
-29 -42 0
-29 -38 0
-29 -37 0
-29 -31 0
-28 -73 0
-28 -72 0
-28 -71 0
-28 -63 0
-28 -61 0
-28 -53 0
-28 -48 0
-28 -45 0
-28 -39 0
-28 -38 0
-27 -70 0
-27 -69 0
-27 -59 0
-27 -56 0
-27 -54 0
-27 -43 0
-27 -40 0
-27 -39 0
-27 -31 0
-27 -30 0
-26 -70 0
-26 -62 0
-26 -60 0
-26 -57 0
-26 -51 0
-26 -50 0
-26 -47 0
-26 -40 0
-26 -35 0
-26 -33 0
-25 -71 0
-25 -69 0
-25 -56 0
-25 -54 0
-25 -48 0
-25 -45 0
-25 -43 0
-25 -40 0
-25 -38 0
-25 -31 0
-25 -28 0
-25 -27 0
-24 -70 0
-24 -68 0
-24 -59 0
-24 -39 0
-24 -36 0
-24 -30 0
-24 -27 0
-23 -72 0
-23 -64 0
-23 -59 0
-23 -58 0
-23 -57 0
-23 -44 0
-23 -43 0
-23 -38 0
-23 -37 0
-23 -34 0
-23 -29 0
-21 -64 0
-21 -60 0
-21 -59 0
-21 -58 0
-21 -50 0
-21 -40 0
-21 -38 0
-21 -37 0
-21 -33 0
-21 -29 0
-21 -26 0
-21 -23 0
-20 -67 0
-20 -65 0
-20 -62 0
-20 -60 0
-20 -58 0
-20 -56 0
-20 -55 0
-20 -53 0
-20 -48 0
-20 -34 0
-19 -68 0
-19 -61 0
-19 -49 0
-19 -47 0
-19 -42 0
-19 -36 0
-19 -31 0
-19 -29 0
-19 -24 0
-18 -71 0
-18 -70 0
-18 -62 0
-18 -57 0
-18 -51 0
-18 -48 0
-18 -47 0
-18 -45 0
-18 -38 0
-18 -35 0
-18 -28 0
-18 -26 0
-18 -25 0
-17 -68 0
-17 -60 0
-17 -50 0
-17 -40 0
-17 -36 0
-17 -33 0
-17 -26 0
-17 -24 0
-17 -21 0
-17 -19 0
-16 -73 0
-16 -70 0
-16 -64 0
-16 -62 0
-16 -57 0
-16 -51 0
-16 -47 0
-16 -46 0
-16 -35 0
-16 -32 0
-16 -26 0
-16 -18 0
-15 -71 0
-15 -68 0
-15 -48 0
-15 -45 0
-15 -38 0
-15 -36 0
-15 -28 0
-15 -25 0
-15 -24 0
-15 -19 0
-15 -18 0
-15 -17 0
-14 -73 0
-14 -68 0
-14 -64 0
-14 -46 0
-14 -36 0
-14 -32 0
-14 -24 0
-14 -19 0
-14 -17 0
-14 -16 0
-14 -15 0
-13 -73 0
-13 -72 0
-13 -69 0
-13 -68 0
-13 -66 0
-13 -63 0
-13 -61 0
-13 -53 0
-13 -51 0
-13 -39 0
-13 -28 0
-12 -68 0
-12 -67 0
-12 -62 0
-12 -58 0
-12 -56 0
-12 -55 0
-12 -53 0
-12 -36 0
-12 -24 0
-12 -20 0
-12 -19 0
-12 -17 0
-12 -15 0
-12 -14 0
-11 -71 0
-11 -70 0
-11 -66 0
-11 -59 0
-11 -55 0
-11 -52 0
-11 -49 0
-11 -44 0
-11 -39 0
-11 -33 0
-11 -32 0
-11 -30 0
-11 -27 0
-11 -24 0
-10 -73 0
-10 -69 0
-10 -64 0
-10 -56 0
-10 -54 0
-10 -46 0
-10 -43 0
-10 -40 0
-10 -32 0
-10 -31 0
-10 -27 0
-10 -25 0
-10 -16 0
-10 -14 0
-9 -69 0
-9 -68 0
-9 -66 0
-9 -65 0
-9 -60 0
-9 -51 0
-9 -48 0
-9 -34 0
-9 -20 0
-9 -13 0
-8 -73 0
-8 -72 0
-8 -63 0
-8 -61 0
-8 -60 0
-8 -53 0
-8 -50 0
-8 -40 0
-8 -39 0
-8 -33 0
-8 -28 0
-8 -26 0
-8 -21 0
-8 -17 0
-8 -13 0
-7 -70 0
-7 -65 0
-7 -60 0
-7 -59 0
-7 -48 0
-7 -39 0
-7 -34 0
-7 -30 0
-7 -27 0
-7 -24 0
-7 -20 0
-7 -11 0
-7 -9 0
-6 -72 0
-6 -68 0
-6 -57 0
-6 -44 0
-6 -43 0
-6 -36 0
-6 -34 0
-6 -24 0
-6 -23 0
-6 -19 0
-6 -17 0
-6 -15 0
-6 -14 0
-6 -12 0
-5 -69 0
-5 -68 0
-5 -67 0
-5 -66 0
-5 -51 0
-5 -50 0
-5 -46 0
-5 -45 0
-5 -42 0
-5 -41 0
-5 -30 0
-5 -13 0
-5 -9 0
-4 -65 0
-4 -61 0
-4 -60 0
-4 -49 0
-4 -48 0
-4 -47 0
-4 -42 0
-4 -34 0
-4 -31 0
-4 -29 0
-4 -20 0
-4 -19 0
-4 -9 0
-4 -7 0
-3 -73 0
-3 -65 0
-3 -64 0
-3 -60 0
-3 -48 0
-3 -46 0
-3 -34 0
-3 -32 0
-3 -20 0
-3 -16 0
-3 -14 0
-3 -10 0
-3 -9 0
-3 -7 0
-3 -4 0
-2 -69 0
-2 -68 0
-2 -66 0
-2 -64 0
-2 -59 0
-2 -58 0
-2 -51 0
-2 -38 0
-2 -37 0
-2 -29 0
-2 -23 0
-2 -21 0
-2 -13 0
-2 -9 0
-2 -5 0
-1 -72 0
-1 -67 0
-1 -57 0
-1 -50 0
-1 -46 0
-1 -45 0
-1 -44 0
-1 -43 0
-1 -42 0
-1 -41 0
-1 -34 0
-1 -30 0
-1 -23 0
-1 -6 0
-1 -5 0
1 6 23 34 43 44 57 72 0
2 5 9 13 51 66 68 69 0
3 10 14 16 32 46 64 73 0
4 19 29 31 42 47 49 61 0
7 11 24 27 30 39 59 70 0
12 20 53 55 56 58 62 67 0
15 18 25 28 38 45 48 71 0
35 36 37 41 52 54 63 65 0
8 17 21 22 26 33 40 50 60 0
