p cnf 57 372
-56 -57 0
-53 -55 0
-52 -55 0
-52 -54 0
-52 -53 0
-49 -57 0
-48 -55 0
-48 -53 0
-48 -52 0
-48 -51 0
-47 -54 0
-47 -52 0
-47 -51 0
-46 -56 0
-45 -55 0
-45 -49 0
-44 -55 0
-44 -46 0
-44 -45 0
-43 -55 0
-43 -53 0
-43 -52 0
-43 -48 0
-42 -56 0
-42 -51 0
-42 -47 0
-42 -46 0
-41 -50 0
-41 -46 0
-41 -44 0
-40 -54 0
-40 -50 0
-40 -41 0
-39 -51 0
-39 -47 0
-39 -43 0
-39 -42 0
-38 -54 0
-38 -52 0
-38 -50 0
-38 -47 0
-37 -57 0
-37 -56 0
-37 -53 0
-36 -53 0
-36 -50 0
-36 -38 0
-36 -37 0
-35 -57 0
-35 -56 0
-35 -51 0
-35 -48 0
-35 -37 0
-34 -56 0
-34 -50 0
-34 -46 0
-34 -42 0
-34 -38 0
-34 -36 0
-33 -57 0
-33 -56 0
-33 -50 0
-33 -41 0
-33 -40 0
-33 -37 0
-33 -35 0
-32 -53 0
-32 -49 0
-32 -45 0
-32 -37 0
-32 -36 0
-31 -50 0
-31 -49 0
-31 -45 0
-31 -41 0
-31 -40 0
-31 -33 0
-31 -32 0
-30 -57 0
-30 -56 0
-30 -54 0
-30 -52 0
-30 -47 0
-30 -38 0
-30 -37 0
-30 -35 0
-30 -33 0
-29 -55 0
-29 -51 0
-29 -47 0
-29 -45 0
-29 -44 0
-29 -42 0
-29 -39 0
-28 -57 0
-28 -50 0
-28 -49 0
-28 -38 0
-28 -36 0
-28 -34 0
-27 -56 0
-27 -54 0
-27 -46 0
-27 -42 0
-27 -40 0
-27 -34 0
-26 -50 0
-26 -43 0
-26 -39 0
-26 -38 0
-26 -36 0
-26 -34 0
-26 -28 0
-25 -46 0
-25 -44 0
-25 -43 0
-25 -41 0
-25 -39 0
-25 -26 0
-24 -54 0
-24 -51 0
-24 -48 0
-24 -40 0
-24 -35 0
-24 -27 0
-23 -54 0
-23 -52 0
-23 -47 0
-23 -46 0
-23 -44 0
-23 -41 0
-23 -38 0
-23 -30 0
-23 -25 0
-22 -55 0
-22 -54 0
-22 -45 0
-22 -44 0
-22 -40 0
-22 -29 0
-22 -27 0
-22 -24 0
-21 -54 0
-21 -43 0
-21 -40 0
-21 -39 0
-21 -27 0
-21 -26 0
-21 -25 0
-21 -24 0
-21 -22 0
-20 -51 0
-20 -50 0
-20 -47 0
-20 -42 0
-20 -41 0
-20 -40 0
-20 -39 0
-20 -33 0
-20 -31 0
-20 -29 0
-19 -49 0
-19 -45 0
-19 -43 0
-19 -39 0
-19 -32 0
-19 -31 0
-19 -26 0
-19 -25 0
-19 -21 0
-18 -56 0
-18 -55 0
-18 -53 0
-18 -52 0
-18 -48 0
-18 -46 0
-18 -43 0
-18 -42 0
-18 -34 0
-18 -27 0
-17 -57 0
-17 -49 0
-17 -46 0
-17 -44 0
-17 -41 0
-17 -28 0
-17 -25 0
-17 -23 0
-16 -53 0
-16 -51 0
-16 -47 0
-16 -42 0
-16 -39 0
-16 -37 0
-16 -36 0
-16 -32 0
-16 -29 0
-16 -20 0
-15 -57 0
-15 -51 0
-15 -49 0
-15 -47 0
-15 -42 0
-15 -39 0
-15 -29 0
-15 -28 0
-15 -20 0
-15 -17 0
-15 -16 0
-14 -55 0
-14 -50 0
-14 -45 0
-14 -44 0
-14 -38 0
-14 -36 0
-14 -34 0
-14 -29 0
-14 -28 0
-14 -26 0
-14 -22 0
-13 -51 0
-13 -49 0
-13 -48 0
-13 -45 0
-13 -35 0
-13 -32 0
-13 -31 0
-13 -24 0
-13 -19 0
-12 -57 0
-12 -56 0
-12 -43 0
-12 -39 0
-12 -37 0
-12 -35 0
-12 -33 0
-12 -30 0
-12 -26 0
-12 -25 0
-12 -21 0
-12 -19 0
-11 -56 0
-11 -49 0
-11 -46 0
-11 -45 0
-11 -42 0
-11 -34 0
-11 -32 0
-11 -31 0
-11 -27 0
-11 -19 0
-11 -18 0
-11 -13 0
-10 -57 0
-10 -54 0
-10 -49 0
-10 -40 0
-10 -28 0
-10 -27 0
-10 -24 0
-10 -22 0
-10 -21 0
-10 -17 0
-10 -15 0
-9 -51 0
-9 -50 0
-9 -48 0
-9 -38 0
-9 -36 0
-9 -35 0
-9 -34 0
-9 -28 0
-9 -26 0
-9 -24 0
-9 -14 0
-9 -13 0
-7 -53 0
-7 -46 0
-7 -44 0
-7 -41 0
-7 -37 0
-7 -36 0
-7 -32 0
-7 -25 0
-7 -23 0
-7 -17 0
-7 -16 0
-6 -54 0
-6 -53 0
-6 -40 0
-6 -37 0
-6 -36 0
-6 -32 0
-6 -27 0
-6 -24 0
-6 -22 0
-6 -21 0
-6 -16 0
-6 -10 0
-6 -7 0
-5 -54 0
-5 -52 0
-5 -49 0
-5 -47 0
-5 -45 0
-5 -38 0
-5 -32 0
-5 -31 0
-5 -30 0
-5 -23 0
-5 -19 0
-5 -13 0
-5 -11 0
-4 -57 0
-4 -55 0
-4 -53 0
-4 -52 0
-4 -49 0
-4 -48 0
-4 -43 0
-4 -28 0
-4 -18 0
-4 -17 0
-4 -15 0
-4 -10 0
-3 -57 0
-3 -56 0
-3 -55 0
-3 -45 0
-3 -44 0
-3 -37 0
-3 -35 0
-3 -33 0
-3 -30 0
-3 -29 0
-3 -22 0
-3 -14 0
-3 -12 0
-2 -51 0
-2 -48 0
-2 -46 0
-2 -44 0
-2 -41 0
-2 -35 0
-2 -25 0
-2 -24 0
-2 -23 0
-2 -17 0
-2 -13 0
-2 -9 0
-2 -7 0
-1 -55 0
-1 -53 0
-1 -52 0
-1 -50 0
-1 -48 0
-1 -43 0
-1 -41 0
-1 -40 0
-1 -33 0
-1 -31 0
-1 -20 0
-1 -18 0
-1 -4 0
1 20 31 33 40 41 50 0
2 9 13 24 35 48 51 0
4 10 15 17 28 49 57 0
5 23 30 38 47 52 54 0
6 7 16 32 36 37 53 0
11 18 27 34 42 46 56 0
12 19 21 25 26 39 43 0
3 8 14 22 29 44 45 55 0
