p cnf 91 775
-89 -91 0
-88 -91 0
-87 -90 0
-86 -90 0
-86 -87 0
-85 -91 0
-85 -89 0
-84 -91 0
-84 -89 0
-84 -85 0
-83 -91 0
-83 -90 0
-83 -89 0
-83 -85 0
-83 -84 0
-82 -87 0
-81 -84 0
-80 -90 0
-80 -83 0
-78 -90 0
-78 -87 0
-78 -86 0
-78 -85 0
-77 -91 0
-77 -88 0
-77 -82 0
-76 -89 0
-76 -79 0
-75 -91 0
-75 -89 0
-75 -86 0
-75 -85 0
-75 -84 0
-75 -83 0
-74 -89 0
-74 -76 0
-73 -90 0
-73 -83 0
-73 -82 0
-73 -80 0
-73 -77 0
-72 -91 0
-72 -88 0
-72 -79 0
-72 -77 0
-72 -76 0
-71 -87 0
-71 -82 0
-71 -81 0
-70 -90 0
-70 -83 0
-70 -81 0
-70 -80 0
-70 -73 0
-70 -71 0
-69 -90 0
-69 -89 0
-69 -87 0
-69 -86 0
-69 -78 0
-69 -76 0
-69 -74 0
-68 -85 0
-68 -79 0
-68 -78 0
-68 -76 0
-68 -72 0
-66 -84 0
-66 -81 0
-66 -80 0
-65 -90 0
-65 -87 0
-65 -86 0
-65 -78 0
-65 -69 0
-65 -67 0
-64 -81 0
-64 -79 0
-64 -71 0
-64 -70 0
-63 -88 0
-63 -87 0
-63 -82 0
-63 -71 0
-62 -79 0
-62 -67 0
-62 -64 0
-61 -80 0
-61 -67 0
-61 -66 0
-61 -65 0
-60 -90 0
-60 -87 0
-60 -86 0
-60 -78 0
-60 -69 0
-60 -65 0
-59 -88 0
-59 -85 0
-59 -78 0
-59 -68 0
-59 -63 0
-58 -91 0
-58 -89 0
-58 -85 0
-58 -84 0
-58 -83 0
-58 -75 0
-58 -60 0
-57 -79 0
-57 -76 0
-57 -72 0
-57 -68 0
-57 -67 0
-57 -65 0
-57 -61 0
-56 -82 0
-56 -77 0
-56 -73 0
-56 -60 0
-56 -58 0
-55 -91 0
-55 -88 0
-55 -77 0
-55 -74 0
-55 -72 0
-54 -91 0
-54 -90 0
-54 -88 0
-54 -87 0
-54 -86 0
-54 -78 0
-54 -77 0
-54 -72 0
-54 -69 0
-54 -65 0
-54 -60 0
-54 -55 0
-53 -81 0
-53 -71 0
-53 -70 0
-53 -64 0
-53 -60 0
-53 -58 0
-53 -56 0
-52 -82 0
-52 -77 0
-52 -73 0
-52 -67 0
-52 -65 0
-52 -61 0
-52 -57 0
-52 -56 0
-51 -91 0
-51 -89 0
-51 -87 0
-51 -85 0
-51 -84 0
-51 -83 0
-51 -82 0
-51 -75 0
-51 -71 0
-51 -63 0
-51 -58 0
-50 -91 0
-50 -88 0
-50 -81 0
-50 -77 0
-50 -72 0
-50 -71 0
-50 -70 0
-50 -64 0
-50 -55 0
-50 -54 0
-50 -53 0
-49 -85 0
-49 -78 0
-49 -74 0
-49 -68 0
-49 -59 0
-49 -55 0
-48 -89 0
-48 -82 0
-48 -77 0
-48 -76 0
-48 -74 0
-48 -73 0
-48 -69 0
-48 -56 0
-48 -52 0
-47 -91 0
-47 -88 0
-47 -80 0
-47 -77 0
-47 -72 0
-47 -66 0
-47 -61 0
-47 -55 0
-47 -54 0
-47 -50 0
-46 -74 0
-46 -60 0
-46 -58 0
-46 -56 0
-46 -55 0
-46 -53 0
-46 -49 0
-45 -85 0
-45 -82 0
-45 -78 0
-45 -77 0
-45 -73 0
-45 -68 0
-45 -59 0
-45 -56 0
-45 -52 0
-45 -49 0
-45 -48 0
-44 -81 0
-44 -71 0
-44 -70 0
-44 -67 0
-44 -65 0
-44 -64 0
-44 -61 0
-44 -57 0
-44 -53 0
-44 -52 0
-44 -50 0
-43 -74 0
-43 -67 0
-43 -65 0
-43 -61 0
-43 -57 0
-43 -55 0
-43 -52 0
-43 -49 0
-43 -46 0
-43 -44 0
-42 -87 0
-42 -82 0
-42 -80 0
-42 -71 0
-42 -66 0
-42 -63 0
-42 -61 0
-42 -51 0
-42 -47 0
-41 -89 0
-41 -81 0
-41 -76 0
-41 -74 0
-41 -71 0
-41 -70 0
-41 -69 0
-41 -64 0
-41 -53 0
-41 -50 0
-41 -48 0
-41 -44 0
-40 -86 0
-40 -79 0
-40 -76 0
-40 -75 0
-40 -72 0
-40 -68 0
-40 -57 0
-38 -87 0
-38 -82 0
-38 -71 0
-38 -67 0
-38 -63 0
-38 -62 0
-38 -51 0
-38 -42 0
-37 -86 0
-37 -82 0
-37 -77 0
-37 -75 0
-37 -73 0
-37 -56 0
-37 -52 0
-37 -48 0
-37 -45 0
-37 -40 0
-36 -90 0
-36 -87 0
-36 -86 0
-36 -84 0
-36 -81 0
-36 -78 0
-36 -69 0
-36 -66 0
-36 -65 0
-36 -60 0
-36 -54 0
-35 -85 0
-35 -81 0
-35 -78 0
-35 -71 0
-35 -70 0
-35 -68 0
-35 -64 0
-35 -59 0
-35 -53 0
-35 -50 0
-35 -49 0
-35 -45 0
-35 -44 0
-35 -41 0
-34 -87 0
-34 -82 0
-34 -79 0
-34 -76 0
-34 -72 0
-34 -71 0
-34 -68 0
-34 -63 0
-34 -57 0
-34 -51 0
-34 -42 0
-34 -40 0
-34 -38 0
-33 -90 0
-33 -88 0
-33 -83 0
-33 -80 0
-33 -73 0
-33 -70 0
-33 -63 0
-33 -59 0
-32 -91 0
-32 -88 0
-32 -77 0
-32 -72 0
-32 -67 0
-32 -62 0
-32 -55 0
-32 -54 0
-32 -50 0
-32 -47 0
-32 -38 0
-31 -91 0
-31 -89 0
-31 -85 0
-31 -84 0
-31 -83 0
-31 -79 0
-31 -75 0
-31 -64 0
-31 -62 0
-31 -58 0
-31 -51 0
-30 -80 0
-30 -66 0
-30 -61 0
-30 -60 0
-30 -58 0
-30 -56 0
-30 -53 0
-30 -47 0
-30 -46 0
-30 -42 0
-29 -84 0
-29 -81 0
-29 -74 0
-29 -66 0
-29 -55 0
-29 -49 0
-29 -46 0
-29 -43 0
-29 -36 0
-28 -82 0
-28 -79 0
-28 -77 0
-28 -73 0
-28 -64 0
-28 -62 0
-28 -56 0
-28 -52 0
-28 -48 0
-28 -45 0
-28 -37 0
-28 -31 0
-27 -80 0
-27 -79 0
-27 -66 0
-27 -64 0
-27 -62 0
-27 -61 0
-27 -47 0
-27 -42 0
-27 -31 0
-27 -30 0
-27 -28 0
-26 -90 0
-26 -83 0
-26 -80 0
-26 -79 0
-26 -76 0
-26 -73 0
-26 -72 0
-26 -70 0
-26 -68 0
-26 -57 0
-26 -40 0
-26 -34 0
-26 -33 0
-25 -86 0
-25 -75 0
-25 -67 0
-25 -62 0
-25 -40 0
-25 -38 0
-25 -37 0
-25 -32 0
-24 -88 0
-24 -79 0
-24 -64 0
-24 -63 0
-24 -62 0
-24 -59 0
-24 -33 0
-24 -31 0
-24 -28 0
-24 -27 0
-23 -85 0
-23 -80 0
-23 -78 0
-23 -68 0
-23 -66 0
-23 -61 0
-23 -59 0
-23 -49 0
-23 -47 0
-23 -45 0
-23 -42 0
-23 -35 0
-23 -30 0
-23 -27 0
-22 -87 0
-22 -82 0
-22 -74 0
-22 -71 0
-22 -63 0
-22 -55 0
-22 -51 0
-22 -49 0
-22 -46 0
-22 -43 0
-22 -42 0
-22 -38 0
-22 -34 0
-22 -29 0
-21 -88 0
-21 -86 0
-21 -75 0
-21 -63 0
-21 -59 0
-21 -40 0
-21 -37 0
-21 -33 0
-21 -25 0
-21 -24 0
-20 -84 0
-20 -82 0
-20 -81 0
-20 -77 0
-20 -73 0
-20 -66 0
-20 -56 0
-20 -52 0
-20 -48 0
-20 -45 0
-20 -37 0
-20 -36 0
-20 -29 0
-20 -28 0
-19 -85 0
-19 -78 0
-19 -68 0
-19 -67 0
-19 -62 0
-19 -59 0
-19 -49 0
-19 -45 0
-19 -38 0
-19 -35 0
-19 -32 0
-19 -25 0
-19 -23 0
-18 -91 0
-18 -89 0
-18 -85 0
-18 -84 0
-18 -83 0
-18 -75 0
-18 -67 0
-18 -65 0
-18 -61 0
-18 -58 0
-18 -57 0
-18 -52 0
-18 -51 0
-18 -44 0
-18 -43 0
-18 -31 0
-17 -86 0
-17 -75 0
-17 -74 0
-17 -55 0
-17 -49 0
-17 -46 0
-17 -43 0
-17 -40 0
-17 -37 0
-17 -29 0
-17 -25 0
-17 -22 0
-17 -21 0
-16 -90 0
-16 -83 0
-16 -80 0
-16 -74 0
-16 -73 0
-16 -70 0
-16 -55 0
-16 -49 0
-16 -46 0
-16 -43 0
-16 -33 0
-16 -29 0
-16 -26 0
-16 -22 0
-16 -17 0
-15 -86 0
-15 -81 0
-15 -75 0
-15 -71 0
-15 -70 0
-15 -64 0
-15 -53 0
-15 -50 0
-15 -44 0
-15 -41 0
-15 -40 0
-15 -37 0
-15 -35 0
-15 -25 0
-15 -21 0
-15 -17 0
-14 -90 0
-14 -87 0
-14 -86 0
-14 -79 0
-14 -78 0
-14 -69 0
-14 -65 0
-14 -64 0
-14 -62 0
-14 -60 0
-14 -54 0
-14 -36 0
-14 -31 0
-14 -28 0
-14 -27 0
-14 -24 0
-13 -89 0
-13 -88 0
-13 -76 0
-13 -74 0
-13 -69 0
-13 -63 0
-13 -59 0
-13 -48 0
-13 -41 0
-13 -33 0
-13 -24 0
-13 -21 0
-12 -88 0
-12 -67 0
-12 -65 0
-12 -63 0
-12 -61 0
-12 -59 0
-12 -57 0
-12 -52 0
-12 -44 0
-12 -43 0
-12 -33 0
-12 -24 0
-12 -21 0
-12 -18 0
-12 -13 0
-11 -89 0
-11 -80 0
-11 -76 0
-11 -74 0
-11 -69 0
-11 -66 0
-11 -61 0
-11 -48 0
-11 -47 0
-11 -42 0
-11 -41 0
-11 -30 0
-11 -27 0
-11 -23 0
-11 -13 0
-10 -88 0
-10 -84 0
-10 -81 0
-10 -66 0
-10 -63 0
-10 -59 0
-10 -36 0
-10 -33 0
-10 -29 0
-10 -24 0
-10 -21 0
-10 -20 0
-10 -13 0
-10 -12 0
-9 -86 0
-9 -80 0
-9 -75 0
-9 -66 0
-9 -61 0
-9 -47 0
-9 -42 0
-9 -40 0
-9 -37 0
-9 -30 0
-9 -27 0
-9 -25 0
-9 -23 0
-9 -21 0
-9 -17 0
-9 -15 0
-9 -11 0
-8 -88 0
-8 -63 0
-8 -60 0
-8 -59 0
-8 -58 0
-8 -56 0
-8 -53 0
-8 -46 0
-8 -33 0
-8 -30 0
-8 -24 0
-8 -21 0
-8 -13 0
-8 -12 0
-8 -10 0
-7 -79 0
-7 -76 0
-7 -72 0
-7 -68 0
-7 -60 0
-7 -58 0
-7 -57 0
-7 -56 0
-7 -53 0
-7 -46 0
-7 -40 0
-7 -34 0
-7 -30 0
-7 -26 0
-7 -8 0
-6 -90 0
-6 -83 0
-6 -80 0
-6 -73 0
-6 -70 0
-6 -67 0
-6 -62 0
-6 -38 0
-6 -33 0
-6 -32 0
-6 -26 0
-6 -25 0
-6 -19 0
-6 -16 0
-5 -89 0
-5 -76 0
-5 -74 0
-5 -69 0
-5 -67 0
-5 -62 0
-5 -48 0
-5 -41 0
-5 -38 0
-5 -32 0
-5 -25 0
-5 -19 0
-5 -13 0
-5 -11 0
-5 -6 0
-4 -67 0
-4 -62 0
-4 -60 0
-4 -58 0
-4 -56 0
-4 -53 0
-4 -46 0
-4 -38 0
-4 -32 0
-4 -30 0
-4 -25 0
-4 -19 0
-4 -8 0
-4 -7 0
-4 -6 0
-4 -5 0
-3 -79 0
-3 -74 0
-3 -64 0
-3 -62 0
-3 -55 0
-3 -49 0
-3 -46 0
-3 -43 0
-3 -31 0
-3 -29 0
-3 -28 0
-3 -27 0
-3 -24 0
-3 -22 0
-3 -17 0
-3 -16 0
-3 -14 0
-2 -84 0
-2 -81 0
-2 -67 0
-2 -66 0
-2 -62 0
-2 -38 0
-2 -36 0
-2 -32 0
-2 -29 0
-2 -25 0
-2 -20 0
-2 -19 0
-2 -10 0
-2 -6 0
-2 -5 0
-2 -4 0
-1 -84 0
-1 -81 0
-1 -79 0
-1 -76 0
-1 -72 0
-1 -68 0
-1 -66 0
-1 -57 0
-1 -40 0
-1 -36 0
-1 -34 0
-1 -29 0
-1 -26 0
-1 -20 0
-1 -10 0
-1 -7 0
-1 -2 0
1 2 10 20 29 36 66 81 84 0
3 14 24 27 28 31 62 64 79 0
4 7 8 30 46 53 56 58 60 0
5 11 13 41 48 69 74 76 89 0
6 16 26 33 70 73 80 83 90 0
12 18 43 44 52 57 61 65 67 0
19 23 35 45 49 59 68 78 85 0
22 34 38 42 51 63 71 82 87 0
32 47 50 54 55 72 77 88 91 0
9 15 17 21 25 37 39 40 75 86 0
