p cnf 73 549
-72 -73 0
-70 -73 0
-69 -71 0
-68 -71 0
-68 -69 0
-67 -72 0
-66 -73 0
-66 -70 0
-65 -71 0
-65 -69 0
-65 -68 0
-65 -67 0
-64 -70 0
-63 -64 0
-61 -63 0
-60 -73 0
-60 -72 0
-59 -68 0
-58 -71 0
-58 -60 0
-57 -67 0
-57 -65 0
-56 -63 0
-56 -61 0
-56 -57 0
-55 -72 0
-55 -68 0
-55 -67 0
-55 -59 0
-54 -66 0
-54 -59 0
-53 -68 0
-53 -61 0
-53 -59 0
-53 -55 0
-52 -73 0
-52 -72 0
-52 -64 0
-52 -63 0
-52 -60 0
-51 -67 0
-51 -65 0
-51 -60 0
-51 -58 0
-51 -57 0
-50 -63 0
-50 -61 0
-50 -60 0
-50 -58 0
-50 -56 0
-50 -51 0
-49 -73 0
-49 -70 0
-49 -68 0
-49 -66 0
-49 -59 0
-49 -55 0
-49 -53 0
-48 -68 0
-48 -60 0
-48 -59 0
-48 -58 0
-48 -55 0
-48 -53 0
-48 -51 0
-48 -50 0
-48 -49 0
-47 -67 0
-47 -65 0
-47 -59 0
-47 -57 0
-47 -54 0
-47 -51 0
-46 -69 0
-46 -57 0
-46 -56 0
-45 -73 0
-45 -71 0
-45 -70 0
-45 -66 0
-45 -58 0
-45 -49 0
-44 -73 0
-44 -70 0
-44 -67 0
-44 -66 0
-44 -65 0
-44 -57 0
-44 -51 0
-44 -49 0
-44 -47 0
-44 -45 0
-43 -71 0
-43 -59 0
-43 -58 0
-43 -54 0
-43 -47 0
-43 -45 0
-42 -67 0
-42 -65 0
-42 -61 0
-42 -57 0
-42 -53 0
-42 -51 0
-42 -47 0
-42 -44 0
-41 -66 0
-41 -60 0
-41 -58 0
-41 -54 0
-41 -51 0
-41 -50 0
-41 -48 0
-40 -70 0
-40 -64 0
-40 -57 0
-40 -56 0
-40 -46 0
-39 -70 0
-39 -64 0
-39 -61 0
-39 -53 0
-39 -42 0
-39 -40 0
-38 -71 0
-38 -61 0
-38 -58 0
-38 -53 0
-38 -45 0
-38 -43 0
-38 -42 0
-38 -39 0
-37 -69 0
-37 -59 0
-37 -54 0
-37 -47 0
-37 -46 0
-37 -43 0
-36 -68 0
-36 -59 0
-36 -57 0
-36 -56 0
-36 -55 0
-36 -53 0
-36 -49 0
-36 -48 0
-36 -46 0
-36 -40 0
-35 -63 0
-35 -61 0
-35 -59 0
-35 -56 0
-35 -54 0
-35 -50 0
-35 -47 0
-35 -43 0
-35 -37 0
-34 -69 0
-34 -60 0
-34 -58 0
-34 -51 0
-34 -50 0
-34 -48 0
-34 -46 0
-34 -41 0
-34 -37 0
-33 -67 0
-33 -65 0
-33 -64 0
-33 -63 0
-33 -57 0
-33 -52 0
-33 -51 0
-33 -47 0
-33 -44 0
-33 -42 0
-32 -73 0
-32 -70 0
-32 -69 0
-32 -66 0
-32 -49 0
-32 -46 0
-32 -45 0
-32 -44 0
-32 -37 0
-32 -34 0
-31 -71 0
-31 -58 0
-31 -57 0
-31 -56 0
-31 -46 0
-31 -45 0
-31 -43 0
-31 -40 0
-31 -38 0
-31 -36 0
-30 -72 0
-30 -67 0
-30 -66 0
-30 -55 0
-30 -54 0
-30 -41 0
-29 -66 0
-29 -61 0
-29 -54 0
-29 -53 0
-29 -42 0
-29 -41 0
-29 -39 0
-29 -38 0
-29 -30 0
-28 -73 0
-28 -72 0
-28 -60 0
-28 -57 0
-28 -56 0
-28 -52 0
-28 -46 0
-28 -40 0
-28 -36 0
-28 -31 0
-27 -60 0
-27 -58 0
-27 -51 0
-27 -50 0
-27 -48 0
-27 -41 0
-27 -34 0
-26 -72 0
-26 -71 0
-26 -67 0
-26 -58 0
-26 -55 0
-26 -45 0
-26 -43 0
-26 -38 0
-26 -31 0
-26 -30 0
-25 -73 0
-25 -72 0
-25 -60 0
-25 -59 0
-25 -54 0
-25 -52 0
-25 -47 0
-25 -43 0
-25 -37 0
-25 -35 0
-25 -28 0
-24 -72 0
-24 -70 0
-24 -67 0
-24 -64 0
-24 -55 0
-24 -40 0
-24 -39 0
-24 -30 0
-24 -26 0
-23 -61 0
-23 -53 0
-23 -42 0
-23 -39 0
-23 -38 0
-23 -29 0
-23 -27 0
-22 -71 0
-22 -69 0
-22 -68 0
-22 -65 0
-22 -63 0
-22 -61 0
-22 -56 0
-22 -50 0
-22 -35 0
-21 -66 0
-21 -64 0
-21 -63 0
-21 -54 0
-21 -52 0
-21 -41 0
-21 -33 0
-21 -30 0
-21 -29 0
-20 -71 0
-20 -64 0
-20 -63 0
-20 -58 0
-20 -52 0
-20 -45 0
-20 -43 0
-20 -38 0
-20 -33 0
-20 -31 0
-20 -26 0
-20 -21 0
-19 -72 0
-19 -69 0
-19 -67 0
-19 -55 0
-19 -46 0
-19 -37 0
-19 -34 0
-19 -32 0
-19 -30 0
-19 -26 0
-19 -24 0
-18 -71 0
-18 -70 0
-18 -69 0
-18 -68 0
-18 -65 0
-18 -64 0
-18 -40 0
-18 -39 0
-18 -24 0
-18 -22 0
-17 -70 0
-17 -64 0
-17 -60 0
-17 -58 0
-17 -51 0
-17 -50 0
-17 -48 0
-17 -41 0
-17 -40 0
-17 -39 0
-17 -34 0
-17 -27 0
-17 -24 0
-17 -18 0
-16 -59 0
-16 -54 0
-16 -47 0
-16 -43 0
-16 -37 0
-16 -35 0
-16 -27 0
-16 -25 0
-16 -23 0
-15 -73 0
-15 -72 0
-15 -61 0
-15 -60 0
-15 -53 0
-15 -52 0
-15 -42 0
-15 -39 0
-15 -38 0
-15 -29 0
-15 -28 0
-15 -25 0
-15 -23 0
-14 -72 0
-14 -67 0
-14 -63 0
-14 -61 0
-14 -56 0
-14 -55 0
-14 -50 0
-14 -35 0
-14 -30 0
-14 -26 0
-14 -24 0
-14 -22 0
-14 -19 0
-13 -66 0
-13 -57 0
-13 -56 0
-13 -54 0
-13 -46 0
-13 -41 0
-13 -40 0
-13 -36 0
-13 -31 0
-13 -30 0
-13 -29 0
-13 -28 0
-13 -21 0
-12 -70 0
-12 -64 0
-12 -59 0
-12 -54 0
-12 -47 0
-12 -43 0
-12 -40 0
-12 -39 0
-12 -37 0
-12 -35 0
-12 -25 0
-12 -24 0
-12 -18 0
-12 -17 0
-12 -16 0
-11 -69 0
-11 -64 0
-11 -63 0
-11 -52 0
-11 -46 0
-11 -37 0
-11 -34 0
-11 -33 0
-11 -32 0
-11 -21 0
-11 -20 0
-11 -19 0
-10 -68 0
-10 -64 0
-10 -63 0
-10 -59 0
-10 -55 0
-10 -53 0
-10 -52 0
-10 -49 0
-10 -48 0
-10 -36 0
-10 -33 0
-10 -21 0
-10 -20 0
-10 -11 0
-9 -73 0
-9 -70 0
-9 -66 0
-9 -49 0
-9 -45 0
-9 -44 0
-9 -32 0
-9 -27 0
-9 -23 0
-9 -16 0
-8 -73 0
-8 -72 0
-8 -71 0
-8 -69 0
-8 -68 0
-8 -65 0
-8 -60 0
-8 -52 0
-8 -28 0
-8 -25 0
-8 -22 0
-8 -18 0
-8 -15 0
-7 -73 0
-7 -70 0
-7 -66 0
-7 -63 0
-7 -61 0
-7 -56 0
-7 -50 0
-7 -49 0
-7 -45 0
-7 -44 0
-7 -35 0
-7 -32 0
-7 -22 0
-7 -14 0
-7 -9 0
-6 -71 0
-6 -69 0
-6 -68 0
-6 -65 0
-6 -27 0
-6 -23 0
-6 -22 0
-6 -18 0
-6 -16 0
-6 -9 0
-6 -8 0
-5 -72 0
-5 -67 0
-5 -55 0
-5 -30 0
-5 -27 0
-5 -26 0
-5 -24 0
-5 -23 0
-5 -19 0
-5 -16 0
-5 -14 0
-5 -9 0
-5 -6 0
-4 -64 0
-4 -63 0
-4 -52 0
-4 -33 0
-4 -27 0
-4 -23 0
-4 -21 0
-4 -20 0
-4 -16 0
-4 -11 0
-4 -10 0
-4 -9 0
-4 -6 0
-4 -5 0
-3 -69 0
-3 -61 0
-3 -53 0
-3 -46 0
-3 -42 0
-3 -39 0
-3 -38 0
-3 -37 0
-3 -34 0
-3 -32 0
-3 -29 0
-3 -23 0
-3 -19 0
-3 -15 0
-3 -11 0
-2 -57 0
-2 -56 0
-2 -46 0
-2 -40 0
-2 -36 0
-2 -31 0
-2 -28 0
-2 -27 0
-2 -23 0
-2 -16 0
-2 -13 0
-2 -9 0
-2 -6 0
-2 -5 0
-2 -4 0
-1 -71 0
-1 -69 0
-1 -68 0
-1 -66 0
-1 -65 0
-1 -54 0
-1 -41 0
-1 -30 0
-1 -29 0
-1 -22 0
-1 -21 0
-1 -18 0
-1 -13 0
-1 -8 0
-1 -6 0
2 4 5 6 9 16 23 27 0
3 11 19 32 34 37 46 69 0
7 14 22 35 50 56 61 63 0
8 15 25 28 52 60 72 73 0
10 36 48 49 53 55 59 68 0
12 17 18 24 39 40 64 70 0
20 26 31 38 43 45 58 71 0
33 42 44 47 51 57 65 67 0
1 13 21 29 30 41 54 62 66 0
