p cnf 57 372
-55 -57 0
-54 -57 0
-52 -55 0
-51 -53 0
-49 -56 0
-49 -53 0
-49 -51 0
-48 -56 0
-48 -50 0
-47 -57 0
-47 -54 0
-46 -53 0
-46 -47 0
-45 -52 0
-45 -50 0
-45 -48 0
-44 -57 0
-44 -55 0
-44 -51 0
-43 -55 0
-43 -52 0
-43 -50 0
-42 -50 0
-42 -43 0
-41 -54 0
-41 -53 0
-41 -46 0
-40 -55 0
-40 -52 0
-40 -47 0
-40 -46 0
-40 -43 0
-39 -57 0
-39 -55 0
-39 -44 0
-39 -42 0
-38 -55 0
-38 -54 0
-38 -52 0
-38 -43 0
-38 -41 0
-38 -40 0
-37 -56 0
-37 -53 0
-37 -48 0
-37 -46 0
-37 -41 0
-36 -57 0
-36 -56 0
-36 -55 0
-36 -49 0
-36 -44 0
-36 -39 0
-35 -56 0
-35 -48 0
-35 -42 0
-35 -39 0
-35 -37 0
-34 -55 0
-34 -52 0
-34 -43 0
-34 -40 0
-34 -38 0
-33 -53 0
-33 -50 0
-33 -46 0
-33 -43 0
-33 -42 0
-33 -41 0
-33 -37 0
-32 -51 0
-32 -50 0
-32 -44 0
-32 -43 0
-32 -42 0
-32 -33 0
-31 -53 0
-31 -51 0
-31 -49 0
-31 -42 0
-31 -39 0
-31 -35 0
-30 -55 0
-30 -53 0
-30 -52 0
-30 -51 0
-30 -49 0
-30 -43 0
-30 -40 0
-30 -38 0
-30 -34 0
-30 -31 0
-29 -53 0
-29 -51 0
-29 -50 0
-29 -49 0
-29 -48 0
-29 -45 0
-29 -31 0
-29 -30 0
-28 -51 0
-28 -47 0
-28 -46 0
-28 -44 0
-28 -40 0
-28 -32 0
-27 -50 0
-27 -48 0
-27 -47 0
-27 -46 0
-27 -45 0
-27 -40 0
-27 -29 0
-27 -28 0
-26 -56 0
-26 -49 0
-26 -36 0
-26 -34 0
-25 -56 0
-25 -49 0
-25 -47 0
-25 -46 0
-25 -40 0
-25 -36 0
-25 -28 0
-25 -27 0
-25 -26 0
-24 -57 0
-24 -55 0
-24 -50 0
-24 -48 0
-24 -45 0
-24 -44 0
-24 -39 0
-24 -36 0
-24 -29 0
-24 -27 0
-23 -53 0
-23 -46 0
-23 -41 0
-23 -37 0
-23 -34 0
-23 -33 0
-23 -26 0
-22 -50 0
-22 -48 0
-22 -45 0
-22 -34 0
-22 -29 0
-22 -27 0
-22 -26 0
-22 -24 0
-22 -23 0
-21 -51 0
-21 -44 0
-21 -34 0
-21 -32 0
-21 -28 0
-21 -26 0
-21 -23 0
-21 -22 0
-19 -53 0
-19 -52 0
-19 -46 0
-19 -45 0
-19 -41 0
-19 -37 0
-19 -33 0
-19 -23 0
-18 -57 0
-18 -54 0
-18 -53 0
-18 -51 0
-18 -49 0
-18 -47 0
-18 -31 0
-18 -30 0
-18 -29 0
-17 -47 0
-17 -46 0
-17 -42 0
-17 -40 0
-17 -39 0
-17 -35 0
-17 -31 0
-17 -28 0
-17 -27 0
-17 -25 0
-16 -57 0
-16 -55 0
-16 -53 0
-16 -46 0
-16 -44 0
-16 -41 0
-16 -39 0
-16 -37 0
-16 -36 0
-16 -33 0
-16 -24 0
-16 -23 0
-16 -19 0
-15 -42 0
-15 -39 0
-15 -35 0
-15 -34 0
-15 -31 0
-15 -26 0
-15 -23 0
-15 -22 0
-15 -21 0
-15 -17 0
-14 -57 0
-14 -54 0
-14 -47 0
-14 -34 0
-14 -26 0
-14 -23 0
-14 -22 0
-14 -21 0
-14 -18 0
-14 -15 0
-13 -57 0
-13 -56 0
-13 -54 0
-13 -48 0
-13 -47 0
-13 -37 0
-13 -35 0
-13 -18 0
-13 -14 0
-12 -54 0
-12 -42 0
-12 -41 0
-12 -39 0
-12 -38 0
-12 -35 0
-12 -31 0
-12 -17 0
-12 -15 0
-11 -56 0
-11 -52 0
-11 -49 0
-11 -45 0
-11 -36 0
-11 -26 0
-11 -25 0
-11 -19 0
-10 -56 0
-10 -54 0
-10 -49 0
-10 -41 0
-10 -38 0
-10 -36 0
-10 -26 0
-10 -25 0
-10 -12 0
-10 -11 0
-9 -52 0
-9 -45 0
-9 -42 0
-9 -39 0
-9 -35 0
-9 -31 0
-9 -19 0
-9 -17 0
-9 -15 0
-9 -12 0
-9 -11 0
-8 -56 0
-8 -55 0
-8 -52 0
-8 -48 0
-8 -43 0
-8 -40 0
-8 -38 0
-8 -37 0
-8 -35 0
-8 -34 0
-8 -30 0
-8 -13 0
-7 -54 0
-7 -51 0
-7 -44 0
-7 -41 0
-7 -38 0
-7 -32 0
-7 -28 0
-7 -21 0
-7 -12 0
-7 -10 0
-6 -54 0
-6 -50 0
-6 -48 0
-6 -45 0
-6 -41 0
-6 -38 0
-6 -29 0
-6 -27 0
-6 -24 0
-6 -22 0
-6 -12 0
-6 -10 0
-6 -7 0
-5 -57 0
-5 -54 0
-5 -50 0
-5 -47 0
-5 -43 0
-5 -42 0
-5 -33 0
-5 -32 0
-5 -18 0
-5 -14 0
-5 -13 0
-4 -57 0
-4 -54 0
-4 -52 0
-4 -47 0
-4 -45 0
-4 -19 0
-4 -18 0
-4 -14 0
-4 -13 0
-4 -11 0
-4 -9 0
-4 -5 0
-3 -56 0
-3 -51 0
-3 -48 0
-3 -44 0
-3 -37 0
-3 -35 0
-3 -32 0
-3 -28 0
-3 -21 0
-3 -13 0
-3 -8 0
-3 -7 0
-2 -52 0
-2 -51 0
-2 -45 0
-2 -44 0
-2 -32 0
-2 -28 0
-2 -21 0
-2 -19 0
-2 -11 0
-2 -9 0
-2 -7 0
-2 -4 0
-2 -3 0
-1 -56 0
-1 -50 0
-1 -49 0
-1 -43 0
-1 -42 0
-1 -36 0
-1 -33 0
-1 -32 0
-1 -26 0
-1 -25 0
-1 -11 0
-1 -10 0
-1 -5 0
1 5 32 33 42 43 50 0
2 4 9 11 19 45 52 0
3 8 13 35 37 48 56 0
6 7 10 12 38 41 54 0
14 15 21 22 23 26 34 0
16 24 36 39 44 55 57 0
17 25 27 28 40 46 47 0
18 20 29 30 31 49 51 53 0
