p cnf 57 372
-55 -57 0
-55 -56 0
-52 -53 0
-51 -53 0
-51 -52 0
-49 -56 0
-49 -55 0
-49 -53 0
-49 -52 0
-49 -51 0
-48 -52 0
-47 -57 0
-47 -50 0
-46 -56 0
-46 -55 0
-46 -54 0
-46 -49 0
-45 -57 0
-45 -48 0
-45 -47 0
-44 -52 0
-44 -48 0
-43 -48 0
-43 -45 0
-42 -56 0
-42 -50 0
-41 -57 0
-41 -56 0
-41 -47 0
-41 -45 0
-41 -42 0
-40 -57 0
-40 -54 0
-40 -47 0
-40 -46 0
-40 -45 0
-40 -41 0
-39 -57 0
-39 -55 0
-39 -53 0
-38 -54 0
-38 -51 0
-38 -46 0
-38 -40 0
-37 -44 0
-37 -43 0
-36 -50 0
-36 -44 0
-36 -42 0
-36 -37 0
-35 -56 0
-35 -52 0
-35 -48 0
-35 -44 0
-35 -42 0
-35 -41 0
-34 -54 0
-34 -52 0
-34 -48 0
-34 -46 0
-34 -44 0
-34 -40 0
-34 -38 0
-34 -35 0
-33 -56 0
-33 -54 0
-33 -42 0
-33 -41 0
-33 -35 0
-32 -57 0
-32 -47 0
-32 -45 0
-32 -44 0
-32 -41 0
-32 -40 0
-32 -37 0
-32 -36 0
-31 -54 0
-31 -44 0
-31 -37 0
-31 -36 0
-31 -33 0
-31 -32 0
-30 -57 0
-30 -55 0
-30 -43 0
-30 -39 0
-30 -37 0
-29 -53 0
-29 -48 0
-29 -45 0
-29 -43 0
-29 -39 0
-28 -54 0
-28 -53 0
-28 -46 0
-28 -40 0
-28 -39 0
-28 -38 0
-28 -34 0
-28 -29 0
-27 -54 0
-27 -46 0
-27 -43 0
-27 -40 0
-27 -38 0
-27 -37 0
-27 -34 0
-27 -30 0
-27 -28 0
-26 -50 0
-26 -48 0
-26 -45 0
-26 -43 0
-26 -42 0
-26 -36 0
-26 -29 0
-25 -57 0
-25 -55 0
-25 -50 0
-25 -42 0
-25 -39 0
-25 -36 0
-25 -30 0
-25 -26 0
-24 -56 0
-24 -43 0
-24 -42 0
-24 -41 0
-24 -37 0
-24 -35 0
-24 -33 0
-24 -30 0
-24 -27 0
-23 -54 0
-23 -48 0
-23 -45 0
-23 -43 0
-23 -33 0
-23 -31 0
-23 -29 0
-23 -26 0
-22 -52 0
-22 -50 0
-22 -48 0
-22 -47 0
-22 -44 0
-22 -35 0
-22 -34 0
-21 -57 0
-21 -55 0
-21 -54 0
-21 -39 0
-21 -33 0
-21 -31 0
-21 -30 0
-21 -25 0
-21 -23 0
-20 -54 0
-20 -50 0
-20 -47 0
-20 -33 0
-20 -31 0
-20 -23 0
-20 -22 0
-20 -21 0
-19 -56 0
-19 -55 0
-19 -49 0
-19 -46 0
-19 -44 0
-19 -37 0
-19 -36 0
-19 -32 0
-19 -31 0
-18 -53 0
-18 -52 0
-18 -51 0
-18 -50 0
-18 -49 0
-18 -42 0
-18 -36 0
-18 -26 0
-18 -25 0
-17 -54 0
-17 -50 0
-17 -46 0
-17 -42 0
-17 -40 0
-17 -38 0
-17 -36 0
-17 -34 0
-17 -28 0
-17 -27 0
-17 -26 0
-17 -25 0
-17 -18 0
-16 -53 0
-16 -44 0
-16 -39 0
-16 -37 0
-16 -36 0
-16 -32 0
-16 -31 0
-16 -29 0
-16 -28 0
-16 -19 0
-15 -57 0
-15 -53 0
-15 -52 0
-15 -51 0
-15 -49 0
-15 -47 0
-15 -45 0
-15 -41 0
-15 -40 0
-15 -32 0
-15 -18 0
-14 -57 0
-14 -55 0
-14 -52 0
-14 -48 0
-14 -44 0
-14 -39 0
-14 -35 0
-14 -34 0
-14 -30 0
-14 -25 0
-14 -22 0
-14 -21 0
-13 -53 0
-13 -52 0
-13 -51 0
-13 -49 0
-13 -43 0
-13 -37 0
-13 -30 0
-13 -27 0
-13 -24 0
-13 -18 0
-13 -15 0
-12 -50 0
-12 -47 0
-12 -43 0
-12 -37 0
-12 -30 0
-12 -27 0
-12 -24 0
-12 -22 0
-12 -20 0
-12 -13 0
-11 -57 0
-11 -55 0
-11 -51 0
-11 -39 0
-11 -38 0
-11 -30 0
-11 -25 0
-11 -21 0
-11 -14 0
-10 -51 0
-10 -44 0
-10 -38 0
-10 -37 0
-10 -36 0
-10 -32 0
-10 -31 0
-10 -19 0
-10 -16 0
-10 -11 0
-9 -53 0
-9 -50 0
-9 -47 0
-9 -39 0
-9 -29 0
-9 -28 0
-9 -22 0
-9 -20 0
-9 -16 0
-9 -12 0
-8 -54 0
-8 -53 0
-8 -52 0
-8 -51 0
-8 -49 0
-8 -33 0
-8 -31 0
-8 -23 0
-8 -21 0
-8 -20 0
-8 -18 0
-8 -15 0
-8 -13 0
-7 -56 0
-7 -53 0
-7 -42 0
-7 -41 0
-7 -39 0
-7 -35 0
-7 -33 0
-7 -29 0
-7 -28 0
-7 -24 0
-7 -16 0
-7 -9 0
-6 -51 0
-6 -48 0
-6 -45 0
-6 -43 0
-6 -38 0
-6 -29 0
-6 -26 0
-6 -23 0
-6 -11 0
-6 -10 0
-5 -56 0
-5 -55 0
-5 -50 0
-5 -49 0
-5 -47 0
-5 -46 0
-5 -22 0
-5 -20 0
-5 -19 0
-5 -12 0
-5 -9 0
-4 -51 0
-4 -50 0
-4 -47 0
-4 -38 0
-4 -22 0
-4 -20 0
-4 -12 0
-4 -11 0
-4 -10 0
-4 -9 0
-4 -6 0
-4 -5 0
-2 -56 0
-2 -55 0
-2 -49 0
-2 -48 0
-2 -46 0
-2 -45 0
-2 -43 0
-2 -29 0
-2 -26 0
-2 -23 0
-2 -19 0
-2 -6 0
-2 -5 0
-1 -56 0
-1 -51 0
-1 -42 0
-1 -41 0
-1 -38 0
-1 -35 0
-1 -33 0
-1 -24 0
-1 -11 0
-1 -10 0
-1 -7 0
-1 -6 0
-1 -4 0
1 4 6 10 11 38 51 0
2 5 19 46 49 55 56 0
7 9 16 28 29 39 53 0
8 20 21 23 31 33 54 0
12 13 24 27 30 37 43 0
14 22 34 35 44 48 52 0
17 18 25 26 36 42 50 0
3 15 32 40 41 45 47 57 0
