p cnf 111 1056
-108 -110 0
-107 -110 0
-106 -111 0
-106 -109 0
-103 -111 0
-102 -109 0
-102 -108 0
-102 -106 0
-101 -103 0
-98 -109 0
-98 -104 0
-97 -110 0
-97 -108 0
-96 -108 0
-96 -102 0
-96 -100 0
-95 -105 0
-94 -111 0
-94 -103 0
-94 -100 0
-93 -109 0
-93 -101 0
-93 -98 0
-92 -110 0
-92 -108 0
-92 -104 0
-92 -97 0
-91 -105 0
-91 -100 0
-91 -94 0
-90 -108 0
-90 -102 0
-90 -101 0
-90 -96 0
-90 -93 0
-89 -109 0
-89 -106 0
-89 -102 0
-89 -100 0
-89 -94 0
-89 -91 0
-88 -107 0
-88 -103 0
-88 -101 0
-87 -100 0
-87 -94 0
-87 -91 0
-87 -89 0
-86 -108 0
-86 -102 0
-86 -99 0
-86 -96 0
-86 -90 0
-85 -111 0
-85 -110 0
-85 -108 0
-85 -106 0
-85 -97 0
-85 -92 0
-84 -110 0
-84 -109 0
-84 -108 0
-84 -98 0
-84 -97 0
-84 -93 0
-84 -92 0
-84 -85 0
-83 -107 0
-83 -97 0
-83 -88 0
-82 -109 0
-82 -107 0
-82 -98 0
-82 -93 0
-82 -88 0
-82 -84 0
-82 -83 0
-81 -103 0
-81 -101 0
-81 -99 0
-81 -88 0
-81 -86 0
-80 -100 0
-80 -99 0
-80 -96 0
-79 -109 0
-79 -98 0
-79 -93 0
-79 -87 0
-79 -84 0
-79 -82 0
-78 -97 0
-78 -87 0
-78 -83 0
-78 -79 0
-77 -105 0
-77 -104 0
-77 -98 0
-77 -95 0
-76 -99 0
-76 -97 0
-76 -86 0
-76 -83 0
-76 -81 0
-76 -78 0
-75 -110 0
-75 -107 0
-75 -105 0
-75 -91 0
-74 -107 0
-74 -104 0
-74 -92 0
-74 -88 0
-74 -83 0
-74 -82 0
-73 -101 0
-73 -100 0
-73 -94 0
-73 -93 0
-73 -91 0
-73 -90 0
-73 -89 0
-73 -87 0
-72 -104 0
-72 -100 0
-72 -98 0
-72 -94 0
-72 -91 0
-72 -89 0
-72 -87 0
-72 -77 0
-72 -73 0
-71 -99 0
-71 -87 0
-71 -80 0
-71 -79 0
-71 -78 0
-70 -110 0
-70 -108 0
-70 -99 0
-70 -97 0
-70 -92 0
-70 -85 0
-70 -84 0
-70 -80 0
-70 -71 0
-69 -105 0
-69 -97 0
-69 -91 0
-69 -83 0
-69 -78 0
-69 -76 0
-69 -75 0
-68 -110 0
-68 -107 0
-68 -104 0
-68 -98 0
-68 -77 0
-68 -75 0
-68 -72 0
-67 -111 0
-67 -106 0
-67 -101 0
-67 -93 0
-67 -90 0
-67 -85 0
-67 -73 0
-66 -111 0
-66 -106 0
-66 -100 0
-66 -96 0
-66 -85 0
-66 -80 0
-66 -67 0
-65 -111 0
-65 -103 0
-65 -99 0
-65 -94 0
-65 -80 0
-65 -71 0
-65 -70 0
-64 -108 0
-64 -102 0
-64 -96 0
-64 -90 0
-64 -87 0
-64 -86 0
-64 -79 0
-64 -78 0
-64 -71 0
-63 -108 0
-63 -104 0
-63 -102 0
-63 -98 0
-63 -96 0
-63 -90 0
-63 -86 0
-63 -77 0
-63 -72 0
-63 -68 0
-63 -64 0
-62 -107 0
-62 -105 0
-62 -95 0
-62 -88 0
-62 -83 0
-62 -82 0
-62 -77 0
-62 -74 0
-61 -103 0
-61 -101 0
-61 -95 0
-61 -88 0
-61 -81 0
-60 -111 0
-60 -106 0
-60 -99 0
-60 -86 0
-60 -85 0
-60 -81 0
-60 -76 0
-60 -67 0
-60 -66 0
-59 -109 0
-59 -106 0
-59 -102 0
-59 -97 0
-59 -89 0
-59 -83 0
-59 -78 0
-59 -76 0
-59 -69 0
-58 -105 0
-58 -95 0
-58 -87 0
-58 -79 0
-58 -78 0
-58 -77 0
-58 -71 0
-58 -64 0
-58 -62 0
-57 -110 0
-57 -108 0
-57 -100 0
-57 -97 0
-57 -94 0
-57 -92 0
-57 -91 0
-57 -89 0
-57 -87 0
-57 -85 0
-57 -84 0
-57 -73 0
-57 -72 0
-57 -70 0
-56 -111 0
-56 -106 0
-56 -87 0
-56 -85 0
-56 -79 0
-56 -78 0
-56 -71 0
-56 -67 0
-56 -66 0
-56 -64 0
-56 -60 0
-56 -58 0
-55 -108 0
-55 -102 0
-55 -96 0
-55 -95 0
-55 -90 0
-55 -86 0
-55 -64 0
-55 -63 0
-55 -61 0
-54 -107 0
-54 -99 0
-54 -88 0
-54 -83 0
-54 -82 0
-54 -80 0
-54 -74 0
-54 -71 0
-54 -70 0
-54 -65 0
-54 -62 0
-53 -104 0
-53 -95 0
-53 -92 0
-53 -74 0
-53 -61 0
-53 -55 0
-52 -109 0
-52 -100 0
-52 -98 0
-52 -96 0
-52 -93 0
-52 -84 0
-52 -82 0
-52 -80 0
-52 -79 0
-52 -66 0
-51 -105 0
-51 -104 0
-51 -92 0
-51 -91 0
-51 -75 0
-51 -74 0
-51 -69 0
-51 -53 0
-50 -101 0
-50 -97 0
-50 -93 0
-50 -90 0
-50 -83 0
-50 -78 0
-50 -76 0
-50 -73 0
-50 -69 0
-50 -67 0
-50 -59 0
-49 -108 0
-49 -105 0
-49 -102 0
-49 -96 0
-49 -91 0
-49 -90 0
-49 -86 0
-49 -75 0
-49 -69 0
-49 -64 0
-49 -63 0
-49 -55 0
-49 -51 0
-48 -104 0
-48 -98 0
-48 -97 0
-48 -83 0
-48 -78 0
-48 -77 0
-48 -76 0
-48 -72 0
-48 -69 0
-48 -68 0
-48 -63 0
-48 -59 0
-48 -50 0
-47 -110 0
-47 -108 0
-47 -103 0
-47 -101 0
-47 -97 0
-47 -92 0
-47 -88 0
-47 -85 0
-47 -84 0
-47 -81 0
-47 -70 0
-47 -61 0
-47 -57 0
-46 -105 0
-46 -100 0
-46 -96 0
-46 -95 0
-46 -80 0
-46 -77 0
-46 -66 0
-46 -62 0
-46 -58 0
-46 -52 0
-45 -110 0
-45 -107 0
-45 -99 0
-45 -86 0
-45 -81 0
-45 -76 0
-45 -75 0
-45 -68 0
-45 -60 0
-44 -110 0
-44 -107 0
-44 -87 0
-44 -79 0
-44 -78 0
-44 -75 0
-44 -71 0
-44 -68 0
-44 -64 0
-44 -58 0
-44 -56 0
-44 -45 0
-43 -111 0
-43 -104 0
-43 -103 0
-43 -94 0
-43 -92 0
-43 -74 0
-43 -65 0
-43 -53 0
-43 -51 0
-42 -111 0
-42 -106 0
-42 -105 0
-42 -91 0
-42 -85 0
-42 -75 0
-42 -69 0
-42 -67 0
-42 -66 0
-42 -60 0
-42 -56 0
-42 -51 0
-42 -49 0
-41 -111 0
-41 -110 0
-41 -107 0
-41 -103 0
-41 -94 0
-41 -75 0
-41 -68 0
-41 -65 0
-41 -45 0
-41 -44 0
-41 -43 0
-40 -108 0
-40 -107 0
-40 -102 0
-40 -96 0
-40 -90 0
-40 -88 0
-40 -86 0
-40 -83 0
-40 -82 0
-40 -74 0
-40 -64 0
-40 -63 0
-40 -62 0
-40 -55 0
-40 -54 0
-40 -49 0
-39 -104 0
-39 -103 0
-39 -101 0
-39 -98 0
-39 -88 0
-39 -81 0
-39 -77 0
-39 -72 0
-39 -68 0
-39 -63 0
-39 -61 0
-39 -48 0
-39 -47 0
-38 -104 0
-38 -101 0
-38 -93 0
-38 -92 0
-38 -90 0
-38 -74 0
-38 -73 0
-38 -67 0
-38 -53 0
-38 -51 0
-38 -50 0
-38 -43 0
-37 -100 0
-37 -95 0
-37 -94 0
-37 -91 0
-37 -89 0
-37 -87 0
-37 -73 0
-37 -72 0
-37 -61 0
-37 -57 0
-37 -55 0
-37 -53 0
-36 -111 0
-36 -106 0
-36 -95 0
-36 -85 0
-36 -67 0
-36 -66 0
-36 -61 0
-36 -60 0
-36 -56 0
-36 -55 0
-36 -53 0
-36 -42 0
-36 -37 0
-35 -104 0
-35 -99 0
-35 -92 0
-35 -86 0
-35 -81 0
-35 -76 0
-35 -74 0
-35 -60 0
-35 -53 0
-35 -51 0
-35 -45 0
-35 -43 0
-35 -38 0
-34 -99 0
-34 -95 0
-34 -80 0
-34 -71 0
-34 -70 0
-34 -65 0
-34 -61 0
-34 -55 0
-34 -54 0
-34 -53 0
-34 -37 0
-34 -36 0
-33 -109 0
-33 -99 0
-33 -98 0
-33 -93 0
-33 -86 0
-33 -84 0
-33 -82 0
-33 -81 0
-33 -79 0
-33 -76 0
-33 -60 0
-33 -52 0
-33 -45 0
-33 -35 0
-32 -105 0
-32 -99 0
-32 -95 0
-32 -86 0
-32 -81 0
-32 -77 0
-32 -76 0
-32 -62 0
-32 -60 0
-32 -58 0
-32 -46 0
-32 -45 0
-32 -35 0
-32 -33 0
-31 -105 0
-31 -103 0
-31 -101 0
-31 -91 0
-31 -88 0
-31 -81 0
-31 -75 0
-31 -69 0
-31 -61 0
-31 -51 0
-31 -49 0
-31 -47 0
-31 -42 0
-31 -39 0
-30 -111 0
-30 -106 0
-30 -104 0
-30 -98 0
-30 -85 0
-30 -77 0
-30 -72 0
-30 -68 0
-30 -67 0
-30 -66 0
-30 -63 0
-30 -60 0
-30 -56 0
-30 -48 0
-30 -42 0
-30 -39 0
-30 -36 0
-29 -109 0
-29 -106 0
-29 -105 0
-29 -102 0
-29 -95 0
-29 -89 0
-29 -77 0
-29 -62 0
-29 -59 0
-29 -58 0
-29 -46 0
-29 -32 0
-28 -110 0
-28 -108 0
-28 -105 0
-28 -97 0
-28 -95 0
-28 -92 0
-28 -85 0
-28 -84 0
-28 -77 0
-28 -70 0
-28 -62 0
-28 -58 0
-28 -57 0
-28 -47 0
-28 -46 0
-28 -32 0
-28 -29 0
-27 -105 0
-27 -101 0
-27 -95 0
-27 -93 0
-27 -90 0
-27 -77 0
-27 -73 0
-27 -67 0
-27 -62 0
-27 -58 0
-27 -50 0
-27 -46 0
-27 -38 0
-27 -32 0
-27 -29 0
-27 -28 0
-26 -109 0
-26 -105 0
-26 -98 0
-26 -93 0
-26 -91 0
-26 -84 0
-26 -82 0
-26 -79 0
-26 -75 0
-26 -69 0
-26 -52 0
-26 -51 0
-26 -49 0
-26 -42 0
-26 -33 0
-26 -31 0
-25 -110 0
-25 -107 0
-25 -95 0
-25 -75 0
-25 -68 0
-25 -61 0
-25 -55 0
-25 -53 0
-25 -45 0
-25 -44 0
-25 -41 0
-25 -37 0
-25 -36 0
-25 -34 0
-24 -104 0
-24 -100 0
-24 -96 0
-24 -92 0
-24 -80 0
-24 -74 0
-24 -66 0
-24 -53 0
-24 -52 0
-24 -51 0
-24 -46 0
-24 -43 0
-24 -38 0
-24 -35 0
-23 -110 0
-23 -107 0
-23 -100 0
-23 -96 0
-23 -80 0
-23 -75 0
-23 -68 0
-23 -66 0
-23 -52 0
-23 -46 0
-23 -45 0
-23 -44 0
-23 -41 0
-23 -25 0
-23 -24 0
-22 -104 0
-22 -92 0
-22 -87 0
-22 -79 0
-22 -78 0
-22 -74 0
-22 -71 0
-22 -64 0
-22 -58 0
-22 -56 0
-22 -53 0
-22 -51 0
-22 -44 0
-22 -43 0
-22 -38 0
-22 -35 0
-22 -24 0
-20 -97 0
-20 -95 0
-20 -83 0
-20 -78 0
-20 -76 0
-20 -69 0
-20 -61 0
-20 -59 0
-20 -55 0
-20 -53 0
-20 -50 0
-20 -48 0
-20 -37 0
-20 -36 0
-20 -34 0
-20 -25 0
-19 -103 0
-19 -101 0
-19 -100 0
-19 -96 0
-19 -88 0
-19 -81 0
-19 -80 0
-19 -66 0
-19 -61 0
-19 -52 0
-19 -47 0
-19 -46 0
-19 -39 0
-19 -31 0
-19 -24 0
-19 -23 0
-18 -109 0
-18 -106 0
-18 -102 0
-18 -99 0
-18 -89 0
-18 -80 0
-18 -71 0
-18 -70 0
-18 -65 0
-18 -59 0
-18 -54 0
-18 -34 0
-18 -29 0
-17 -111 0
-17 -105 0
-17 -103 0
-17 -95 0
-17 -94 0
-17 -77 0
-17 -65 0
-17 -62 0
-17 -58 0
-17 -46 0
-17 -43 0
-17 -41 0
-17 -32 0
-17 -29 0
-17 -28 0
-17 -27 0
-16 -107 0
-16 -100 0
-16 -94 0
-16 -91 0
-16 -89 0
-16 -88 0
-16 -87 0
-16 -83 0
-16 -82 0
-16 -74 0
-16 -73 0
-16 -72 0
-16 -62 0
-16 -57 0
-16 -54 0
-16 -40 0
-16 -37 0
-15 -110 0
-15 -109 0
-15 -107 0
-15 -106 0
-15 -102 0
-15 -89 0
-15 -75 0
-15 -68 0
-15 -59 0
-15 -45 0
-15 -44 0
-15 -41 0
-15 -29 0
-15 -25 0
-15 -23 0
-15 -18 0
-14 -110 0
-14 -107 0
-14 -101 0
-14 -93 0
-14 -90 0
-14 -75 0
-14 -73 0
-14 -68 0
-14 -67 0
-14 -50 0
-14 -45 0
-14 -44 0
-14 -41 0
-14 -38 0
-14 -27 0
-14 -25 0
-14 -23 0
-14 -15 0
-13 -111 0
-13 -108 0
-13 -103 0
-13 -102 0
-13 -96 0
-13 -94 0
-13 -90 0
-13 -86 0
-13 -65 0
-13 -64 0
-13 -63 0
-13 -55 0
-13 -49 0
-13 -43 0
-13 -41 0
-13 -40 0
-13 -17 0
-12 -104 0
-12 -99 0
-12 -98 0
-12 -80 0
-12 -77 0
-12 -72 0
-12 -71 0
-12 -70 0
-12 -68 0
-12 -65 0
-12 -63 0
-12 -54 0
-12 -48 0
-12 -39 0
-12 -34 0
-12 -30 0
-12 -18 0
-11 -109 0
-11 -106 0
-11 -104 0
-11 -102 0
-11 -92 0
-11 -89 0
-11 -74 0
-11 -59 0
-11 -53 0
-11 -51 0
-11 -43 0
-11 -38 0
-11 -35 0
-11 -29 0
-11 -24 0
-11 -22 0
-11 -18 0
-11 -15 0
-10 -103 0
-10 -101 0
-10 -88 0
-10 -87 0
-10 -81 0
-10 -79 0
-10 -78 0
-10 -71 0
-10 -64 0
-10 -61 0
-10 -58 0
-10 -56 0
-10 -47 0
-10 -44 0
-10 -39 0
-10 -31 0
-10 -22 0
-10 -19 0
-9 -105 0
-9 -99 0
-9 -91 0
-9 -80 0
-9 -75 0
-9 -71 0
-9 -70 0
-9 -69 0
-9 -65 0
-9 -54 0
-9 -51 0
-9 -49 0
-9 -42 0
-9 -34 0
-9 -31 0
-9 -26 0
-9 -18 0
-9 -12 0
-8 -101 0
-8 -99 0
-8 -93 0
-8 -90 0
-8 -80 0
-8 -73 0
-8 -71 0
-8 -70 0
-8 -67 0
-8 -65 0
-8 -54 0
-8 -50 0
-8 -38 0
-8 -34 0
-8 -27 0
-8 -18 0
-8 -14 0
-8 -12 0
-8 -9 0
-7 -111 0
-7 -107 0
-7 -106 0
-7 -88 0
-7 -85 0
-7 -83 0
-7 -82 0
-7 -74 0
-7 -67 0
-7 -66 0
-7 -62 0
-7 -60 0
-7 -56 0
-7 -54 0
-7 -42 0
-7 -40 0
-7 -36 0
-7 -30 0
-7 -16 0
-6 -111 0
-6 -103 0
-6 -97 0
-6 -94 0
-6 -83 0
-6 -78 0
-6 -76 0
-6 -69 0
-6 -65 0
-6 -59 0
-6 -50 0
-6 -48 0
-6 -43 0
-6 -41 0
-6 -20 0
-6 -17 0
-6 -13 0
-5 -109 0
-5 -98 0
-5 -95 0
-5 -93 0
-5 -84 0
-5 -82 0
-5 -79 0
-5 -61 0
-5 -55 0
-5 -53 0
-5 -52 0
-5 -37 0
-5 -36 0
-5 -34 0
-5 -33 0
-5 -26 0
-5 -25 0
-5 -20 0
-4 -100 0
-4 -97 0
-4 -96 0
-4 -83 0
-4 -80 0
-4 -78 0
-4 -76 0
-4 -69 0
-4 -66 0
-4 -59 0
-4 -52 0
-4 -50 0
-4 -48 0
-4 -46 0
-4 -24 0
-4 -23 0
-4 -20 0
-4 -19 0
-4 -6 0
-3 -111 0
-3 -109 0
-3 -103 0
-3 -98 0
-3 -94 0
-3 -93 0
-3 -84 0
-3 -82 0
-3 -79 0
-3 -65 0
-3 -52 0
-3 -43 0
-3 -41 0
-3 -33 0
-3 -26 0
-3 -17 0
-3 -13 0
-3 -6 0
-3 -5 0
-2 -100 0
-2 -99 0
-2 -94 0
-2 -91 0
-2 -89 0
-2 -87 0
-2 -86 0
-2 -81 0
-2 -76 0
-2 -73 0
-2 -72 0
-2 -60 0
-2 -57 0
-2 -45 0
-2 -37 0
-2 -35 0
-2 -33 0
-2 -32 0
-2 -16 0
-1 -109 0
-1 -106 0
-1 -103 0
-1 -102 0
-1 -101 0
-1 -89 0
-1 -88 0
-1 -81 0
-1 -61 0
-1 -59 0
-1 -47 0
-1 -39 0
-1 -31 0
-1 -29 0
-1 -19 0
-1 -18 0
-1 -15 0
-1 -11 0
-1 -10 0
1 11 15 18 29 59 89 102 106 109 0
2 32 33 35 45 60 76 81 86 99 0
3 6 13 17 41 43 65 94 103 111 0
4 19 23 24 46 52 66 80 96 100 0
5 20 25 34 36 37 53 55 61 95 0
7 16 40 54 62 74 82 83 88 107 0
8 14 27 38 50 67 73 90 93 101 0
10 22 44 56 58 64 71 78 79 87 0
12 30 39 48 63 68 72 77 98 104 0
28 47 57 70 84 85 92 97 108 110 0
9 21 26 31 42 49 51 69 75 91 105 0
