p cnf 73 549
-72 -73 0
-71 -72 0
-67 -73 0
-67 -72 0
-66 -70 0
-65 -70 0
-65 -67 0
-64 -68 0
-64 -67 0
-64 -65 0
-63 -73 0
-63 -70 0
-63 -65 0
-62 -73 0
-62 -72 0
-62 -67 0
-61 -70 0
-61 -66 0
-60 -73 0
-60 -71 0
-60 -63 0
-59 -68 0
-59 -61 0
-58 -68 0
-58 -64 0
-58 -62 0
-57 -68 0
-57 -66 0
-57 -59 0
-56 -73 0
-56 -72 0
-56 -68 0
-56 -67 0
-56 -62 0
-56 -59 0
-56 -57 0
-55 -72 0
-55 -71 0
-54 -71 0
-54 -60 0
-53 -72 0
-53 -71 0
-53 -61 0
-53 -59 0
-53 -55 0
-52 -69 0
-52 -66 0
-52 -57 0
-51 -69 0
-51 -52 0
-50 -71 0
-50 -62 0
-50 -60 0
-50 -58 0
-50 -54 0
-49 -73 0
-49 -63 0
-49 -60 0
-49 -51 0
-48 -69 0
-48 -68 0
-48 -59 0
-48 -57 0
-48 -56 0
-47 -72 0
-47 -71 0
-47 -70 0
-47 -65 0
-47 -63 0
-47 -55 0
-47 -53 0
-46 -72 0
-46 -71 0
-46 -68 0
-46 -64 0
-46 -58 0
-46 -55 0
-46 -53 0
-46 -47 0
-45 -70 0
-45 -65 0
-45 -63 0
-45 -54 0
-45 -47 0
-44 -71 0
-44 -69 0
-44 -60 0
-44 -54 0
-44 -52 0
-44 -51 0
-44 -50 0
-43 -55 0
-43 -54 0
-43 -45 0
-42 -69 0
-42 -68 0
-42 -64 0
-42 -58 0
-42 -52 0
-42 -51 0
-42 -46 0
-42 -44 0
-41 -68 0
-41 -59 0
-41 -57 0
-41 -56 0
-41 -51 0
-41 -49 0
-41 -48 0
-40 -73 0
-40 -66 0
-40 -63 0
-40 -60 0
-40 -57 0
-40 -52 0
-40 -49 0
-39 -71 0
-39 -68 0
-39 -60 0
-39 -59 0
-39 -57 0
-39 -56 0
-39 -54 0
-39 -50 0
-39 -48 0
-39 -44 0
-39 -41 0
-38 -70 0
-38 -69 0
-38 -66 0
-38 -61 0
-38 -48 0
-37 -66 0
-37 -57 0
-37 -54 0
-37 -52 0
-37 -45 0
-37 -43 0
-37 -40 0
-36 -62 0
-36 -61 0
-36 -59 0
-36 -58 0
-36 -53 0
-36 -50 0
-35 -61 0
-35 -59 0
-35 -54 0
-35 -53 0
-35 -45 0
-35 -43 0
-35 -37 0
-35 -36 0
-34 -69 0
-34 -61 0
-34 -59 0
-34 -53 0
-34 -52 0
-34 -51 0
-34 -44 0
-34 -42 0
-34 -36 0
-34 -35 0
-33 -62 0
-33 -58 0
-33 -51 0
-33 -50 0
-33 -49 0
-33 -41 0
-33 -36 0
-32 -72 0
-32 -71 0
-32 -55 0
-32 -53 0
-32 -51 0
-32 -49 0
-32 -47 0
-32 -46 0
-32 -41 0
-32 -33 0
-30 -69 0
-30 -54 0
-30 -48 0
-30 -45 0
-30 -43 0
-30 -38 0
-30 -37 0
-30 -35 0
-29 -70 0
-29 -68 0
-29 -66 0
-29 -64 0
-29 -61 0
-29 -58 0
-29 -46 0
-29 -42 0
-29 -38 0
-28 -67 0
-28 -65 0
-28 -64 0
-28 -55 0
-28 -43 0
-27 -69 0
-27 -67 0
-27 -65 0
-27 -64 0
-27 -48 0
-27 -38 0
-27 -30 0
-27 -28 0
-26 -69 0
-26 -62 0
-26 -58 0
-26 -50 0
-26 -48 0
-26 -38 0
-26 -36 0
-26 -33 0
-26 -30 0
-26 -27 0
-25 -73 0
-25 -63 0
-25 -61 0
-25 -60 0
-25 -59 0
-25 -53 0
-25 -49 0
-25 -40 0
-25 -36 0
-25 -35 0
-25 -34 0
-24 -73 0
-24 -72 0
-24 -70 0
-24 -67 0
-24 -66 0
-24 -62 0
-24 -61 0
-24 -56 0
-24 -38 0
-24 -29 0
-23 -73 0
-23 -69 0
-23 -63 0
-23 -60 0
-23 -49 0
-23 -48 0
-23 -40 0
-23 -38 0
-23 -30 0
-23 -27 0
-23 -26 0
-23 -25 0
-22 -69 0
-22 -55 0
-22 -52 0
-22 -51 0
-22 -44 0
-22 -43 0
-22 -42 0
-22 -34 0
-22 -28 0
-21 -70 0
-21 -66 0
-21 -61 0
-21 -51 0
-21 -49 0
-21 -41 0
-21 -38 0
-21 -33 0
-21 -32 0
-21 -29 0
-21 -24 0
-20 -67 0
-20 -65 0
-20 -64 0
-20 -61 0
-20 -59 0
-20 -53 0
-20 -36 0
-20 -35 0
-20 -34 0
-20 -28 0
-20 -27 0
-20 -25 0
-19 -71 0
-19 -67 0
-19 -65 0
-19 -64 0
-19 -60 0
-19 -54 0
-19 -50 0
-19 -44 0
-19 -39 0
-19 -28 0
-19 -27 0
-19 -20 0
-18 -54 0
-18 -51 0
-18 -49 0
-18 -45 0
-18 -43 0
-18 -41 0
-18 -37 0
-18 -35 0
-18 -33 0
-18 -32 0
-18 -30 0
-18 -21 0
-17 -72 0
-17 -71 0
-17 -69 0
-17 -55 0
-17 -53 0
-17 -48 0
-17 -47 0
-17 -46 0
-17 -38 0
-17 -32 0
-17 -30 0
-17 -27 0
-17 -26 0
-17 -23 0
-16 -71 0
-16 -70 0
-16 -66 0
-16 -61 0
-16 -60 0
-16 -54 0
-16 -50 0
-16 -44 0
-16 -39 0
-16 -38 0
-16 -29 0
-16 -24 0
-16 -21 0
-16 -19 0
-15 -67 0
-15 -66 0
-15 -65 0
-15 -64 0
-15 -57 0
-15 -52 0
-15 -40 0
-15 -37 0
-15 -28 0
-15 -27 0
-15 -20 0
-15 -19 0
-14 -68 0
-14 -59 0
-14 -57 0
-14 -56 0
-14 -55 0
-14 -48 0
-14 -43 0
-14 -41 0
-14 -39 0
-14 -28 0
-14 -22 0
-13 -70 0
-13 -69 0
-13 -65 0
-13 -63 0
-13 -52 0
-13 -51 0
-13 -47 0
-13 -45 0
-13 -44 0
-13 -42 0
-13 -34 0
-13 -22 0
-12 -73 0
-12 -68 0
-12 -64 0
-12 -63 0
-12 -60 0
-12 -58 0
-12 -49 0
-12 -46 0
-12 -42 0
-12 -40 0
-12 -29 0
-12 -25 0
-12 -23 0
-11 -62 0
-11 -58 0
-11 -55 0
-11 -50 0
-11 -43 0
-11 -36 0
-11 -33 0
-11 -28 0
-11 -26 0
-11 -22 0
-11 -14 0
-10 -68 0
-10 -64 0
-10 -58 0
-10 -54 0
-10 -46 0
-10 -45 0
-10 -43 0
-10 -42 0
-10 -37 0
-10 -35 0
-10 -30 0
-10 -29 0
-10 -18 0
-10 -12 0
-9 -72 0
-9 -71 0
-9 -66 0
-9 -57 0
-9 -55 0
-9 -53 0
-9 -52 0
-9 -47 0
-9 -46 0
-9 -40 0
-9 -37 0
-9 -32 0
-9 -17 0
-9 -15 0
-8 -73 0
-8 -72 0
-8 -67 0
-8 -62 0
-8 -56 0
-8 -54 0
-8 -45 0
-8 -43 0
-8 -37 0
-8 -35 0
-8 -30 0
-8 -24 0
-8 -18 0
-8 -10 0
-7 -70 0
-7 -66 0
-7 -61 0
-7 -55 0
-7 -43 0
-7 -38 0
-7 -29 0
-7 -28 0
-7 -24 0
-7 -22 0
-7 -21 0
-7 -16 0
-7 -14 0
-7 -11 0
-6 -67 0
-6 -65 0
-6 -64 0
-6 -51 0
-6 -49 0
-6 -41 0
-6 -33 0
-6 -32 0
-6 -28 0
-6 -27 0
-6 -21 0
-6 -20 0
-6 -19 0
-6 -18 0
-6 -15 0
-5 -73 0
-5 -72 0
-5 -69 0
-5 -67 0
-5 -62 0
-5 -56 0
-5 -52 0
-5 -51 0
-5 -44 0
-5 -42 0
-5 -34 0
-5 -24 0
-5 -22 0
-5 -13 0
-5 -8 0
-4 -70 0
-4 -68 0
-4 -65 0
-4 -63 0
-4 -59 0
-4 -57 0
-4 -56 0
-4 -48 0
-4 -47 0
-4 -45 0
-4 -41 0
-4 -39 0
-4 -14 0
-4 -13 0
-3 -66 0
-3 -62 0
-3 -58 0
-3 -57 0
-3 -52 0
-3 -50 0
-3 -40 0
-3 -37 0
-3 -36 0
-3 -33 0
-3 -26 0
-3 -15 0
-3 -11 0
-3 -9 0
-2 -73 0
-2 -63 0
-2 -60 0
-2 -55 0
-2 -49 0
-2 -43 0
-2 -40 0
-2 -28 0
-2 -25 0
-2 -23 0
-2 -22 0
-2 -14 0
-2 -12 0
-2 -11 0
-2 -7 0
-1 -70 0
-1 -65 0
-1 -63 0
-1 -62 0
-1 -58 0
-1 -50 0
-1 -47 0
-1 -45 0
-1 -36 0
-1 -33 0
-1 -26 0
-1 -13 0
-1 -11 0
-1 -4 0
-1 -3 0
1 4 13 45 47 63 65 70 0
2 7 11 14 22 28 43 55 0
3 9 15 37 40 52 57 66 0
5 8 24 56 62 67 72 73 0
6 18 21 32 33 41 49 51 0
16 19 39 44 50 54 60 71 0
17 23 26 27 30 38 48 69 0
20 25 34 35 36 53 59 61 0
10 12 29 31 42 46 58 64 68 0
