p cnf 133 1398
-130 -131 0
-129 -132 0
-129 -131 0
-129 -130 0
-125 -127 0
-124 -127 0
-124 -125 0
-123 -126 0
-122 -133 0
-121 -133 0
-121 -126 0
-121 -123 0
-121 -122 0
-120 -130 0
-120 -125 0
-119 -133 0
-119 -126 0
-118 -132 0
-117 -128 0
-116 -124 0
-116 -118 0
-115 -131 0
-114 -131 0
-114 -125 0
-114 -120 0
-114 -115 0
-113 -132 0
-113 -130 0
-113 -120 0
-113 -118 0
-112 -128 0
-111 -132 0
-111 -126 0
-111 -119 0
-111 -118 0
-111 -113 0
-110 -133 0
-110 -130 0
-110 -120 0
-110 -119 0
-110 -113 0
-109 -124 0
-109 -123 0
-109 -116 0
-108 -127 0
-108 -125 0
-108 -124 0
-108 -122 0
-107 -131 0
-107 -130 0
-107 -129 0
-107 -112 0
-106 -131 0
-106 -127 0
-106 -115 0
-106 -114 0
-105 -130 0
-105 -122 0
-105 -120 0
-105 -113 0
-105 -110 0
-105 -108 0
-104 -132 0
-104 -128 0
-104 -118 0
-104 -117 0
-104 -113 0
-104 -111 0
-103 -118 0
-103 -116 0
-103 -115 0
-102 -115 0
-102 -103 0
-101 -132 0
-101 -131 0
-101 -118 0
-101 -115 0
-101 -114 0
-101 -113 0
-101 -111 0
-101 -106 0
-101 -104 0
-100 -132 0
-100 -129 0
-100 -117 0
-99 -131 0
-99 -130 0
-99 -129 0
-99 -107 0
-99 -102 0
-98 -128 0
-98 -125 0
-98 -120 0
-98 -117 0
-98 -114 0
-98 -104 0
-97 -132 0
-97 -129 0
-97 -115 0
-97 -103 0
-97 -102 0
-97 -100 0
-96 -122 0
-96 -118 0
-96 -116 0
-96 -108 0
-96 -105 0
-96 -103 0
-95 -132 0
-95 -129 0
-95 -128 0
-95 -112 0
-95 -100 0
-95 -97 0
-94 -125 0
-94 -123 0
-94 -120 0
-94 -114 0
-94 -109 0
-94 -98 0
-93 -125 0
-93 -120 0
-93 -118 0
-93 -116 0
-93 -114 0
-93 -103 0
-93 -98 0
-93 -96 0
-93 -94 0
-92 -131 0
-92 -128 0
-92 -115 0
-92 -114 0
-92 -112 0
-92 -106 0
-92 -101 0
-92 -95 0
-91 -130 0
-91 -120 0
-91 -113 0
-91 -110 0
-91 -105 0
-90 -131 0
-90 -130 0
-90 -129 0
-90 -123 0
-90 -109 0
-90 -107 0
-90 -99 0
-90 -94 0
-89 -132 0
-89 -127 0
-89 -125 0
-89 -124 0
-89 -118 0
-89 -113 0
-89 -111 0
-89 -108 0
-89 -104 0
-89 -101 0
-88 -127 0
-88 -118 0
-88 -116 0
-88 -106 0
-88 -103 0
-88 -96 0
-88 -93 0
-87 -127 0
-87 -123 0
-87 -109 0
-87 -106 0
-87 -94 0
-87 -90 0
-87 -88 0
-86 -126 0
-86 -119 0
-86 -115 0
-86 -111 0
-86 -103 0
-86 -102 0
-86 -97 0
-85 -124 0
-85 -116 0
-85 -109 0
-85 -102 0
-85 -99 0
-84 -123 0
-84 -115 0
-84 -109 0
-84 -103 0
-84 -102 0
-84 -97 0
-84 -94 0
-84 -90 0
-84 -87 0
-84 -86 0
-83 -125 0
-83 -120 0
-83 -114 0
-83 -102 0
-83 -99 0
-83 -98 0
-83 -94 0
-83 -93 0
-83 -85 0
-82 -126 0
-82 -123 0
-82 -121 0
-82 -112 0
-82 -107 0
-81 -133 0
-81 -119 0
-81 -112 0
-81 -110 0
-81 -107 0
-81 -82 0
-80 -133 0
-80 -128 0
-80 -119 0
-80 -117 0
-80 -110 0
-80 -104 0
-80 -98 0
-80 -81 0
-79 -128 0
-79 -126 0
-79 -123 0
-79 -121 0
-79 -117 0
-79 -104 0
-79 -98 0
-79 -82 0
-79 -80 0
-78 -130 0
-78 -120 0
-78 -115 0
-78 -113 0
-78 -110 0
-78 -105 0
-78 -103 0
-78 -102 0
-78 -97 0
-78 -91 0
-78 -86 0
-78 -84 0
-77 -132 0
-77 -123 0
-77 -118 0
-77 -113 0
-77 -111 0
-77 -109 0
-77 -104 0
-77 -101 0
-77 -94 0
-77 -90 0
-77 -89 0
-77 -87 0
-77 -84 0
-76 -126 0
-76 -123 0
-76 -121 0
-76 -118 0
-76 -116 0
-76 -103 0
-76 -96 0
-76 -93 0
-76 -88 0
-76 -82 0
-76 -79 0
-75 -133 0
-75 -119 0
-75 -118 0
-75 -116 0
-75 -110 0
-75 -103 0
-75 -96 0
-75 -93 0
-75 -88 0
-75 -81 0
-75 -80 0
-75 -76 0
-74 -127 0
-74 -125 0
-74 -124 0
-74 -115 0
-74 -108 0
-74 -103 0
-74 -102 0
-74 -97 0
-74 -89 0
-74 -86 0
-74 -84 0
-74 -78 0
-73 -131 0
-73 -130 0
-73 -129 0
-73 -126 0
-73 -119 0
-73 -111 0
-73 -107 0
-73 -99 0
-73 -90 0
-73 -86 0
-72 -130 0
-72 -120 0
-72 -117 0
-72 -113 0
-72 -110 0
-72 -105 0
-72 -100 0
-72 -91 0
-72 -78 0
-71 -127 0
-71 -125 0
-71 -124 0
-71 -117 0
-71 -108 0
-71 -100 0
-71 -89 0
-71 -74 0
-71 -72 0
-70 -122 0
-70 -112 0
-70 -108 0
-70 -107 0
-70 -105 0
-70 -96 0
-70 -82 0
-70 -81 0
-69 -122 0
-69 -108 0
-69 -105 0
-69 -102 0
-69 -99 0
-69 -96 0
-69 -85 0
-69 -83 0
-69 -70 0
-68 -126 0
-68 -122 0
-68 -119 0
-68 -111 0
-68 -108 0
-68 -105 0
-68 -96 0
-68 -86 0
-68 -73 0
-68 -70 0
-68 -69 0
-67 -132 0
-67 -129 0
-67 -125 0
-67 -120 0
-67 -114 0
-67 -100 0
-67 -98 0
-67 -97 0
-67 -95 0
-67 -94 0
-67 -93 0
-67 -83 0
-66 -133 0
-66 -128 0
-66 -122 0
-66 -121 0
-66 -112 0
-66 -95 0
-66 -92 0
-65 -133 0
-65 -127 0
-65 -122 0
-65 -121 0
-65 -106 0
-65 -88 0
-65 -87 0
-65 -66 0
-64 -127 0
-64 -125 0
-64 -124 0
-64 -108 0
-64 -91 0
-64 -89 0
-64 -74 0
-64 -71 0
-63 -126 0
-63 -119 0
-63 -117 0
-63 -111 0
-63 -100 0
-63 -86 0
-63 -73 0
-63 -72 0
-63 -71 0
-63 -68 0
-62 -133 0
-62 -131 0
-62 -130 0
-62 -129 0
-62 -122 0
-62 -121 0
-62 -107 0
-62 -99 0
-62 -90 0
-62 -73 0
-62 -66 0
-62 -65 0
-61 -128 0
-61 -122 0
-61 -117 0
-61 -108 0
-61 -105 0
-61 -104 0
-61 -98 0
-61 -96 0
-61 -80 0
-61 -79 0
-61 -70 0
-61 -69 0
-61 -68 0
-60 -132 0
-60 -118 0
-60 -113 0
-60 -112 0
-60 -111 0
-60 -107 0
-60 -104 0
-60 -101 0
-60 -89 0
-60 -82 0
-60 -81 0
-60 -77 0
-60 -70 0
-59 -132 0
-59 -129 0
-59 -127 0
-59 -106 0
-59 -100 0
-59 -97 0
-59 -95 0
-59 -88 0
-59 -87 0
-59 -67 0
-59 -65 0
-58 -132 0
-58 -129 0
-58 -100 0
-58 -97 0
-58 -95 0
-58 -91 0
-58 -67 0
-58 -64 0
-58 -59 0
-57 -133 0
-57 -132 0
-57 -129 0
-57 -119 0
-57 -110 0
-57 -100 0
-57 -97 0
-57 -95 0
-57 -81 0
-57 -80 0
-57 -75 0
-57 -67 0
-57 -59 0
-57 -58 0
-56 -124 0
-56 -116 0
-56 -112 0
-56 -109 0
-56 -107 0
-56 -85 0
-56 -82 0
-56 -81 0
-56 -70 0
-56 -60 0
-55 -126 0
-55 -124 0
-55 -119 0
-55 -116 0
-55 -111 0
-55 -109 0
-55 -86 0
-55 -85 0
-55 -73 0
-55 -68 0
-55 -63 0
-55 -56 0
-54 -128 0
-54 -118 0
-54 -116 0
-54 -112 0
-54 -103 0
-54 -96 0
-54 -95 0
-54 -93 0
-54 -92 0
-54 -88 0
-54 -76 0
-54 -75 0
-54 -66 0
-53 -133 0
-53 -124 0
-53 -122 0
-53 -121 0
-53 -116 0
-53 -109 0
-53 -85 0
-53 -66 0
-53 -65 0
-53 -62 0
-53 -56 0
-53 -55 0
-52 -130 0
-52 -126 0
-52 -123 0
-52 -121 0
-52 -120 0
-52 -113 0
-52 -110 0
-52 -105 0
-52 -91 0
-52 -82 0
-52 -79 0
-52 -78 0
-52 -76 0
-52 -72 0
-51 -126 0
-51 -123 0
-51 -121 0
-51 -102 0
-51 -99 0
-51 -85 0
-51 -83 0
-51 -82 0
-51 -79 0
-51 -76 0
-51 -69 0
-51 -52 0
-50 -131 0
-50 -122 0
-50 -115 0
-50 -114 0
-50 -108 0
-50 -106 0
-50 -105 0
-50 -101 0
-50 -96 0
-50 -92 0
-50 -70 0
-50 -69 0
-50 -68 0
-50 -61 0
-49 -128 0
-49 -124 0
-49 -117 0
-49 -116 0
-49 -109 0
-49 -104 0
-49 -98 0
-49 -85 0
-49 -80 0
-49 -79 0
-49 -61 0
-49 -56 0
-49 -55 0
-49 -53 0
-48 -132 0
-48 -129 0
-48 -126 0
-48 -123 0
-48 -121 0
-48 -100 0
-48 -97 0
-48 -95 0
-48 -82 0
-48 -79 0
-48 -76 0
-48 -67 0
-48 -59 0
-48 -58 0
-48 -57 0
-48 -52 0
-48 -51 0
-47 -131 0
-47 -130 0
-47 -129 0
-47 -127 0
-47 -125 0
-47 -124 0
-47 -108 0
-47 -107 0
-47 -99 0
-47 -90 0
-47 -89 0
-47 -74 0
-47 -73 0
-47 -71 0
-47 -64 0
-47 -62 0
-46 -112 0
-46 -107 0
-46 -91 0
-46 -82 0
-46 -81 0
-46 -70 0
-46 -64 0
-46 -60 0
-46 -58 0
-46 -56 0
-45 -115 0
-45 -112 0
-45 -107 0
-45 -103 0
-45 -102 0
-45 -97 0
-45 -86 0
-45 -84 0
-45 -82 0
-45 -81 0
-45 -78 0
-45 -74 0
-45 -70 0
-45 -60 0
-45 -56 0
-45 -46 0
-44 -123 0
-44 -122 0
-44 -109 0
-44 -108 0
-44 -105 0
-44 -96 0
-44 -94 0
-44 -90 0
-44 -87 0
-44 -84 0
-44 -77 0
-44 -70 0
-44 -69 0
-44 -68 0
-44 -61 0
-44 -50 0
-43 -126 0
-43 -119 0
-43 -111 0
-43 -91 0
-43 -86 0
-43 -73 0
-43 -68 0
-43 -64 0
-43 -63 0
-43 -58 0
-43 -55 0
-43 -46 0
-42 -131 0
-42 -115 0
-42 -114 0
-42 -106 0
-42 -101 0
-42 -92 0
-42 -91 0
-42 -64 0
-42 -58 0
-42 -50 0
-42 -46 0
-42 -43 0
-41 -117 0
-41 -102 0
-41 -100 0
-41 -99 0
-41 -85 0
-41 -83 0
-41 -72 0
-41 -71 0
-41 -69 0
-41 -63 0
-41 -51 0
-40 -123 0
-40 -109 0
-40 -94 0
-40 -91 0
-40 -90 0
-40 -87 0
-40 -84 0
-40 -77 0
-40 -64 0
-40 -58 0
-40 -46 0
-40 -44 0
-40 -43 0
-40 -42 0
-39 -128 0
-39 -126 0
-39 -119 0
-39 -112 0
-39 -111 0
-39 -95 0
-39 -92 0
-39 -86 0
-39 -73 0
-39 -68 0
-39 -66 0
-39 -63 0
-39 -55 0
-39 -54 0
-39 -43 0
-38 -131 0
-38 -126 0
-38 -123 0
-38 -121 0
-38 -115 0
-38 -114 0
-38 -106 0
-38 -101 0
-38 -92 0
-38 -82 0
-38 -79 0
-38 -76 0
-38 -52 0
-38 -51 0
-38 -50 0
-38 -48 0
-38 -42 0
-37 -133 0
-37 -123 0
-37 -119 0
-37 -110 0
-37 -109 0
-37 -94 0
-37 -90 0
-37 -87 0
-37 -84 0
-37 -81 0
-37 -80 0
-37 -77 0
-37 -75 0
-37 -57 0
-37 -44 0
-37 -40 0
-36 -126 0
-36 -125 0
-36 -120 0
-36 -119 0
-36 -114 0
-36 -111 0
-36 -98 0
-36 -94 0
-36 -93 0
-36 -86 0
-36 -83 0
-36 -73 0
-36 -68 0
-36 -67 0
-36 -63 0
-36 -55 0
-36 -43 0
-36 -39 0
-35 -131 0
-35 -130 0
-35 -129 0
-35 -128 0
-35 -117 0
-35 -107 0
-35 -104 0
-35 -99 0
-35 -98 0
-35 -90 0
-35 -80 0
-35 -79 0
-35 -73 0
-35 -62 0
-35 -61 0
-35 -49 0
-35 -47 0
-34 -133 0
-34 -122 0
-34 -121 0
-34 -115 0
-34 -103 0
-34 -102 0
-34 -97 0
-34 -86 0
-34 -84 0
-34 -78 0
-34 -74 0
-34 -66 0
-34 -65 0
-34 -62 0
-34 -53 0
-34 -45 0
-33 -131 0
-33 -117 0
-33 -115 0
-33 -114 0
-33 -106 0
-33 -101 0
-33 -100 0
-33 -92 0
-33 -72 0
-33 -71 0
-33 -63 0
-33 -50 0
-33 -42 0
-33 -41 0
-33 -38 0
-32 -118 0
-32 -116 0
-32 -103 0
-32 -96 0
-32 -93 0
-32 -91 0
-32 -88 0
-32 -76 0
-32 -75 0
-32 -64 0
-32 -58 0
-32 -54 0
-32 -46 0
-32 -43 0
-32 -42 0
-32 -40 0
-30 -133 0
-30 -127 0
-30 -125 0
-30 -124 0
-30 -119 0
-30 -110 0
-30 -108 0
-30 -89 0
-30 -81 0
-30 -80 0
-30 -75 0
-30 -74 0
-30 -71 0
-30 -64 0
-30 -57 0
-30 -47 0
-30 -37 0
-29 -130 0
-29 -124 0
-29 -120 0
-29 -116 0
-29 -113 0
-29 -110 0
-29 -109 0
-29 -105 0
-29 -91 0
-29 -85 0
-29 -78 0
-29 -72 0
-29 -56 0
-29 -55 0
-29 -53 0
-29 -52 0
-29 -49 0
-28 -128 0
-28 -112 0
-28 -102 0
-28 -99 0
-28 -95 0
-28 -92 0
-28 -85 0
-28 -83 0
-28 -69 0
-28 -66 0
-28 -54 0
-28 -51 0
-28 -41 0
-28 -39 0
-27 -128 0
-27 -123 0
-27 -112 0
-27 -109 0
-27 -95 0
-27 -94 0
-27 -92 0
-27 -90 0
-27 -87 0
-27 -84 0
-27 -77 0
-27 -66 0
-27 -54 0
-27 -44 0
-27 -40 0
-27 -39 0
-27 -37 0
-27 -28 0
-26 -131 0
-26 -130 0
-26 -129 0
-26 -118 0
-26 -116 0
-26 -107 0
-26 -103 0
-26 -99 0
-26 -96 0
-26 -93 0
-26 -90 0
-26 -88 0
-26 -76 0
-26 -75 0
-26 -73 0
-26 -62 0
-26 -54 0
-26 -47 0
-26 -35 0
-26 -32 0
-25 -123 0
-25 -117 0
-25 -109 0
-25 -100 0
-25 -94 0
-25 -90 0
-25 -87 0
-25 -84 0
-25 -77 0
-25 -72 0
-25 -71 0
-25 -63 0
-25 -44 0
-25 -41 0
-25 -40 0
-25 -37 0
-25 -33 0
-25 -27 0
-24 -128 0
-24 -127 0
-24 -117 0
-24 -106 0
-24 -104 0
-24 -98 0
-24 -88 0
-24 -87 0
-24 -80 0
-24 -79 0
-24 -65 0
-24 -61 0
-24 -59 0
-24 -49 0
-24 -35 0
-23 -128 0
-23 -117 0
-23 -104 0
-23 -98 0
-23 -91 0
-23 -80 0
-23 -79 0
-23 -64 0
-23 -61 0
-23 -58 0
-23 -49 0
-23 -46 0
-23 -43 0
-23 -42 0
-23 -40 0
-23 -35 0
-23 -32 0
-23 -24 0
-22 -117 0
-22 -112 0
-22 -107 0
-22 -100 0
-22 -82 0
-22 -81 0
-22 -72 0
-22 -71 0
-22 -70 0
-22 -63 0
-22 -60 0
-22 -56 0
-22 -46 0
-22 -45 0
-22 -41 0
-22 -33 0
-22 -25 0
-21 -125 0
-21 -120 0
-21 -114 0
-21 -112 0
-21 -107 0
-21 -98 0
-21 -94 0
-21 -93 0
-21 -83 0
-21 -82 0
-21 -81 0
-21 -70 0
-21 -67 0
-21 -60 0
-21 -56 0
-21 -46 0
-21 -45 0
-21 -36 0
-21 -22 0
-20 -130 0
-20 -128 0
-20 -120 0
-20 -113 0
-20 -112 0
-20 -110 0
-20 -105 0
-20 -95 0
-20 -92 0
-20 -91 0
-20 -78 0
-20 -72 0
-20 -66 0
-20 -54 0
-20 -52 0
-20 -39 0
-20 -29 0
-20 -28 0
-20 -27 0
-19 -128 0
-19 -117 0
-19 -115 0
-19 -104 0
-19 -103 0
-19 -102 0
-19 -98 0
-19 -97 0
-19 -86 0
-19 -84 0
-19 -80 0
-19 -79 0
-19 -78 0
-19 -74 0
-19 -61 0
-19 -49 0
-19 -45 0
-19 -35 0
-19 -34 0
-19 -24 0
-19 -23 0
-18 -127 0
-18 -112 0
-18 -107 0
-18 -106 0
-18 -88 0
-18 -87 0
-18 -82 0
-18 -81 0
-18 -70 0
-18 -65 0
-18 -60 0
-18 -59 0
-18 -56 0
-18 -46 0
-18 -45 0
-18 -24 0
-18 -22 0
-18 -21 0
-17 -127 0
-17 -126 0
-17 -125 0
-17 -124 0
-17 -123 0
-17 -121 0
-17 -108 0
-17 -89 0
-17 -82 0
-17 -79 0
-17 -76 0
-17 -74 0
-17 -71 0
-17 -64 0
-17 -52 0
-17 -51 0
-17 -48 0
-17 -47 0
-17 -38 0
-17 -30 0
-16 -130 0
-16 -127 0
-16 -120 0
-16 -113 0
-16 -110 0
-16 -106 0
-16 -105 0
-16 -91 0
-16 -88 0
-16 -87 0
-16 -78 0
-16 -72 0
-16 -65 0
-16 -59 0
-16 -52 0
-16 -29 0
-16 -24 0
-16 -20 0
-16 -18 0
-15 -132 0
-15 -129 0
-15 -124 0
-15 -116 0
-15 -109 0
-15 -100 0
-15 -97 0
-15 -95 0
-15 -85 0
-15 -67 0
-15 -59 0
-15 -58 0
-15 -57 0
-15 -56 0
-15 -55 0
-15 -53 0
-15 -49 0
-15 -48 0
-15 -29 0
-14 -133 0
-14 -122 0
-14 -121 0
-14 -117 0
-14 -100 0
-14 -72 0
-14 -71 0
-14 -66 0
-14 -65 0
-14 -63 0
-14 -62 0
-14 -53 0
-14 -41 0
-14 -34 0
-14 -33 0
-14 -25 0
-14 -22 0
-13 -118 0
-13 -117 0
-13 -116 0
-13 -103 0
-13 -100 0
-13 -96 0
-13 -93 0
-13 -88 0
-13 -76 0
-13 -75 0
-13 -72 0
-13 -71 0
-13 -63 0
-13 -54 0
-13 -41 0
-13 -33 0
-13 -32 0
-13 -26 0
-13 -25 0
-13 -22 0
-13 -14 0
-12 -133 0
-12 -131 0
-12 -119 0
-12 -115 0
-12 -114 0
-12 -110 0
-12 -106 0
-12 -101 0
-12 -92 0
-12 -81 0
-12 -80 0
-12 -75 0
-12 -57 0
-12 -50 0
-12 -42 0
-12 -38 0
-12 -37 0
-12 -33 0
-12 -30 0
-11 -132 0
-11 -118 0
-11 -113 0
-11 -111 0
-11 -104 0
-11 -102 0
-11 -101 0
-11 -99 0
-11 -89 0
-11 -85 0
-11 -83 0
-11 -77 0
-11 -69 0
-11 -60 0
-11 -51 0
-11 -41 0
-11 -28 0
-10 -127 0
-10 -126 0
-10 -119 0
-10 -111 0
-10 -106 0
-10 -88 0
-10 -87 0
-10 -86 0
-10 -73 0
-10 -68 0
-10 -65 0
-10 -63 0
-10 -59 0
-10 -55 0
-10 -43 0
-10 -39 0
-10 -36 0
-10 -24 0
-10 -18 0
-10 -16 0
-9 -133 0
-9 -119 0
-9 -110 0
-9 -102 0
-9 -99 0
-9 -85 0
-9 -83 0
-9 -81 0
-9 -80 0
-9 -75 0
-9 -69 0
-9 -57 0
-9 -51 0
-9 -41 0
-9 -37 0
-9 -30 0
-9 -28 0
-9 -12 0
-9 -11 0
-8 -127 0
-8 -106 0
-8 -102 0
-8 -99 0
-8 -88 0
-8 -87 0
-8 -85 0
-8 -83 0
-8 -69 0
-8 -65 0
-8 -59 0
-8 -51 0
-8 -41 0
-8 -28 0
-8 -24 0
-8 -18 0
-8 -16 0
-8 -11 0
-8 -10 0
-8 -9 0
-7 -131 0
-7 -124 0
-7 -116 0
-7 -115 0
-7 -114 0
-7 -109 0
-7 -106 0
-7 -101 0
-7 -92 0
-7 -85 0
-7 -56 0
-7 -55 0
-7 -53 0
-7 -50 0
-7 -49 0
-7 -42 0
-7 -38 0
-7 -33 0
-7 -29 0
-7 -15 0
-7 -12 0
-6 -133 0
-6 -122 0
-6 -121 0
-6 -91 0
-6 -66 0
-6 -65 0
-6 -64 0
-6 -62 0
-6 -58 0
-6 -53 0
-6 -46 0
-6 -43 0
-6 -42 0
-6 -40 0
-6 -34 0
-6 -32 0
-6 -23 0
-6 -14 0
-5 -102 0
-5 -99 0
-5 -91 0
-5 -85 0
-5 -83 0
-5 -69 0
-5 -64 0
-5 -58 0
-5 -51 0
-5 -46 0
-5 -43 0
-5 -42 0
-5 -41 0
-5 -40 0
-5 -32 0
-5 -28 0
-5 -23 0
-5 -11 0
-5 -9 0
-5 -8 0
-5 -6 0
-4 -133 0
-4 -125 0
-4 -122 0
-4 -121 0
-4 -120 0
-4 -114 0
-4 -98 0
-4 -94 0
-4 -93 0
-4 -83 0
-4 -67 0
-4 -66 0
-4 -65 0
-4 -62 0
-4 -53 0
-4 -36 0
-4 -34 0
-4 -21 0
-4 -14 0
-4 -6 0
-3 -128 0
-3 -127 0
-3 -125 0
-3 -124 0
-3 -112 0
-3 -108 0
-3 -95 0
-3 -92 0
-3 -89 0
-3 -74 0
-3 -71 0
-3 -66 0
-3 -64 0
-3 -54 0
-3 -47 0
-3 -39 0
-3 -30 0
-3 -28 0
-3 -27 0
-3 -20 0
-3 -17 0
-2 -132 0
-2 -129 0
-2 -122 0
-2 -108 0
-2 -105 0
-2 -100 0
-2 -97 0
-2 -96 0
-2 -95 0
-2 -70 0
-2 -69 0
-2 -68 0
-2 -67 0
-2 -61 0
-2 -59 0
-2 -58 0
-2 -57 0
-2 -50 0
-2 -48 0
-2 -44 0
-2 -15 0
-1 -133 0
-1 -132 0
-1 -122 0
-1 -121 0
-1 -118 0
-1 -113 0
-1 -111 0
-1 -104 0
-1 -101 0
-1 -89 0
-1 -77 0
-1 -66 0
-1 -65 0
-1 -62 0
-1 -60 0
-1 -53 0
-1 -34 0
-1 -14 0
-1 -11 0
-1 -6 0
-1 -4 0
1 11 60 77 89 101 104 111 113 118 132 0
2 44 50 61 68 69 70 96 105 108 122 0
3 20 27 28 39 54 66 92 95 112 128 0
4 21 36 67 83 93 94 98 114 120 125 0
5 6 23 32 40 42 43 46 58 64 91 0
7 15 29 49 53 55 56 85 109 116 124 0
8 10 16 18 24 59 65 87 88 106 127 0
9 12 30 37 57 75 80 81 110 119 133 0
13 14 22 25 33 41 63 71 72 100 117 0
17 38 48 51 52 76 79 82 121 123 126 0
19 34 45 74 78 84 86 97 102 103 115 0
26 31 35 47 62 73 90 99 107 129 130 131 0
