p cnf 91 775
-89 -91 0
-87 -90 0
-87 -88 0
-84 -91 0
-83 -88 0
-82 -88 0
-82 -87 0
-81 -84 0
-81 -83 0
-80 -90 0
-80 -88 0
-80 -83 0
-79 -86 0
-78 -86 0
-78 -79 0
-77 -85 0
-76 -89 0
-76 -86 0
-75 -88 0
-75 -87 0
-75 -84 0
-75 -82 0
-75 -81 0
-74 -89 0
-74 -85 0
-74 -77 0
-74 -76 0
-73 -90 0
-73 -84 0
-73 -81 0
-73 -80 0
-73 -75 0
-72 -88 0
-72 -86 0
-72 -83 0
-72 -80 0
-72 -79 0
-72 -78 0
-71 -91 0
-71 -89 0
-71 -88 0
-71 -87 0
-71 -82 0
-71 -75 0
-70 -89 0
-70 -78 0
-70 -76 0
-70 -74 0
-69 -90 0
-69 -80 0
-69 -79 0
-69 -73 0
-68 -84 0
-68 -81 0
-68 -77 0
-68 -75 0
-68 -73 0
-67 -83 0
-67 -81 0
-67 -78 0
-67 -70 0
-66 -90 0
-66 -87 0
-66 -86 0
-66 -79 0
-66 -78 0
-66 -72 0
-65 -91 0
-65 -89 0
-65 -77 0
-65 -71 0
-65 -68 0
-64 -84 0
-64 -81 0
-64 -75 0
-64 -73 0
-64 -68 0
-63 -86 0
-63 -82 0
-63 -79 0
-63 -78 0
-63 -72 0
-63 -66 0
-62 -88 0
-62 -85 0
-62 -83 0
-62 -80 0
-62 -72 0
-61 -90 0
-61 -87 0
-61 -66 0
-61 -64 0
-60 -91 0
-60 -89 0
-60 -85 0
-60 -71 0
-60 -65 0
-60 -62 0
-59 -90 0
-59 -80 0
-59 -73 0
-59 -69 0
-58 -88 0
-58 -87 0
-58 -82 0
-58 -75 0
-58 -71 0
-58 -59 0
-57 -89 0
-57 -88 0
-57 -83 0
-57 -80 0
-57 -76 0
-57 -74 0
-57 -72 0
-57 -70 0
-57 -62 0
-56 -85 0
-56 -83 0
-56 -81 0
-56 -77 0
-56 -74 0
-56 -67 0
-55 -91 0
-55 -86 0
-55 -84 0
-55 -76 0
-54 -85 0
-54 -77 0
-54 -74 0
-54 -64 0
-54 -61 0
-54 -56 0
-53 -85 0
-53 -79 0
-53 -69 0
-53 -62 0
-53 -60 0
-52 -64 0
-52 -61 0
-52 -59 0
-52 -58 0
-52 -54 0
-51 -82 0
-51 -77 0
-51 -68 0
-51 -65 0
-51 -63 0
-50 -86 0
-50 -83 0
-50 -81 0
-50 -76 0
-50 -67 0
-50 -56 0
-50 -55 0
-49 -89 0
-49 -82 0
-49 -76 0
-49 -74 0
-49 -70 0
-49 -63 0
-49 -57 0
-49 -51 0
-48 -83 0
-48 -82 0
-48 -81 0
-48 -67 0
-48 -63 0
-48 -56 0
-48 -51 0
-48 -50 0
-48 -49 0
-47 -89 0
-47 -79 0
-47 -76 0
-47 -74 0
-47 -70 0
-47 -69 0
-47 -57 0
-47 -53 0
-47 -49 0
-46 -90 0
-46 -87 0
-46 -77 0
-46 -68 0
-46 -66 0
-46 -65 0
-46 -61 0
-46 -51 0
-45 -82 0
-45 -64 0
-45 -63 0
-45 -61 0
-45 -54 0
-45 -52 0
-45 -51 0
-45 -49 0
-45 -48 0
-44 -91 0
-44 -84 0
-44 -59 0
-44 -58 0
-44 -55 0
-44 -52 0
-43 -85 0
-43 -78 0
-43 -70 0
-43 -67 0
-43 -62 0
-43 -60 0
-43 -53 0
-42 -91 0
-42 -85 0
-42 -84 0
-42 -77 0
-42 -74 0
-42 -56 0
-42 -55 0
-42 -54 0
-42 -44 0
-41 -86 0
-41 -84 0
-41 -81 0
-41 -79 0
-41 -78 0
-41 -75 0
-41 -73 0
-41 -72 0
-41 -68 0
-41 -66 0
-41 -64 0
-41 -63 0
-40 -88 0
-40 -83 0
-40 -80 0
-40 -72 0
-40 -64 0
-40 -62 0
-40 -61 0
-40 -57 0
-40 -54 0
-40 -52 0
-40 -45 0
-39 -79 0
-39 -77 0
-39 -69 0
-39 -68 0
-39 -65 0
-39 -53 0
-39 -51 0
-39 -47 0
-39 -46 0
-38 -90 0
-38 -87 0
-38 -85 0
-38 -66 0
-38 -62 0
-38 -61 0
-38 -60 0
-38 -53 0
-38 -46 0
-38 -43 0
-37 -79 0
-37 -69 0
-37 -64 0
-37 -61 0
-37 -54 0
-37 -53 0
-37 -52 0
-37 -47 0
-37 -45 0
-37 -40 0
-37 -39 0
-36 -85 0
-36 -62 0
-36 -60 0
-36 -59 0
-36 -58 0
-36 -53 0
-36 -52 0
-36 -44 0
-36 -43 0
-36 -38 0
-35 -91 0
-35 -89 0
-35 -86 0
-35 -79 0
-35 -78 0
-35 -72 0
-35 -71 0
-35 -66 0
-35 -65 0
-35 -63 0
-35 -60 0
-35 -41 0
-34 -90 0
-34 -80 0
-34 -78 0
-34 -73 0
-34 -70 0
-34 -69 0
-34 -67 0
-34 -59 0
-34 -43 0
-33 -85 0
-33 -84 0
-33 -81 0
-33 -75 0
-33 -73 0
-33 -68 0
-33 -64 0
-33 -62 0
-33 -60 0
-33 -53 0
-33 -43 0
-33 -41 0
-33 -38 0
-33 -36 0
-32 -86 0
-32 -76 0
-32 -64 0
-32 -61 0
-32 -55 0
-32 -54 0
-32 -52 0
-32 -50 0
-32 -45 0
-32 -40 0
-32 -37 0
-31 -86 0
-31 -77 0
-31 -76 0
-31 -68 0
-31 -65 0
-31 -55 0
-31 -51 0
-31 -50 0
-31 -46 0
-31 -39 0
-31 -32 0
-30 -88 0
-30 -87 0
-30 -82 0
-30 -79 0
-30 -75 0
-30 -71 0
-30 -69 0
-30 -58 0
-30 -53 0
-30 -47 0
-30 -39 0
-30 -37 0
-29 -86 0
-29 -85 0
-29 -79 0
-29 -78 0
-29 -77 0
-29 -74 0
-29 -72 0
-29 -66 0
-29 -63 0
-29 -56 0
-29 -54 0
-29 -42 0
-29 -41 0
-29 -35 0
-28 -78 0
-28 -70 0
-28 -67 0
-28 -64 0
-28 -61 0
-28 -54 0
-28 -52 0
-28 -45 0
-28 -43 0
-28 -40 0
-28 -37 0
-28 -34 0
-28 -32 0
-27 -89 0
-27 -76 0
-27 -74 0
-27 -70 0
-27 -59 0
-27 -58 0
-27 -57 0
-27 -52 0
-27 -49 0
-27 -47 0
-27 -44 0
-27 -36 0
-26 -91 0
-26 -90 0
-26 -87 0
-26 -84 0
-26 -66 0
-26 -61 0
-26 -55 0
-26 -46 0
-26 -44 0
-26 -42 0
-26 -38 0
-25 -91 0
-25 -89 0
-25 -83 0
-25 -81 0
-25 -71 0
-25 -67 0
-25 -65 0
-25 -60 0
-25 -56 0
-25 -50 0
-25 -48 0
-25 -35 0
-24 -89 0
-24 -84 0
-24 -81 0
-24 -76 0
-24 -75 0
-24 -74 0
-24 -73 0
-24 -70 0
-24 -68 0
-24 -64 0
-24 -57 0
-24 -49 0
-24 -47 0
-24 -41 0
-24 -33 0
-24 -27 0
-23 -91 0
-23 -89 0
-23 -71 0
-23 -65 0
-23 -64 0
-23 -61 0
-23 -60 0
-23 -54 0
-23 -52 0
-23 -45 0
-23 -40 0
-23 -37 0
-23 -35 0
-23 -32 0
-23 -28 0
-23 -25 0
-22 -86 0
-22 -85 0
-22 -76 0
-22 -62 0
-22 -60 0
-22 -55 0
-22 -53 0
-22 -50 0
-22 -43 0
-22 -38 0
-22 -36 0
-22 -33 0
-22 -32 0
-22 -31 0
-21 -88 0
-21 -87 0
-21 -86 0
-21 -82 0
-21 -76 0
-21 -75 0
-21 -71 0
-21 -58 0
-21 -55 0
-21 -50 0
-21 -32 0
-21 -31 0
-21 -30 0
-21 -22 0
-20 -90 0
-20 -86 0
-20 -80 0
-20 -76 0
-20 -73 0
-20 -69 0
-20 -59 0
-20 -55 0
-20 -50 0
-20 -34 0
-20 -32 0
-20 -31 0
-20 -22 0
-20 -21 0
-19 -91 0
-19 -84 0
-19 -78 0
-19 -70 0
-19 -67 0
-19 -55 0
-19 -44 0
-19 -43 0
-19 -42 0
-19 -34 0
-19 -28 0
-19 -26 0
-18 -91 0
-18 -84 0
-18 -79 0
-18 -69 0
-18 -55 0
-18 -53 0
-18 -47 0
-18 -44 0
-18 -42 0
-18 -39 0
-18 -37 0
-18 -30 0
-18 -26 0
-18 -19 0
-17 -90 0
-17 -85 0
-17 -80 0
-17 -77 0
-17 -74 0
-17 -73 0
-17 -69 0
-17 -59 0
-17 -56 0
-17 -54 0
-17 -42 0
-17 -34 0
-17 -29 0
-17 -20 0
-16 -90 0
-16 -87 0
-16 -83 0
-16 -81 0
-16 -67 0
-16 -66 0
-16 -61 0
-16 -56 0
-16 -50 0
-16 -48 0
-16 -46 0
-16 -38 0
-16 -26 0
-16 -25 0
-15 -91 0
-15 -84 0
-15 -82 0
-15 -63 0
-15 -55 0
-15 -51 0
-15 -49 0
-15 -48 0
-15 -45 0
-15 -44 0
-15 -42 0
-15 -26 0
-15 -19 0
-15 -18 0
-14 -78 0
-14 -77 0
-14 -70 0
-14 -68 0
-14 -67 0
-14 -65 0
-14 -51 0
-14 -46 0
-14 -43 0
-14 -39 0
-14 -34 0
-14 -31 0
-14 -28 0
-14 -19 0
-13 -91 0
-13 -90 0
-13 -89 0
-13 -80 0
-13 -73 0
-13 -71 0
-13 -69 0
-13 -65 0
-13 -60 0
-13 -59 0
-13 -35 0
-13 -34 0
-13 -25 0
-13 -23 0
-13 -20 0
-13 -17 0
-12 -83 0
-12 -81 0
-12 -67 0
-12 -59 0
-12 -58 0
-12 -56 0
-12 -52 0
-12 -50 0
-12 -48 0
-12 -44 0
-12 -36 0
-12 -27 0
-12 -25 0
-12 -16 0
-11 -88 0
-11 -87 0
-11 -85 0
-11 -82 0
-11 -77 0
-11 -75 0
-11 -74 0
-11 -71 0
-11 -58 0
-11 -56 0
-11 -54 0
-11 -42 0
-11 -30 0
-11 -29 0
-11 -21 0
-11 -17 0
-10 -85 0
-10 -82 0
-10 -63 0
-10 -62 0
-10 -60 0
-10 -53 0
-10 -51 0
-10 -49 0
-10 -48 0
-10 -45 0
-10 -43 0
-10 -38 0
-10 -36 0
-10 -33 0
-10 -22 0
-10 -15 0
-9 -90 0
-9 -89 0
-9 -87 0
-9 -76 0
-9 -74 0
-9 -70 0
-9 -66 0
-9 -61 0
-9 -57 0
-9 -49 0
-9 -47 0
-9 -46 0
-9 -38 0
-9 -27 0
-9 -26 0
-9 -24 0
-9 -16 0
-8 -88 0
-8 -83 0
-8 -80 0
-8 -77 0
-8 -72 0
-8 -68 0
-8 -65 0
-8 -62 0
-8 -57 0
-8 -51 0
-8 -46 0
-8 -40 0
-8 -39 0
-8 -31 0
-8 -14 0
-7 -86 0
-7 -79 0
-7 -78 0
-7 -72 0
-7 -66 0
-7 -63 0
-7 -59 0
-7 -58 0
-7 -52 0
-7 -44 0
-7 -41 0
-7 -36 0
-7 -35 0
-7 -29 0
-7 -27 0
-7 -12 0
-6 -88 0
-6 -87 0
-6 -82 0
-6 -78 0
-6 -75 0
-6 -71 0
-6 -70 0
-6 -67 0
-6 -58 0
-6 -43 0
-6 -34 0
-6 -30 0
-6 -28 0
-6 -21 0
-6 -19 0
-6 -14 0
-6 -11 0
-5 -77 0
-5 -68 0
-5 -65 0
-5 -59 0
-5 -58 0
-5 -52 0
-5 -51 0
-5 -46 0
-5 -44 0
-5 -39 0
-5 -36 0
-5 -31 0
-5 -27 0
-5 -14 0
-5 -12 0
-5 -8 0
-5 -7 0
-4 -83 0
-4 -81 0
-4 -79 0
-4 -69 0
-4 -67 0
-4 -56 0
-4 -53 0
-4 -50 0
-4 -48 0
-4 -47 0
-4 -39 0
-4 -37 0
-4 -30 0
-4 -25 0
-4 -18 0
-4 -16 0
-4 -12 0
-2 -91 0
-2 -88 0
-2 -84 0
-2 -83 0
-2 -80 0
-2 -72 0
-2 -62 0
-2 -57 0
-2 -55 0
-2 -44 0
-2 -42 0
-2 -40 0
-2 -26 0
-2 -19 0
-2 -18 0
-2 -15 0
-2 -8 0
-1 -90 0
-1 -82 0
-1 -80 0
-1 -73 0
-1 -69 0
-1 -63 0
-1 -59 0
-1 -51 0
-1 -49 0
-1 -48 0
-1 -45 0
-1 -34 0
-1 -20 0
-1 -17 0
-1 -15 0
-1 -13 0
-1 -10 0
1 10 15 45 48 49 51 63 82 0
2 8 40 57 62 72 80 83 88 0
4 18 30 37 39 47 53 69 79 0
5 7 12 27 36 44 52 58 59 0
6 14 19 28 34 43 67 70 78 0
11 17 29 42 54 56 74 77 85 0
13 23 25 35 60 65 71 89 91 0
20 21 22 31 32 50 55 76 86 0
24 33 41 64 68 73 75 81 84 0
3 9 16 26 38 46 61 66 87 90 0
