p cnf 133 1398
-129 -131 0
-128 -129 0
-126 -129 0
-126 -128 0
-125 -133 0
-124 -127 0
-123 -127 0
-122 -132 0
-121 -132 0
-121 -123 0
-119 -133 0
-119 -129 0
-119 -128 0
-119 -126 0
-119 -125 0
-118 -132 0
-118 -125 0
-118 -121 0
-117 -133 0
-117 -125 0
-117 -120 0
-117 -119 0
-116 -133 0
-116 -131 0
-116 -125 0
-116 -119 0
-116 -117 0
-115 -124 0
-115 -123 0
-115 -121 0
-114 -133 0
-114 -125 0
-114 -123 0
-114 -121 0
-114 -119 0
-114 -117 0
-114 -116 0
-114 -115 0
-113 -131 0
-113 -129 0
-113 -120 0
-113 -117 0
-112 -125 0
-112 -120 0
-112 -118 0
-111 -133 0
-111 -124 0
-111 -115 0
-110 -128 0
-109 -130 0
-109 -120 0
-109 -117 0
-109 -113 0
-108 -133 0
-108 -122 0
-108 -111 0
-107 -131 0
-107 -129 0
-107 -125 0
-107 -118 0
-107 -113 0
-107 -112 0
-106 -126 0
-106 -110 0
-105 -131 0
-105 -120 0
-105 -116 0
-105 -112 0
-104 -127 0
-104 -123 0
-104 -120 0
-104 -117 0
-104 -113 0
-104 -109 0
-103 -131 0
-103 -129 0
-103 -127 0
-103 -124 0
-103 -113 0
-103 -107 0
-101 -131 0
-101 -116 0
-101 -105 0
-101 -102 0
-100 -127 0
-100 -123 0
-100 -110 0
-100 -106 0
-100 -104 0
-99 -133 0
-99 -130 0
-99 -111 0
-99 -109 0
-99 -108 0
-98 -125 0
-98 -118 0
-98 -112 0
-98 -107 0
-98 -102 0
-98 -101 0
-97 -120 0
-97 -117 0
-97 -113 0
-97 -109 0
-97 -104 0
-96 -125 0
-96 -118 0
-96 -112 0
-96 -107 0
-96 -98 0
-96 -97 0
-95 -123 0
-95 -121 0
-95 -115 0
-95 -114 0
-95 -97 0
-95 -96 0
-94 -125 0
-94 -122 0
-94 -118 0
-94 -112 0
-94 -108 0
-94 -107 0
-94 -98 0
-94 -96 0
-93 -127 0
-93 -124 0
-93 -122 0
-93 -108 0
-93 -103 0
-93 -94 0
-92 -122 0
-92 -108 0
-92 -102 0
-92 -94 0
-92 -93 0
-91 -132 0
-91 -130 0
-91 -122 0
-91 -109 0
-91 -99 0
-90 -133 0
-90 -131 0
-90 -129 0
-90 -113 0
-90 -111 0
-90 -108 0
-90 -107 0
-90 -103 0
-90 -99 0
-89 -131 0
-89 -129 0
-89 -123 0
-89 -121 0
-89 -115 0
-89 -114 0
-89 -113 0
-89 -107 0
-89 -103 0
-89 -95 0
-89 -90 0
-88 -133 0
-88 -125 0
-88 -119 0
-88 -117 0
-88 -116 0
-88 -114 0
-88 -110 0
-88 -106 0
-88 -100 0
-87 -131 0
-87 -116 0
-87 -105 0
-87 -101 0
-87 -97 0
-87 -96 0
-87 -95 0
-86 -130 0
-86 -126 0
-86 -106 0
-85 -127 0
-85 -123 0
-85 -104 0
-85 -102 0
-85 -100 0
-85 -92 0
-84 -127 0
-84 -126 0
-84 -124 0
-84 -106 0
-84 -103 0
-84 -93 0
-84 -86 0
-83 -130 0
-83 -127 0
-83 -124 0
-83 -109 0
-83 -103 0
-83 -99 0
-83 -93 0
-83 -91 0
-83 -84 0
-82 -129 0
-82 -128 0
-82 -127 0
-82 -126 0
-82 -123 0
-82 -119 0
-82 -104 0
-82 -100 0
-82 -85 0
-81 -132 0
-81 -130 0
-81 -121 0
-81 -118 0
-81 -86 0
-80 -127 0
-80 -124 0
-80 -103 0
-80 -102 0
-80 -101 0
-80 -98 0
-80 -93 0
-80 -84 0
-80 -83 0
-79 -130 0
-79 -102 0
-79 -101 0
-79 -98 0
-79 -86 0
-79 -81 0
-79 -80 0
-78 -130 0
-78 -123 0
-78 -121 0
-78 -115 0
-78 -114 0
-78 -109 0
-78 -99 0
-78 -95 0
-78 -91 0
-78 -89 0
-78 -83 0
-77 -130 0
-77 -122 0
-77 -108 0
-77 -94 0
-77 -93 0
-77 -92 0
-77 -86 0
-77 -81 0
-77 -79 0
-76 -132 0
-76 -127 0
-76 -123 0
-76 -122 0
-76 -104 0
-76 -100 0
-76 -91 0
-76 -85 0
-76 -82 0
-75 -133 0
-75 -125 0
-75 -119 0
-75 -117 0
-75 -116 0
-75 -114 0
-75 -102 0
-75 -92 0
-75 -88 0
-75 -85 0
-74 -131 0
-74 -129 0
-74 -113 0
-74 -110 0
-74 -107 0
-74 -106 0
-74 -103 0
-74 -100 0
-74 -90 0
-74 -89 0
-74 -88 0
-73 -110 0
-73 -106 0
-73 -102 0
-73 -101 0
-73 -100 0
-73 -98 0
-73 -88 0
-73 -80 0
-73 -79 0
-73 -74 0
-72 -127 0
-72 -125 0
-72 -123 0
-72 -118 0
-72 -112 0
-72 -107 0
-72 -104 0
-72 -100 0
-72 -98 0
-72 -96 0
-72 -94 0
-72 -85 0
-72 -82 0
-72 -76 0
-71 -124 0
-71 -115 0
-71 -111 0
-71 -102 0
-71 -92 0
-71 -85 0
-71 -75 0
-70 -132 0
-70 -129 0
-70 -128 0
-70 -126 0
-70 -121 0
-70 -119 0
-70 -118 0
-70 -82 0
-70 -81 0
-69 -133 0
-69 -130 0
-69 -125 0
-69 -119 0
-69 -117 0
-69 -116 0
-69 -114 0
-69 -88 0
-69 -86 0
-69 -81 0
-69 -79 0
-69 -77 0
-69 -75 0
-68 -130 0
-68 -128 0
-68 -110 0
-68 -86 0
-68 -81 0
-68 -79 0
-68 -77 0
-68 -69 0
-67 -131 0
-67 -122 0
-67 -116 0
-67 -108 0
-67 -105 0
-67 -101 0
-67 -94 0
-67 -93 0
-67 -92 0
-67 -87 0
-67 -77 0
-66 -120 0
-66 -117 0
-66 -113 0
-66 -109 0
-66 -104 0
-66 -102 0
-66 -101 0
-66 -98 0
-66 -97 0
-66 -80 0
-66 -79 0
-66 -73 0
-65 -129 0
-65 -128 0
-65 -126 0
-65 -119 0
-65 -97 0
-65 -96 0
-65 -95 0
-65 -87 0
-65 -82 0
-65 -70 0
-64 -123 0
-64 -121 0
-64 -115 0
-64 -114 0
-64 -102 0
-64 -101 0
-64 -98 0
-64 -95 0
-64 -89 0
-64 -80 0
-64 -79 0
-64 -78 0
-64 -73 0
-64 -66 0
-63 -129 0
-63 -128 0
-63 -126 0
-63 -122 0
-63 -119 0
-63 -108 0
-63 -94 0
-63 -93 0
-63 -92 0
-63 -82 0
-63 -77 0
-63 -70 0
-63 -67 0
-63 -65 0
-61 -124 0
-61 -115 0
-61 -111 0
-61 -110 0
-61 -106 0
-61 -100 0
-61 -88 0
-61 -74 0
-61 -73 0
-61 -71 0
-60 -123 0
-60 -122 0
-60 -121 0
-60 -115 0
-60 -114 0
-60 -108 0
-60 -95 0
-60 -94 0
-60 -93 0
-60 -92 0
-60 -89 0
-60 -78 0
-60 -77 0
-60 -67 0
-60 -64 0
-60 -63 0
-59 -132 0
-59 -128 0
-59 -122 0
-59 -110 0
-59 -91 0
-59 -76 0
-59 -68 0
-58 -131 0
-58 -127 0
-58 -123 0
-58 -116 0
-58 -105 0
-58 -104 0
-58 -101 0
-58 -100 0
-58 -87 0
-58 -85 0
-58 -82 0
-58 -76 0
-58 -72 0
-58 -67 0
-57 -127 0
-57 -124 0
-57 -103 0
-57 -97 0
-57 -96 0
-57 -95 0
-57 -93 0
-57 -87 0
-57 -84 0
-57 -83 0
-57 -80 0
-57 -65 0
-56 -133 0
-56 -127 0
-56 -125 0
-56 -124 0
-56 -119 0
-56 -117 0
-56 -116 0
-56 -114 0
-56 -103 0
-56 -93 0
-56 -88 0
-56 -84 0
-56 -83 0
-56 -80 0
-56 -75 0
-56 -69 0
-56 -57 0
-55 -133 0
-55 -128 0
-55 -111 0
-55 -110 0
-55 -108 0
-55 -99 0
-55 -90 0
-55 -68 0
-55 -59 0
-54 -132 0
-54 -122 0
-54 -97 0
-54 -96 0
-54 -95 0
-54 -91 0
-54 -87 0
-54 -76 0
-54 -65 0
-54 -59 0
-54 -57 0
-53 -132 0
-53 -121 0
-53 -118 0
-53 -110 0
-53 -106 0
-53 -100 0
-53 -88 0
-53 -81 0
-53 -74 0
-53 -73 0
-53 -70 0
-53 -61 0
-52 -131 0
-52 -130 0
-52 -116 0
-52 -109 0
-52 -105 0
-52 -101 0
-52 -99 0
-52 -91 0
-52 -87 0
-52 -83 0
-52 -78 0
-52 -67 0
-52 -58 0
-51 -130 0
-51 -120 0
-51 -112 0
-51 -105 0
-51 -86 0
-51 -81 0
-51 -79 0
-51 -77 0
-51 -69 0
-51 -68 0
-50 -123 0
-50 -121 0
-50 -120 0
-50 -115 0
-50 -114 0
-50 -112 0
-50 -105 0
-50 -95 0
-50 -89 0
-50 -78 0
-50 -64 0
-50 -60 0
-50 -51 0
-49 -132 0
-49 -121 0
-49 -120 0
-49 -118 0
-49 -117 0
-49 -113 0
-49 -109 0
-49 -104 0
-49 -97 0
-49 -81 0
-49 -70 0
-49 -66 0
-49 -53 0
-48 -127 0
-48 -124 0
-48 -120 0
-48 -112 0
-48 -105 0
-48 -103 0
-48 -93 0
-48 -84 0
-48 -83 0
-48 -80 0
-48 -57 0
-48 -56 0
-48 -51 0
-48 -50 0
-47 -131 0
-47 -124 0
-47 -116 0
-47 -115 0
-47 -111 0
-47 -105 0
-47 -101 0
-47 -87 0
-47 -71 0
-47 -67 0
-47 -61 0
-47 -58 0
-47 -52 0
-46 -131 0
-46 -129 0
-46 -113 0
-46 -107 0
-46 -103 0
-46 -102 0
-46 -92 0
-46 -90 0
-46 -89 0
-46 -85 0
-46 -75 0
-46 -74 0
-46 -71 0
-45 -132 0
-45 -122 0
-45 -120 0
-45 -112 0
-45 -105 0
-45 -91 0
-45 -76 0
-45 -59 0
-45 -54 0
-45 -51 0
-45 -50 0
-45 -48 0
-44 -126 0
-44 -123 0
-44 -121 0
-44 -115 0
-44 -114 0
-44 -106 0
-44 -95 0
-44 -89 0
-44 -86 0
-44 -84 0
-44 -78 0
-44 -64 0
-44 -60 0
-44 -50 0
-43 -131 0
-43 -128 0
-43 -116 0
-43 -110 0
-43 -105 0
-43 -101 0
-43 -87 0
-43 -68 0
-43 -67 0
-43 -59 0
-43 -58 0
-43 -55 0
-43 -52 0
-43 -47 0
-42 -133 0
-42 -111 0
-42 -108 0
-42 -102 0
-42 -101 0
-42 -99 0
-42 -98 0
-42 -90 0
-42 -80 0
-42 -79 0
-42 -73 0
-42 -66 0
-42 -64 0
-42 -55 0
-41 -131 0
-41 -130 0
-41 -129 0
-41 -113 0
-41 -107 0
-41 -103 0
-41 -90 0
-41 -89 0
-41 -86 0
-41 -81 0
-41 -79 0
-41 -77 0
-41 -74 0
-41 -69 0
-41 -68 0
-41 -51 0
-41 -46 0
-40 -133 0
-40 -132 0
-40 -121 0
-40 -118 0
-40 -111 0
-40 -108 0
-40 -99 0
-40 -90 0
-40 -81 0
-40 -70 0
-40 -55 0
-40 -53 0
-40 -49 0
-40 -42 0
-39 -132 0
-39 -131 0
-39 -129 0
-39 -122 0
-39 -113 0
-39 -107 0
-39 -103 0
-39 -91 0
-39 -90 0
-39 -89 0
-39 -76 0
-39 -74 0
-39 -59 0
-39 -54 0
-39 -46 0
-39 -45 0
-39 -41 0
-38 -130 0
-38 -97 0
-38 -96 0
-38 -95 0
-38 -87 0
-38 -86 0
-38 -81 0
-38 -79 0
-38 -77 0
-38 -69 0
-38 -68 0
-38 -65 0
-38 -57 0
-38 -54 0
-38 -51 0
-38 -41 0
-37 -120 0
-37 -112 0
-37 -105 0
-37 -102 0
-37 -92 0
-37 -85 0
-37 -75 0
-37 -71 0
-37 -51 0
-37 -50 0
-37 -48 0
-37 -46 0
-37 -45 0
-36 -132 0
-36 -121 0
-36 -118 0
-36 -102 0
-36 -92 0
-36 -85 0
-36 -81 0
-36 -75 0
-36 -71 0
-36 -70 0
-36 -53 0
-36 -49 0
-36 -46 0
-36 -40 0
-36 -37 0
-35 -122 0
-35 -120 0
-35 -117 0
-35 -113 0
-35 -109 0
-35 -108 0
-35 -104 0
-35 -97 0
-35 -94 0
-35 -93 0
-35 -92 0
-35 -77 0
-35 -67 0
-35 -66 0
-35 -63 0
-35 -60 0
-35 -49 0
-34 -132 0
-34 -131 0
-34 -121 0
-34 -118 0
-34 -116 0
-34 -105 0
-34 -101 0
-34 -87 0
-34 -81 0
-34 -70 0
-34 -67 0
-34 -58 0
-34 -53 0
-34 -52 0
-34 -49 0
-34 -47 0
-34 -43 0
-34 -40 0
-34 -36 0
-33 -126 0
-33 -106 0
-33 -102 0
-33 -92 0
-33 -86 0
-33 -85 0
-33 -84 0
-33 -75 0
-33 -71 0
-33 -46 0
-33 -44 0
-33 -37 0
-33 -36 0
-32 -128 0
-32 -127 0
-32 -124 0
-32 -110 0
-32 -103 0
-32 -93 0
-32 -84 0
-32 -83 0
-32 -80 0
-32 -68 0
-32 -59 0
-32 -57 0
-32 -56 0
-32 -55 0
-32 -48 0
-32 -43 0
-31 -130 0
-31 -129 0
-31 -128 0
-31 -126 0
-31 -119 0
-31 -109 0
-31 -99 0
-31 -91 0
-31 -83 0
-31 -82 0
-31 -78 0
-31 -70 0
-31 -65 0
-31 -63 0
-31 -52 0
-30 -133 0
-30 -126 0
-30 -111 0
-30 -108 0
-30 -106 0
-30 -99 0
-30 -90 0
-30 -86 0
-30 -84 0
-30 -55 0
-30 -44 0
-30 -42 0
-30 -40 0
-30 -33 0
-29 -132 0
-29 -122 0
-29 -102 0
-29 -101 0
-29 -98 0
-29 -91 0
-29 -80 0
-29 -79 0
-29 -76 0
-29 -73 0
-29 -66 0
-29 -64 0
-29 -59 0
-29 -54 0
-29 -45 0
-29 -42 0
-29 -39 0
-28 -120 0
-28 -112 0
-28 -110 0
-28 -106 0
-28 -105 0
-28 -100 0
-28 -88 0
-28 -74 0
-28 -73 0
-28 -61 0
-28 -53 0
-28 -51 0
-28 -50 0
-28 -48 0
-28 -45 0
-28 -37 0
-27 -128 0
-27 -125 0
-27 -118 0
-27 -112 0
-27 -110 0
-27 -107 0
-27 -98 0
-27 -96 0
-27 -94 0
-27 -72 0
-27 -68 0
-27 -59 0
-27 -55 0
-27 -43 0
-27 -32 0
-26 -131 0
-26 -126 0
-26 -116 0
-26 -106 0
-26 -105 0
-26 -101 0
-26 -87 0
-26 -86 0
-26 -84 0
-26 -67 0
-26 -58 0
-26 -52 0
-26 -47 0
-26 -44 0
-26 -43 0
-26 -34 0
-26 -33 0
-26 -30 0
-25 -126 0
-25 -125 0
-25 -118 0
-25 -112 0
-25 -107 0
-25 -106 0
-25 -98 0
-25 -96 0
-25 -94 0
-25 -86 0
-25 -84 0
-25 -72 0
-25 -44 0
-25 -33 0
-25 -30 0
-25 -27 0
-25 -26 0
-24 -130 0
-24 -127 0
-24 -123 0
-24 -104 0
-24 -100 0
-24 -86 0
-24 -85 0
-24 -82 0
-24 -81 0
-24 -79 0
-24 -77 0
-24 -76 0
-24 -72 0
-24 -69 0
-24 -68 0
-24 -58 0
-24 -51 0
-24 -41 0
-24 -38 0
-23 -133 0
-23 -120 0
-23 -112 0
-23 -111 0
-23 -108 0
-23 -105 0
-23 -99 0
-23 -90 0
-23 -55 0
-23 -51 0
-23 -50 0
-23 -48 0
-23 -45 0
-23 -42 0
-23 -40 0
-23 -37 0
-23 -30 0
-23 -28 0
-22 -128 0
-22 -110 0
-22 -102 0
-22 -92 0
-22 -85 0
-22 -75 0
-22 -71 0
-22 -68 0
-22 -59 0
-22 -55 0
-22 -46 0
-22 -43 0
-22 -37 0
-22 -36 0
-22 -33 0
-22 -32 0
-22 -27 0
-21 -132 0
-21 -126 0
-21 -122 0
-21 -106 0
-21 -91 0
-21 -86 0
-21 -84 0
-21 -76 0
-21 -59 0
-21 -54 0
-21 -45 0
-21 -44 0
-21 -39 0
-21 -33 0
-21 -30 0
-21 -29 0
-21 -26 0
-21 -25 0
-20 -110 0
-20 -106 0
-20 -100 0
-20 -97 0
-20 -96 0
-20 -95 0
-20 -88 0
-20 -87 0
-20 -74 0
-20 -73 0
-20 -65 0
-20 -61 0
-20 -57 0
-20 -54 0
-20 -53 0
-20 -38 0
-20 -28 0
-19 -133 0
-19 -127 0
-19 -123 0
-19 -111 0
-19 -108 0
-19 -104 0
-19 -100 0
-19 -99 0
-19 -90 0
-19 -85 0
-19 -82 0
-19 -76 0
-19 -72 0
-19 -58 0
-19 -55 0
-19 -42 0
-19 -40 0
-19 -30 0
-19 -24 0
-19 -23 0
-18 -132 0
-18 -127 0
-18 -124 0
-18 -121 0
-18 -118 0
-18 -103 0
-18 -93 0
-18 -84 0
-18 -83 0
-18 -81 0
-18 -80 0
-18 -70 0
-18 -57 0
-18 -56 0
-18 -53 0
-18 -49 0
-18 -48 0
-18 -40 0
-18 -36 0
-18 -34 0
-18 -32 0
-17 -125 0
-17 -124 0
-17 -118 0
-17 -115 0
-17 -112 0
-17 -111 0
-17 -107 0
-17 -98 0
-17 -96 0
-17 -94 0
-17 -72 0
-17 -71 0
-17 -61 0
-17 -47 0
-17 -27 0
-17 -25 0
-16 -124 0
-16 -120 0
-16 -117 0
-16 -115 0
-16 -113 0
-16 -111 0
-16 -109 0
-16 -104 0
-16 -97 0
-16 -71 0
-16 -66 0
-16 -61 0
-16 -49 0
-16 -47 0
-16 -35 0
-16 -17 0
-15 -130 0
-15 -125 0
-15 -118 0
-15 -112 0
-15 -109 0
-15 -107 0
-15 -99 0
-15 -98 0
-15 -96 0
-15 -94 0
-15 -91 0
-15 -83 0
-15 -78 0
-15 -72 0
-15 -52 0
-15 -31 0
-15 -27 0
-15 -25 0
-15 -17 0
-14 -102 0
-14 -97 0
-14 -96 0
-14 -95 0
-14 -92 0
-14 -87 0
-14 -85 0
-14 -75 0
-14 -71 0
-14 -65 0
-14 -57 0
-14 -54 0
-14 -46 0
-14 -38 0
-14 -37 0
-14 -36 0
-14 -33 0
-14 -22 0
-14 -20 0
-13 -128 0
-13 -123 0
-13 -121 0
-13 -115 0
-13 -114 0
-13 -110 0
-13 -95 0
-13 -89 0
-13 -78 0
-13 -68 0
-13 -64 0
-13 -60 0
-13 -59 0
-13 -55 0
-13 -50 0
-13 -44 0
-13 -43 0
-13 -32 0
-13 -27 0
-13 -22 0
-12 -132 0
-12 -124 0
-12 -122 0
-12 -115 0
-12 -111 0
-12 -91 0
-12 -76 0
-12 -71 0
-12 -61 0
-12 -59 0
-12 -54 0
-12 -47 0
-12 -45 0
-12 -39 0
-12 -29 0
-12 -21 0
-12 -17 0
-12 -16 0
-11 -129 0
-11 -128 0
-11 -126 0
-11 -119 0
-11 -102 0
-11 -101 0
-11 -98 0
-11 -82 0
-11 -80 0
-11 -79 0
-11 -73 0
-11 -70 0
-11 -66 0
-11 -65 0
-11 -64 0
-11 -63 0
-11 -42 0
-11 -31 0
-11 -29 0
-10 -130 0
-10 -124 0
-10 -115 0
-10 -111 0
-10 -86 0
-10 -81 0
-10 -79 0
-10 -77 0
-10 -71 0
-10 -69 0
-10 -68 0
-10 -61 0
-10 -51 0
-10 -47 0
-10 -41 0
-10 -38 0
-10 -24 0
-10 -17 0
-10 -16 0
-10 -12 0
-9 -133 0
-9 -132 0
-9 -125 0
-9 -122 0
-9 -119 0
-9 -117 0
-9 -116 0
-9 -114 0
-9 -91 0
-9 -88 0
-9 -76 0
-9 -75 0
-9 -69 0
-9 -59 0
-9 -56 0
-9 -54 0
-9 -45 0
-9 -39 0
-9 -29 0
-9 -21 0
-9 -12 0
-8 -129 0
-8 -128 0
-8 -126 0
-8 -120 0
-8 -119 0
-8 -112 0
-8 -105 0
-8 -82 0
-8 -70 0
-8 -65 0
-8 -63 0
-8 -51 0
-8 -50 0
-8 -48 0
-8 -45 0
-8 -37 0
-8 -31 0
-8 -28 0
-8 -23 0
-8 -11 0
-7 -133 0
-7 -111 0
-7 -108 0
-7 -99 0
-7 -97 0
-7 -96 0
-7 -95 0
-7 -90 0
-7 -87 0
-7 -65 0
-7 -57 0
-7 -55 0
-7 -54 0
-7 -42 0
-7 -40 0
-7 -38 0
-7 -30 0
-7 -23 0
-7 -20 0
-7 -19 0
-7 -14 0
-6 -129 0
-6 -128 0
-6 -126 0
-6 -124 0
-6 -119 0
-6 -115 0
-6 -111 0
-6 -82 0
-6 -71 0
-6 -70 0
-6 -65 0
-6 -63 0
-6 -61 0
-6 -47 0
-6 -31 0
-6 -17 0
-6 -16 0
-6 -12 0
-6 -11 0
-6 -10 0
-6 -8 0
-5 -130 0
-5 -110 0
-5 -109 0
-5 -106 0
-5 -100 0
-5 -99 0
-5 -91 0
-5 -88 0
-5 -83 0
-5 -78 0
-5 -74 0
-5 -73 0
-5 -61 0
-5 -53 0
-5 -52 0
-5 -31 0
-5 -28 0
-5 -20 0
-5 -15 0
-4 -128 0
-4 -120 0
-4 -117 0
-4 -113 0
-4 -110 0
-4 -109 0
-4 -104 0
-4 -97 0
-4 -68 0
-4 -66 0
-4 -59 0
-4 -55 0
-4 -49 0
-4 -43 0
-4 -35 0
-4 -32 0
-4 -27 0
-4 -22 0
-4 -16 0
-4 -13 0
-3 -130 0
-3 -109 0
-3 -102 0
-3 -99 0
-3 -92 0
-3 -91 0
-3 -85 0
-3 -83 0
-3 -78 0
-3 -75 0
-3 -71 0
-3 -52 0
-3 -46 0
-3 -37 0
-3 -36 0
-3 -33 0
-3 -31 0
-3 -22 0
-3 -15 0
-3 -14 0
-3 -5 0
-2 -122 0
-2 -110 0
-2 -108 0
-2 -106 0
-2 -100 0
-2 -94 0
-2 -93 0
-2 -92 0
-2 -88 0
-2 -77 0
-2 -74 0
-2 -73 0
-2 -67 0
-2 -63 0
-2 -61 0
-2 -60 0
-2 -53 0
-2 -35 0
-2 -28 0
-2 -20 0
-2 -5 0
-1 -126 0
-1 -120 0
-1 -117 0
-1 -113 0
-1 -109 0
-1 -106 0
-1 -104 0
-1 -97 0
-1 -86 0
-1 -84 0
-1 -66 0
-1 -49 0
-1 -44 0
-1 -35 0
-1 -33 0
-1 -30 0
-1 -26 0
-1 -25 0
-1 -21 0
-1 -16 0
-1 -4 0
1 21 25 26 30 33 44 84 86 106 126 0
3 5 15 31 52 78 83 91 99 109 130 0
4 13 22 27 32 43 55 59 68 110 128 0
6 10 12 16 17 47 61 71 111 115 124 0
7 14 20 38 54 57 65 87 95 96 97 0
8 23 28 37 45 48 50 51 105 112 120 0
9 56 69 75 88 114 116 117 119 125 133 0
11 29 42 64 66 73 79 80 98 101 102 0
18 34 36 40 49 53 70 81 118 121 132 0
19 24 58 72 76 82 85 100 104 123 127 0
39 41 46 74 89 90 103 107 113 129 131 0
2 35 60 62 63 67 77 92 93 94 108 122 0
