p cnf 133 1398
-129 -131 0
-127 -130 0
-126 -128 0
-125 -128 0
-125 -126 0
-124 -132 0
-123 -129 0
-122 -128 0
-121 -131 0
-121 -129 0
-121 -125 0
-120 -133 0
-120 -132 0
-119 -125 0
-119 -123 0
-119 -121 0
-118 -133 0
-118 -131 0
-118 -120 0
-117 -122 0
-116 -125 0
-116 -122 0
-116 -121 0
-116 -119 0
-116 -117 0
-115 -131 0
-115 -129 0
-115 -121 0
-114 -132 0
-114 -130 0
-114 -127 0
-114 -124 0
-113 -129 0
-113 -123 0
-113 -122 0
-113 -117 0
-113 -116 0
-112 -133 0
-112 -131 0
-112 -129 0
-112 -121 0
-112 -115 0
-111 -133 0
-111 -132 0
-111 -124 0
-111 -114 0
-111 -112 0
-110 -128 0
-110 -126 0
-110 -125 0
-110 -115 0
-109 -122 0
-109 -117 0
-109 -116 0
-109 -113 0
-108 -132 0
-108 -127 0
-108 -120 0
-107 -129 0
-107 -123 0
-107 -113 0
-106 -132 0
-106 -124 0
-106 -115 0
-106 -114 0
-106 -111 0
-106 -110 0
-105 -133 0
-105 -126 0
-105 -120 0
-105 -118 0
-104 -128 0
-104 -123 0
-104 -122 0
-104 -119 0
-103 -132 0
-103 -124 0
-103 -117 0
-103 -114 0
-103 -111 0
-103 -106 0
-102 -127 0
-102 -115 0
-102 -110 0
-102 -108 0
-102 -106 0
-101 -127 0
-101 -109 0
-101 -108 0
-101 -102 0
-100 -130 0
-100 -126 0
-100 -105 0
-99 -129 0
-99 -127 0
-99 -123 0
-99 -113 0
-99 -108 0
-99 -107 0
-99 -102 0
-99 -101 0
-98 -132 0
-98 -130 0
-98 -120 0
-98 -108 0
-98 -100 0
-97 -131 0
-97 -122 0
-97 -118 0
-97 -117 0
-97 -116 0
-97 -113 0
-97 -109 0
-96 -123 0
-96 -119 0
-96 -115 0
-96 -110 0
-96 -106 0
-96 -104 0
-96 -102 0
-95 -128 0
-95 -127 0
-95 -122 0
-95 -108 0
-95 -104 0
-95 -102 0
-95 -101 0
-95 -99 0
-94 -127 0
-94 -125 0
-94 -121 0
-94 -119 0
-94 -116 0
-94 -108 0
-94 -102 0
-94 -101 0
-94 -99 0
-94 -95 0
-93 -130 0
-93 -109 0
-93 -101 0
-93 -100 0
-93 -98 0
-92 -132 0
-92 -123 0
-92 -120 0
-92 -119 0
-92 -108 0
-92 -104 0
-92 -98 0
-92 -96 0
-91 -133 0
-91 -129 0
-91 -123 0
-91 -120 0
-91 -118 0
-91 -113 0
-91 -107 0
-91 -105 0
-91 -99 0
-90 -131 0
-90 -128 0
-90 -126 0
-90 -125 0
-90 -118 0
-90 -110 0
-90 -97 0
-89 -130 0
-89 -115 0
-89 -110 0
-89 -106 0
-89 -102 0
-89 -100 0
-89 -98 0
-89 -96 0
-89 -93 0
-88 -132 0
-88 -125 0
-88 -124 0
-88 -121 0
-88 -119 0
-88 -116 0
-88 -114 0
-88 -111 0
-88 -106 0
-88 -103 0
-88 -94 0
-87 -133 0
-87 -112 0
-87 -111 0
-86 -127 0
-86 -126 0
-86 -108 0
-86 -105 0
-86 -102 0
-86 -101 0
-86 -100 0
-86 -99 0
-86 -95 0
-86 -94 0
-85 -123 0
-85 -119 0
-85 -117 0
-85 -104 0
-85 -103 0
-85 -96 0
-85 -92 0
-84 -132 0
-84 -128 0
-84 -124 0
-84 -122 0
-84 -114 0
-84 -111 0
-84 -106 0
-84 -104 0
-84 -103 0
-84 -95 0
-84 -88 0
-83 -126 0
-83 -105 0
-83 -100 0
-83 -86 0
-82 -133 0
-82 -127 0
-82 -112 0
-82 -111 0
-82 -108 0
-82 -102 0
-82 -101 0
-82 -99 0
-82 -95 0
-82 -94 0
-82 -87 0
-82 -86 0
-81 -133 0
-81 -130 0
-81 -112 0
-81 -111 0
-81 -100 0
-81 -98 0
-81 -93 0
-81 -89 0
-81 -87 0
-81 -82 0
-80 -127 0
-80 -117 0
-80 -108 0
-80 -103 0
-80 -102 0
-80 -101 0
-80 -99 0
-80 -95 0
-80 -94 0
-80 -86 0
-80 -85 0
-80 -82 0
-79 -117 0
-79 -107 0
-79 -103 0
-79 -85 0
-79 -80 0
-78 -117 0
-78 -103 0
-78 -85 0
-78 -83 0
-78 -80 0
-78 -79 0
-77 -131 0
-77 -127 0
-77 -118 0
-77 -108 0
-77 -102 0
-77 -101 0
-77 -99 0
-77 -97 0
-77 -95 0
-77 -94 0
-77 -90 0
-77 -86 0
-77 -82 0
-77 -80 0
-76 -130 0
-76 -124 0
-76 -100 0
-76 -98 0
-76 -93 0
-76 -89 0
-76 -81 0
-75 -133 0
-75 -125 0
-75 -121 0
-75 -120 0
-75 -119 0
-75 -118 0
-75 -116 0
-75 -105 0
-75 -94 0
-75 -91 0
-75 -88 0
-74 -126 0
-74 -123 0
-74 -119 0
-74 -105 0
-74 -104 0
-74 -100 0
-74 -96 0
-74 -92 0
-74 -86 0
-74 -85 0
-74 -83 0
-73 -130 0
-73 -127 0
-73 -114 0
-73 -87 0
-72 -115 0
-72 -110 0
-72 -106 0
-72 -102 0
-72 -96 0
-72 -89 0
-72 -83 0
-72 -78 0
-71 -133 0
-71 -112 0
-71 -111 0
-71 -107 0
-71 -87 0
-71 -82 0
-71 -81 0
-71 -79 0
-70 -126 0
-70 -107 0
-70 -105 0
-70 -100 0
-70 -86 0
-70 -83 0
-70 -79 0
-70 -74 0
-70 -71 0
-69 -131 0
-69 -118 0
-69 -97 0
-69 -90 0
-69 -87 0
-69 -77 0
-69 -73 0
-68 -130 0
-68 -127 0
-68 -123 0
-68 -119 0
-68 -114 0
-68 -104 0
-68 -96 0
-68 -92 0
-68 -85 0
-68 -74 0
-68 -73 0
-67 -132 0
-67 -131 0
-67 -129 0
-67 -121 0
-67 -120 0
-67 -115 0
-67 -112 0
-67 -108 0
-67 -98 0
-67 -92 0
-66 -132 0
-66 -128 0
-66 -126 0
-66 -125 0
-66 -120 0
-66 -110 0
-66 -108 0
-66 -98 0
-66 -92 0
-66 -90 0
-66 -67 0
-65 -115 0
-65 -110 0
-65 -106 0
-65 -102 0
-65 -96 0
-65 -89 0
-65 -87 0
-65 -73 0
-65 -72 0
-65 -69 0
-63 -109 0
-63 -107 0
-63 -101 0
-63 -93 0
-63 -79 0
-63 -71 0
-63 -70 0
-62 -128 0
-62 -126 0
-62 -125 0
-62 -117 0
-62 -110 0
-62 -103 0
-62 -90 0
-62 -85 0
-62 -80 0
-62 -79 0
-62 -78 0
-62 -66 0
-61 -130 0
-61 -127 0
-61 -114 0
-61 -107 0
-61 -79 0
-61 -73 0
-61 -71 0
-61 -70 0
-61 -68 0
-61 -63 0
-60 -133 0
-60 -120 0
-60 -118 0
-60 -115 0
-60 -110 0
-60 -106 0
-60 -105 0
-60 -102 0
-60 -96 0
-60 -91 0
-60 -89 0
-60 -75 0
-60 -72 0
-60 -65 0
-59 -129 0
-59 -123 0
-59 -113 0
-59 -107 0
-59 -99 0
-59 -91 0
-59 -87 0
-59 -73 0
-59 -69 0
-59 -65 0
-58 -132 0
-58 -129 0
-58 -124 0
-58 -123 0
-58 -114 0
-58 -113 0
-58 -111 0
-58 -107 0
-58 -106 0
-58 -103 0
-58 -99 0
-58 -91 0
-58 -88 0
-58 -84 0
-58 -59 0
-57 -128 0
-57 -122 0
-57 -104 0
-57 -95 0
-57 -84 0
-57 -83 0
-57 -78 0
-57 -72 0
-56 -133 0
-56 -122 0
-56 -117 0
-56 -116 0
-56 -113 0
-56 -112 0
-56 -111 0
-56 -109 0
-56 -97 0
-56 -87 0
-56 -82 0
-56 -81 0
-56 -71 0
-55 -131 0
-55 -129 0
-55 -128 0
-55 -122 0
-55 -121 0
-55 -115 0
-55 -112 0
-55 -104 0
-55 -95 0
-55 -84 0
-55 -67 0
-55 -57 0
-54 -109 0
-54 -101 0
-54 -93 0
-54 -83 0
-54 -78 0
-54 -72 0
-54 -63 0
-54 -57 0
-53 -131 0
-53 -129 0
-53 -126 0
-53 -121 0
-53 -115 0
-53 -112 0
-53 -105 0
-53 -100 0
-53 -86 0
-53 -83 0
-53 -74 0
-53 -70 0
-53 -67 0
-53 -55 0
-52 -124 0
-52 -107 0
-52 -79 0
-52 -76 0
-52 -71 0
-52 -70 0
-52 -63 0
-52 -61 0
-51 -124 0
-51 -123 0
-51 -119 0
-51 -104 0
-51 -96 0
-51 -92 0
-51 -85 0
-51 -76 0
-51 -74 0
-51 -68 0
-51 -52 0
-50 -130 0
-50 -127 0
-50 -114 0
-50 -83 0
-50 -78 0
-50 -73 0
-50 -72 0
-50 -68 0
-50 -61 0
-50 -57 0
-50 -54 0
-49 -132 0
-49 -131 0
-49 -124 0
-49 -118 0
-49 -114 0
-49 -111 0
-49 -106 0
-49 -103 0
-49 -97 0
-49 -90 0
-49 -88 0
-49 -84 0
-49 -77 0
-49 -69 0
-49 -58 0
-48 -130 0
-48 -128 0
-48 -122 0
-48 -104 0
-48 -100 0
-48 -98 0
-48 -95 0
-48 -93 0
-48 -89 0
-48 -84 0
-48 -81 0
-48 -76 0
-48 -57 0
-48 -55 0
-47 -131 0
-47 -129 0
-47 -121 0
-47 -117 0
-47 -115 0
-47 -112 0
-47 -103 0
-47 -85 0
-47 -80 0
-47 -79 0
-47 -78 0
-47 -67 0
-47 -62 0
-47 -55 0
-47 -53 0
-46 -133 0
-46 -120 0
-46 -118 0
-46 -117 0
-46 -105 0
-46 -103 0
-46 -91 0
-46 -85 0
-46 -80 0
-46 -79 0
-46 -78 0
-46 -75 0
-46 -62 0
-46 -60 0
-46 -47 0
-45 -128 0
-45 -126 0
-45 -125 0
-45 -110 0
-45 -109 0
-45 -101 0
-45 -93 0
-45 -90 0
-45 -66 0
-45 -63 0
-45 -62 0
-45 -54 0
-44 -130 0
-44 -125 0
-44 -121 0
-44 -119 0
-44 -116 0
-44 -100 0
-44 -98 0
-44 -94 0
-44 -93 0
-44 -89 0
-44 -88 0
-44 -81 0
-44 -76 0
-44 -75 0
-44 -48 0
-43 -131 0
-43 -118 0
-43 -97 0
-43 -90 0
-43 -83 0
-43 -78 0
-43 -77 0
-43 -72 0
-43 -69 0
-43 -57 0
-43 -54 0
-43 -50 0
-43 -49 0
-42 -124 0
-42 -87 0
-42 -76 0
-42 -73 0
-42 -69 0
-42 -65 0
-42 -59 0
-42 -52 0
-42 -51 0
-41 -123 0
-41 -119 0
-41 -109 0
-41 -104 0
-41 -101 0
-41 -96 0
-41 -93 0
-41 -92 0
-41 -85 0
-41 -74 0
-41 -68 0
-41 -63 0
-41 -54 0
-41 -51 0
-41 -45 0
-40 -131 0
-40 -123 0
-40 -119 0
-40 -118 0
-40 -104 0
-40 -97 0
-40 -96 0
-40 -92 0
-40 -90 0
-40 -85 0
-40 -77 0
-40 -74 0
-40 -69 0
-40 -68 0
-40 -51 0
-40 -49 0
-40 -43 0
-40 -41 0
-39 -125 0
-39 -121 0
-39 -119 0
-39 -116 0
-39 -94 0
-39 -88 0
-39 -87 0
-39 -75 0
-39 -73 0
-39 -69 0
-39 -65 0
-39 -59 0
-39 -44 0
-39 -42 0
-38 -131 0
-38 -130 0
-38 -129 0
-38 -127 0
-38 -121 0
-38 -115 0
-38 -114 0
-38 -112 0
-38 -73 0
-38 -68 0
-38 -67 0
-38 -61 0
-38 -55 0
-38 -53 0
-38 -50 0
-38 -47 0
-37 -132 0
-37 -126 0
-37 -124 0
-37 -114 0
-37 -111 0
-37 -106 0
-37 -105 0
-37 -103 0
-37 -100 0
-37 -88 0
-37 -86 0
-37 -84 0
-37 -83 0
-37 -74 0
-37 -70 0
-37 -58 0
-37 -53 0
-37 -49 0
-36 -133 0
-36 -120 0
-36 -118 0
-36 -109 0
-36 -105 0
-36 -101 0
-36 -93 0
-36 -91 0
-36 -75 0
-36 -63 0
-36 -60 0
-36 -54 0
-36 -46 0
-36 -45 0
-36 -41 0
-35 -127 0
-35 -124 0
-35 -108 0
-35 -102 0
-35 -101 0
-35 -99 0
-35 -95 0
-35 -94 0
-35 -86 0
-35 -82 0
-35 -80 0
-35 -77 0
-35 -76 0
-35 -52 0
-35 -51 0
-35 -42 0
-34 -126 0
-34 -122 0
-34 -117 0
-34 -116 0
-34 -113 0
-34 -109 0
-34 -105 0
-34 -100 0
-34 -97 0
-34 -86 0
-34 -83 0
-34 -74 0
-34 -70 0
-34 -56 0
-34 -53 0
-34 -37 0
-33 -125 0
-33 -121 0
-33 -119 0
-33 -116 0
-33 -107 0
-33 -94 0
-33 -88 0
-33 -79 0
-33 -75 0
-33 -71 0
-33 -70 0
-33 -63 0
-33 -61 0
-33 -52 0
-33 -44 0
-33 -39 0
-32 -128 0
-32 -122 0
-32 -107 0
-32 -104 0
-32 -95 0
-32 -84 0
-32 -79 0
-32 -71 0
-32 -70 0
-32 -63 0
-32 -61 0
-32 -57 0
-32 -55 0
-32 -52 0
-32 -48 0
-32 -33 0
-31 -117 0
-31 -103 0
-31 -87 0
-31 -85 0
-31 -80 0
-31 -79 0
-31 -78 0
-31 -73 0
-31 -69 0
-31 -65 0
-31 -62 0
-31 -59 0
-31 -47 0
-31 -46 0
-31 -42 0
-31 -39 0
-30 -128 0
-30 -126 0
-30 -125 0
-30 -124 0
-30 -110 0
-30 -90 0
-30 -76 0
-30 -66 0
-30 -62 0
-30 -52 0
-30 -51 0
-30 -45 0
-30 -42 0
-30 -35 0
-29 -128 0
-29 -122 0
-29 -104 0
-29 -95 0
-29 -87 0
-29 -84 0
-29 -73 0
-29 -69 0
-29 -65 0
-29 -59 0
-29 -57 0
-29 -55 0
-29 -48 0
-29 -42 0
-29 -39 0
-29 -32 0
-29 -31 0
-28 -129 0
-28 -123 0
-28 -113 0
-28 -107 0
-28 -99 0
-28 -91 0
-28 -83 0
-28 -78 0
-28 -72 0
-28 -59 0
-28 -58 0
-28 -57 0
-28 -54 0
-28 -50 0
-28 -43 0
-27 -132 0
-27 -122 0
-27 -120 0
-27 -117 0
-27 -116 0
-27 -113 0
-27 -109 0
-27 -108 0
-27 -98 0
-27 -97 0
-27 -92 0
-27 -67 0
-27 -66 0
-27 -56 0
-27 -34 0
-26 -133 0
-26 -128 0
-26 -126 0
-26 -125 0
-26 -112 0
-26 -111 0
-26 -110 0
-26 -90 0
-26 -87 0
-26 -82 0
-26 -81 0
-26 -71 0
-26 -66 0
-26 -62 0
-26 -56 0
-26 -45 0
-26 -30 0
-25 -131 0
-25 -129 0
-25 -121 0
-25 -115 0
-25 -112 0
-25 -109 0
-25 -101 0
-25 -93 0
-25 -67 0
-25 -63 0
-25 -55 0
-25 -54 0
-25 -53 0
-25 -47 0
-25 -45 0
-25 -41 0
-25 -38 0
-25 -36 0
-24 -131 0
-24 -118 0
-24 -107 0
-24 -97 0
-24 -90 0
-24 -79 0
-24 -77 0
-24 -71 0
-24 -70 0
-24 -69 0
-24 -63 0
-24 -61 0
-24 -52 0
-24 -49 0
-24 -43 0
-24 -40 0
-24 -33 0
-24 -32 0
-23 -126 0
-23 -105 0
-23 -100 0
-23 -87 0
-23 -86 0
-23 -83 0
-23 -74 0
-23 -73 0
-23 -70 0
-23 -69 0
-23 -65 0
-23 -59 0
-23 -53 0
-23 -42 0
-23 -39 0
-23 -37 0
-23 -34 0
-23 -31 0
-23 -29 0
-22 -133 0
-22 -124 0
-22 -120 0
-22 -118 0
-22 -105 0
-22 -91 0
-22 -76 0
-22 -75 0
-22 -60 0
-22 -52 0
-22 -51 0
-22 -46 0
-22 -42 0
-22 -36 0
-22 -35 0
-22 -30 0
-21 -132 0
-21 -120 0
-21 -108 0
-21 -98 0
-21 -92 0
-21 -83 0
-21 -78 0
-21 -72 0
-21 -67 0
-21 -66 0
-21 -57 0
-21 -54 0
-21 -50 0
-21 -43 0
-21 -28 0
-21 -27 0
-20 -130 0
-20 -129 0
-20 -123 0
-20 -113 0
-20 -107 0
-20 -100 0
-20 -99 0
-20 -98 0
-20 -93 0
-20 -91 0
-20 -89 0
-20 -81 0
-20 -76 0
-20 -59 0
-20 -58 0
-20 -48 0
-20 -44 0
-20 -28 0
-19 -130 0
-19 -117 0
-19 -103 0
-19 -100 0
-19 -98 0
-19 -93 0
-19 -89 0
-19 -85 0
-19 -81 0
-19 -80 0
-19 -79 0
-19 -78 0
-19 -76 0
-19 -62 0
-19 -48 0
-19 -47 0
-19 -46 0
-19 -44 0
-19 -31 0
-19 -20 0
-18 -131 0
-18 -129 0
-18 -124 0
-18 -121 0
-18 -115 0
-18 -112 0
-18 -76 0
-18 -67 0
-18 -55 0
-18 -53 0
-18 -52 0
-18 -51 0
-18 -47 0
-18 -42 0
-18 -38 0
-18 -35 0
-18 -30 0
-18 -25 0
-18 -22 0
-17 -122 0
-17 -117 0
-17 -116 0
-17 -115 0
-17 -113 0
-17 -110 0
-17 -109 0
-17 -106 0
-17 -102 0
-17 -97 0
-17 -96 0
-17 -89 0
-17 -72 0
-17 -65 0
-17 -60 0
-17 -56 0
-17 -34 0
-17 -27 0
-16 -129 0
-16 -128 0
-16 -126 0
-16 -125 0
-16 -123 0
-16 -113 0
-16 -110 0
-16 -107 0
-16 -99 0
-16 -91 0
-16 -90 0
-16 -66 0
-16 -62 0
-16 -59 0
-16 -58 0
-16 -45 0
-16 -30 0
-16 -28 0
-16 -26 0
-16 -20 0
-15 -132 0
-15 -120 0
-15 -108 0
-15 -98 0
-15 -92 0
-15 -87 0
-15 -73 0
-15 -69 0
-15 -67 0
-15 -66 0
-15 -65 0
-15 -59 0
-15 -42 0
-15 -39 0
-15 -31 0
-15 -29 0
-15 -27 0
-15 -23 0
-15 -21 0
-14 -130 0
-14 -128 0
-14 -127 0
-14 -126 0
-14 -125 0
-14 -114 0
-14 -110 0
-14 -90 0
-14 -73 0
-14 -68 0
-14 -66 0
-14 -62 0
-14 -61 0
-14 -50 0
-14 -45 0
-14 -38 0
-14 -30 0
-14 -26 0
-14 -16 0
-13 -133 0
-13 -128 0
-13 -122 0
-13 -120 0
-13 -118 0
-13 -105 0
-13 -104 0
-13 -95 0
-13 -91 0
-13 -84 0
-13 -75 0
-13 -60 0
-13 -57 0
-13 -55 0
-13 -48 0
-13 -46 0
-13 -36 0
-13 -32 0
-13 -29 0
-13 -22 0
-12 -132 0
-12 -124 0
-12 -114 0
-12 -111 0
-12 -109 0
-12 -106 0
-12 -103 0
-12 -101 0
-12 -93 0
-12 -88 0
-12 -84 0
-12 -63 0
-12 -58 0
-12 -54 0
-12 -49 0
-12 -45 0
-12 -41 0
-12 -37 0
-12 -36 0
-12 -25 0
-11 -132 0
-11 -120 0
-11 -108 0
-11 -107 0
-11 -98 0
-11 -92 0
-11 -79 0
-11 -71 0
-11 -70 0
-11 -67 0
-11 -66 0
-11 -63 0
-11 -61 0
-11 -52 0
-11 -33 0
-11 -32 0
-11 -27 0
-11 -24 0
-11 -21 0
-11 -15 0
-10 -133 0
-10 -123 0
-10 -119 0
-10 -112 0
-10 -111 0
-10 -104 0
-10 -96 0
-10 -92 0
-10 -87 0
-10 -85 0
-10 -82 0
-10 -81 0
-10 -74 0
-10 -71 0
-10 -68 0
-10 -56 0
-10 -51 0
-10 -41 0
-10 -40 0
-10 -26 0
-9 -124 0
-9 -83 0
-9 -78 0
-9 -76 0
-9 -72 0
-9 -57 0
-9 -54 0
-9 -52 0
-9 -51 0
-9 -50 0
-9 -43 0
-9 -42 0
-9 -35 0
-9 -30 0
-9 -28 0
-9 -22 0
-9 -21 0
-9 -18 0
-8 -131 0
-8 -130 0
-8 -118 0
-8 -100 0
-8 -98 0
-8 -97 0
-8 -93 0
-8 -90 0
-8 -89 0
-8 -81 0
-8 -77 0
-8 -76 0
-8 -69 0
-8 -49 0
-8 -48 0
-8 -44 0
-8 -43 0
-8 -40 0
-8 -24 0
-8 -20 0
-8 -19 0
-7 -130 0
-7 -127 0
-7 -122 0
-7 -117 0
-7 -116 0
-7 -114 0
-7 -113 0
-7 -109 0
-7 -97 0
-7 -73 0
-7 -68 0
-7 -61 0
-7 -56 0
-7 -50 0
-7 -38 0
-7 -34 0
-7 -27 0
-7 -17 0
-7 -14 0
-6 -125 0
-6 -121 0
-6 -119 0
-6 -116 0
-6 -94 0
-6 -88 0
-6 -83 0
-6 -78 0
-6 -75 0
-6 -72 0
-6 -57 0
-6 -54 0
-6 -50 0
-6 -44 0
-6 -43 0
-6 -39 0
-6 -33 0
-6 -28 0
-6 -21 0
-6 -9 0
-5 -133 0
-5 -130 0
-5 -127 0
-5 -120 0
-5 -118 0
-5 -114 0
-5 -105 0
-5 -91 0
-5 -75 0
-5 -73 0
-5 -68 0
-5 -61 0
-5 -60 0
-5 -50 0
-5 -46 0
-5 -38 0
-5 -36 0
-5 -22 0
-5 -14 0
-5 -13 0
-5 -7 0
-4 -109 0
-4 -101 0
-4 -93 0
-4 -87 0
-4 -73 0
-4 -69 0
-4 -65 0
-4 -63 0
-4 -59 0
-4 -54 0
-4 -45 0
-4 -42 0
-4 -41 0
-4 -39 0
-4 -36 0
-4 -31 0
-4 -29 0
-4 -25 0
-4 -23 0
-4 -15 0
-4 -12 0
-3 -124 0
-3 -122 0
-3 -117 0
-3 -116 0
-3 -113 0
-3 -109 0
-3 -97 0
-3 -76 0
-3 -56 0
-3 -52 0
-3 -51 0
-3 -42 0
-3 -35 0
-3 -34 0
-3 -30 0
-3 -27 0
-3 -22 0
-3 -18 0
-3 -17 0
-3 -9 0
-3 -7 0
-2 -115 0
-2 -110 0
-2 -107 0
-2 -106 0
-2 -102 0
-2 -96 0
-2 -89 0
-2 -79 0
-2 -72 0
-2 -71 0
-2 -70 0
-2 -65 0
-2 -63 0
-2 -61 0
-2 -60 0
-2 -52 0
-2 -33 0
-2 -32 0
-2 -24 0
-2 -17 0
-2 -11 0
-1 -133 0
-1 -112 0
-1 -111 0
-1 -87 0
-1 -83 0
-1 -82 0
-1 -81 0
-1 -78 0
-1 -72 0
-1 -71 0
-1 -57 0
-1 -56 0
-1 -54 0
-1 -50 0
-1 -43 0
-1 -28 0
-1 -26 0
-1 -21 0
-1 -10 0
-1 -9 0
-1 -6 0
1 10 26 56 71 81 82 87 111 112 133 0
2 17 60 65 72 89 96 102 106 110 115 0
3 9 18 22 30 35 42 51 52 76 124 0
4 12 25 36 41 45 54 63 93 101 109 0
5 7 14 38 50 61 68 73 114 127 130 0
6 33 39 44 75 88 94 116 119 121 125 0
8 24 40 43 49 69 77 90 97 118 131 0
11 15 21 27 66 67 92 98 108 120 132 0
16 20 28 58 59 91 99 107 113 123 129 0
19 31 46 47 62 78 79 80 85 103 117 0
23 34 37 53 70 74 83 86 100 105 126 0
13 29 32 48 55 57 64 84 95 104 122 128 0
