p cnf 21 75
-19 -21 0
-19 -20 0
-16 -20 0
-16 -19 0
-16 -17 0
-15 -21 0
-15 -18 0
-14 -18 0
-14 -17 0
-14 -16 0
-13 -20 0
-13 -17 0
-12 -17 0
-12 -16 0
-12 -14 0
-11 -18 0
-11 -17 0
-11 -15 0
-11 -13 0
-10 -20 0
-10 -18 0
-10 -14 0
-10 -13 0
-9 -20 0
-9 -13 0
-9 -12 0
-9 -10 0
-8 -21 0
-8 -20 0
-8 -15 0
-8 -13 0
-8 -10 0
-8 -9 0
-6 -21 0
-6 -19 0
-6 -17 0
-6 -13 0
-6 -11 0
-5 -21 0
-5 -19 0
-5 -18 0
-5 -14 0
-5 -10 0
-5 -6 0
-4 -18 0
-4 -15 0
-4 -12 0
-4 -11 0
-4 -9 0
-3 -20 0
-3 -19 0
-3 -18 0
-3 -16 0
-3 -15 0
-3 -11 0
-3 -4 0
-2 -21 0
-2 -19 0
-2 -12 0
-2 -9 0
-2 -6 0
-2 -5 0
-2 -4 0
-1 -21 0
-1 -17 0
-1 -16 0
-1 -15 0
-1 -14 0
-1 -12 0
-1 -8 0
1 8 15 21 0
2 4 9 12 0
3 16 19 20 0
6 11 13 17 0
5 7 10 14 18 0
