p cnf 31 141
-28 -29 0
-27 -30 0
-26 -30 0
-25 -31 0
-24 -29 0
-24 -28 0
-24 -25 0
-23 -29 0
-22 -31 0
-22 -27 0
-21 -30 0
-21 -28 0
-21 -26 0
-20 -29 0
-20 -27 0
-20 -23 0
-20 -22 0
-19 -28 0
-19 -23 0
-19 -21 0
-18 -31 0
-18 -30 0
-18 -26 0
-18 -22 0
-18 -21 0
-17 -31 0
-17 -28 0
-17 -25 0
-17 -21 0
-17 -19 0
-16 -30 0
-16 -29 0
-16 -28 0
-16 -27 0
-16 -24 0
-15 -30 0
-15 -27 0
-15 -23 0
-15 -19 0
-15 -16 0
-14 -31 0
-14 -29 0
-14 -25 0
-14 -23 0
-14 -20 0
-14 -17 0
-13 -30 0
-13 -29 0
-13 -26 0
-13 -23 0
-13 -21 0
-13 -20 0
-13 -18 0
-13 -14 0
-12 -31 0
-12 -29 0
-12 -28 0
-12 -24 0
-12 -22 0
-12 -18 0
-12 -16 0
-11 -29 0
-11 -28 0
-11 -26 0
-11 -24 0
-11 -16 0
-11 -12 0
-9 -27 0
-9 -25 0
-9 -24 0
-9 -22 0
-9 -20 0
-8 -31 0
-8 -23 0
-8 -22 0
-8 -19 0
-8 -18 0
-8 -15 0
-8 -12 0
-7 -30 0
-7 -26 0
-7 -25 0
-7 -24 0
-7 -21 0
-7 -18 0
-7 -13 0
-7 -9 0
-6 -28 0
-6 -27 0
-6 -22 0
-6 -21 0
-6 -20 0
-6 -19 0
-6 -17 0
-6 -9 0
-5 -27 0
-5 -26 0
-5 -22 0
-5 -20 0
-5 -11 0
-5 -9 0
-5 -6 0
-4 -31 0
-4 -30 0
-4 -27 0
-4 -25 0
-4 -17 0
-4 -16 0
-4 -15 0
-4 -14 0
-3 -26 0
-3 -23 0
-3 -19 0
-3 -15 0
-3 -11 0
-3 -8 0
-3 -5 0
-2 -25 0
-2 -24 0
-2 -23 0
-2 -19 0
-2 -15 0
-2 -9 0
-2 -8 0
-2 -7 0
-2 -3 0
-1 -31 0
-1 -26 0
-1 -25 0
-1 -17 0
-1 -14 0
-1 -11 0
-1 -5 0
-1 -4 0
-1 -3 0
1 3 5 11 26 0
2 7 9 24 25 0
6 17 19 21 28 0
8 12 18 22 31 0
13 14 20 23 29 0
4 10 15 16 27 30 0
