p cnf 133 1398
-129 -131 0
-128 -132 0
-128 -131 0
-128 -129 0
-125 -133 0
-125 -132 0
-124 -133 0
-124 -130 0
-123 -130 0
-123 -129 0
-121 -127 0
-121 -122 0
-120 -131 0
-120 -129 0
-120 -128 0
-119 -133 0
-119 -125 0
-119 -122 0
-119 -121 0
-118 -131 0
-118 -130 0
-118 -129 0
-118 -128 0
-118 -124 0
-118 -120 0
-117 -132 0
-117 -128 0
-117 -127 0
-115 -132 0
-115 -125 0
-115 -120 0
-113 -133 0
-113 -124 0
-113 -122 0
-112 -132 0
-112 -128 0
-112 -117 0
-112 -116 0
-111 -122 0
-111 -113 0
-110 -133 0
-110 -125 0
-110 -119 0
-110 -114 0
-109 -129 0
-109 -123 0
-108 -130 0
-108 -124 0
-108 -118 0
-108 -109 0
-107 -122 0
-107 -121 0
-107 -119 0
-107 -114 0
-106 -129 0
-106 -123 0
-106 -114 0
-106 -110 0
-106 -109 0
-105 -126 0
-104 -132 0
-104 -130 0
-104 -125 0
-104 -124 0
-104 -118 0
-104 -115 0
-104 -108 0
-103 -120 0
-103 -115 0
-103 -114 0
-103 -110 0
-103 -106 0
-102 -132 0
-102 -131 0
-102 -125 0
-102 -115 0
-102 -104 0
-101 -132 0
-101 -127 0
-101 -125 0
-101 -121 0
-101 -115 0
-101 -104 0
-101 -102 0
-100 -127 0
-100 -117 0
-100 -114 0
-100 -107 0
-99 -131 0
-99 -130 0
-99 -123 0
-99 -102 0
-98 -122 0
-98 -121 0
-98 -119 0
-98 -116 0
-98 -107 0
-97 -126 0
-97 -122 0
-97 -121 0
-97 -119 0
-97 -107 0
-97 -98 0
-96 -127 0
-96 -126 0
-96 -121 0
-96 -105 0
-96 -101 0
-95 -109 0
-95 -108 0
-95 -105 0
-94 -126 0
-94 -114 0
-94 -107 0
-94 -105 0
-94 -100 0
-94 -96 0
-93 -132 0
-93 -130 0
-93 -128 0
-93 -123 0
-93 -117 0
-93 -112 0
-93 -99 0
-92 -133 0
-92 -125 0
-92 -119 0
-92 -110 0
-92 -109 0
-92 -108 0
-92 -95 0
-91 -131 0
-91 -129 0
-91 -128 0
-91 -127 0
-91 -121 0
-91 -120 0
-91 -118 0
-91 -101 0
-91 -96 0
-90 -127 0
-90 -121 0
-90 -109 0
-90 -108 0
-90 -101 0
-90 -96 0
-90 -95 0
-90 -92 0
-90 -91 0
-89 -120 0
-89 -115 0
-89 -111 0
-89 -103 0
-88 -130 0
-88 -123 0
-88 -116 0
-88 -99 0
-88 -98 0
-88 -93 0
-87 -116 0
-87 -111 0
-87 -98 0
-87 -89 0
-87 -88 0
-86 -131 0
-86 -116 0
-86 -112 0
-86 -102 0
-86 -99 0
-85 -131 0
-85 -126 0
-85 -105 0
-85 -102 0
-85 -99 0
-85 -96 0
-85 -94 0
-85 -86 0
-84 -132 0
-84 -128 0
-84 -122 0
-84 -121 0
-84 -119 0
-84 -117 0
-84 -112 0
-84 -107 0
-84 -98 0
-84 -97 0
-84 -93 0
-83 -130 0
-83 -127 0
-83 -124 0
-83 -118 0
-83 -117 0
-83 -108 0
-83 -104 0
-83 -100 0
-82 -130 0
-82 -124 0
-82 -118 0
-82 -114 0
-82 -110 0
-82 -108 0
-82 -106 0
-82 -104 0
-82 -103 0
-82 -83 0
-81 -132 0
-81 -126 0
-81 -125 0
-81 -115 0
-81 -104 0
-81 -102 0
-81 -101 0
-81 -97 0
-80 -130 0
-80 -124 0
-80 -118 0
-80 -111 0
-80 -108 0
-80 -104 0
-80 -89 0
-80 -87 0
-80 -83 0
-80 -82 0
-79 -127 0
-79 -121 0
-79 -114 0
-79 -110 0
-79 -106 0
-79 -103 0
-79 -101 0
-79 -96 0
-79 -91 0
-79 -90 0
-79 -82 0
-78 -127 0
-78 -117 0
-78 -116 0
-78 -100 0
-78 -98 0
-78 -88 0
-78 -87 0
-78 -83 0
-77 -133 0
-77 -126 0
-77 -125 0
-77 -119 0
-77 -110 0
-77 -105 0
-77 -96 0
-77 -94 0
-77 -92 0
-77 -85 0
-76 -132 0
-76 -125 0
-76 -115 0
-76 -114 0
-76 -107 0
-76 -104 0
-76 -102 0
-76 -101 0
-76 -100 0
-76 -94 0
-76 -81 0
-75 -131 0
-75 -114 0
-75 -110 0
-75 -106 0
-75 -103 0
-75 -102 0
-75 -99 0
-75 -86 0
-75 -85 0
-75 -82 0
-75 -79 0
-74 -130 0
-74 -124 0
-74 -118 0
-74 -116 0
-74 -112 0
-74 -108 0
-74 -104 0
-74 -86 0
-74 -83 0
-74 -82 0
-74 -80 0
-73 -122 0
-73 -114 0
-73 -113 0
-73 -111 0
-73 -110 0
-73 -106 0
-73 -103 0
-73 -82 0
-73 -79 0
-73 -75 0
-72 -126 0
-72 -114 0
-72 -110 0
-72 -106 0
-72 -103 0
-72 -97 0
-72 -82 0
-72 -81 0
-72 -79 0
-72 -75 0
-72 -73 0
-71 -126 0
-71 -109 0
-71 -108 0
-71 -97 0
-71 -95 0
-71 -92 0
-71 -90 0
-71 -81 0
-71 -72 0
-70 -132 0
-70 -128 0
-70 -117 0
-70 -112 0
-70 -111 0
-70 -93 0
-70 -89 0
-70 -87 0
-70 -84 0
-70 -80 0
-69 -116 0
-69 -114 0
-69 -112 0
-69 -107 0
-69 -100 0
-69 -94 0
-69 -86 0
-69 -76 0
-69 -74 0
-68 -126 0
-68 -111 0
-68 -97 0
-68 -89 0
-68 -87 0
-68 -81 0
-68 -80 0
-68 -72 0
-68 -71 0
-68 -70 0
-67 -131 0
-67 -129 0
-67 -128 0
-67 -122 0
-67 -120 0
-67 -118 0
-67 -113 0
-67 -111 0
-67 -91 0
-67 -73 0
-66 -133 0
-66 -127 0
-66 -125 0
-66 -119 0
-66 -117 0
-66 -110 0
-66 -100 0
-66 -92 0
-66 -83 0
-66 -78 0
-66 -77 0
-65 -133 0
-65 -124 0
-65 -114 0
-65 -113 0
-65 -107 0
-65 -100 0
-65 -94 0
-65 -76 0
-65 -69 0
-64 -116 0
-64 -114 0
-64 -110 0
-64 -106 0
-64 -103 0
-64 -98 0
-64 -88 0
-64 -87 0
-64 -82 0
-64 -79 0
-64 -78 0
-64 -75 0
-64 -73 0
-64 -72 0
-63 -120 0
-63 -115 0
-63 -109 0
-63 -108 0
-63 -103 0
-63 -95 0
-63 -92 0
-63 -90 0
-63 -89 0
-63 -71 0
-62 -132 0
-62 -129 0
-62 -125 0
-62 -123 0
-62 -115 0
-62 -109 0
-62 -106 0
-62 -104 0
-62 -102 0
-62 -101 0
-62 -81 0
-62 -76 0
-61 -133 0
-61 -124 0
-61 -113 0
-61 -105 0
-61 -95 0
-61 -65 0
-60 -130 0
-60 -123 0
-60 -122 0
-60 -113 0
-60 -111 0
-60 -99 0
-60 -93 0
-60 -88 0
-60 -73 0
-60 -67 0
-59 -133 0
-59 -124 0
-59 -116 0
-59 -113 0
-59 -98 0
-59 -88 0
-59 -87 0
-59 -78 0
-59 -65 0
-59 -64 0
-59 -61 0
-58 -116 0
-58 -109 0
-58 -108 0
-58 -98 0
-58 -95 0
-58 -92 0
-58 -90 0
-58 -88 0
-58 -87 0
-58 -78 0
-58 -71 0
-58 -64 0
-58 -63 0
-58 -59 0
-57 -132 0
-57 -128 0
-57 -117 0
-57 -112 0
-57 -109 0
-57 -108 0
-57 -95 0
-57 -93 0
-57 -92 0
-57 -90 0
-57 -84 0
-57 -71 0
-57 -70 0
-57 -63 0
-57 -58 0
-56 -131 0
-56 -127 0
-56 -117 0
-56 -102 0
-56 -100 0
-56 -99 0
-56 -86 0
-56 -85 0
-56 -83 0
-56 -78 0
-56 -75 0
-56 -66 0
-55 -114 0
-55 -110 0
-55 -106 0
-55 -105 0
-55 -103 0
-55 -95 0
-55 -82 0
-55 -79 0
-55 -75 0
-55 -73 0
-55 -72 0
-55 -64 0
-55 -61 0
-54 -127 0
-54 -121 0
-54 -116 0
-54 -112 0
-54 -101 0
-54 -96 0
-54 -91 0
-54 -90 0
-54 -86 0
-54 -79 0
-54 -74 0
-54 -69 0
-53 -116 0
-53 -112 0
-53 -105 0
-53 -95 0
-53 -86 0
-53 -74 0
-53 -69 0
-53 -61 0
-53 -55 0
-53 -54 0
-52 -131 0
-52 -109 0
-52 -108 0
-52 -102 0
-52 -99 0
-52 -95 0
-52 -92 0
-52 -90 0
-52 -86 0
-52 -85 0
-52 -75 0
-52 -71 0
-52 -63 0
-52 -58 0
-52 -57 0
-52 -56 0
-51 -133 0
-51 -131 0
-51 -124 0
-51 -113 0
-51 -102 0
-51 -99 0
-51 -86 0
-51 -85 0
-51 -75 0
-51 -65 0
-51 -61 0
-51 -59 0
-51 -56 0
-51 -52 0
-50 -122 0
-50 -116 0
-50 -113 0
-50 -112 0
-50 -111 0
-50 -86 0
-50 -74 0
-50 -73 0
-50 -69 0
-50 -67 0
-50 -60 0
-50 -54 0
-50 -53 0
-49 -127 0
-49 -126 0
-49 -117 0
-49 -100 0
-49 -97 0
-49 -83 0
-49 -81 0
-49 -78 0
-49 -72 0
-49 -71 0
-49 -68 0
-49 -66 0
-49 -56 0
-48 -130 0
-48 -123 0
-48 -114 0
-48 -107 0
-48 -100 0
-48 -99 0
-48 -94 0
-48 -93 0
-48 -88 0
-48 -76 0
-48 -69 0
-48 -65 0
-48 -60 0
-47 -133 0
-47 -132 0
-47 -128 0
-47 -124 0
-47 -117 0
-47 -113 0
-47 -112 0
-47 -93 0
-47 -84 0
-47 -70 0
-47 -65 0
-47 -61 0
-47 -59 0
-47 -57 0
-47 -51 0
-46 -126 0
-46 -120 0
-46 -115 0
-46 -105 0
-46 -103 0
-46 -96 0
-46 -94 0
-46 -89 0
-46 -85 0
-46 -77 0
-46 -63 0
-45 -127 0
-45 -121 0
-45 -111 0
-45 -101 0
-45 -96 0
-45 -91 0
-45 -90 0
-45 -89 0
-45 -87 0
-45 -80 0
-45 -79 0
-45 -70 0
-45 -68 0
-45 -54 0
-44 -131 0
-44 -129 0
-44 -128 0
-44 -120 0
-44 -118 0
-44 -116 0
-44 -98 0
-44 -91 0
-44 -88 0
-44 -87 0
-44 -78 0
-44 -67 0
-44 -64 0
-44 -59 0
-44 -58 0
-43 -132 0
-43 -125 0
-43 -116 0
-43 -115 0
-43 -104 0
-43 -102 0
-43 -101 0
-43 -98 0
-43 -88 0
-43 -87 0
-43 -81 0
-43 -78 0
-43 -76 0
-43 -64 0
-43 -62 0
-43 -59 0
-43 -58 0
-43 -44 0
-42 -133 0
-42 -125 0
-42 -119 0
-42 -116 0
-42 -112 0
-42 -110 0
-42 -92 0
-42 -86 0
-42 -77 0
-42 -74 0
-42 -69 0
-42 -66 0
-42 -54 0
-42 -53 0
-42 -50 0
-40 -129 0
-40 -123 0
-40 -116 0
-40 -112 0
-40 -109 0
-40 -106 0
-40 -86 0
-40 -74 0
-40 -69 0
-40 -62 0
-40 -54 0
-40 -53 0
-40 -50 0
-40 -42 0
-39 -133 0
-39 -127 0
-39 -124 0
-39 -121 0
-39 -113 0
-39 -101 0
-39 -96 0
-39 -91 0
-39 -90 0
-39 -79 0
-39 -65 0
-39 -61 0
-39 -59 0
-39 -54 0
-39 -51 0
-39 -47 0
-39 -45 0
-38 -130 0
-38 -127 0
-38 -123 0
-38 -121 0
-38 -101 0
-38 -99 0
-38 -96 0
-38 -93 0
-38 -91 0
-38 -90 0
-38 -88 0
-38 -79 0
-38 -60 0
-38 -54 0
-38 -48 0
-38 -45 0
-38 -39 0
-37 -111 0
-37 -105 0
-37 -95 0
-37 -89 0
-37 -87 0
-37 -80 0
-37 -70 0
-37 -68 0
-37 -61 0
-37 -55 0
-37 -53 0
-37 -45 0
-36 -132 0
-36 -125 0
-36 -115 0
-36 -105 0
-36 -104 0
-36 -102 0
-36 -101 0
-36 -95 0
-36 -81 0
-36 -76 0
-36 -62 0
-36 -61 0
-36 -55 0
-36 -53 0
-36 -43 0
-36 -37 0
-35 -120 0
-35 -116 0
-35 -115 0
-35 -112 0
-35 -103 0
-35 -89 0
-35 -86 0
-35 -74 0
-35 -69 0
-35 -63 0
-35 -54 0
-35 -53 0
-35 -50 0
-35 -46 0
-35 -42 0
-35 -40 0
-34 -130 0
-34 -123 0
-34 -105 0
-34 -99 0
-34 -95 0
-34 -93 0
-34 -88 0
-34 -61 0
-34 -60 0
-34 -55 0
-34 -53 0
-34 -48 0
-34 -38 0
-34 -37 0
-34 -36 0
-33 -131 0
-33 -129 0
-33 -128 0
-33 -120 0
-33 -118 0
-33 -114 0
-33 -107 0
-33 -100 0
-33 -94 0
-33 -91 0
-33 -76 0
-33 -69 0
-33 -67 0
-33 -65 0
-33 -48 0
-33 -44 0
-32 -130 0
-32 -126 0
-32 -124 0
-32 -118 0
-32 -108 0
-32 -105 0
-32 -104 0
-32 -96 0
-32 -94 0
-32 -85 0
-32 -83 0
-32 -82 0
-32 -80 0
-32 -77 0
-32 -74 0
-32 -46 0
-31 -127 0
-31 -122 0
-31 -117 0
-31 -113 0
-31 -111 0
-31 -100 0
-31 -83 0
-31 -78 0
-31 -73 0
-31 -67 0
-31 -66 0
-31 -60 0
-31 -56 0
-31 -50 0
-31 -49 0
-30 -126 0
-30 -116 0
-30 -112 0
-30 -97 0
-30 -86 0
-30 -81 0
-30 -74 0
-30 -72 0
-30 -71 0
-30 -69 0
-30 -68 0
-30 -54 0
-30 -53 0
-30 -50 0
-30 -49 0
-30 -42 0
-30 -40 0
-30 -35 0
-29 -129 0
-29 -126 0
-29 -123 0
-29 -109 0
-29 -106 0
-29 -105 0
-29 -96 0
-29 -94 0
-29 -85 0
-29 -77 0
-29 -62 0
-29 -46 0
-29 -40 0
-29 -32 0
-28 -132 0
-28 -128 0
-28 -126 0
-28 -117 0
-28 -112 0
-28 -105 0
-28 -96 0
-28 -94 0
-28 -93 0
-28 -85 0
-28 -84 0
-28 -77 0
-28 -70 0
-28 -57 0
-28 -47 0
-28 -46 0
-28 -32 0
-28 -29 0
-27 -122 0
-27 -121 0
-27 -120 0
-27 -119 0
-27 -115 0
-27 -107 0
-27 -103 0
-27 -98 0
-27 -97 0
-27 -89 0
-27 -84 0
-27 -63 0
-27 -46 0
-27 -35 0
-26 -131 0
-26 -122 0
-26 -121 0
-26 -119 0
-26 -107 0
-26 -102 0
-26 -99 0
-26 -98 0
-26 -97 0
-26 -86 0
-26 -85 0
-26 -84 0
-26 -75 0
-26 -56 0
-26 -52 0
-26 -51 0
-26 -27 0
-25 -131 0
-25 -129 0
-25 -128 0
-25 -120 0
-25 -118 0
-25 -105 0
-25 -95 0
-25 -91 0
-25 -67 0
-25 -61 0
-25 -55 0
-25 -53 0
-25 -44 0
-25 -37 0
-25 -36 0
-25 -34 0
-25 -33 0
-24 -130 0
-24 -123 0
-24 -120 0
-24 -115 0
-24 -103 0
-24 -99 0
-24 -93 0
-24 -89 0
-24 -88 0
-24 -63 0
-24 -60 0
-24 -48 0
-24 -46 0
-24 -38 0
-24 -35 0
-24 -34 0
-24 -27 0
-23 -122 0
-23 -113 0
-23 -111 0
-23 -109 0
-23 -108 0
-23 -95 0
-23 -92 0
-23 -90 0
-23 -73 0
-23 -71 0
-23 -67 0
-23 -63 0
-23 -60 0
-23 -58 0
-23 -57 0
-23 -52 0
-23 -50 0
-23 -31 0
-22 -126 0
-22 -122 0
-22 -113 0
-22 -111 0
-22 -105 0
-22 -96 0
-22 -94 0
-22 -85 0
-22 -77 0
-22 -73 0
-22 -67 0
-22 -60 0
-22 -50 0
-22 -46 0
-22 -32 0
-22 -31 0
-22 -29 0
-22 -28 0
-22 -23 0
-21 -133 0
-21 -124 0
-21 -120 0
-21 -115 0
-21 -113 0
-21 -103 0
-21 -89 0
-21 -65 0
-21 -63 0
-21 -61 0
-21 -59 0
-21 -51 0
-21 -47 0
-21 -46 0
-21 -39 0
-21 -35 0
-21 -27 0
-21 -24 0
-20 -127 0
-20 -117 0
-20 -105 0
-20 -100 0
-20 -95 0
-20 -83 0
-20 -78 0
-20 -66 0
-20 -61 0
-20 -56 0
-20 -55 0
-20 -53 0
-20 -49 0
-20 -37 0
-20 -36 0
-20 -34 0
-20 -31 0
-20 -25 0
-19 -131 0
-19 -129 0
-19 -128 0
-19 -126 0
-19 -120 0
-19 -118 0
-19 -97 0
-19 -91 0
-19 -81 0
-19 -72 0
-19 -71 0
-19 -68 0
-19 -67 0
-19 -49 0
-19 -44 0
-19 -33 0
-19 -30 0
-19 -25 0
-18 -129 0
-18 -123 0
-18 -111 0
-18 -109 0
-18 -106 0
-18 -89 0
-18 -87 0
-18 -80 0
-18 -70 0
-18 -68 0
-18 -62 0
-18 -45 0
-18 -40 0
-18 -37 0
-18 -29 0
-17 -114 0
-17 -111 0
-17 -107 0
-17 -100 0
-17 -94 0
-17 -89 0
-17 -87 0
-17 -80 0
-17 -76 0
-17 -70 0
-17 -69 0
-17 -68 0
-17 -65 0
-17 -48 0
-17 -45 0
-17 -37 0
-17 -33 0
-17 -18 0
-16 -132 0
-16 -128 0
-16 -117 0
-16 -114 0
-16 -112 0
-16 -110 0
-16 -106 0
-16 -103 0
-16 -93 0
-16 -84 0
-16 -82 0
-16 -79 0
-16 -75 0
-16 -73 0
-16 -72 0
-16 -70 0
-16 -64 0
-16 -57 0
-16 -55 0
-16 -47 0
-16 -28 0
-15 -129 0
-15 -123 0
-15 -122 0
-15 -121 0
-15 -119 0
-15 -109 0
-15 -107 0
-15 -106 0
-15 -98 0
-15 -97 0
-15 -84 0
-15 -62 0
-15 -40 0
-15 -29 0
-15 -27 0
-15 -26 0
-15 -18 0
-14 -133 0
-14 -130 0
-14 -125 0
-14 -123 0
-14 -119 0
-14 -110 0
-14 -99 0
-14 -93 0
-14 -92 0
-14 -88 0
-14 -77 0
-14 -66 0
-14 -60 0
-14 -48 0
-14 -42 0
-14 -38 0
-14 -34 0
-14 -24 0
-13 -114 0
-13 -109 0
-13 -108 0
-13 -107 0
-13 -100 0
-13 -95 0
-13 -94 0
-13 -92 0
-13 -90 0
-13 -76 0
-13 -71 0
-13 -69 0
-13 -65 0
-13 -63 0
-13 -58 0
-13 -57 0
-13 -52 0
-13 -48 0
-13 -33 0
-13 -23 0
-13 -17 0
-12 -131 0
-12 -111 0
-12 -102 0
-12 -99 0
-12 -89 0
-12 -87 0
-12 -86 0
-12 -85 0
-12 -80 0
-12 -75 0
-12 -70 0
-12 -68 0
-12 -56 0
-12 -52 0
-12 -51 0
-12 -45 0
-12 -37 0
-12 -26 0
-12 -18 0
-12 -17 0
-11 -129 0
-11 -127 0
-11 -123 0
-11 -117 0
-11 -109 0
-11 -106 0
-11 -100 0
-11 -83 0
-11 -78 0
-11 -66 0
-11 -62 0
-11 -56 0
-11 -49 0
-11 -40 0
-11 -31 0
-11 -29 0
-11 -20 0
-11 -18 0
-11 -15 0
-10 -126 0
-10 -116 0
-10 -105 0
-10 -98 0
-10 -96 0
-10 -94 0
-10 -88 0
-10 -87 0
-10 -85 0
-10 -78 0
-10 -77 0
-10 -64 0
-10 -59 0
-10 -58 0
-10 -46 0
-10 -44 0
-10 -43 0
-10 -32 0
-10 -29 0
-10 -28 0
-10 -22 0
-9 -127 0
-9 -120 0
-9 -117 0
-9 -115 0
-9 -103 0
-9 -100 0
-9 -89 0
-9 -83 0
-9 -78 0
-9 -66 0
-9 -63 0
-9 -56 0
-9 -49 0
-9 -46 0
-9 -35 0
-9 -31 0
-9 -27 0
-9 -24 0
-9 -21 0
-9 -20 0
-9 -11 0
-8 -133 0
-8 -131 0
-8 -129 0
-8 -128 0
-8 -125 0
-8 -120 0
-8 -119 0
-8 -118 0
-8 -110 0
-8 -92 0
-8 -91 0
-8 -77 0
-8 -67 0
-8 -66 0
-8 -44 0
-8 -42 0
-8 -33 0
-8 -25 0
-8 -19 0
-8 -14 0
-7 -130 0
-7 -124 0
-7 -122 0
-7 -121 0
-7 -119 0
-7 -118 0
-7 -108 0
-7 -107 0
-7 -104 0
-7 -98 0
-7 -97 0
-7 -84 0
-7 -83 0
-7 -82 0
-7 -80 0
-7 -74 0
-7 -32 0
-7 -27 0
-7 -26 0
-7 -15 0
-6 -133 0
-6 -126 0
-6 -124 0
-6 -113 0
-6 -97 0
-6 -81 0
-6 -72 0
-6 -71 0
-6 -68 0
-6 -65 0
-6 -61 0
-6 -59 0
-6 -51 0
-6 -49 0
-6 -47 0
-6 -39 0
-6 -30 0
-6 -21 0
-6 -19 0
-5 -122 0
-5 -121 0
-5 -119 0
-5 -107 0
-5 -105 0
-5 -98 0
-5 -97 0
-5 -95 0
-5 -84 0
-5 -61 0
-5 -55 0
-5 -53 0
-5 -37 0
-5 -36 0
-5 -34 0
-5 -27 0
-5 -26 0
-5 -25 0
-5 -20 0
-5 -15 0
-5 -7 0
-4 -133 0
-4 -125 0
-4 -119 0
-4 -111 0
-4 -110 0
-4 -92 0
-4 -89 0
-4 -87 0
-4 -80 0
-4 -77 0
-4 -70 0
-4 -68 0
-4 -66 0
-4 -45 0
-4 -42 0
-4 -37 0
-4 -18 0
-4 -17 0
-4 -14 0
-4 -12 0
-4 -8 0
-3 -132 0
-3 -125 0
-3 -122 0
-3 -115 0
-3 -113 0
-3 -111 0
-3 -104 0
-3 -102 0
-3 -101 0
-3 -81 0
-3 -76 0
-3 -73 0
-3 -67 0
-3 -62 0
-3 -60 0
-3 -50 0
-3 -43 0
-3 -36 0
-3 -31 0
-3 -23 0
-3 -22 0
-2 -130 0
-2 -126 0
-2 -123 0
-2 -99 0
-2 -97 0
-2 -93 0
-2 -88 0
-2 -81 0
-2 -72 0
-2 -71 0
-2 -68 0
-2 -60 0
-2 -49 0
-2 -48 0
-2 -38 0
-2 -34 0
-2 -30 0
-2 -24 0
-2 -19 0
-2 -14 0
-2 -6 0
-1 -133 0
-1 -129 0
-1 -124 0
-1 -123 0
-1 -113 0
-1 -109 0
-1 -106 0
-1 -65 0
-1 -62 0
-1 -61 0
-1 -59 0
-1 -51 0
-1 -47 0
-1 -40 0
-1 -39 0
-1 -29 0
-1 -21 0
-1 -18 0
-1 -15 0
-1 -11 0
-1 -6 0
1 11 15 18 29 40 62 106 109 123 129 0
2 6 19 30 49 68 71 72 81 97 126 0
3 22 23 31 50 60 67 73 111 113 122 0
4 8 14 42 66 77 92 110 119 125 133 0
5 20 25 34 36 37 53 55 61 95 105 0
7 32 74 80 82 83 104 108 118 124 130 0
9 21 24 27 35 46 63 89 103 115 120 0
10 43 44 58 59 64 78 87 88 98 116 0
12 26 51 52 56 75 85 86 99 102 131 0
13 17 33 48 65 69 76 94 100 107 114 0
16 28 47 57 70 84 93 112 117 128 132 0
38 39 41 45 54 79 90 91 96 101 121 127 0
