p cnf 73 549
-72 -73 0
-71 -72 0
-70 -73 0
-69 -71 0
-66 -71 0
-66 -69 0
-66 -68 0
-65 -71 0
-65 -69 0
-65 -66 0
-64 -73 0
-64 -70 0
-63 -68 0
-63 -66 0
-62 -65 0
-61 -68 0
-61 -67 0
-61 -66 0
-61 -63 0
-60 -73 0
-60 -70 0
-60 -67 0
-60 -64 0
-60 -61 0
-59 -70 0
-59 -67 0
-58 -73 0
-58 -72 0
-58 -67 0
-58 -59 0
-57 -63 0
-56 -68 0
-56 -66 0
-56 -64 0
-56 -63 0
-56 -61 0
-55 -72 0
-55 -71 0
-55 -62 0
-54 -68 0
-54 -66 0
-54 -63 0
-54 -61 0
-54 -56 0
-53 -65 0
-53 -62 0
-53 -54 0
-52 -70 0
-52 -68 0
-52 -66 0
-52 -63 0
-52 -61 0
-52 -59 0
-52 -56 0
-52 -54 0
-51 -62 0
-51 -55 0
-50 -68 0
-50 -51 0
-49 -73 0
-49 -70 0
-49 -68 0
-49 -64 0
-49 -60 0
-49 -50 0
-48 -65 0
-48 -63 0
-48 -62 0
-48 -57 0
-48 -53 0
-47 -67 0
-47 -64 0
-47 -59 0
-47 -58 0
-47 -56 0
-46 -68 0
-46 -57 0
-46 -50 0
-46 -49 0
-45 -69 0
-45 -64 0
-45 -56 0
-45 -47 0
-44 -72 0
-44 -71 0
-44 -68 0
-44 -55 0
-44 -50 0
-44 -49 0
-44 -46 0
-43 -63 0
-43 -57 0
-43 -51 0
-43 -50 0
-43 -48 0
-42 -64 0
-42 -57 0
-42 -56 0
-42 -47 0
-42 -46 0
-42 -45 0
-41 -69 0
-41 -62 0
-41 -55 0
-41 -51 0
-41 -45 0
-40 -73 0
-40 -72 0
-40 -58 0
-40 -51 0
-40 -50 0
-40 -43 0
-39 -67 0
-39 -62 0
-39 -59 0
-39 -58 0
-39 -55 0
-39 -51 0
-39 -47 0
-39 -41 0
-38 -73 0
-38 -71 0
-38 -70 0
-38 -69 0
-38 -66 0
-38 -65 0
-38 -64 0
-38 -60 0
-38 -49 0
-37 -69 0
-37 -67 0
-37 -61 0
-37 -60 0
-37 -45 0
-37 -41 0
-36 -73 0
-36 -70 0
-36 -64 0
-36 -60 0
-36 -54 0
-36 -53 0
-36 -49 0
-36 -38 0
-35 -67 0
-35 -59 0
-35 -58 0
-35 -54 0
-35 -53 0
-35 -47 0
-35 -39 0
-35 -36 0
-34 -54 0
-34 -53 0
-34 -51 0
-34 -50 0
-34 -43 0
-34 -40 0
-34 -36 0
-34 -35 0
-33 -67 0
-33 -65 0
-33 -62 0
-33 -61 0
-33 -60 0
-33 -53 0
-33 -48 0
-33 -37 0
-32 -62 0
-32 -57 0
-32 -55 0
-32 -51 0
-32 -46 0
-32 -42 0
-32 -41 0
-32 -39 0
-30 -72 0
-30 -71 0
-30 -55 0
-30 -54 0
-30 -53 0
-30 -44 0
-30 -36 0
-30 -35 0
-30 -34 0
-29 -72 0
-29 -71 0
-29 -64 0
-29 -56 0
-29 -55 0
-29 -47 0
-29 -45 0
-29 -44 0
-29 -42 0
-29 -30 0
-28 -70 0
-28 -65 0
-28 -62 0
-28 -59 0
-28 -53 0
-28 -52 0
-28 -48 0
-28 -33 0
-27 -73 0
-27 -72 0
-27 -65 0
-27 -62 0
-27 -58 0
-27 -53 0
-27 -48 0
-27 -40 0
-27 -33 0
-27 -28 0
-26 -67 0
-26 -61 0
-26 -60 0
-26 -57 0
-26 -46 0
-26 -42 0
-26 -37 0
-26 -33 0
-26 -32 0
-25 -68 0
-25 -66 0
-25 -63 0
-25 -62 0
-25 -61 0
-25 -56 0
-25 -55 0
-25 -54 0
-25 -52 0
-25 -51 0
-25 -41 0
-25 -39 0
-25 -32 0
-24 -71 0
-24 -69 0
-24 -67 0
-24 -66 0
-24 -65 0
-24 -59 0
-24 -58 0
-24 -47 0
-24 -39 0
-24 -38 0
-24 -35 0
-23 -72 0
-23 -71 0
-23 -67 0
-23 -61 0
-23 -60 0
-23 -55 0
-23 -44 0
-23 -37 0
-23 -33 0
-23 -30 0
-23 -29 0
-23 -26 0
-22 -69 0
-22 -63 0
-22 -57 0
-22 -48 0
-22 -45 0
-22 -43 0
-22 -41 0
-22 -37 0
-21 -73 0
-21 -72 0
-21 -69 0
-21 -58 0
-21 -45 0
-21 -41 0
-21 -40 0
-21 -37 0
-21 -27 0
-21 -22 0
-20 -73 0
-20 -70 0
-20 -64 0
-20 -63 0
-20 -60 0
-20 -57 0
-20 -49 0
-20 -48 0
-20 -43 0
-20 -38 0
-20 -36 0
-20 -22 0
-19 -73 0
-19 -70 0
-19 -64 0
-19 -62 0
-19 -60 0
-19 -55 0
-19 -51 0
-19 -49 0
-19 -41 0
-19 -39 0
-19 -38 0
-19 -36 0
-19 -32 0
-19 -25 0
-19 -20 0
-18 -64 0
-18 -56 0
-18 -51 0
-18 -50 0
-18 -47 0
-18 -45 0
-18 -43 0
-18 -42 0
-18 -40 0
-18 -34 0
-18 -29 0
-17 -67 0
-17 -63 0
-17 -59 0
-17 -58 0
-17 -57 0
-17 -48 0
-17 -47 0
-17 -43 0
-17 -39 0
-17 -35 0
-17 -24 0
-17 -22 0
-17 -20 0
-16 -65 0
-16 -64 0
-16 -62 0
-16 -56 0
-16 -53 0
-16 -48 0
-16 -47 0
-16 -45 0
-16 -42 0
-16 -33 0
-16 -29 0
-16 -28 0
-16 -27 0
-16 -18 0
-15 -72 0
-15 -71 0
-15 -63 0
-15 -57 0
-15 -55 0
-15 -48 0
-15 -44 0
-15 -43 0
-15 -30 0
-15 -29 0
-15 -23 0
-15 -22 0
-15 -20 0
-15 -17 0
-14 -68 0
-14 -67 0
-14 -59 0
-14 -58 0
-14 -50 0
-14 -49 0
-14 -47 0
-14 -46 0
-14 -44 0
-14 -39 0
-14 -35 0
-14 -24 0
-14 -17 0
-13 -71 0
-13 -69 0
-13 -66 0
-13 -65 0
-13 -51 0
-13 -50 0
-13 -43 0
-13 -40 0
-13 -38 0
-13 -34 0
-13 -24 0
-13 -18 0
-12 -68 0
-12 -65 0
-12 -62 0
-12 -53 0
-12 -50 0
-12 -49 0
-12 -48 0
-12 -46 0
-12 -44 0
-12 -33 0
-12 -28 0
-12 -27 0
-12 -16 0
-12 -14 0
-11 -67 0
-11 -61 0
-11 -60 0
-11 -51 0
-11 -50 0
-11 -43 0
-11 -40 0
-11 -37 0
-11 -34 0
-11 -33 0
-11 -26 0
-11 -23 0
-11 -18 0
-11 -13 0
-10 -70 0
-10 -59 0
-10 -52 0
-10 -51 0
-10 -50 0
-10 -43 0
-10 -40 0
-10 -34 0
-10 -28 0
-10 -18 0
-10 -13 0
-10 -11 0
-9 -69 0
-9 -68 0
-9 -50 0
-9 -49 0
-9 -46 0
-9 -45 0
-9 -44 0
-9 -41 0
-9 -37 0
-9 -22 0
-9 -21 0
-9 -14 0
-9 -12 0
-8 -71 0
-8 -69 0
-8 -66 0
-8 -65 0
-8 -57 0
-8 -46 0
-8 -42 0
-8 -38 0
-8 -32 0
-8 -26 0
-8 -24 0
-8 -13 0
-7 -73 0
-7 -72 0
-7 -58 0
-7 -57 0
-7 -46 0
-7 -42 0
-7 -40 0
-7 -32 0
-7 -27 0
-7 -26 0
-7 -21 0
-7 -8 0
-6 -73 0
-6 -72 0
-6 -68 0
-6 -66 0
-6 -63 0
-6 -61 0
-6 -58 0
-6 -56 0
-6 -54 0
-6 -52 0
-6 -40 0
-6 -27 0
-6 -25 0
-6 -21 0
-6 -7 0
-5 -57 0
-5 -54 0
-5 -53 0
-5 -46 0
-5 -42 0
-5 -36 0
-5 -35 0
-5 -34 0
-5 -32 0
-5 -30 0
-5 -26 0
-5 -8 0
-5 -7 0
-4 -70 0
-4 -59 0
-4 -57 0
-4 -52 0
-4 -46 0
-4 -42 0
-4 -32 0
-4 -28 0
-4 -26 0
-4 -10 0
-4 -8 0
-4 -7 0
-4 -5 0
-3 -69 0
-3 -54 0
-3 -53 0
-3 -45 0
-3 -41 0
-3 -37 0
-3 -36 0
-3 -35 0
-3 -34 0
-3 -30 0
-3 -22 0
-3 -21 0
-3 -9 0
-3 -5 0
-2 -70 0
-2 -69 0
-2 -59 0
-2 -52 0
-2 -45 0
-2 -41 0
-2 -37 0
-2 -28 0
-2 -22 0
-2 -21 0
-2 -10 0
-2 -9 0
-2 -4 0
-2 -3 0
-1 -72 0
-1 -71 0
-1 -70 0
-1 -59 0
-1 -55 0
-1 -52 0
-1 -44 0
-1 -30 0
-1 -29 0
-1 -28 0
-1 -23 0
-1 -15 0
-1 -10 0
-1 -4 0
-1 -2 0
1 2 4 10 28 52 59 70 0
3 5 30 34 35 36 53 54 0
6 7 21 27 40 58 72 73 0
8 13 24 38 65 66 69 71 0
9 12 14 44 46 49 50 68 0
11 23 26 33 37 60 61 67 0
15 17 20 22 43 48 57 63 0
16 18 29 42 45 47 56 64 0
19 25 31 32 39 41 51 55 62 0
