p cnf 43 238
-42 -43 0
-39 -42 0
-38 -43 0
-38 -42 0
-38 -41 0
-37 -41 0
-37 -38 0
-36 -43 0
-36 -40 0
-35 -41 0
-34 -41 0
-34 -38 0
-34 -37 0
-33 -43 0
-33 -42 0
-33 -40 0
-33 -38 0
-32 -41 0
-32 -39 0
-32 -38 0
-32 -37 0
-32 -34 0
-31 -40 0
-31 -36 0
-31 -35 0
-30 -43 0
-30 -37 0
-30 -36 0
-29 -43 0
-29 -41 0
-29 -36 0
-29 -35 0
-29 -30 0
-27 -43 0
-27 -42 0
-27 -38 0
-27 -35 0
-27 -33 0
-27 -31 0
-26 -42 0
-26 -39 0
-26 -37 0
-26 -30 0
-25 -40 0
-25 -36 0
-25 -31 0
-24 -43 0
-24 -36 0
-24 -34 0
-24 -30 0
-24 -29 0
-23 -37 0
-23 -30 0
-23 -26 0
-22 -39 0
-22 -32 0
-22 -25 0
-21 -35 0
-21 -34 0
-21 -31 0
-21 -27 0
-21 -24 0
-20 -41 0
-20 -40 0
-20 -38 0
-20 -37 0
-20 -36 0
-20 -34 0
-20 -32 0
-20 -31 0
-20 -25 0
-19 -41 0
-19 -35 0
-19 -29 0
-19 -23 0
-18 -41 0
-18 -40 0
-18 -35 0
-18 -33 0
-18 -29 0
-18 -19 0
-17 -42 0
-17 -40 0
-17 -39 0
-17 -36 0
-17 -31 0
-17 -26 0
-17 -25 0
-17 -20 0
-16 -34 0
-16 -25 0
-16 -24 0
-16 -22 0
-16 -21 0
-15 -43 0
-15 -39 0
-15 -36 0
-15 -32 0
-15 -30 0
-15 -29 0
-15 -24 0
-15 -22 0
-14 -40 0
-14 -39 0
-14 -33 0
-14 -32 0
-14 -22 0
-14 -18 0
-14 -15 0
-13 -39 0
-13 -32 0
-13 -23 0
-13 -22 0
-13 -19 0
-13 -15 0
-13 -14 0
-12 -34 0
-12 -24 0
-12 -23 0
-12 -21 0
-12 -19 0
-12 -16 0
-12 -13 0
-11 -40 0
-11 -37 0
-11 -33 0
-11 -30 0
-11 -26 0
-11 -23 0
-11 -18 0
-11 -14 0
-10 -41 0
-10 -35 0
-10 -29 0
-10 -25 0
-10 -22 0
-10 -19 0
-10 -18 0
-10 -16 0
-9 -39 0
-9 -35 0
-9 -32 0
-9 -31 0
-9 -27 0
-9 -22 0
-9 -21 0
-9 -15 0
-9 -14 0
-9 -13 0
-8 -42 0
-8 -41 0
-8 -39 0
-8 -35 0
-8 -29 0
-8 -26 0
-8 -19 0
-8 -18 0
-8 -17 0
-8 -10 0
-7 -37 0
-7 -35 0
-7 -31 0
-7 -30 0
-7 -27 0
-7 -26 0
-7 -23 0
-7 -21 0
-7 -11 0
-7 -9 0
-6 -40 0
-6 -34 0
-6 -33 0
-6 -24 0
-6 -21 0
-6 -18 0
-6 -16 0
-6 -14 0
-6 -12 0
-6 -11 0
-5 -43 0
-5 -42 0
-5 -38 0
-5 -33 0
-5 -27 0
-5 -23 0
-5 -19 0
-5 -13 0
-5 -12 0
-4 -42 0
-4 -39 0
-4 -34 0
-4 -26 0
-4 -24 0
-4 -21 0
-4 -17 0
-4 -16 0
-4 -12 0
-4 -8 0
-4 -6 0
-3 -37 0
-3 -30 0
-3 -26 0
-3 -25 0
-3 -23 0
-3 -22 0
-3 -16 0
-3 -11 0
-3 -10 0
-3 -7 0
-2 -43 0
-2 -42 0
-2 -38 0
-2 -33 0
-2 -27 0
-2 -25 0
-2 -22 0
-2 -16 0
-2 -10 0
-2 -5 0
-2 -3 0
-1 -40 0
-1 -36 0
-1 -31 0
-1 -25 0
-1 -23 0
-1 -20 0
-1 -19 0
-1 -17 0
-1 -13 0
-1 -12 0
-1 -5 0
1 5 12 13 19 23 0
2 3 10 16 22 25 0
4 8 17 26 39 42 0
6 11 14 18 33 40 0
15 24 29 30 36 43 0
20 32 34 37 38 41 0
7 9 21 27 28 31 35 0
