p cnf 43 238
-41 -43 0
-40 -41 0
-39 -41 0
-39 -40 0
-37 -43 0
-37 -42 0
-37 -41 0
-36 -43 0
-36 -41 0
-36 -37 0
-35 -43 0
-35 -42 0
-34 -42 0
-34 -40 0
-34 -37 0
-32 -42 0
-32 -41 0
-32 -40 0
-32 -39 0
-32 -35 0
-31 -43 0
-31 -35 0
-31 -33 0
-30 -40 0
-30 -36 0
-30 -34 0
-29 -39 0
-29 -36 0
-29 -30 0
-28 -43 0
-28 -40 0
-28 -35 0
-28 -34 0
-28 -31 0
-28 -30 0
-27 -33 0
-26 -40 0
-26 -38 0
-26 -34 0
-26 -30 0
-26 -28 0
-25 -42 0
-25 -39 0
-25 -37 0
-25 -34 0
-25 -29 0
-24 -41 0
-24 -40 0
-24 -39 0
-24 -32 0
-24 -27 0
-23 -42 0
-23 -37 0
-23 -34 0
-23 -33 0
-23 -31 0
-23 -25 0
-22 -43 0
-22 -41 0
-22 -38 0
-22 -37 0
-22 -36 0
-22 -26 0
-21 -41 0
-21 -40 0
-21 -39 0
-21 -33 0
-21 -32 0
-21 -31 0
-21 -24 0
-21 -23 0
-20 -36 0
-20 -33 0
-20 -31 0
-20 -30 0
-20 -29 0
-20 -23 0
-20 -21 0
-19 -42 0
-19 -35 0
-19 -33 0
-19 -32 0
-19 -27 0
-18 -43 0
-18 -35 0
-18 -31 0
-18 -28 0
-18 -27 0
-18 -24 0
-17 -38 0
-17 -27 0
-17 -26 0
-17 -24 0
-17 -22 0
-17 -18 0
-16 -42 0
-16 -38 0
-16 -35 0
-16 -32 0
-16 -26 0
-16 -22 0
-16 -19 0
-16 -17 0
-15 -43 0
-15 -39 0
-15 -35 0
-15 -31 0
-15 -29 0
-15 -28 0
-15 -25 0
-15 -18 0
-14 -43 0
-14 -41 0
-14 -37 0
-14 -36 0
-14 -33 0
-14 -27 0
-14 -22 0
-14 -19 0
-13 -42 0
-13 -37 0
-13 -34 0
-13 -27 0
-13 -25 0
-13 -24 0
-13 -23 0
-13 -18 0
-13 -17 0
-12 -42 0
-12 -36 0
-12 -35 0
-12 -32 0
-12 -30 0
-12 -29 0
-12 -20 0
-12 -19 0
-12 -16 0
-11 -41 0
-11 -40 0
-11 -39 0
-11 -38 0
-11 -32 0
-11 -24 0
-11 -21 0
-10 -43 0
-10 -38 0
-10 -35 0
-10 -31 0
-10 -28 0
-10 -18 0
-10 -15 0
-10 -11 0
-9 -36 0
-9 -30 0
-9 -29 0
-9 -27 0
-9 -24 0
-9 -20 0
-9 -18 0
-9 -17 0
-9 -13 0
-9 -12 0
-8 -38 0
-8 -33 0
-8 -31 0
-8 -26 0
-8 -23 0
-8 -22 0
-8 -21 0
-8 -20 0
-8 -17 0
-8 -16 0
-7 -40 0
-7 -34 0
-7 -33 0
-7 -30 0
-7 -28 0
-7 -27 0
-7 -26 0
-7 -19 0
-7 -14 0
-6 -42 0
-6 -38 0
-6 -37 0
-6 -34 0
-6 -25 0
-6 -23 0
-6 -13 0
-6 -11 0
-6 -10 0
-5 -39 0
-5 -38 0
-5 -29 0
-5 -26 0
-5 -25 0
-5 -22 0
-5 -17 0
-5 -16 0
-5 -15 0
-5 -8 0
-4 -38 0
-4 -36 0
-4 -30 0
-4 -29 0
-4 -20 0
-4 -12 0
-4 -11 0
-4 -10 0
-4 -9 0
-4 -6 0
-2 -39 0
-2 -33 0
-2 -29 0
-2 -27 0
-2 -25 0
-2 -19 0
-2 -15 0
-2 -14 0
-2 -7 0
-2 -5 0
-1 -38 0
-1 -33 0
-1 -27 0
-1 -19 0
-1 -14 0
-1 -11 0
-1 -10 0
-1 -7 0
-1 -6 0
-1 -4 0
-1 -2 0
1 4 6 10 11 38 0
2 5 15 25 29 39 0
7 26 28 30 34 40 0
8 20 21 23 31 33 0
9 13 17 18 24 27 0
12 16 19 32 35 42 0
3 14 22 36 37 41 43 0
