p cnf 133 1398
-131 -132 0
-130 -131 0
-129 -133 0
-129 -130 0
-127 -133 0
-127 -129 0
-126 -127 0
-123 -130 0
-123 -129 0
-122 -127 0
-122 -126 0
-121 -122 0
-120 -128 0
-119 -125 0
-118 -125 0
-118 -119 0
-117 -128 0
-117 -121 0
-116 -128 0
-116 -120 0
-115 -128 0
-115 -125 0
-115 -117 0
-114 -126 0
-114 -125 0
-114 -115 0
-113 -133 0
-113 -126 0
-113 -114 0
-112 -133 0
-112 -113 0
-111 -126 0
-111 -114 0
-111 -113 0
-110 -118 0
-110 -112 0
-109 -132 0
-109 -131 0
-108 -121 0
-108 -117 0
-108 -116 0
-107 -123 0
-107 -118 0
-107 -110 0
-106 -126 0
-106 -114 0
-106 -113 0
-106 -111 0
-105 -125 0
-105 -116 0
-105 -115 0
-105 -114 0
-105 -108 0
-104 -120 0
-104 -119 0
-103 -112 0
-103 -110 0
-103 -106 0
-102 -125 0
-102 -115 0
-102 -114 0
-102 -112 0
-102 -110 0
-102 -105 0
-102 -103 0
-101 -121 0
-101 -117 0
-101 -109 0
-101 -108 0
-100 -128 0
-100 -127 0
-100 -126 0
-100 -122 0
-100 -117 0
-100 -115 0
-99 -128 0
-99 -123 0
-99 -120 0
-99 -116 0
-99 -107 0
-98 -128 0
-98 -125 0
-98 -120 0
-98 -119 0
-98 -118 0
-98 -116 0
-98 -99 0
-97 -130 0
-97 -129 0
-97 -123 0
-97 -109 0
-97 -101 0
-96 -132 0
-96 -119 0
-96 -104 0
-95 -132 0
-95 -127 0
-95 -126 0
-95 -122 0
-95 -100 0
-95 -96 0
-94 -133 0
-94 -129 0
-94 -128 0
-94 -127 0
-94 -120 0
-94 -116 0
-94 -99 0
-94 -98 0
-93 -120 0
-93 -118 0
-93 -110 0
-93 -107 0
-93 -104 0
-92 -133 0
-92 -129 0
-92 -127 0
-92 -106 0
-92 -103 0
-92 -94 0
-91 -133 0
-91 -122 0
-91 -121 0
-91 -113 0
-91 -112 0
-90 -122 0
-90 -121 0
-90 -106 0
-90 -103 0
-90 -92 0
-90 -91 0
-89 -126 0
-89 -118 0
-89 -114 0
-89 -113 0
-89 -111 0
-89 -110 0
-89 -107 0
-89 -106 0
-89 -93 0
-88 -130 0
-88 -129 0
-88 -128 0
-88 -123 0
-88 -117 0
-88 -115 0
-88 -100 0
-88 -97 0
-87 -132 0
-87 -130 0
-87 -129 0
-87 -123 0
-87 -97 0
-87 -96 0
-87 -95 0
-87 -88 0
-86 -128 0
-86 -120 0
-86 -116 0
-86 -112 0
-86 -110 0
-86 -103 0
-86 -102 0
-86 -99 0
-86 -98 0
-86 -94 0
-85 -122 0
-85 -121 0
-85 -119 0
-85 -104 0
-85 -96 0
-85 -91 0
-85 -90 0
-84 -127 0
-84 -126 0
-84 -125 0
-84 -122 0
-84 -119 0
-84 -118 0
-84 -100 0
-84 -98 0
-84 -95 0
-83 -133 0
-83 -132 0
-83 -131 0
-83 -129 0
-83 -127 0
-83 -109 0
-83 -94 0
-83 -92 0
-82 -128 0
-82 -119 0
-82 -117 0
-82 -115 0
-82 -104 0
-82 -100 0
-82 -96 0
-82 -88 0
-82 -85 0
-81 -133 0
-81 -128 0
-81 -117 0
-81 -115 0
-81 -113 0
-81 -112 0
-81 -100 0
-81 -91 0
-81 -88 0
-81 -82 0
-80 -133 0
-80 -131 0
-80 -130 0
-80 -113 0
-80 -112 0
-80 -91 0
-80 -81 0
-79 -127 0
-79 -126 0
-79 -123 0
-79 -122 0
-79 -107 0
-79 -100 0
-79 -99 0
-79 -95 0
-79 -84 0
-78 -125 0
-78 -120 0
-78 -115 0
-78 -114 0
-78 -105 0
-78 -104 0
-78 -102 0
-78 -93 0
-77 -126 0
-77 -121 0
-77 -117 0
-77 -114 0
-77 -113 0
-77 -111 0
-77 -108 0
-77 -106 0
-77 -101 0
-77 -89 0
-76 -122 0
-76 -121 0
-76 -111 0
-76 -91 0
-76 -90 0
-76 -85 0
-75 -128 0
-75 -126 0
-75 -120 0
-75 -116 0
-75 -114 0
-75 -113 0
-75 -111 0
-75 -106 0
-75 -99 0
-75 -98 0
-75 -94 0
-75 -89 0
-75 -86 0
-75 -77 0
-74 -132 0
-74 -131 0
-74 -122 0
-74 -121 0
-74 -109 0
-74 -91 0
-74 -90 0
-74 -85 0
-74 -83 0
-74 -76 0
-73 -121 0
-73 -120 0
-73 -117 0
-73 -108 0
-73 -104 0
-73 -101 0
-73 -93 0
-73 -78 0
-73 -77 0
-72 -126 0
-72 -119 0
-72 -114 0
-72 -113 0
-72 -111 0
-72 -106 0
-72 -104 0
-72 -96 0
-72 -89 0
-72 -85 0
-72 -82 0
-72 -77 0
-72 -75 0
-71 -132 0
-71 -131 0
-71 -125 0
-71 -119 0
-71 -118 0
-71 -109 0
-71 -98 0
-71 -84 0
-71 -83 0
-71 -74 0
-70 -119 0
-70 -109 0
-70 -104 0
-70 -101 0
-70 -97 0
-70 -96 0
-70 -85 0
-70 -82 0
-70 -72 0
-69 -133 0
-69 -123 0
-69 -113 0
-69 -112 0
-69 -107 0
-69 -99 0
-69 -91 0
-69 -81 0
-69 -80 0
-69 -79 0
-68 -128 0
-68 -118 0
-68 -117 0
-68 -115 0
-68 -110 0
-68 -107 0
-68 -100 0
-68 -93 0
-68 -89 0
-68 -88 0
-68 -82 0
-68 -81 0
-67 -133 0
-67 -129 0
-67 -127 0
-67 -118 0
-67 -110 0
-67 -107 0
-67 -94 0
-67 -93 0
-67 -92 0
-67 -89 0
-67 -83 0
-67 -68 0
-66 -109 0
-66 -106 0
-66 -103 0
-66 -101 0
-66 -97 0
-66 -92 0
-66 -90 0
-66 -70 0
-65 -121 0
-65 -117 0
-65 -112 0
-65 -110 0
-65 -108 0
-65 -103 0
-65 -102 0
-65 -101 0
-65 -86 0
-65 -77 0
-65 -73 0
-64 -128 0
-64 -122 0
-64 -121 0
-64 -120 0
-64 -116 0
-64 -99 0
-64 -98 0
-64 -94 0
-64 -91 0
-64 -90 0
-64 -86 0
-64 -85 0
-64 -76 0
-64 -75 0
-64 -74 0
-63 -132 0
-63 -106 0
-63 -103 0
-63 -96 0
-63 -95 0
-63 -92 0
-63 -90 0
-63 -87 0
-63 -66 0
-62 -133 0
-62 -129 0
-62 -127 0
-62 -111 0
-62 -94 0
-62 -92 0
-62 -83 0
-62 -76 0
-62 -67 0
-61 -122 0
-61 -121 0
-61 -118 0
-61 -110 0
-61 -107 0
-61 -93 0
-61 -91 0
-61 -90 0
-61 -89 0
-61 -85 0
-61 -76 0
-61 -74 0
-61 -68 0
-61 -67 0
-61 -64 0
-60 -132 0
-60 -125 0
-60 -115 0
-60 -114 0
-60 -105 0
-60 -102 0
-60 -96 0
-60 -95 0
-60 -87 0
-60 -78 0
-60 -63 0
-59 -133 0
-59 -125 0
-59 -119 0
-59 -118 0
-59 -113 0
-59 -112 0
-59 -98 0
-59 -91 0
-59 -84 0
-59 -81 0
-59 -80 0
-59 -71 0
-59 -69 0
-58 -119 0
-58 -112 0
-58 -110 0
-58 -104 0
-58 -103 0
-58 -102 0
-58 -96 0
-58 -86 0
-58 -85 0
-58 -82 0
-58 -72 0
-58 -70 0
-58 -65 0
-57 -125 0
-57 -123 0
-57 -115 0
-57 -114 0
-57 -107 0
-57 -105 0
-57 -102 0
-57 -99 0
-57 -79 0
-57 -78 0
-57 -69 0
-57 -60 0
-56 -133 0
-56 -120 0
-56 -113 0
-56 -112 0
-56 -104 0
-56 -93 0
-56 -91 0
-56 -81 0
-56 -80 0
-56 -78 0
-56 -73 0
-56 -69 0
-56 -59 0
-55 -123 0
-55 -121 0
-55 -117 0
-55 -108 0
-55 -107 0
-55 -101 0
-55 -99 0
-55 -79 0
-55 -77 0
-55 -73 0
-55 -69 0
-55 -65 0
-55 -57 0
-54 -131 0
-54 -130 0
-54 -106 0
-54 -103 0
-54 -92 0
-54 -90 0
-54 -80 0
-54 -66 0
-54 -63 0
-53 -128 0
-53 -120 0
-53 -116 0
-53 -109 0
-53 -101 0
-53 -99 0
-53 -98 0
-53 -97 0
-53 -94 0
-53 -86 0
-53 -75 0
-53 -70 0
-53 -66 0
-53 -64 0
-52 -130 0
-52 -129 0
-52 -123 0
-52 -120 0
-52 -104 0
-52 -97 0
-52 -93 0
-52 -88 0
-52 -87 0
-52 -78 0
-52 -73 0
-52 -56 0
-51 -125 0
-51 -122 0
-51 -121 0
-51 -115 0
-51 -114 0
-51 -105 0
-51 -102 0
-51 -91 0
-51 -90 0
-51 -85 0
-51 -78 0
-51 -76 0
-51 -74 0
-51 -64 0
-51 -61 0
-51 -60 0
-51 -57 0
-50 -130 0
-50 -129 0
-50 -126 0
-50 -123 0
-50 -114 0
-50 -113 0
-50 -111 0
-50 -106 0
-50 -97 0
-50 -89 0
-50 -88 0
-50 -87 0
-50 -77 0
-50 -75 0
-50 -72 0
-50 -52 0
-49 -133 0
-49 -132 0
-49 -113 0
-49 -112 0
-49 -96 0
-49 -95 0
-49 -91 0
-49 -87 0
-49 -81 0
-49 -80 0
-49 -69 0
-49 -63 0
-49 -60 0
-49 -59 0
-49 -56 0
-48 -118 0
-48 -110 0
-48 -109 0
-48 -107 0
-48 -101 0
-48 -97 0
-48 -93 0
-48 -89 0
-48 -70 0
-48 -68 0
-48 -67 0
-48 -66 0
-48 -61 0
-48 -53 0
-47 -131 0
-47 -130 0
-47 -111 0
-47 -80 0
-47 -76 0
-47 -62 0
-47 -54 0
-46 -127 0
-46 -126 0
-46 -122 0
-46 -112 0
-46 -110 0
-46 -103 0
-46 -102 0
-46 -100 0
-46 -95 0
-46 -86 0
-46 -84 0
-46 -79 0
-46 -65 0
-46 -58 0
-45 -131 0
-45 -130 0
-45 -119 0
-45 -104 0
-45 -96 0
-45 -85 0
-45 -82 0
-45 -80 0
-45 -72 0
-45 -70 0
-45 -58 0
-45 -54 0
-45 -47 0
-44 -132 0
-44 -111 0
-44 -96 0
-44 -95 0
-44 -87 0
-44 -76 0
-44 -63 0
-44 -62 0
-44 -60 0
-44 -49 0
-44 -47 0
-43 -132 0
-43 -128 0
-43 -120 0
-43 -116 0
-43 -99 0
-43 -98 0
-43 -96 0
-43 -95 0
-43 -94 0
-43 -87 0
-43 -86 0
-43 -75 0
-43 -64 0
-43 -63 0
-43 -60 0
-43 -53 0
-43 -49 0
-43 -44 0
-42 -125 0
-42 -121 0
-42 -119 0
-42 -118 0
-42 -117 0
-42 -108 0
-42 -101 0
-42 -98 0
-42 -84 0
-42 -77 0
-42 -73 0
-42 -71 0
-42 -65 0
-42 -59 0
-42 -55 0
-41 -116 0
-41 -108 0
-41 -106 0
-41 -105 0
-41 -103 0
-41 -92 0
-41 -90 0
-41 -66 0
-41 -63 0
-41 -54 0
-40 -119 0
-40 -116 0
-40 -108 0
-40 -105 0
-40 -104 0
-40 -96 0
-40 -85 0
-40 -82 0
-40 -72 0
-40 -70 0
-40 -58 0
-40 -45 0
-40 -41 0
-39 -130 0
-39 -129 0
-39 -123 0
-39 -122 0
-39 -121 0
-39 -97 0
-39 -91 0
-39 -90 0
-39 -88 0
-39 -87 0
-39 -85 0
-39 -76 0
-39 -74 0
-39 -64 0
-39 -61 0
-39 -52 0
-39 -51 0
-39 -50 0
-38 -123 0
-38 -119 0
-38 -107 0
-38 -104 0
-38 -99 0
-38 -96 0
-38 -85 0
-38 -82 0
-38 -79 0
-38 -72 0
-38 -70 0
-38 -69 0
-38 -58 0
-38 -57 0
-38 -55 0
-38 -45 0
-38 -40 0
-37 -133 0
-37 -129 0
-37 -127 0
-37 -119 0
-37 -104 0
-37 -96 0
-37 -94 0
-37 -92 0
-37 -85 0
-37 -83 0
-37 -82 0
-37 -72 0
-37 -70 0
-37 -67 0
-37 -62 0
-37 -58 0
-37 -45 0
-37 -40 0
-37 -38 0
-36 -132 0
-36 -131 0
-36 -126 0
-36 -114 0
-36 -113 0
-36 -111 0
-36 -109 0
-36 -106 0
-36 -89 0
-36 -83 0
-36 -77 0
-36 -75 0
-36 -74 0
-36 -72 0
-36 -71 0
-36 -50 0
-35 -131 0
-35 -130 0
-35 -128 0
-35 -120 0
-35 -116 0
-35 -99 0
-35 -98 0
-35 -94 0
-35 -86 0
-35 -80 0
-35 -75 0
-35 -64 0
-35 -54 0
-35 -53 0
-35 -47 0
-35 -45 0
-35 -43 0
-34 -130 0
-34 -129 0
-34 -123 0
-34 -112 0
-34 -110 0
-34 -103 0
-34 -102 0
-34 -97 0
-34 -88 0
-34 -87 0
-34 -86 0
-34 -65 0
-34 -58 0
-34 -52 0
-34 -50 0
-34 -46 0
-34 -39 0
-33 -131 0
-33 -130 0
-33 -127 0
-33 -126 0
-33 -122 0
-33 -100 0
-33 -95 0
-33 -84 0
-33 -80 0
-33 -79 0
-33 -54 0
-33 -47 0
-33 -46 0
-33 -45 0
-33 -35 0
-32 -132 0
-32 -131 0
-32 -116 0
-32 -109 0
-32 -108 0
-32 -105 0
-32 -83 0
-32 -74 0
-32 -71 0
-32 -41 0
-32 -40 0
-32 -36 0
-31 -132 0
-31 -121 0
-31 -117 0
-31 -108 0
-31 -101 0
-31 -96 0
-31 -95 0
-31 -87 0
-31 -77 0
-31 -73 0
-31 -65 0
-31 -63 0
-31 -60 0
-31 -55 0
-31 -49 0
-31 -44 0
-31 -43 0
-31 -42 0
-30 -127 0
-30 -126 0
-30 -122 0
-30 -120 0
-30 -104 0
-30 -100 0
-30 -95 0
-30 -93 0
-30 -84 0
-30 -79 0
-30 -78 0
-30 -73 0
-30 -56 0
-30 -52 0
-30 -46 0
-30 -33 0
-29 -132 0
-29 -131 0
-29 -120 0
-29 -109 0
-29 -104 0
-29 -93 0
-29 -83 0
-29 -78 0
-29 -74 0
-29 -73 0
-29 -71 0
-29 -56 0
-29 -52 0
-29 -36 0
-29 -32 0
-29 -30 0
-28 -132 0
-28 -118 0
-28 -110 0
-28 -107 0
-28 -96 0
-28 -95 0
-28 -93 0
-28 -89 0
-28 -87 0
-28 -68 0
-28 -67 0
-28 -63 0
-28 -61 0
-28 -60 0
-28 -49 0
-28 -48 0
-28 -44 0
-28 -43 0
-28 -31 0
-27 -125 0
-27 -115 0
-27 -114 0
-27 -109 0
-27 -105 0
-27 -102 0
-27 -101 0
-27 -97 0
-27 -78 0
-27 -70 0
-27 -66 0
-27 -60 0
-27 -57 0
-27 -53 0
-27 -51 0
-27 -48 0
-26 -132 0
-26 -131 0
-26 -128 0
-26 -117 0
-26 -115 0
-26 -109 0
-26 -100 0
-26 -88 0
-26 -83 0
-26 -82 0
-26 -81 0
-26 -74 0
-26 -71 0
-26 -68 0
-26 -36 0
-26 -32 0
-26 -29 0
-25 -120 0
-25 -106 0
-25 -104 0
-25 -103 0
-25 -93 0
-25 -92 0
-25 -90 0
-25 -78 0
-25 -73 0
-25 -66 0
-25 -63 0
-25 -56 0
-25 -54 0
-25 -52 0
-25 -41 0
-25 -30 0
-25 -29 0
-24 -131 0
-24 -130 0
-24 -118 0
-24 -110 0
-24 -107 0
-24 -93 0
-24 -89 0
-24 -80 0
-24 -68 0
-24 -67 0
-24 -61 0
-24 -54 0
-24 -48 0
-24 -47 0
-24 -45 0
-24 -35 0
-24 -33 0
-24 -28 0
-23 -111 0
-23 -109 0
-23 -101 0
-23 -97 0
-23 -76 0
-23 -70 0
-23 -66 0
-23 -62 0
-23 -53 0
-23 -48 0
-23 -47 0
-23 -44 0
-23 -27 0
-22 -133 0
-22 -129 0
-22 -127 0
-22 -121 0
-22 -117 0
-22 -108 0
-22 -101 0
-22 -94 0
-22 -92 0
-22 -83 0
-22 -77 0
-22 -73 0
-22 -67 0
-22 -65 0
-22 -62 0
-22 -55 0
-22 -42 0
-22 -37 0
-22 -31 0
-21 -112 0
-21 -111 0
-21 -110 0
-21 -103 0
-21 -102 0
-21 -86 0
-21 -76 0
-21 -65 0
-21 -62 0
-21 -58 0
-21 -47 0
-21 -46 0
-21 -44 0
-21 -34 0
-21 -23 0
-20 -123 0
-20 -111 0
-20 -107 0
-20 -99 0
-20 -79 0
-20 -76 0
-20 -69 0
-20 -62 0
-20 -57 0
-20 -55 0
-20 -47 0
-20 -44 0
-20 -38 0
-20 -23 0
-20 -21 0
-19 -132 0
-19 -131 0
-19 -123 0
-19 -109 0
-19 -107 0
-19 -99 0
-19 -83 0
-19 -79 0
-19 -74 0
-19 -71 0
-19 -69 0
-19 -57 0
-19 -55 0
-19 -38 0
-19 -36 0
-19 -32 0
-19 -29 0
-19 -26 0
-19 -20 0
-18 -133 0
-18 -116 0
-18 -113 0
-18 -112 0
-18 -108 0
-18 -105 0
-18 -91 0
-18 -81 0
-18 -80 0
-18 -69 0
-18 -59 0
-18 -56 0
-18 -49 0
-18 -41 0
-18 -40 0
-18 -32 0
-17 -118 0
-17 -116 0
-17 -110 0
-17 -108 0
-17 -107 0
-17 -105 0
-17 -93 0
-17 -89 0
-17 -68 0
-17 -67 0
-17 -61 0
-17 -48 0
-17 -41 0
-17 -40 0
-17 -32 0
-17 -28 0
-17 -24 0
-17 -18 0
-16 -120 0
-16 -111 0
-16 -104 0
-16 -93 0
-16 -78 0
-16 -76 0
-16 -73 0
-16 -62 0
-16 -56 0
-16 -52 0
-16 -47 0
-16 -44 0
-16 -30 0
-16 -29 0
-16 -25 0
-16 -23 0
-16 -21 0
-16 -20 0
-15 -133 0
-15 -113 0
-15 -112 0
-15 -109 0
-15 -101 0
-15 -97 0
-15 -91 0
-15 -81 0
-15 -80 0
-15 -70 0
-15 -69 0
-15 -66 0
-15 -59 0
-15 -56 0
-15 -53 0
-15 -49 0
-15 -48 0
-15 -27 0
-15 -23 0
-15 -18 0
-14 -132 0
-14 -131 0
-14 -112 0
-14 -110 0
-14 -109 0
-14 -103 0
-14 -102 0
-14 -86 0
-14 -83 0
-14 -74 0
-14 -71 0
-14 -65 0
-14 -58 0
-14 -46 0
-14 -36 0
-14 -34 0
-14 -32 0
-14 -29 0
-14 -26 0
-14 -21 0
-14 -19 0
-13 -125 0
-13 -119 0
-13 -118 0
-13 -106 0
-13 -103 0
-13 -98 0
-13 -92 0
-13 -90 0
-13 -84 0
-13 -71 0
-13 -66 0
-13 -63 0
-13 -59 0
-13 -54 0
-13 -42 0
-13 -41 0
-13 -25 0
-12 -131 0
-12 -130 0
-12 -121 0
-12 -117 0
-12 -108 0
-12 -101 0
-12 -80 0
-12 -77 0
-12 -73 0
-12 -65 0
-12 -55 0
-12 -54 0
-12 -47 0
-12 -45 0
-12 -42 0
-12 -35 0
-12 -33 0
-12 -31 0
-12 -24 0
-12 -22 0
-11 -127 0
-11 -126 0
-11 -122 0
-11 -109 0
-11 -101 0
-11 -100 0
-11 -97 0
-11 -95 0
-11 -84 0
-11 -79 0
-11 -70 0
-11 -66 0
-11 -53 0
-11 -48 0
-11 -46 0
-11 -33 0
-11 -30 0
-11 -27 0
-11 -23 0
-11 -15 0
-10 -130 0
-10 -129 0
-10 -125 0
-10 -123 0
-10 -119 0
-10 -118 0
-10 -98 0
-10 -97 0
-10 -88 0
-10 -87 0
-10 -84 0
-10 -71 0
-10 -59 0
-10 -52 0
-10 -50 0
-10 -42 0
-10 -39 0
-10 -34 0
-10 -13 0
-9 -127 0
-9 -126 0
-9 -122 0
-9 -116 0
-9 -108 0
-9 -105 0
-9 -100 0
-9 -95 0
-9 -84 0
-9 -79 0
-9 -46 0
-9 -41 0
-9 -40 0
-9 -33 0
-9 -32 0
-9 -30 0
-9 -18 0
-9 -17 0
-9 -11 0
-8 -116 0
-8 -111 0
-8 -108 0
-8 -105 0
-8 -76 0
-8 -62 0
-8 -47 0
-8 -44 0
-8 -41 0
-8 -40 0
-8 -32 0
-8 -23 0
-8 -21 0
-8 -20 0
-8 -18 0
-8 -17 0
-8 -16 0
-8 -9 0
-7 -130 0
-7 -129 0
-7 -123 0
-7 -116 0
-7 -108 0
-7 -105 0
-7 -97 0
-7 -88 0
-7 -87 0
-7 -52 0
-7 -50 0
-7 -41 0
-7 -40 0
-7 -39 0
-7 -34 0
-7 -32 0
-7 -18 0
-7 -17 0
-7 -10 0
-7 -9 0
-7 -8 0
-6 -128 0
-6 -117 0
-6 -115 0
-6 -111 0
-6 -100 0
-6 -88 0
-6 -82 0
-6 -81 0
-6 -76 0
-6 -68 0
-6 -62 0
-6 -47 0
-6 -44 0
-6 -26 0
-6 -23 0
-6 -21 0
-6 -20 0
-6 -16 0
-6 -8 0
-5 -131 0
-5 -130 0
-5 -125 0
-5 -115 0
-5 -114 0
-5 -105 0
-5 -102 0
-5 -80 0
-5 -78 0
-5 -60 0
-5 -57 0
-5 -54 0
-5 -51 0
-5 -47 0
-5 -45 0
-5 -35 0
-5 -33 0
-5 -27 0
-5 -24 0
-5 -12 0
-4 -125 0
-4 -119 0
-4 -118 0
-4 -111 0
-4 -98 0
-4 -84 0
-4 -76 0
-4 -71 0
-4 -62 0
-4 -59 0
-4 -47 0
-4 -44 0
-4 -42 0
-4 -23 0
-4 -21 0
-4 -20 0
-4 -16 0
-4 -13 0
-4 -10 0
-4 -8 0
-4 -6 0
-3 -133 0
-3 -129 0
-3 -127 0
-3 -125 0
-3 -115 0
-3 -114 0
-3 -105 0
-3 -102 0
-3 -94 0
-3 -92 0
-3 -83 0
-3 -78 0
-3 -67 0
-3 -62 0
-3 -60 0
-3 -57 0
-3 -51 0
-3 -37 0
-3 -27 0
-3 -22 0
-3 -5 0
-2 -128 0
-2 -117 0
-2 -115 0
-2 -106 0
-2 -103 0
-2 -100 0
-2 -92 0
-2 -90 0
-2 -88 0
-2 -82 0
-2 -81 0
-2 -68 0
-2 -66 0
-2 -63 0
-2 -54 0
-2 -41 0
-2 -26 0
-2 -25 0
-2 -13 0
-2 -6 0
-1 -123 0
-1 -107 0
-1 -106 0
-1 -103 0
-1 -99 0
-1 -92 0
-1 -90 0
-1 -79 0
-1 -69 0
-1 -66 0
-1 -63 0
-1 -57 0
-1 -55 0
-1 -54 0
-1 -41 0
-1 -38 0
-1 -25 0
-1 -20 0
-1 -19 0
-1 -13 0
-1 -2 0
1 19 20 38 55 57 69 79 99 107 123 0
2 6 26 68 81 82 88 100 115 117 128 0
3 22 37 62 67 83 92 94 127 129 133 0
4 10 13 42 59 71 84 98 118 119 125 0
5 12 24 33 35 45 47 54 80 130 131 0
7 8 9 17 18 32 40 41 105 108 116 0
11 15 23 27 48 53 66 70 97 101 109 0
14 21 34 46 58 65 86 102 103 110 112 0
16 25 29 30 52 56 73 78 93 104 120 0
36 50 72 75 77 89 106 111 113 114 126 0
39 51 61 64 74 76 85 90 91 121 122 0
28 31 43 44 49 60 63 87 95 96 124 132 0
