p cnf 133 1398
-128 -131 0
-127 -131 0
-127 -128 0
-126 -130 0
-125 -131 0
-125 -128 0
-125 -127 0
-124 -132 0
-123 -125 0
-122 -131 0
-122 -124 0
-121 -123 0
-120 -133 0
-120 -126 0
-119 -128 0
-119 -126 0
-119 -120 0
-118 -133 0
-118 -132 0
-118 -124 0
-117 -130 0
-117 -126 0
-116 -132 0
-116 -129 0
-116 -124 0
-116 -118 0
-115 -127 0
-115 -117 0
-114 -133 0
-114 -127 0
-114 -118 0
-114 -115 0
-113 -125 0
-113 -123 0
-112 -131 0
-112 -122 0
-112 -117 0
-112 -115 0
-111 -132 0
-111 -131 0
-111 -128 0
-111 -127 0
-111 -125 0
-111 -124 0
-111 -118 0
-111 -116 0
-110 -131 0
-110 -122 0
-110 -112 0
-109 -133 0
-109 -128 0
-109 -119 0
-109 -118 0
-109 -114 0
-108 -110 0
-107 -131 0
-107 -130 0
-107 -122 0
-107 -112 0
-107 -110 0
-106 -131 0
-106 -128 0
-106 -127 0
-106 -125 0
-106 -111 0
-106 -108 0
-105 -130 0
-105 -126 0
-105 -124 0
-105 -122 0
-105 -117 0
-104 -132 0
-103 -133 0
-103 -124 0
-103 -122 0
-103 -120 0
-103 -105 0
-102 -132 0
-102 -128 0
-102 -119 0
-102 -109 0
-102 -104 0
-101 -126 0
-101 -121 0
-101 -120 0
-101 -119 0
-100 -131 0
-100 -129 0
-100 -128 0
-100 -127 0
-100 -125 0
-100 -111 0
-100 -106 0
-99 -113 0
-99 -104 0
-98 -124 0
-98 -122 0
-98 -105 0
-98 -103 0
-97 -133 0
-97 -125 0
-97 -123 0
-97 -118 0
-97 -114 0
-97 -113 0
-97 -109 0
-96 -130 0
-96 -128 0
-96 -119 0
-96 -109 0
-96 -107 0
-96 -102 0
-95 -132 0
-95 -126 0
-95 -124 0
-95 -120 0
-95 -119 0
-95 -118 0
-95 -116 0
-95 -111 0
-95 -101 0
-94 -110 0
-94 -108 0
-94 -98 0
-93 -130 0
-93 -121 0
-93 -107 0
-93 -101 0
-93 -96 0
-92 -129 0
-92 -116 0
-92 -104 0
-92 -99 0
-91 -129 0
-91 -113 0
-91 -100 0
-91 -99 0
-90 -133 0
-90 -130 0
-90 -126 0
-90 -118 0
-90 -117 0
-90 -114 0
-90 -109 0
-90 -105 0
-90 -97 0
-89 -128 0
-89 -124 0
-89 -122 0
-89 -119 0
-89 -109 0
-89 -105 0
-89 -103 0
-89 -102 0
-89 -98 0
-89 -96 0
-88 -128 0
-88 -119 0
-88 -117 0
-88 -115 0
-88 -112 0
-88 -109 0
-88 -102 0
-88 -96 0
-88 -89 0
-87 -131 0
-87 -128 0
-87 -127 0
-87 -125 0
-87 -121 0
-87 -111 0
-87 -106 0
-87 -101 0
-87 -100 0
-87 -93 0
-86 -133 0
-86 -118 0
-86 -114 0
-86 -109 0
-86 -104 0
-86 -99 0
-86 -97 0
-86 -92 0
-86 -90 0
-85 -123 0
-85 -121 0
-85 -104 0
-85 -99 0
-85 -92 0
-85 -86 0
-84 -131 0
-84 -128 0
-84 -127 0
-84 -125 0
-84 -111 0
-84 -106 0
-84 -100 0
-84 -98 0
-84 -94 0
-84 -87 0
-83 -121 0
-83 -110 0
-83 -108 0
-83 -101 0
-83 -94 0
-83 -93 0
-83 -87 0
-82 -127 0
-82 -115 0
-82 -114 0
-82 -113 0
-82 -99 0
-82 -91 0
-81 -131 0
-81 -128 0
-81 -127 0
-81 -125 0
-81 -111 0
-81 -106 0
-81 -104 0
-81 -100 0
-81 -99 0
-81 -92 0
-81 -87 0
-81 -86 0
-81 -85 0
-81 -84 0
-80 -131 0
-80 -122 0
-80 -113 0
-80 -112 0
-80 -110 0
-80 -107 0
-80 -99 0
-80 -91 0
-80 -82 0
-79 -132 0
-79 -131 0
-79 -122 0
-79 -112 0
-79 -110 0
-79 -107 0
-79 -104 0
-79 -102 0
-79 -80 0
-78 -124 0
-78 -122 0
-78 -108 0
-78 -106 0
-78 -105 0
-78 -103 0
-78 -98 0
-78 -89 0
-77 -129 0
-77 -123 0
-77 -121 0
-77 -100 0
-77 -91 0
-77 -85 0
-76 -133 0
-76 -130 0
-76 -120 0
-76 -107 0
-76 -103 0
-76 -96 0
-76 -93 0
-75 -130 0
-75 -127 0
-75 -115 0
-75 -114 0
-75 -107 0
-75 -96 0
-75 -93 0
-75 -82 0
-75 -76 0
-74 -132 0
-74 -124 0
-74 -118 0
-74 -117 0
-74 -116 0
-74 -115 0
-74 -112 0
-74 -111 0
-74 -95 0
-74 -88 0
-73 -133 0
-73 -129 0
-73 -120 0
-73 -116 0
-73 -103 0
-73 -92 0
-73 -76 0
-72 -124 0
-72 -122 0
-72 -121 0
-72 -105 0
-72 -103 0
-72 -101 0
-72 -98 0
-72 -93 0
-72 -89 0
-72 -87 0
-72 -83 0
-72 -78 0
-71 -133 0
-71 -131 0
-71 -128 0
-71 -127 0
-71 -125 0
-71 -120 0
-71 -111 0
-71 -106 0
-71 -103 0
-71 -100 0
-71 -87 0
-71 -84 0
-71 -81 0
-71 -76 0
-71 -73 0
-70 -130 0
-70 -126 0
-70 -117 0
-70 -110 0
-70 -108 0
-70 -105 0
-70 -94 0
-70 -90 0
-70 -83 0
-69 -133 0
-69 -120 0
-69 -117 0
-69 -115 0
-69 -112 0
-69 -103 0
-69 -88 0
-69 -76 0
-69 -74 0
-69 -73 0
-69 -71 0
-68 -129 0
-68 -127 0
-68 -116 0
-68 -115 0
-68 -114 0
-68 -92 0
-68 -82 0
-68 -75 0
-68 -73 0
-67 -129 0
-67 -126 0
-67 -120 0
-67 -119 0
-67 -101 0
-67 -100 0
-67 -95 0
-67 -91 0
-67 -77 0
-66 -132 0
-66 -130 0
-66 -126 0
-66 -117 0
-66 -105 0
-66 -104 0
-66 -102 0
-66 -90 0
-66 -79 0
-66 -70 0
-65 -128 0
-65 -119 0
-65 -110 0
-65 -109 0
-65 -108 0
-65 -102 0
-65 -96 0
-65 -94 0
-65 -89 0
-65 -88 0
-65 -83 0
-65 -70 0
-64 -132 0
-64 -127 0
-64 -115 0
-64 -114 0
-64 -104 0
-64 -102 0
-64 -82 0
-64 -79 0
-64 -75 0
-64 -68 0
-64 -66 0
-63 -129 0
-63 -110 0
-63 -108 0
-63 -100 0
-63 -94 0
-63 -91 0
-63 -83 0
-63 -77 0
-63 -70 0
-63 -67 0
-63 -65 0
-62 -121 0
-62 -113 0
-62 -101 0
-62 -99 0
-62 -93 0
-62 -91 0
-62 -87 0
-62 -83 0
-62 -82 0
-62 -80 0
-62 -72 0
-61 -128 0
-61 -123 0
-61 -121 0
-61 -119 0
-61 -109 0
-61 -102 0
-61 -96 0
-61 -89 0
-61 -88 0
-61 -85 0
-61 -77 0
-61 -65 0
-60 -132 0
-60 -124 0
-60 -118 0
-60 -116 0
-60 -113 0
-60 -111 0
-60 -99 0
-60 -95 0
-60 -91 0
-60 -82 0
-60 -80 0
-60 -74 0
-60 -62 0
-59 -130 0
-59 -107 0
-59 -98 0
-59 -96 0
-59 -94 0
-59 -93 0
-59 -84 0
-59 -76 0
-59 -75 0
-58 -132 0
-58 -108 0
-58 -106 0
-58 -104 0
-58 -102 0
-58 -79 0
-58 -78 0
-58 -66 0
-58 -64 0
-57 -129 0
-57 -121 0
-57 -116 0
-57 -101 0
-57 -93 0
-57 -92 0
-57 -87 0
-57 -83 0
-57 -73 0
-57 -72 0
-57 -68 0
-57 -62 0
-56 -131 0
-56 -126 0
-56 -122 0
-56 -120 0
-56 -119 0
-56 -112 0
-56 -110 0
-56 -107 0
-56 -101 0
-56 -95 0
-56 -80 0
-56 -79 0
-56 -67 0
-55 -133 0
-55 -129 0
-55 -118 0
-55 -114 0
-55 -109 0
-55 -100 0
-55 -97 0
-55 -91 0
-55 -90 0
-55 -86 0
-55 -77 0
-55 -67 0
-55 -63 0
-54 -117 0
-54 -115 0
-54 -112 0
-54 -108 0
-54 -106 0
-54 -88 0
-54 -78 0
-54 -74 0
-54 -69 0
-54 -58 0
-53 -117 0
-53 -115 0
-53 -112 0
-53 -98 0
-53 -94 0
-53 -88 0
-53 -84 0
-53 -74 0
-53 -69 0
-53 -59 0
-53 -54 0
-52 -130 0
-52 -129 0
-52 -126 0
-52 -117 0
-52 -116 0
-52 -105 0
-52 -92 0
-52 -90 0
-52 -73 0
-52 -70 0
-52 -68 0
-52 -66 0
-52 -57 0
-51 -110 0
-51 -108 0
-51 -104 0
-51 -99 0
-51 -94 0
-51 -92 0
-51 -86 0
-51 -85 0
-51 -83 0
-51 -81 0
-51 -70 0
-51 -65 0
-51 -63 0
-50 -130 0
-50 -108 0
-50 -107 0
-50 -106 0
-50 -96 0
-50 -93 0
-50 -78 0
-50 -76 0
-50 -75 0
-50 -59 0
-50 -58 0
-50 -54 0
-49 -128 0
-49 -119 0
-49 -113 0
-49 -109 0
-49 -102 0
-49 -99 0
-49 -96 0
-49 -91 0
-49 -89 0
-49 -88 0
-49 -82 0
-49 -80 0
-49 -65 0
-49 -62 0
-49 -61 0
-49 -60 0
-48 -132 0
-48 -104 0
-48 -102 0
-48 -98 0
-48 -94 0
-48 -84 0
-48 -79 0
-48 -66 0
-48 -64 0
-48 -59 0
-48 -58 0
-48 -53 0
-47 -133 0
-47 -120 0
-47 -110 0
-47 -108 0
-47 -103 0
-47 -94 0
-47 -83 0
-47 -76 0
-47 -73 0
-47 -71 0
-47 -70 0
-47 -69 0
-47 -65 0
-47 -63 0
-47 -51 0
-46 -132 0
-46 -121 0
-46 -104 0
-46 -102 0
-46 -101 0
-46 -93 0
-46 -87 0
-46 -83 0
-46 -79 0
-46 -72 0
-46 -66 0
-46 -64 0
-46 -62 0
-46 -58 0
-46 -57 0
-46 -48 0
-45 -130 0
-45 -129 0
-45 -107 0
-45 -100 0
-45 -96 0
-45 -93 0
-45 -91 0
-45 -77 0
-45 -76 0
-45 -75 0
-45 -67 0
-45 -63 0
-45 -59 0
-45 -55 0
-45 -50 0
-44 -125 0
-44 -124 0
-44 -123 0
-44 -122 0
-44 -113 0
-44 -105 0
-44 -103 0
-44 -98 0
-44 -97 0
-44 -89 0
-44 -78 0
-44 -72 0
-42 -133 0
-42 -132 0
-42 -120 0
-42 -104 0
-42 -103 0
-42 -102 0
-42 -79 0
-42 -76 0
-42 -73 0
-42 -71 0
-42 -69 0
-42 -66 0
-42 -64 0
-42 -58 0
-42 -48 0
-42 -47 0
-42 -46 0
-41 -132 0
-41 -129 0
-41 -104 0
-41 -102 0
-41 -100 0
-41 -91 0
-41 -79 0
-41 -77 0
-41 -67 0
-41 -66 0
-41 -64 0
-41 -63 0
-41 -58 0
-41 -55 0
-41 -48 0
-41 -46 0
-41 -45 0
-41 -42 0
-40 -130 0
-40 -126 0
-40 -117 0
-40 -113 0
-40 -105 0
-40 -99 0
-40 -91 0
-40 -90 0
-40 -82 0
-40 -80 0
-40 -70 0
-40 -66 0
-40 -62 0
-40 -60 0
-40 -52 0
-40 -49 0
-39 -126 0
-39 -120 0
-39 -119 0
-39 -108 0
-39 -106 0
-39 -101 0
-39 -95 0
-39 -78 0
-39 -67 0
-39 -58 0
-39 -56 0
-39 -54 0
-39 -50 0
-38 -113 0
-38 -108 0
-38 -106 0
-38 -99 0
-38 -91 0
-38 -82 0
-38 -80 0
-38 -78 0
-38 -62 0
-38 -60 0
-38 -58 0
-38 -54 0
-38 -50 0
-38 -49 0
-38 -40 0
-38 -39 0
-37 -133 0
-37 -118 0
-37 -114 0
-37 -109 0
-37 -98 0
-37 -97 0
-37 -94 0
-37 -90 0
-37 -86 0
-37 -84 0
-37 -59 0
-37 -55 0
-37 -53 0
-37 -48 0
-36 -131 0
-36 -123 0
-36 -122 0
-36 -121 0
-36 -112 0
-36 -110 0
-36 -107 0
-36 -85 0
-36 -80 0
-36 -79 0
-36 -77 0
-36 -61 0
-36 -56 0
-35 -125 0
-35 -123 0
-35 -117 0
-35 -115 0
-35 -113 0
-35 -112 0
-35 -97 0
-35 -88 0
-35 -74 0
-35 -69 0
-35 -54 0
-35 -53 0
-35 -44 0
-34 -129 0
-34 -124 0
-34 -122 0
-34 -105 0
-34 -103 0
-34 -100 0
-34 -98 0
-34 -91 0
-34 -89 0
-34 -78 0
-34 -77 0
-34 -72 0
-34 -67 0
-34 -63 0
-34 -55 0
-34 -45 0
-34 -44 0
-34 -41 0
-33 -129 0
-33 -128 0
-33 -119 0
-33 -116 0
-33 -109 0
-33 -102 0
-33 -96 0
-33 -92 0
-33 -89 0
-33 -88 0
-33 -73 0
-33 -68 0
-33 -65 0
-33 -61 0
-33 -57 0
-33 -52 0
-33 -49 0
-32 -129 0
-32 -125 0
-32 -123 0
-32 -116 0
-32 -113 0
-32 -97 0
-32 -92 0
-32 -73 0
-32 -68 0
-32 -57 0
-32 -52 0
-32 -44 0
-32 -35 0
-32 -33 0
-31 -127 0
-31 -115 0
-31 -114 0
-31 -110 0
-31 -108 0
-31 -94 0
-31 -83 0
-31 -82 0
-31 -75 0
-31 -70 0
-31 -68 0
-31 -65 0
-31 -64 0
-31 -63 0
-31 -51 0
-31 -47 0
-30 -129 0
-30 -116 0
-30 -108 0
-30 -106 0
-30 -92 0
-30 -78 0
-30 -73 0
-30 -68 0
-30 -58 0
-30 -57 0
-30 -54 0
-30 -52 0
-30 -50 0
-30 -39 0
-30 -38 0
-30 -33 0
-30 -32 0
-29 -126 0
-29 -125 0
-29 -123 0
-29 -120 0
-29 -119 0
-29 -113 0
-29 -101 0
-29 -97 0
-29 -95 0
-29 -67 0
-29 -56 0
-29 -44 0
-29 -39 0
-29 -35 0
-29 -32 0
-28 -127 0
-28 -124 0
-28 -122 0
-28 -115 0
-28 -114 0
-28 -105 0
-28 -103 0
-28 -98 0
-28 -89 0
-28 -82 0
-28 -78 0
-28 -75 0
-28 -72 0
-28 -68 0
-28 -64 0
-28 -44 0
-28 -34 0
-28 -31 0
-27 -132 0
-27 -124 0
-27 -118 0
-27 -116 0
-27 -111 0
-27 -110 0
-27 -108 0
-27 -95 0
-27 -94 0
-27 -83 0
-27 -74 0
-27 -70 0
-27 -65 0
-27 -63 0
-27 -60 0
-27 -51 0
-27 -47 0
-27 -31 0
-26 -131 0
-26 -130 0
-26 -128 0
-26 -127 0
-26 -126 0
-26 -125 0
-26 -117 0
-26 -111 0
-26 -106 0
-26 -105 0
-26 -100 0
-26 -90 0
-26 -87 0
-26 -84 0
-26 -81 0
-26 -71 0
-26 -70 0
-26 -66 0
-26 -52 0
-26 -40 0
-25 -124 0
-25 -122 0
-25 -105 0
-25 -104 0
-25 -103 0
-25 -99 0
-25 -98 0
-25 -92 0
-25 -89 0
-25 -86 0
-25 -85 0
-25 -81 0
-25 -78 0
-25 -72 0
-25 -51 0
-25 -44 0
-25 -34 0
-25 -28 0
-24 -133 0
-24 -120 0
-24 -113 0
-24 -103 0
-24 -99 0
-24 -91 0
-24 -82 0
-24 -80 0
-24 -76 0
-24 -73 0
-24 -71 0
-24 -69 0
-24 -62 0
-24 -60 0
-24 -49 0
-24 -47 0
-24 -42 0
-24 -40 0
-24 -38 0
-23 -123 0
-23 -121 0
-23 -108 0
-23 -106 0
-23 -85 0
-23 -78 0
-23 -77 0
-23 -61 0
-23 -58 0
-23 -54 0
-23 -50 0
-23 -39 0
-23 -38 0
-23 -36 0
-23 -30 0
-22 -121 0
-22 -117 0
-22 -115 0
-22 -112 0
-22 -101 0
-22 -93 0
-22 -88 0
-22 -87 0
-22 -83 0
-22 -74 0
-22 -72 0
-22 -69 0
-22 -62 0
-22 -57 0
-22 -54 0
-22 -53 0
-22 -46 0
-22 -35 0
-21 -113 0
-21 -99 0
-21 -98 0
-21 -94 0
-21 -91 0
-21 -84 0
-21 -82 0
-21 -80 0
-21 -62 0
-21 -60 0
-21 -59 0
-21 -53 0
-21 -49 0
-21 -48 0
-21 -40 0
-21 -38 0
-21 -37 0
-21 -24 0
-20 -127 0
-20 -123 0
-20 -121 0
-20 -115 0
-20 -114 0
-20 -85 0
-20 -82 0
-20 -77 0
-20 -75 0
-20 -68 0
-20 -64 0
-20 -61 0
-20 -36 0
-20 -31 0
-20 -28 0
-20 -23 0
-19 -133 0
-19 -121 0
-19 -118 0
-19 -114 0
-19 -109 0
-19 -101 0
-19 -97 0
-19 -93 0
-19 -90 0
-19 -87 0
-19 -86 0
-19 -83 0
-19 -72 0
-19 -62 0
-19 -57 0
-19 -55 0
-19 -46 0
-19 -37 0
-19 -22 0
-18 -132 0
-18 -124 0
-18 -123 0
-18 -121 0
-18 -118 0
-18 -116 0
-18 -111 0
-18 -95 0
-18 -85 0
-18 -77 0
-18 -74 0
-18 -61 0
-18 -60 0
-18 -36 0
-18 -27 0
-18 -23 0
-18 -20 0
-17 -126 0
-17 -120 0
-17 -119 0
-17 -104 0
-17 -101 0
-17 -99 0
-17 -95 0
-17 -92 0
-17 -86 0
-17 -85 0
-17 -81 0
-17 -67 0
-17 -56 0
-17 -51 0
-17 -39 0
-17 -29 0
-17 -25 0
-16 -125 0
-16 -123 0
-16 -113 0
-16 -110 0
-16 -108 0
-16 -97 0
-16 -94 0
-16 -83 0
-16 -70 0
-16 -65 0
-16 -63 0
-16 -51 0
-16 -47 0
-16 -44 0
-16 -35 0
-16 -32 0
-16 -31 0
-16 -29 0
-16 -27 0
-15 -133 0
-15 -123 0
-15 -121 0
-15 -120 0
-15 -103 0
-15 -85 0
-15 -77 0
-15 -76 0
-15 -73 0
-15 -71 0
-15 -69 0
-15 -61 0
-15 -47 0
-15 -42 0
-15 -36 0
-15 -24 0
-15 -23 0
-15 -20 0
-15 -18 0
-14 -132 0
-14 -125 0
-14 -123 0
-14 -113 0
-14 -104 0
-14 -102 0
-14 -97 0
-14 -79 0
-14 -66 0
-14 -64 0
-14 -58 0
-14 -48 0
-14 -46 0
-14 -44 0
-14 -42 0
-14 -41 0
-14 -35 0
-14 -32 0
-14 -29 0
-14 -16 0
-13 -129 0
-13 -116 0
-13 -98 0
-13 -94 0
-13 -92 0
-13 -84 0
-13 -73 0
-13 -68 0
-13 -59 0
-13 -57 0
-13 -53 0
-13 -52 0
-13 -48 0
-13 -37 0
-13 -33 0
-13 -32 0
-13 -30 0
-13 -21 0
-12 -130 0
-12 -125 0
-12 -123 0
-12 -113 0
-12 -107 0
-12 -97 0
-12 -96 0
-12 -93 0
-12 -76 0
-12 -75 0
-12 -59 0
-12 -50 0
-12 -45 0
-12 -44 0
-12 -35 0
-12 -32 0
-12 -29 0
-12 -16 0
-12 -14 0
-11 -133 0
-11 -131 0
-11 -122 0
-11 -118 0
-11 -114 0
-11 -112 0
-11 -110 0
-11 -109 0
-11 -107 0
-11 -97 0
-11 -90 0
-11 -86 0
-11 -80 0
-11 -79 0
-11 -56 0
-11 -55 0
-11 -37 0
-11 -36 0
-11 -19 0
-10 -117 0
-10 -115 0
-10 -112 0
-10 -104 0
-10 -99 0
-10 -92 0
-10 -88 0
-10 -86 0
-10 -85 0
-10 -81 0
-10 -74 0
-10 -69 0
-10 -54 0
-10 -53 0
-10 -51 0
-10 -35 0
-10 -25 0
-10 -22 0
-10 -17 0
-9 -130 0
-9 -107 0
-9 -104 0
-9 -99 0
-9 -96 0
-9 -93 0
-9 -92 0
-9 -86 0
-9 -85 0
-9 -81 0
-9 -76 0
-9 -75 0
-9 -59 0
-9 -51 0
-9 -50 0
-9 -45 0
-9 -25 0
-9 -17 0
-9 -12 0
-9 -10 0
-8 -126 0
-8 -120 0
-8 -119 0
-8 -101 0
-8 -98 0
-8 -95 0
-8 -94 0
-8 -84 0
-8 -67 0
-8 -59 0
-8 -56 0
-8 -53 0
-8 -48 0
-8 -39 0
-8 -37 0
-8 -29 0
-8 -21 0
-8 -17 0
-8 -13 0
-7 -123 0
-7 -121 0
-7 -98 0
-7 -94 0
-7 -85 0
-7 -84 0
-7 -77 0
-7 -61 0
-7 -59 0
-7 -53 0
-7 -48 0
-7 -37 0
-7 -36 0
-7 -23 0
-7 -21 0
-7 -20 0
-7 -18 0
-7 -15 0
-7 -13 0
-7 -8 0
-6 -132 0
-6 -130 0
-6 -124 0
-6 -118 0
-6 -116 0
-6 -111 0
-6 -107 0
-6 -96 0
-6 -95 0
-6 -93 0
-6 -76 0
-6 -75 0
-6 -74 0
-6 -60 0
-6 -59 0
-6 -50 0
-6 -45 0
-6 -27 0
-6 -18 0
-6 -12 0
-6 -9 0
-5 -133 0
-5 -118 0
-5 -114 0
-5 -109 0
-5 -108 0
-5 -106 0
-5 -97 0
-5 -90 0
-5 -86 0
-5 -78 0
-5 -58 0
-5 -55 0
-5 -54 0
-5 -50 0
-5 -39 0
-5 -38 0
-5 -37 0
-5 -30 0
-5 -23 0
-5 -19 0
-5 -11 0
-4 -129 0
-4 -117 0
-4 -115 0
-4 -112 0
-4 -100 0
-4 -91 0
-4 -88 0
-4 -77 0
-4 -74 0
-4 -69 0
-4 -67 0
-4 -63 0
-4 -55 0
-4 -54 0
-4 -53 0
-4 -45 0
-4 -41 0
-4 -35 0
-4 -34 0
-4 -22 0
-4 -10 0
-3 -127 0
-3 -126 0
-3 -120 0
-3 -119 0
-3 -115 0
-3 -114 0
-3 -101 0
-3 -95 0
-3 -82 0
-3 -75 0
-3 -68 0
-3 -67 0
-3 -64 0
-3 -56 0
-3 -39 0
-3 -31 0
-3 -29 0
-3 -28 0
-3 -20 0
-3 -17 0
-3 -8 0
-2 -130 0
-2 -126 0
-2 -123 0
-2 -121 0
-2 -117 0
-2 -105 0
-2 -90 0
-2 -85 0
-2 -77 0
-2 -70 0
-2 -66 0
-2 -61 0
-2 -52 0
-2 -40 0
-2 -36 0
-2 -26 0
-2 -23 0
-2 -20 0
-2 -18 0
-2 -15 0
-2 -7 0
-1 -131 0
-1 -129 0
-1 -122 0
-1 -116 0
-1 -112 0
-1 -110 0
-1 -107 0
-1 -92 0
-1 -80 0
-1 -79 0
-1 -73 0
-1 -68 0
-1 -57 0
-1 -56 0
-1 -52 0
-1 -36 0
-1 -33 0
-1 -32 0
-1 -30 0
-1 -13 0
-1 -11 0
1 11 36 56 79 80 107 110 112 122 131 0
2 26 40 52 66 70 90 105 117 126 130 0
3 20 28 31 64 68 75 82 114 115 127 0
4 34 41 45 55 63 67 77 91 100 129 0
5 23 30 38 39 50 54 58 78 106 108 0
6 18 27 60 74 95 111 116 118 124 132 0
7 8 13 21 37 48 53 59 84 94 98 0
9 10 17 25 51 81 85 86 92 99 104 0
12 14 16 29 32 35 44 97 113 123 125 0
15 24 42 47 69 71 73 76 103 120 133 0
19 22 46 57 62 72 83 87 93 101 121 0
33 43 49 61 65 88 89 96 102 109 119 128 0
