p cnf 91 775
-88 -89 0
-87 -90 0
-86 -88 0
-84 -90 0
-84 -87 0
-81 -84 0
-80 -88 0
-80 -86 0
-79 -90 0
-79 -86 0
-78 -84 0
-78 -83 0
-78 -81 0
-77 -82 0
-77 -81 0
-76 -89 0
-75 -91 0
-75 -90 0
-75 -79 0
-74 -89 0
-74 -80 0
-74 -76 0
-73 -91 0
-73 -84 0
-73 -81 0
-73 -78 0
-73 -75 0
-72 -90 0
-72 -79 0
-72 -76 0
-72 -75 0
-71 -87 0
-71 -86 0
-71 -79 0
-70 -91 0
-70 -81 0
-70 -77 0
-69 -83 0
-69 -78 0
-68 -90 0
-68 -80 0
-68 -79 0
-68 -75 0
-68 -74 0
-68 -72 0
-67 -91 0
-67 -89 0
-67 -76 0
-67 -75 0
-67 -74 0
-67 -73 0
-66 -84 0
-66 -81 0
-66 -80 0
-66 -78 0
-66 -74 0
-66 -73 0
-66 -68 0
-65 -80 0
-65 -74 0
-65 -69 0
-65 -68 0
-65 -66 0
-64 -86 0
-64 -82 0
-64 -79 0
-64 -77 0
-64 -71 0
-63 -89 0
-63 -88 0
-63 -69 0
-63 -65 0
-62 -90 0
-62 -83 0
-62 -79 0
-62 -78 0
-62 -75 0
-62 -72 0
-62 -69 0
-62 -68 0
-61 -90 0
-61 -87 0
-61 -84 0
-61 -69 0
-61 -65 0
-61 -63 0
-60 -89 0
-60 -82 0
-60 -76 0
-60 -74 0
-60 -67 0
-59 -83 0
-59 -78 0
-59 -69 0
-59 -62 0
-58 -83 0
-58 -76 0
-58 -72 0
-57 -90 0
-57 -82 0
-57 -79 0
-57 -75 0
-57 -72 0
-57 -68 0
-57 -62 0
-57 -60 0
-56 -87 0
-56 -83 0
-56 -78 0
-56 -71 0
-56 -69 0
-56 -62 0
-56 -59 0
-55 -83 0
-55 -80 0
-55 -74 0
-55 -68 0
-55 -66 0
-55 -65 0
-55 -58 0
-54 -83 0
-54 -82 0
-54 -60 0
-54 -58 0
-54 -57 0
-54 -55 0
-53 -76 0
-53 -72 0
-53 -59 0
-53 -58 0
-52 -89 0
-52 -83 0
-52 -78 0
-52 -76 0
-52 -74 0
-52 -69 0
-52 -67 0
-52 -62 0
-52 -60 0
-52 -59 0
-52 -56 0
-51 -86 0
-51 -79 0
-51 -71 0
-51 -69 0
-51 -65 0
-51 -64 0
-51 -63 0
-51 -61 0
-50 -86 0
-50 -84 0
-50 -81 0
-50 -79 0
-50 -78 0
-50 -73 0
-50 -71 0
-50 -66 0
-50 -64 0
-50 -51 0
-49 -87 0
-49 -76 0
-49 -72 0
-49 -71 0
-49 -58 0
-49 -56 0
-49 -53 0
-48 -91 0
-48 -75 0
-48 -73 0
-48 -67 0
-48 -59 0
-48 -53 0
-47 -89 0
-47 -86 0
-47 -79 0
-47 -76 0
-47 -74 0
-47 -71 0
-47 -67 0
-47 -64 0
-47 -60 0
-47 -52 0
-47 -51 0
-47 -50 0
-46 -90 0
-46 -81 0
-46 -79 0
-46 -77 0
-46 -75 0
-46 -72 0
-46 -70 0
-46 -68 0
-46 -62 0
-46 -57 0
-45 -91 0
-45 -83 0
-45 -78 0
-45 -70 0
-45 -69 0
-45 -62 0
-45 -59 0
-45 -56 0
-45 -52 0
-44 -87 0
-44 -80 0
-44 -74 0
-44 -71 0
-44 -68 0
-44 -66 0
-44 -65 0
-44 -56 0
-44 -55 0
-44 -49 0
-43 -84 0
-43 -82 0
-43 -81 0
-43 -78 0
-43 -73 0
-43 -66 0
-43 -60 0
-43 -57 0
-43 -54 0
-43 -50 0
-42 -86 0
-42 -83 0
-42 -79 0
-42 -71 0
-42 -64 0
-42 -58 0
-42 -55 0
-42 -54 0
-42 -51 0
-42 -50 0
-42 -47 0
-41 -87 0
-41 -82 0
-41 -71 0
-41 -60 0
-41 -57 0
-41 -56 0
-41 -54 0
-41 -49 0
-41 -44 0
-41 -43 0
-40 -88 0
-40 -86 0
-40 -82 0
-40 -80 0
-40 -60 0
-40 -57 0
-40 -54 0
-40 -43 0
-40 -41 0
-39 -91 0
-39 -76 0
-39 -72 0
-39 -70 0
-39 -58 0
-39 -53 0
-39 -49 0
-39 -45 0
-38 -88 0
-38 -86 0
-38 -81 0
-38 -80 0
-38 -77 0
-38 -70 0
-38 -46 0
-38 -40 0
-37 -81 0
-37 -77 0
-37 -70 0
-37 -59 0
-37 -53 0
-37 -48 0
-37 -46 0
-37 -38 0
-36 -82 0
-36 -69 0
-36 -65 0
-36 -63 0
-36 -61 0
-36 -60 0
-36 -57 0
-36 -54 0
-36 -51 0
-36 -43 0
-36 -41 0
-36 -40 0
-35 -89 0
-35 -81 0
-35 -77 0
-35 -76 0
-35 -74 0
-35 -70 0
-35 -67 0
-35 -60 0
-35 -52 0
-35 -47 0
-35 -46 0
-35 -38 0
-35 -37 0
-34 -91 0
-34 -86 0
-34 -79 0
-34 -71 0
-34 -70 0
-34 -64 0
-34 -51 0
-34 -50 0
-34 -47 0
-34 -45 0
-34 -42 0
-34 -39 0
-33 -91 0
-33 -82 0
-33 -70 0
-33 -60 0
-33 -57 0
-33 -54 0
-33 -45 0
-33 -43 0
-33 -41 0
-33 -40 0
-33 -39 0
-33 -36 0
-33 -34 0
-32 -89 0
-32 -88 0
-32 -82 0
-32 -77 0
-32 -64 0
-32 -63 0
-31 -89 0
-31 -88 0
-31 -84 0
-31 -81 0
-31 -78 0
-31 -73 0
-31 -66 0
-31 -63 0
-31 -50 0
-31 -43 0
-31 -32 0
-30 -87 0
-30 -81 0
-30 -77 0
-30 -71 0
-30 -70 0
-30 -56 0
-30 -49 0
-30 -46 0
-30 -44 0
-30 -41 0
-30 -38 0
-30 -37 0
-30 -35 0
-29 -83 0
-29 -81 0
-29 -77 0
-29 -70 0
-29 -58 0
-29 -55 0
-29 -54 0
-29 -46 0
-29 -42 0
-29 -38 0
-29 -37 0
-29 -35 0
-29 -30 0
-28 -91 0
-28 -75 0
-28 -73 0
-28 -69 0
-28 -67 0
-28 -65 0
-28 -63 0
-28 -61 0
-28 -51 0
-28 -48 0
-28 -36 0
-27 -90 0
-27 -87 0
-27 -84 0
-27 -83 0
-27 -61 0
-27 -58 0
-27 -55 0
-27 -54 0
-27 -42 0
-27 -29 0
-26 -91 0
-26 -89 0
-26 -88 0
-26 -70 0
-26 -63 0
-26 -45 0
-26 -39 0
-26 -34 0
-26 -33 0
-26 -32 0
-26 -31 0
-25 -88 0
-25 -86 0
-25 -80 0
-25 -76 0
-25 -72 0
-25 -58 0
-25 -53 0
-25 -49 0
-25 -40 0
-25 -39 0
-25 -38 0
-24 -91 0
-24 -83 0
-24 -75 0
-24 -73 0
-24 -67 0
-24 -58 0
-24 -55 0
-24 -54 0
-24 -48 0
-24 -42 0
-24 -29 0
-24 -28 0
-24 -27 0
-23 -82 0
-23 -60 0
-23 -59 0
-23 -57 0
-23 -54 0
-23 -53 0
-23 -48 0
-23 -43 0
-23 -41 0
-23 -40 0
-23 -37 0
-23 -36 0
-23 -33 0
-22 -82 0
-22 -80 0
-22 -77 0
-22 -74 0
-22 -68 0
-22 -66 0
-22 -65 0
-22 -64 0
-22 -55 0
-22 -44 0
-22 -32 0
-21 -90 0
-21 -87 0
-21 -84 0
-21 -61 0
-21 -59 0
-21 -53 0
-21 -48 0
-21 -37 0
-21 -27 0
-21 -23 0
-20 -89 0
-20 -88 0
-20 -83 0
-20 -63 0
-20 -58 0
-20 -55 0
-20 -54 0
-20 -42 0
-20 -32 0
-20 -31 0
-20 -29 0
-20 -27 0
-20 -26 0
-20 -24 0
-19 -90 0
-19 -89 0
-19 -88 0
-19 -79 0
-19 -75 0
-19 -72 0
-19 -68 0
-19 -63 0
-19 -62 0
-19 -57 0
-19 -46 0
-19 -32 0
-19 -31 0
-19 -26 0
-19 -20 0
-18 -90 0
-18 -88 0
-18 -87 0
-18 -86 0
-18 -84 0
-18 -80 0
-18 -61 0
-18 -40 0
-18 -38 0
-18 -27 0
-18 -25 0
-18 -21 0
-17 -91 0
-17 -80 0
-17 -74 0
-17 -70 0
-17 -68 0
-17 -66 0
-17 -65 0
-17 -55 0
-17 -45 0
-17 -44 0
-17 -39 0
-17 -34 0
-17 -33 0
-17 -26 0
-17 -22 0
-16 -90 0
-16 -87 0
-16 -84 0
-16 -82 0
-16 -77 0
-16 -64 0
-16 -61 0
-16 -32 0
-16 -27 0
-16 -22 0
-16 -21 0
-16 -18 0
-15 -91 0
-15 -88 0
-15 -86 0
-15 -80 0
-15 -75 0
-15 -73 0
-15 -67 0
-15 -48 0
-15 -40 0
-15 -38 0
-15 -28 0
-15 -25 0
-15 -24 0
-15 -18 0
-14 -91 0
-14 -82 0
-14 -77 0
-14 -75 0
-14 -73 0
-14 -67 0
-14 -64 0
-14 -48 0
-14 -32 0
-14 -28 0
-14 -24 0
-14 -22 0
-14 -16 0
-14 -15 0
-13 -89 0
-13 -88 0
-13 -63 0
-13 -59 0
-13 -53 0
-13 -48 0
-13 -37 0
-13 -32 0
-13 -31 0
-13 -26 0
-13 -23 0
-13 -21 0
-13 -20 0
-13 -19 0
-12 -88 0
-12 -86 0
-12 -83 0
-12 -80 0
-12 -78 0
-12 -69 0
-12 -62 0
-12 -59 0
-12 -56 0
-12 -52 0
-12 -45 0
-12 -40 0
-12 -38 0
-12 -25 0
-12 -18 0
-12 -15 0
-11 -89 0
-11 -88 0
-11 -87 0
-11 -71 0
-11 -63 0
-11 -56 0
-11 -49 0
-11 -44 0
-11 -41 0
-11 -32 0
-11 -31 0
-11 -30 0
-11 -26 0
-11 -20 0
-11 -19 0
-11 -13 0
-10 -82 0
-10 -77 0
-10 -76 0
-10 -72 0
-10 -64 0
-10 -58 0
-10 -53 0
-10 -49 0
-10 -39 0
-10 -32 0
-10 -25 0
-10 -22 0
-10 -16 0
-10 -14 0
-9 -91 0
-9 -90 0
-9 -87 0
-9 -84 0
-9 -70 0
-9 -61 0
-9 -45 0
-9 -39 0
-9 -34 0
-9 -33 0
-9 -27 0
-9 -26 0
-9 -21 0
-9 -18 0
-9 -17 0
-9 -16 0
-8 -86 0
-8 -79 0
-8 -71 0
-8 -64 0
-8 -59 0
-8 -53 0
-8 -51 0
-8 -50 0
-8 -48 0
-8 -47 0
-8 -42 0
-8 -37 0
-8 -34 0
-8 -23 0
-8 -21 0
-8 -13 0
-7 -80 0
-7 -74 0
-7 -68 0
-7 -66 0
-7 -65 0
-7 -59 0
-7 -55 0
-7 -53 0
-7 -48 0
-7 -44 0
-7 -37 0
-7 -23 0
-7 -22 0
-7 -21 0
-7 -17 0
-7 -13 0
-7 -8 0
-6 -76 0
-6 -72 0
-6 -69 0
-6 -65 0
-6 -63 0
-6 -61 0
-6 -58 0
-6 -53 0
-6 -51 0
-6 -49 0
-6 -39 0
-6 -36 0
-6 -28 0
-6 -25 0
-6 -10 0
-5 -91 0
-5 -87 0
-5 -75 0
-5 -73 0
-5 -71 0
-5 -67 0
-5 -56 0
-5 -49 0
-5 -48 0
-5 -44 0
-5 -41 0
-5 -30 0
-5 -28 0
-5 -24 0
-5 -15 0
-5 -14 0
-5 -11 0
-4 -90 0
-4 -89 0
-4 -87 0
-4 -84 0
-4 -76 0
-4 -74 0
-4 -67 0
-4 -61 0
-4 -60 0
-4 -52 0
-4 -47 0
-4 -35 0
-4 -27 0
-4 -21 0
-4 -18 0
-4 -16 0
-4 -9 0
-3 -83 0
-3 -82 0
-3 -78 0
-3 -77 0
-3 -69 0
-3 -64 0
-3 -62 0
-3 -59 0
-3 -56 0
-3 -52 0
-3 -45 0
-3 -32 0
-3 -22 0
-3 -16 0
-3 -14 0
-3 -12 0
-3 -10 0
-2 -84 0
-2 -81 0
-2 -78 0
-2 -76 0
-2 -73 0
-2 -72 0
-2 -66 0
-2 -58 0
-2 -53 0
-2 -50 0
-2 -49 0
-2 -43 0
-2 -39 0
-2 -31 0
-2 -25 0
-2 -10 0
-2 -6 0
-1 -81 0
-1 -77 0
-1 -70 0
-1 -69 0
-1 -65 0
-1 -63 0
-1 -61 0
-1 -51 0
-1 -46 0
-1 -38 0
-1 -37 0
-1 -36 0
-1 -35 0
-1 -30 0
-1 -29 0
-1 -28 0
-1 -6 0
1 6 28 36 51 61 63 65 69 0
2 31 43 50 66 73 78 81 84 0
3 10 14 16 22 32 64 77 82 0
4 35 47 52 60 67 74 76 89 0
5 11 30 41 44 49 56 71 87 0
7 8 13 21 23 37 48 53 59 0
12 15 18 25 38 40 80 86 88 0
19 46 57 62 68 72 75 79 90 0
20 24 27 29 42 54 55 58 83 0
9 17 26 33 34 39 45 70 85 91 0
