p cnf 111 1056
-109 -111 0
-106 -108 0
-105 -107 0
-103 -111 0
-102 -104 0
-101 -108 0
-100 -102 0
-99 -111 0
-99 -103 0
-99 -100 0
-98 -111 0
-98 -103 0
-98 -99 0
-97 -107 0
-97 -105 0
-97 -102 0
-97 -100 0
-96 -111 0
-96 -109 0
-96 -104 0
-95 -107 0
-95 -105 0
-95 -104 0
-95 -97 0
-95 -96 0
-94 -111 0
-94 -109 0
-94 -107 0
-94 -96 0
-92 -111 0
-92 -106 0
-92 -103 0
-92 -99 0
-92 -98 0
-91 -109 0
-91 -106 0
-91 -92 0
-90 -107 0
-90 -100 0
-90 -99 0
-90 -94 0
-89 -111 0
-89 -109 0
-89 -96 0
-89 -94 0
-88 -109 0
-88 -108 0
-88 -101 0
-88 -91 0
-87 -111 0
-87 -104 0
-87 -103 0
-87 -102 0
-87 -99 0
-87 -98 0
-87 -92 0
-86 -108 0
-86 -106 0
-85 -104 0
-85 -103 0
-85 -96 0
-85 -95 0
-84 -109 0
-84 -104 0
-84 -102 0
-84 -91 0
-84 -88 0
-84 -87 0
-83 -110 0
-83 -109 0
-83 -91 0
-83 -88 0
-83 -84 0
-82 -109 0
-82 -91 0
-82 -88 0
-82 -84 0
-82 -83 0
-81 -106 0
-81 -101 0
-81 -92 0
-81 -91 0
-80 -105 0
-80 -82 0
-79 -109 0
-79 -103 0
-79 -91 0
-79 -88 0
-79 -85 0
-79 -84 0
-79 -83 0
-79 -82 0
-78 -104 0
-78 -98 0
-78 -96 0
-78 -95 0
-78 -85 0
-77 -100 0
-77 -99 0
-77 -90 0
-77 -89 0
-76 -102 0
-76 -100 0
-76 -97 0
-76 -86 0
-75 -106 0
-75 -104 0
-75 -96 0
-75 -95 0
-75 -92 0
-75 -91 0
-75 -85 0
-75 -81 0
-75 -78 0
-74 -108 0
-74 -107 0
-74 -106 0
-74 -105 0
-74 -97 0
-74 -95 0
-74 -86 0
-73 -111 0
-73 -110 0
-73 -103 0
-73 -99 0
-73 -98 0
-73 -92 0
-73 -87 0
-73 -83 0
-72 -108 0
-72 -102 0
-72 -101 0
-72 -100 0
-72 -97 0
-72 -88 0
-72 -76 0
-71 -105 0
-71 -86 0
-71 -80 0
-71 -76 0
-70 -110 0
-70 -107 0
-70 -105 0
-70 -97 0
-70 -95 0
-70 -74 0
-69 -108 0
-69 -101 0
-69 -89 0
-69 -88 0
-69 -77 0
-69 -72 0
-68 -108 0
-68 -107 0
-68 -101 0
-68 -94 0
-68 -90 0
-68 -88 0
-68 -72 0
-68 -69 0
-67 -109 0
-67 -98 0
-67 -91 0
-67 -88 0
-67 -84 0
-67 -83 0
-67 -82 0
-67 -79 0
-67 -78 0
-66 -106 0
-66 -92 0
-66 -91 0
-66 -89 0
-66 -81 0
-66 -77 0
-66 -75 0
-66 -69 0
-65 -110 0
-65 -106 0
-65 -92 0
-65 -91 0
-65 -81 0
-65 -75 0
-65 -70 0
-65 -66 0
-64 -105 0
-64 -98 0
-64 -80 0
-64 -78 0
-64 -71 0
-64 -67 0
-63 -111 0
-63 -109 0
-63 -105 0
-63 -96 0
-63 -94 0
-63 -89 0
-63 -80 0
-63 -71 0
-63 -64 0
-62 -103 0
-62 -102 0
-62 -100 0
-62 -97 0
-62 -85 0
-62 -79 0
-62 -76 0
-62 -72 0
-61 -104 0
-61 -96 0
-61 -95 0
-61 -85 0
-61 -82 0
-61 -80 0
-61 -78 0
-61 -75 0
-60 -111 0
-60 -103 0
-60 -99 0
-60 -98 0
-60 -92 0
-60 -87 0
-60 -82 0
-60 -80 0
-60 -73 0
-60 -61 0
-59 -108 0
-59 -105 0
-59 -101 0
-59 -88 0
-59 -80 0
-59 -72 0
-59 -71 0
-59 -69 0
-59 -68 0
-59 -64 0
-59 -63 0
-58 -110 0
-58 -105 0
-58 -83 0
-58 -80 0
-58 -73 0
-58 -71 0
-58 -64 0
-58 -63 0
-58 -59 0
-57 -110 0
-57 -108 0
-57 -106 0
-57 -86 0
-57 -83 0
-57 -74 0
-57 -73 0
-57 -58 0
-56 -109 0
-56 -100 0
-56 -99 0
-56 -91 0
-56 -90 0
-56 -88 0
-56 -84 0
-56 -83 0
-56 -82 0
-56 -79 0
-56 -77 0
-56 -67 0
-55 -104 0
-55 -96 0
-55 -95 0
-55 -86 0
-55 -85 0
-55 -78 0
-55 -76 0
-55 -75 0
-55 -71 0
-55 -61 0
-54 -107 0
-54 -103 0
-54 -94 0
-54 -90 0
-54 -85 0
-54 -79 0
-54 -68 0
-54 -62 0
-53 -101 0
-53 -86 0
-53 -81 0
-53 -76 0
-53 -71 0
-53 -55 0
-52 -107 0
-52 -105 0
-52 -101 0
-52 -97 0
-52 -95 0
-52 -81 0
-52 -74 0
-52 -70 0
-52 -53 0
-51 -110 0
-51 -100 0
-51 -99 0
-51 -90 0
-51 -77 0
-51 -70 0
-51 -65 0
-51 -56 0
-50 -110 0
-50 -103 0
-50 -85 0
-50 -79 0
-50 -70 0
-50 -65 0
-50 -62 0
-50 -54 0
-50 -51 0
-49 -105 0
-49 -103 0
-49 -85 0
-49 -80 0
-49 -79 0
-49 -71 0
-49 -64 0
-49 -63 0
-49 -62 0
-49 -59 0
-49 -58 0
-49 -54 0
-49 -50 0
-48 -103 0
-48 -89 0
-48 -85 0
-48 -79 0
-48 -77 0
-48 -69 0
-48 -66 0
-48 -62 0
-48 -54 0
-48 -50 0
-48 -49 0
-47 -110 0
-47 -101 0
-47 -83 0
-47 -81 0
-47 -73 0
-47 -58 0
-47 -57 0
-47 -53 0
-47 -52 0
-46 -111 0
-46 -109 0
-46 -101 0
-46 -96 0
-46 -94 0
-46 -89 0
-46 -81 0
-46 -63 0
-46 -53 0
-46 -52 0
-46 -47 0
-45 -109 0
-45 -107 0
-45 -105 0
-45 -97 0
-45 -95 0
-45 -91 0
-45 -88 0
-45 -84 0
-45 -83 0
-45 -82 0
-45 -79 0
-45 -74 0
-45 -70 0
-45 -67 0
-45 -56 0
-45 -52 0
-44 -102 0
-44 -100 0
-44 -97 0
-44 -82 0
-44 -80 0
-44 -76 0
-44 -72 0
-44 -62 0
-44 -61 0
-44 -60 0
-43 -89 0
-43 -82 0
-43 -80 0
-43 -77 0
-43 -69 0
-43 -66 0
-43 -61 0
-43 -60 0
-43 -48 0
-43 -44 0
-42 -108 0
-42 -106 0
-42 -98 0
-42 -86 0
-42 -78 0
-42 -74 0
-42 -67 0
-42 -64 0
-42 -57 0
-41 -105 0
-41 -100 0
-41 -99 0
-41 -90 0
-41 -80 0
-41 -77 0
-41 -71 0
-41 -64 0
-41 -63 0
-41 -59 0
-41 -58 0
-41 -56 0
-41 -51 0
-41 -49 0
-40 -101 0
-40 -82 0
-40 -81 0
-40 -80 0
-40 -61 0
-40 -60 0
-40 -53 0
-40 -52 0
-40 -47 0
-40 -46 0
-40 -44 0
-40 -43 0
-39 -98 0
-39 -89 0
-39 -78 0
-39 -77 0
-39 -69 0
-39 -67 0
-39 -66 0
-39 -64 0
-39 -48 0
-39 -43 0
-39 -42 0
-38 -105 0
-38 -104 0
-38 -102 0
-38 -87 0
-38 -84 0
-38 -80 0
-38 -71 0
-38 -64 0
-38 -63 0
-38 -59 0
-38 -58 0
-38 -49 0
-38 -41 0
-37 -110 0
-37 -102 0
-37 -100 0
-37 -97 0
-37 -83 0
-37 -76 0
-37 -73 0
-37 -72 0
-37 -62 0
-37 -58 0
-37 -57 0
-37 -47 0
-37 -44 0
-36 -110 0
-36 -82 0
-36 -80 0
-36 -70 0
-36 -65 0
-36 -61 0
-36 -60 0
-36 -51 0
-36 -50 0
-36 -44 0
-36 -43 0
-36 -40 0
-35 -108 0
-35 -106 0
-35 -100 0
-35 -99 0
-35 -90 0
-35 -86 0
-35 -77 0
-35 -74 0
-35 -57 0
-35 -56 0
-35 -51 0
-35 -42 0
-35 -41 0
-34 -108 0
-34 -106 0
-34 -103 0
-34 -86 0
-34 -85 0
-34 -79 0
-34 -74 0
-34 -62 0
-34 -57 0
-34 -54 0
-34 -50 0
-34 -49 0
-34 -48 0
-34 -42 0
-34 -35 0
-33 -111 0
-33 -108 0
-33 -103 0
-33 -101 0
-33 -99 0
-33 -98 0
-33 -92 0
-33 -88 0
-33 -87 0
-33 -73 0
-33 -72 0
-33 -69 0
-33 -68 0
-33 -60 0
-33 -59 0
-32 -111 0
-32 -109 0
-32 -108 0
-32 -106 0
-32 -96 0
-32 -94 0
-32 -89 0
-32 -86 0
-32 -74 0
-32 -63 0
-32 -57 0
-32 -46 0
-32 -42 0
-32 -35 0
-32 -34 0
-31 -106 0
-31 -105 0
-31 -92 0
-31 -91 0
-31 -81 0
-31 -80 0
-31 -75 0
-31 -71 0
-31 -66 0
-31 -65 0
-31 -64 0
-31 -63 0
-31 -59 0
-31 -58 0
-31 -49 0
-31 -41 0
-31 -38 0
-30 -110 0
-30 -108 0
-30 -101 0
-30 -88 0
-30 -72 0
-30 -70 0
-30 -69 0
-30 -68 0
-30 -65 0
-30 -59 0
-30 -51 0
-30 -50 0
-30 -36 0
-30 -33 0
-29 -111 0
-29 -103 0
-29 -99 0
-29 -98 0
-29 -92 0
-29 -87 0
-29 -86 0
-29 -76 0
-29 -73 0
-29 -71 0
-29 -60 0
-29 -55 0
-29 -53 0
-29 -33 0
-28 -108 0
-28 -106 0
-28 -86 0
-28 -82 0
-28 -80 0
-28 -74 0
-28 -61 0
-28 -60 0
-28 -57 0
-28 -44 0
-28 -43 0
-28 -42 0
-28 -40 0
-28 -36 0
-28 -35 0
-28 -34 0
-28 -32 0
-27 -111 0
-27 -109 0
-27 -102 0
-27 -100 0
-27 -97 0
-27 -96 0
-27 -94 0
-27 -89 0
-27 -76 0
-27 -72 0
-27 -63 0
-27 -62 0
-27 -46 0
-27 -44 0
-27 -37 0
-27 -32 0
-26 -107 0
-26 -98 0
-26 -94 0
-26 -90 0
-26 -78 0
-26 -68 0
-26 -67 0
-26 -64 0
-26 -54 0
-26 -42 0
-26 -39 0
-25 -110 0
-25 -104 0
-25 -102 0
-25 -87 0
-25 -84 0
-25 -70 0
-25 -65 0
-25 -51 0
-25 -50 0
-25 -38 0
-25 -36 0
-25 -30 0
-24 -106 0
-24 -102 0
-24 -100 0
-24 -97 0
-24 -92 0
-24 -91 0
-24 -81 0
-24 -76 0
-24 -75 0
-24 -72 0
-24 -66 0
-24 -65 0
-24 -62 0
-24 -44 0
-24 -37 0
-24 -31 0
-24 -27 0
-23 -108 0
-23 -106 0
-23 -104 0
-23 -102 0
-23 -87 0
-23 -86 0
-23 -84 0
-23 -74 0
-23 -57 0
-23 -42 0
-23 -38 0
-23 -35 0
-23 -34 0
-23 -32 0
-23 -28 0
-23 -25 0
-22 -111 0
-22 -107 0
-22 -105 0
-22 -103 0
-22 -99 0
-22 -98 0
-22 -97 0
-22 -95 0
-22 -92 0
-22 -87 0
-22 -74 0
-22 -73 0
-22 -70 0
-22 -60 0
-22 -52 0
-22 -45 0
-22 -33 0
-22 -29 0
-21 -102 0
-21 -100 0
-21 -98 0
-21 -97 0
-21 -78 0
-21 -76 0
-21 -72 0
-21 -67 0
-21 -64 0
-21 -62 0
-21 -44 0
-21 -42 0
-21 -39 0
-21 -37 0
-21 -27 0
-21 -26 0
-21 -24 0
-20 -103 0
-20 -101 0
-20 -85 0
-20 -81 0
-20 -79 0
-20 -62 0
-20 -54 0
-20 -53 0
-20 -52 0
-20 -50 0
-20 -49 0
-20 -48 0
-20 -47 0
-20 -46 0
-20 -40 0
-20 -34 0
-19 -89 0
-19 -86 0
-19 -77 0
-19 -76 0
-19 -71 0
-19 -69 0
-19 -66 0
-19 -55 0
-19 -53 0
-19 -48 0
-19 -43 0
-19 -39 0
-19 -29 0
-18 -101 0
-18 -100 0
-18 -99 0
-18 -90 0
-18 -81 0
-18 -77 0
-18 -56 0
-18 -53 0
-18 -52 0
-18 -51 0
-18 -47 0
-18 -46 0
-18 -41 0
-18 -40 0
-18 -35 0
-18 -20 0
-17 -104 0
-17 -102 0
-17 -89 0
-17 -87 0
-17 -84 0
-17 -77 0
-17 -69 0
-17 -66 0
-17 -48 0
-17 -43 0
-17 -39 0
-17 -38 0
-17 -25 0
-17 -23 0
-17 -19 0
-16 -110 0
-16 -107 0
-16 -94 0
-16 -90 0
-16 -83 0
-16 -73 0
-16 -68 0
-16 -58 0
-16 -57 0
-16 -54 0
-16 -47 0
-16 -37 0
-16 -26 0
-15 -110 0
-15 -86 0
-15 -76 0
-15 -71 0
-15 -70 0
-15 -65 0
-15 -55 0
-15 -53 0
-15 -51 0
-15 -50 0
-15 -36 0
-15 -30 0
-15 -29 0
-15 -25 0
-15 -19 0
-14 -107 0
-14 -104 0
-14 -102 0
-14 -94 0
-14 -90 0
-14 -87 0
-14 -84 0
-14 -68 0
-14 -54 0
-14 -38 0
-14 -26 0
-14 -25 0
-14 -23 0
-14 -17 0
-14 -16 0
-13 -104 0
-13 -102 0
-13 -101 0
-13 -87 0
-13 -84 0
-13 -81 0
-13 -53 0
-13 -52 0
-13 -47 0
-13 -46 0
-13 -40 0
-13 -38 0
-13 -25 0
-13 -23 0
-13 -20 0
-13 -18 0
-13 -17 0
-13 -14 0
-12 -104 0
-12 -100 0
-12 -99 0
-12 -96 0
-12 -95 0
-12 -90 0
-12 -85 0
-12 -78 0
-12 -77 0
-12 -75 0
-12 -61 0
-12 -56 0
-12 -55 0
-12 -51 0
-12 -41 0
-12 -35 0
-12 -18 0
-11 -110 0
-11 -89 0
-11 -83 0
-11 -77 0
-11 -73 0
-11 -69 0
-11 -66 0
-11 -58 0
-11 -57 0
-11 -48 0
-11 -47 0
-11 -43 0
-11 -39 0
-11 -37 0
-11 -19 0
-11 -17 0
-11 -16 0
-10 -107 0
-10 -94 0
-10 -90 0
-10 -82 0
-10 -80 0
-10 -68 0
-10 -61 0
-10 -60 0
-10 -54 0
-10 -44 0
-10 -43 0
-10 -40 0
-10 -36 0
-10 -28 0
-10 -26 0
-10 -16 0
-10 -14 0
-9 -107 0
-9 -105 0
-9 -97 0
-9 -95 0
-9 -89 0
-9 -77 0
-9 -74 0
-9 -70 0
-9 -69 0
-9 -66 0
-9 -52 0
-9 -48 0
-9 -45 0
-9 -43 0
-9 -39 0
-9 -22 0
-9 -19 0
-9 -17 0
-9 -11 0
-8 -107 0
-8 -106 0
-8 -94 0
-8 -92 0
-8 -91 0
-8 -90 0
-8 -81 0
-8 -75 0
-8 -68 0
-8 -66 0
-8 -65 0
-8 -54 0
-8 -31 0
-8 -26 0
-8 -24 0
-8 -16 0
-8 -14 0
-8 -10 0
-7 -109 0
-7 -91 0
-7 -88 0
-7 -86 0
-7 -84 0
-7 -83 0
-7 -82 0
-7 -79 0
-7 -76 0
-7 -71 0
-7 -67 0
-7 -56 0
-7 -55 0
-7 -53 0
-7 -45 0
-7 -29 0
-7 -19 0
-7 -15 0
-6 -108 0
-6 -104 0
-6 -101 0
-6 -96 0
-6 -95 0
-6 -88 0
-6 -85 0
-6 -78 0
-6 -75 0
-6 -72 0
-6 -69 0
-6 -68 0
-6 -61 0
-6 -59 0
-6 -55 0
-6 -33 0
-6 -30 0
-6 -12 0
-5 -110 0
-5 -98 0
-5 -78 0
-5 -70 0
-5 -67 0
-5 -65 0
-5 -64 0
-5 -51 0
-5 -50 0
-5 -42 0
-5 -39 0
-5 -36 0
-5 -30 0
-5 -26 0
-5 -25 0
-5 -21 0
-5 -15 0
-4 -101 0
-4 -98 0
-4 -81 0
-4 -78 0
-4 -67 0
-4 -64 0
-4 -53 0
-4 -52 0
-4 -47 0
-4 -46 0
-4 -42 0
-4 -40 0
-4 -39 0
-4 -26 0
-4 -21 0
-4 -20 0
-4 -18 0
-4 -13 0
-4 -5 0
-3 -111 0
-3 -110 0
-3 -109 0
-3 -96 0
-3 -94 0
-3 -89 0
-3 -70 0
-3 -65 0
-3 -63 0
-3 -51 0
-3 -50 0
-3 -46 0
-3 -36 0
-3 -32 0
-3 -30 0
-3 -27 0
-3 -25 0
-3 -15 0
-3 -5 0
-2 -110 0
-2 -104 0
-2 -96 0
-2 -95 0
-2 -85 0
-2 -83 0
-2 -78 0
-2 -75 0
-2 -73 0
-2 -61 0
-2 -58 0
-2 -57 0
-2 -55 0
-2 -47 0
-2 -37 0
-2 -16 0
-2 -12 0
-2 -11 0
-2 -6 0
-1 -107 0
-1 -94 0
-1 -90 0
-1 -86 0
-1 -76 0
-1 -71 0
-1 -68 0
-1 -55 0
-1 -54 0
-1 -53 0
-1 -29 0
-1 -26 0
-1 -19 0
-1 -16 0
-1 -15 0
-1 -14 0
-1 -10 0
-1 -8 0
-1 -7 0
1 7 15 19 29 53 55 71 76 86 0
3 27 32 46 63 89 94 96 109 111 0
4 5 21 26 39 42 64 67 78 98 0
6 30 33 59 68 69 72 88 101 108 0
8 24 31 65 66 75 81 91 92 106 0
9 22 45 52 70 74 95 97 105 107 0
10 28 36 40 43 44 60 61 80 82 0
12 18 35 41 51 56 77 90 99 100 0
13 14 17 23 25 38 84 87 102 104 0
20 34 48 49 50 54 62 79 85 103 0
2 11 16 37 47 57 58 73 83 93 110 0
