p cnf 91 775
-89 -90 0
-87 -91 0
-87 -88 0
-84 -90 0
-84 -86 0
-83 -85 0
-82 -88 0
-82 -87 0
-82 -86 0
-82 -84 0
-81 -91 0
-81 -87 0
-81 -85 0
-81 -83 0
-80 -90 0
-80 -89 0
-80 -86 0
-79 -90 0
-79 -84 0
-78 -89 0
-78 -86 0
-78 -84 0
-78 -82 0
-77 -91 0
-76 -90 0
-76 -89 0
-76 -80 0
-75 -85 0
-74 -88 0
-74 -87 0
-74 -83 0
-74 -82 0
-73 -88 0
-73 -76 0
-72 -86 0
-72 -80 0
-71 -90 0
-71 -89 0
-71 -80 0
-71 -76 0
-70 -90 0
-70 -84 0
-70 -79 0
-70 -72 0
-69 -91 0
-69 -83 0
-69 -77 0
-69 -74 0
-68 -91 0
-68 -90 0
-68 -87 0
-68 -84 0
-68 -81 0
-68 -79 0
-68 -70 0
-67 -85 0
-67 -83 0
-67 -81 0
-67 -77 0
-66 -91 0
-66 -86 0
-66 -84 0
-66 -82 0
-66 -78 0
-66 -77 0
-66 -69 0
-65 -77 0
-65 -75 0
-65 -67 0
-64 -91 0
-64 -89 0
-64 -87 0
-64 -81 0
-64 -78 0
-64 -68 0
-63 -85 0
-63 -75 0
-63 -71 0
-62 -88 0
-62 -87 0
-62 -85 0
-62 -82 0
-62 -75 0
-62 -74 0
-62 -63 0
-61 -88 0
-61 -73 0
-60 -89 0
-60 -83 0
-60 -78 0
-60 -74 0
-60 -69 0
-60 -64 0
-59 -88 0
-59 -75 0
-59 -73 0
-59 -65 0
-59 -61 0
-58 -86 0
-58 -84 0
-58 -82 0
-58 -78 0
-58 -75 0
-58 -66 0
-58 -65 0
-58 -59 0
-57 -90 0
-57 -84 0
-57 -79 0
-57 -77 0
-57 -70 0
-57 -68 0
-57 -67 0
-57 -65 0
-56 -91 0
-56 -87 0
-56 -86 0
-56 -81 0
-56 -80 0
-56 -72 0
-56 -68 0
-56 -64 0
-55 -90 0
-55 -89 0
-55 -80 0
-55 -76 0
-55 -71 0
-55 -61 0
-54 -90 0
-54 -89 0
-54 -88 0
-54 -87 0
-54 -82 0
-54 -80 0
-54 -76 0
-54 -74 0
-54 -71 0
-54 -62 0
-54 -55 0
-53 -79 0
-53 -61 0
-53 -55 0
-52 -79 0
-52 -76 0
-52 -73 0
-52 -53 0
-51 -86 0
-51 -84 0
-51 -82 0
-51 -78 0
-51 -76 0
-51 -73 0
-51 -66 0
-51 -58 0
-51 -52 0
-50 -90 0
-50 -89 0
-50 -80 0
-50 -76 0
-50 -75 0
-50 -71 0
-50 -65 0
-50 -59 0
-50 -58 0
-50 -55 0
-50 -54 0
-49 -91 0
-49 -79 0
-49 -77 0
-49 -69 0
-49 -66 0
-49 -53 0
-49 -52 0
-48 -91 0
-48 -77 0
-48 -72 0
-48 -70 0
-48 -69 0
-48 -66 0
-48 -49 0
-47 -90 0
-47 -88 0
-47 -84 0
-47 -79 0
-47 -73 0
-47 -70 0
-47 -68 0
-47 -61 0
-47 -59 0
-47 -57 0
-46 -76 0
-46 -73 0
-46 -72 0
-46 -70 0
-46 -52 0
-46 -51 0
-46 -48 0
-45 -77 0
-45 -71 0
-45 -67 0
-45 -65 0
-45 -63 0
-45 -57 0
-44 -89 0
-44 -78 0
-44 -77 0
-44 -67 0
-44 -65 0
-44 -64 0
-44 -60 0
-44 -57 0
-44 -45 0
-43 -89 0
-43 -85 0
-43 -78 0
-43 -75 0
-43 -64 0
-43 -63 0
-43 -62 0
-43 -60 0
-43 -44 0
-42 -91 0
-42 -88 0
-42 -77 0
-42 -73 0
-42 -69 0
-42 -66 0
-42 -61 0
-42 -59 0
-42 -49 0
-42 -48 0
-42 -47 0
-41 -90 0
-41 -89 0
-41 -85 0
-41 -83 0
-41 -81 0
-41 -80 0
-41 -76 0
-41 -71 0
-41 -67 0
-41 -55 0
-41 -54 0
-41 -50 0
-40 -88 0
-40 -87 0
-40 -82 0
-40 -74 0
-40 -72 0
-40 -70 0
-40 -62 0
-40 -54 0
-40 -48 0
-40 -46 0
-39 -72 0
-39 -71 0
-39 -70 0
-39 -63 0
-39 -48 0
-39 -46 0
-39 -45 0
-39 -40 0
-38 -91 0
-38 -90 0
-38 -89 0
-38 -80 0
-38 -77 0
-38 -76 0
-38 -71 0
-38 -69 0
-38 -66 0
-38 -55 0
-38 -54 0
-38 -50 0
-38 -49 0
-38 -48 0
-38 -42 0
-38 -41 0
-37 -85 0
-37 -75 0
-37 -63 0
-37 -62 0
-37 -61 0
-37 -55 0
-37 -53 0
-37 -43 0
-36 -86 0
-36 -84 0
-36 -82 0
-36 -78 0
-36 -66 0
-36 -61 0
-36 -58 0
-36 -55 0
-36 -53 0
-36 -51 0
-36 -37 0
-35 -89 0
-35 -79 0
-35 -78 0
-35 -64 0
-35 -60 0
-35 -53 0
-35 -52 0
-35 -49 0
-35 -44 0
-35 -43 0
-34 -77 0
-34 -67 0
-34 -65 0
-34 -61 0
-34 -57 0
-34 -55 0
-34 -53 0
-34 -45 0
-34 -44 0
-34 -37 0
-34 -36 0
-33 -91 0
-33 -85 0
-33 -77 0
-33 -75 0
-33 -69 0
-33 -66 0
-33 -63 0
-33 -62 0
-33 -49 0
-33 -48 0
-33 -43 0
-33 -42 0
-33 -38 0
-33 -37 0
-32 -83 0
-32 -76 0
-32 -74 0
-32 -73 0
-32 -69 0
-32 -60 0
-32 -52 0
-32 -51 0
-32 -46 0
-31 -86 0
-31 -83 0
-31 -80 0
-31 -74 0
-31 -72 0
-31 -69 0
-31 -60 0
-31 -56 0
-31 -32 0
-30 -77 0
-30 -76 0
-30 -73 0
-30 -67 0
-30 -65 0
-30 -57 0
-30 -52 0
-30 -51 0
-30 -46 0
-30 -45 0
-30 -44 0
-30 -34 0
-30 -32 0
-29 -91 0
-29 -87 0
-29 -81 0
-29 -76 0
-29 -73 0
-29 -68 0
-29 -64 0
-29 -56 0
-29 -52 0
-29 -51 0
-29 -46 0
-29 -32 0
-29 -30 0
-28 -90 0
-28 -85 0
-28 -84 0
-28 -79 0
-28 -75 0
-28 -70 0
-28 -68 0
-28 -63 0
-28 -62 0
-28 -57 0
-28 -47 0
-28 -43 0
-28 -37 0
-28 -33 0
-27 -85 0
-27 -83 0
-27 -81 0
-27 -79 0
-27 -67 0
-27 -53 0
-27 -52 0
-27 -49 0
-27 -41 0
-27 -35 0
-26 -89 0
-26 -78 0
-26 -72 0
-26 -70 0
-26 -64 0
-26 -60 0
-26 -48 0
-26 -46 0
-26 -44 0
-26 -43 0
-26 -40 0
-26 -39 0
-26 -35 0
-25 -72 0
-25 -70 0
-25 -61 0
-25 -55 0
-25 -53 0
-25 -48 0
-25 -46 0
-25 -40 0
-25 -39 0
-25 -37 0
-25 -36 0
-25 -34 0
-25 -26 0
-24 -83 0
-24 -75 0
-24 -74 0
-24 -69 0
-24 -65 0
-24 -60 0
-24 -59 0
-24 -58 0
-24 -50 0
-24 -32 0
-24 -31 0
-23 -79 0
-23 -75 0
-23 -65 0
-23 -59 0
-23 -58 0
-23 -53 0
-23 -52 0
-23 -50 0
-23 -49 0
-23 -35 0
-23 -27 0
-23 -24 0
-22 -88 0
-22 -73 0
-22 -71 0
-22 -63 0
-22 -61 0
-22 -59 0
-22 -47 0
-22 -45 0
-22 -42 0
-22 -39 0
-20 -83 0
-20 -74 0
-20 -69 0
-20 -61 0
-20 -60 0
-20 -55 0
-20 -53 0
-20 -37 0
-20 -36 0
-20 -34 0
-20 -32 0
-20 -31 0
-20 -25 0
-20 -24 0
-19 -89 0
-19 -88 0
-19 -78 0
-19 -73 0
-19 -64 0
-19 -61 0
-19 -60 0
-19 -59 0
-19 -47 0
-19 -44 0
-19 -43 0
-19 -42 0
-19 -35 0
-19 -26 0
-19 -22 0
-18 -91 0
-18 -87 0
-18 -81 0
-18 -71 0
-18 -68 0
-18 -64 0
-18 -63 0
-18 -56 0
-18 -45 0
-18 -39 0
-18 -29 0
-18 -22 0
-17 -88 0
-17 -85 0
-17 -83 0
-17 -81 0
-17 -73 0
-17 -67 0
-17 -61 0
-17 -59 0
-17 -47 0
-17 -42 0
-17 -41 0
-17 -27 0
-17 -22 0
-17 -19 0
-16 -88 0
-16 -87 0
-16 -82 0
-16 -77 0
-16 -74 0
-16 -67 0
-16 -65 0
-16 -62 0
-16 -57 0
-16 -54 0
-16 -45 0
-16 -44 0
-16 -40 0
-16 -34 0
-16 -30 0
-15 -88 0
-15 -86 0
-15 -80 0
-15 -73 0
-15 -72 0
-15 -61 0
-15 -59 0
-15 -56 0
-15 -47 0
-15 -42 0
-15 -31 0
-15 -22 0
-15 -19 0
-15 -17 0
-14 -86 0
-14 -85 0
-14 -80 0
-14 -75 0
-14 -72 0
-14 -63 0
-14 -62 0
-14 -56 0
-14 -43 0
-14 -37 0
-14 -33 0
-14 -31 0
-14 -28 0
-14 -15 0
-13 -91 0
-13 -87 0
-13 -81 0
-13 -75 0
-13 -68 0
-13 -65 0
-13 -64 0
-13 -59 0
-13 -58 0
-13 -56 0
-13 -50 0
-13 -29 0
-13 -24 0
-13 -23 0
-13 -18 0
-12 -79 0
-12 -71 0
-12 -63 0
-12 -53 0
-12 -52 0
-12 -49 0
-12 -45 0
-12 -39 0
-12 -35 0
-12 -27 0
-12 -23 0
-12 -22 0
-12 -18 0
-11 -86 0
-11 -84 0
-11 -82 0
-11 -78 0
-11 -71 0
-11 -66 0
-11 -63 0
-11 -58 0
-11 -51 0
-11 -45 0
-11 -39 0
-11 -36 0
-11 -22 0
-11 -18 0
-11 -12 0
-10 -83 0
-10 -74 0
-10 -71 0
-10 -69 0
-10 -63 0
-10 -60 0
-10 -45 0
-10 -39 0
-10 -32 0
-10 -31 0
-10 -24 0
-10 -22 0
-10 -20 0
-10 -18 0
-10 -12 0
-10 -11 0
-9 -86 0
-9 -80 0
-9 -77 0
-9 -72 0
-9 -67 0
-9 -65 0
-9 -57 0
-9 -56 0
-9 -45 0
-9 -44 0
-9 -34 0
-9 -31 0
-9 -30 0
-9 -16 0
-9 -15 0
-9 -14 0
-8 -86 0
-8 -80 0
-8 -79 0
-8 -72 0
-8 -56 0
-8 -53 0
-8 -52 0
-8 -49 0
-8 -35 0
-8 -31 0
-8 -27 0
-8 -23 0
-8 -15 0
-8 -14 0
-8 -12 0
-8 -9 0
-7 -88 0
-7 -87 0
-7 -82 0
-7 -79 0
-7 -74 0
-7 -62 0
-7 -54 0
-7 -53 0
-7 -52 0
-7 -49 0
-7 -40 0
-7 -35 0
-7 -27 0
-7 -23 0
-7 -16 0
-7 -12 0
-7 -8 0
-6 -85 0
-6 -76 0
-6 -75 0
-6 -73 0
-6 -63 0
-6 -62 0
-6 -52 0
-6 -51 0
-6 -46 0
-6 -43 0
-6 -37 0
-6 -33 0
-6 -32 0
-6 -30 0
-6 -29 0
-6 -28 0
-6 -14 0
-5 -91 0
-5 -87 0
-5 -81 0
-5 -68 0
-5 -64 0
-5 -61 0
-5 -56 0
-5 -55 0
-5 -53 0
-5 -37 0
-5 -36 0
-5 -34 0
-5 -29 0
-5 -25 0
-5 -20 0
-5 -18 0
-5 -13 0
-4 -85 0
-4 -83 0
-4 -81 0
-4 -72 0
-4 -70 0
-4 -67 0
-4 -48 0
-4 -46 0
-4 -41 0
-4 -40 0
-4 -39 0
-4 -27 0
-4 -26 0
-4 -25 0
-4 -17 0
-3 -86 0
-3 -85 0
-3 -84 0
-3 -83 0
-3 -82 0
-3 -81 0
-3 -78 0
-3 -67 0
-3 -66 0
-3 -58 0
-3 -51 0
-3 -41 0
-3 -36 0
-3 -27 0
-3 -17 0
-3 -11 0
-3 -4 0
-2 -75 0
-2 -72 0
-2 -70 0
-2 -65 0
-2 -59 0
-2 -58 0
-2 -50 0
-2 -48 0
-2 -46 0
-2 -40 0
-2 -39 0
-2 -26 0
-2 -25 0
-2 -24 0
-2 -23 0
-2 -13 0
-2 -4 0
-1 -90 0
-1 -84 0
-1 -83 0
-1 -79 0
-1 -74 0
-1 -70 0
-1 -69 0
-1 -68 0
-1 -60 0
-1 -57 0
-1 -47 0
-1 -32 0
-1 -31 0
-1 -28 0
-1 -24 0
-1 -20 0
-1 -10 0
1 28 47 57 68 70 79 84 90 0
2 13 23 24 50 58 59 65 75 0
3 4 17 27 41 67 81 83 85 0
5 20 25 34 36 37 53 55 61 0
6 29 30 32 46 51 52 73 76 0
7 16 40 54 62 74 82 87 88 0
8 9 14 15 31 56 72 80 86 0
10 11 12 18 22 39 45 63 71 0
33 38 42 48 49 66 69 77 91 0
19 21 26 35 43 44 60 64 78 89 0
