p cnf 133 1398
-128 -133 0
-128 -129 0
-126 -130 0
-125 -131 0
-125 -129 0
-124 -127 0
-123 -131 0
-122 -132 0
-122 -130 0
-121 -132 0
-121 -122 0
-120 -130 0
-120 -126 0
-119 -126 0
-118 -130 0
-118 -127 0
-118 -126 0
-118 -120 0
-117 -126 0
-117 -119 0
-116 -130 0
-116 -122 0
-116 -119 0
-115 -120 0
-115 -119 0
-115 -116 0
-114 -127 0
-114 -119 0
-114 -118 0
-114 -116 0
-114 -115 0
-113 -127 0
-113 -118 0
-113 -114 0
-112 -121 0
-111 -133 0
-111 -128 0
-111 -126 0
-111 -119 0
-111 -117 0
-110 -121 0
-110 -117 0
-110 -112 0
-109 -129 0
-109 -128 0
-109 -119 0
-109 -116 0
-109 -115 0
-109 -114 0
-108 -133 0
-107 -131 0
-107 -129 0
-107 -128 0
-107 -123 0
-107 -109 0
-106 -130 0
-106 -126 0
-106 -120 0
-106 -118 0
-105 -132 0
-105 -122 0
-105 -121 0
-105 -120 0
-105 -115 0
-104 -123 0
-104 -113 0
-103 -131 0
-103 -124 0
-103 -123 0
-103 -107 0
-102 -129 0
-102 -125 0
-102 -124 0
-102 -103 0
-101 -129 0
-101 -126 0
-101 -125 0
-101 -119 0
-101 -117 0
-101 -111 0
-101 -102 0
-100 -133 0
-100 -128 0
-100 -111 0
-100 -106 0
-99 -132 0
-99 -113 0
-99 -104 0
-98 -124 0
-98 -108 0
-98 -103 0
-98 -102 0
-97 -127 0
-97 -118 0
-97 -114 0
-97 -113 0
-97 -108 0
-97 -98 0
-96 -131 0
-96 -123 0
-96 -121 0
-96 -112 0
-96 -110 0
-96 -107 0
-96 -103 0
-95 -127 0
-95 -118 0
-95 -114 0
-95 -113 0
-95 -112 0
-95 -97 0
-94 -130 0
-94 -129 0
-94 -128 0
-94 -126 0
-94 -120 0
-94 -118 0
-94 -109 0
-94 -107 0
-94 -106 0
-93 -120 0
-93 -115 0
-93 -112 0
-93 -105 0
-93 -95 0
-92 -132 0
-92 -131 0
-92 -123 0
-92 -107 0
-92 -103 0
-92 -99 0
-92 -96 0
-91 -124 0
-91 -112 0
-91 -103 0
-91 -102 0
-91 -98 0
-91 -95 0
-91 -93 0
-90 -133 0
-90 -119 0
-90 -116 0
-90 -115 0
-90 -114 0
-90 -109 0
-90 -108 0
-89 -132 0
-89 -126 0
-89 -122 0
-89 -121 0
-89 -119 0
-89 -117 0
-89 -111 0
-89 -105 0
-89 -101 0
-88 -132 0
-88 -124 0
-88 -122 0
-88 -121 0
-88 -105 0
-88 -103 0
-88 -102 0
-88 -98 0
-88 -91 0
-88 -89 0
-87 -132 0
-87 -130 0
-87 -126 0
-87 -120 0
-87 -118 0
-87 -106 0
-87 -99 0
-87 -94 0
-87 -92 0
-86 -133 0
-86 -129 0
-86 -125 0
-86 -108 0
-86 -102 0
-86 -101 0
-86 -90 0
-85 -133 0
-85 -130 0
-85 -126 0
-85 -120 0
-85 -118 0
-85 -108 0
-85 -106 0
-85 -94 0
-85 -90 0
-85 -87 0
-85 -86 0
-84 -132 0
-84 -112 0
-84 -99 0
-84 -95 0
-84 -93 0
-84 -92 0
-84 -91 0
-84 -87 0
-83 -127 0
-83 -124 0
-83 -106 0
-83 -100 0
-82 -131 0
-82 -130 0
-82 -123 0
-82 -122 0
-82 -116 0
-82 -107 0
-82 -103 0
-82 -96 0
-82 -92 0
-81 -123 0
-81 -117 0
-81 -110 0
-81 -104 0
-80 -130 0
-80 -129 0
-80 -125 0
-80 -122 0
-80 -116 0
-80 -102 0
-80 -101 0
-80 -86 0
-80 -82 0
-79 -133 0
-79 -131 0
-79 -128 0
-79 -125 0
-79 -111 0
-79 -100 0
-78 -123 0
-78 -119 0
-78 -116 0
-78 -115 0
-78 -114 0
-78 -109 0
-78 -104 0
-78 -90 0
-78 -81 0
-77 -129 0
-77 -128 0
-77 -113 0
-77 -109 0
-77 -107 0
-77 -104 0
-77 -99 0
-77 -94 0
-76 -132 0
-76 -123 0
-76 -122 0
-76 -121 0
-76 -105 0
-76 -104 0
-76 -89 0
-76 -88 0
-76 -81 0
-76 -78 0
-75 -133 0
-75 -128 0
-75 -123 0
-75 -111 0
-75 -104 0
-75 -100 0
-75 -81 0
-75 -79 0
-75 -78 0
-75 -76 0
-74 -127 0
-74 -124 0
-74 -120 0
-74 -115 0
-74 -105 0
-74 -93 0
-74 -83 0
-73 -130 0
-73 -126 0
-73 -123 0
-73 -120 0
-73 -118 0
-73 -106 0
-73 -104 0
-73 -94 0
-73 -87 0
-73 -85 0
-73 -81 0
-73 -78 0
-73 -76 0
-73 -75 0
-72 -127 0
-72 -126 0
-72 -124 0
-72 -119 0
-72 -117 0
-72 -111 0
-72 -101 0
-72 -89 0
-72 -83 0
-72 -74 0
-71 -132 0
-71 -127 0
-71 -124 0
-71 -99 0
-71 -92 0
-71 -87 0
-71 -84 0
-71 -83 0
-71 -74 0
-71 -72 0
-70 -121 0
-70 -113 0
-70 -112 0
-70 -110 0
-70 -104 0
-70 -99 0
-70 -96 0
-70 -77 0
-69 -133 0
-69 -112 0
-69 -108 0
-69 -95 0
-69 -93 0
-69 -91 0
-69 -90 0
-69 -86 0
-69 -85 0
-69 -84 0
-68 -123 0
-68 -108 0
-68 -104 0
-68 -98 0
-68 -97 0
-68 -81 0
-68 -78 0
-68 -76 0
-68 -75 0
-68 -73 0
-67 -129 0
-67 -128 0
-67 -117 0
-67 -110 0
-67 -109 0
-67 -107 0
-67 -94 0
-67 -81 0
-67 -77 0
-66 -124 0
-66 -119 0
-66 -116 0
-66 -115 0
-66 -114 0
-66 -109 0
-66 -103 0
-66 -102 0
-66 -98 0
-66 -91 0
-66 -90 0
-66 -88 0
-66 -78 0
-65 -129 0
-65 -125 0
-65 -123 0
-65 -104 0
-65 -102 0
-65 -101 0
-65 -86 0
-65 -81 0
-65 -80 0
-65 -78 0
-65 -76 0
-65 -75 0
-65 -73 0
-65 -68 0
-64 -127 0
-64 -124 0
-64 -123 0
-64 -104 0
-64 -83 0
-64 -81 0
-64 -78 0
-64 -76 0
-64 -75 0
-64 -74 0
-64 -73 0
-64 -72 0
-64 -71 0
-64 -68 0
-64 -65 0
-63 -131 0
-63 -125 0
-63 -113 0
-63 -104 0
-63 -99 0
-63 -79 0
-63 -77 0
-63 -70 0
-62 -132 0
-62 -127 0
-62 -122 0
-62 -121 0
-62 -118 0
-62 -114 0
-62 -113 0
-62 -105 0
-62 -97 0
-62 -95 0
-62 -89 0
-62 -88 0
-62 -76 0
-61 -112 0
-61 -106 0
-61 -100 0
-61 -95 0
-61 -93 0
-61 -91 0
-61 -84 0
-61 -83 0
-61 -69 0
-60 -133 0
-60 -132 0
-60 -122 0
-60 -121 0
-60 -108 0
-60 -105 0
-60 -90 0
-60 -89 0
-60 -88 0
-60 -86 0
-60 -85 0
-60 -76 0
-60 -69 0
-60 -62 0
-59 -133 0
-59 -128 0
-59 -120 0
-59 -115 0
-59 -111 0
-59 -105 0
-59 -100 0
-59 -93 0
-59 -79 0
-59 -75 0
-59 -74 0
-58 -117 0
-58 -110 0
-58 -106 0
-58 -100 0
-58 -83 0
-58 -81 0
-58 -67 0
-58 -61 0
-57 -130 0
-57 -122 0
-57 -116 0
-57 -112 0
-57 -95 0
-57 -93 0
-57 -91 0
-57 -84 0
-57 -82 0
-57 -80 0
-57 -69 0
-57 -61 0
-56 -108 0
-56 -106 0
-56 -100 0
-56 -98 0
-56 -97 0
-56 -83 0
-56 -68 0
-56 -61 0
-56 -58 0
-55 -132 0
-55 -122 0
-55 -121 0
-55 -106 0
-55 -105 0
-55 -100 0
-55 -89 0
-55 -88 0
-55 -83 0
-55 -76 0
-55 -62 0
-55 -61 0
-55 -60 0
-55 -58 0
-55 -56 0
-54 -132 0
-54 -129 0
-54 -125 0
-54 -102 0
-54 -101 0
-54 -99 0
-54 -92 0
-54 -87 0
-54 -86 0
-54 -84 0
-54 -80 0
-54 -71 0
-54 -65 0
-53 -120 0
-53 -115 0
-53 -108 0
-53 -105 0
-53 -98 0
-53 -97 0
-53 -93 0
-53 -74 0
-53 -68 0
-53 -59 0
-53 -56 0
-52 -121 0
-52 -119 0
-52 -116 0
-52 -115 0
-52 -114 0
-52 -112 0
-52 -110 0
-52 -109 0
-52 -96 0
-52 -90 0
-52 -78 0
-52 -70 0
-52 -66 0
-51 -131 0
-51 -125 0
-51 -108 0
-51 -98 0
-51 -97 0
-51 -79 0
-51 -68 0
-51 -63 0
-51 -56 0
-51 -53 0
-50 -127 0
-50 -124 0
-50 -121 0
-50 -112 0
-50 -110 0
-50 -96 0
-50 -83 0
-50 -74 0
-50 -72 0
-50 -71 0
-50 -70 0
-50 -64 0
-50 -52 0
-49 -133 0
-49 -131 0
-49 -123 0
-49 -108 0
-49 -107 0
-49 -103 0
-49 -96 0
-49 -92 0
-49 -90 0
-49 -86 0
-49 -85 0
-49 -82 0
-49 -69 0
-49 -60 0
-48 -131 0
-48 -127 0
-48 -125 0
-48 -124 0
-48 -83 0
-48 -79 0
-48 -74 0
-48 -72 0
-48 -71 0
-48 -64 0
-48 -63 0
-48 -51 0
-48 -50 0
-47 -131 0
-47 -123 0
-47 -120 0
-47 -115 0
-47 -107 0
-47 -105 0
-47 -103 0
-47 -96 0
-47 -93 0
-47 -92 0
-47 -82 0
-47 -74 0
-47 -59 0
-47 -53 0
-47 -49 0
-46 -133 0
-46 -113 0
-46 -108 0
-46 -104 0
-46 -99 0
-46 -90 0
-46 -86 0
-46 -85 0
-46 -77 0
-46 -70 0
-46 -69 0
-46 -63 0
-46 -60 0
-46 -49 0
-45 -131 0
-45 -125 0
-45 -119 0
-45 -116 0
-45 -115 0
-45 -114 0
-45 -109 0
-45 -90 0
-45 -79 0
-45 -78 0
-45 -66 0
-45 -63 0
-45 -52 0
-45 -51 0
-45 -48 0
-44 -130 0
-44 -126 0
-44 -121 0
-44 -120 0
-44 -118 0
-44 -112 0
-44 -110 0
-44 -106 0
-44 -96 0
-44 -94 0
-44 -87 0
-44 -85 0
-44 -73 0
-44 -70 0
-44 -52 0
-44 -50 0
-43 -113 0
-43 -106 0
-43 -104 0
-43 -100 0
-43 -99 0
-43 -83 0
-43 -77 0
-43 -70 0
-43 -63 0
-43 -61 0
-43 -58 0
-43 -56 0
-43 -55 0
-43 -46 0
-42 -126 0
-42 -119 0
-42 -117 0
-42 -111 0
-42 -108 0
-42 -101 0
-42 -98 0
-42 -97 0
-42 -89 0
-42 -72 0
-42 -68 0
-42 -56 0
-42 -53 0
-42 -51 0
-41 -123 0
-41 -112 0
-41 -104 0
-41 -95 0
-41 -93 0
-41 -91 0
-41 -84 0
-41 -81 0
-41 -78 0
-41 -76 0
-41 -75 0
-41 -73 0
-41 -69 0
-41 -68 0
-41 -65 0
-41 -64 0
-41 -61 0
-41 -57 0
-40 -131 0
-40 -123 0
-40 -107 0
-40 -106 0
-40 -103 0
-40 -100 0
-40 -96 0
-40 -92 0
-40 -83 0
-40 -82 0
-40 -61 0
-40 -58 0
-40 -56 0
-40 -55 0
-40 -49 0
-40 -47 0
-40 -43 0
-39 -124 0
-39 -117 0
-39 -110 0
-39 -103 0
-39 -102 0
-39 -98 0
-39 -91 0
-39 -88 0
-39 -81 0
-39 -67 0
-39 -66 0
-39 -58 0
-38 -130 0
-38 -127 0
-38 -124 0
-38 -122 0
-38 -116 0
-38 -83 0
-38 -82 0
-38 -80 0
-38 -74 0
-38 -72 0
-38 -71 0
-38 -64 0
-38 -57 0
-38 -50 0
-38 -48 0
-37 -127 0
-37 -118 0
-37 -117 0
-37 -114 0
-37 -113 0
-37 -110 0
-37 -97 0
-37 -95 0
-37 -81 0
-37 -67 0
-37 -62 0
-37 -58 0
-37 -39 0
-36 -129 0
-36 -125 0
-36 -120 0
-36 -115 0
-36 -105 0
-36 -102 0
-36 -101 0
-36 -93 0
-36 -86 0
-36 -80 0
-36 -74 0
-36 -65 0
-36 -59 0
-36 -54 0
-36 -53 0
-36 -47 0
-35 -126 0
-35 -119 0
-35 -117 0
-35 -112 0
-35 -111 0
-35 -101 0
-35 -95 0
-35 -93 0
-35 -91 0
-35 -89 0
-35 -84 0
-35 -72 0
-35 -69 0
-35 -61 0
-35 -57 0
-35 -42 0
-35 -41 0
-34 -133 0
-34 -128 0
-34 -124 0
-34 -111 0
-34 -103 0
-34 -102 0
-34 -100 0
-34 -98 0
-34 -91 0
-34 -88 0
-34 -79 0
-34 -75 0
-34 -66 0
-34 -59 0
-34 -39 0
-33 -131 0
-33 -125 0
-33 -112 0
-33 -95 0
-33 -93 0
-33 -91 0
-33 -84 0
-33 -79 0
-33 -69 0
-33 -63 0
-33 -61 0
-33 -57 0
-33 -51 0
-33 -48 0
-33 -45 0
-33 -41 0
-33 -35 0
-32 -133 0
-32 -132 0
-32 -128 0
-32 -111 0
-32 -100 0
-32 -99 0
-32 -92 0
-32 -87 0
-32 -84 0
-32 -79 0
-32 -75 0
-32 -71 0
-32 -59 0
-32 -54 0
-32 -34 0
-31 -132 0
-31 -129 0
-31 -128 0
-31 -122 0
-31 -121 0
-31 -109 0
-31 -107 0
-31 -105 0
-31 -94 0
-31 -89 0
-31 -88 0
-31 -77 0
-31 -76 0
-31 -67 0
-31 -62 0
-31 -60 0
-31 -55 0
-30 -129 0
-30 -125 0
-30 -106 0
-30 -102 0
-30 -101 0
-30 -100 0
-30 -86 0
-30 -83 0
-30 -80 0
-30 -65 0
-30 -61 0
-30 -58 0
-30 -56 0
-30 -55 0
-30 -54 0
-30 -43 0
-30 -40 0
-30 -36 0
-29 -129 0
-29 -128 0
-29 -109 0
-29 -108 0
-29 -107 0
-29 -98 0
-29 -97 0
-29 -94 0
-29 -77 0
-29 -68 0
-29 -67 0
-29 -56 0
-29 -53 0
-29 -51 0
-29 -42 0
-29 -31 0
-28 -133 0
-28 -128 0
-28 -127 0
-28 -118 0
-28 -114 0
-28 -113 0
-28 -111 0
-28 -100 0
-28 -97 0
-28 -95 0
-28 -79 0
-28 -75 0
-28 -62 0
-28 -59 0
-28 -37 0
-28 -34 0
-28 -32 0
-27 -129 0
-27 -128 0
-27 -127 0
-27 -124 0
-27 -109 0
-27 -107 0
-27 -94 0
-27 -83 0
-27 -77 0
-27 -74 0
-27 -72 0
-27 -71 0
-27 -67 0
-27 -64 0
-27 -50 0
-27 -48 0
-27 -38 0
-27 -31 0
-27 -29 0
-26 -133 0
-26 -127 0
-26 -124 0
-26 -108 0
-26 -90 0
-26 -86 0
-26 -85 0
-26 -83 0
-26 -74 0
-26 -72 0
-26 -71 0
-26 -69 0
-26 -64 0
-26 -60 0
-26 -50 0
-26 -49 0
-26 -48 0
-26 -46 0
-26 -38 0
-26 -27 0
-25 -133 0
-25 -130 0
-25 -128 0
-25 -122 0
-25 -116 0
-25 -111 0
-25 -100 0
-25 -82 0
-25 -80 0
-25 -79 0
-25 -75 0
-25 -59 0
-25 -57 0
-25 -38 0
-25 -34 0
-25 -32 0
-25 -28 0
-24 -133 0
-24 -117 0
-24 -110 0
-24 -108 0
-24 -90 0
-24 -86 0
-24 -85 0
-24 -81 0
-24 -69 0
-24 -67 0
-24 -60 0
-24 -58 0
-24 -49 0
-24 -46 0
-24 -39 0
-24 -37 0
-24 -26 0
-23 -131 0
-23 -126 0
-23 -123 0
-23 -119 0
-23 -117 0
-23 -111 0
-23 -107 0
-23 -103 0
-23 -101 0
-23 -96 0
-23 -92 0
-23 -89 0
-23 -82 0
-23 -72 0
-23 -49 0
-23 -47 0
-23 -42 0
-23 -40 0
-23 -35 0
-22 -130 0
-22 -122 0
-22 -117 0
-22 -116 0
-22 -110 0
-22 -82 0
-22 -81 0
-22 -80 0
-22 -67 0
-22 -58 0
-22 -57 0
-22 -39 0
-22 -38 0
-22 -37 0
-22 -25 0
-22 -24 0
-21 -133 0
-21 -128 0
-21 -121 0
-21 -112 0
-21 -111 0
-21 -110 0
-21 -100 0
-21 -96 0
-21 -79 0
-21 -75 0
-21 -70 0
-21 -59 0
-21 -52 0
-21 -50 0
-21 -44 0
-21 -34 0
-21 -32 0
-21 -28 0
-21 -25 0
-20 -130 0
-20 -122 0
-20 -116 0
-20 -113 0
-20 -104 0
-20 -99 0
-20 -82 0
-20 -80 0
-20 -77 0
-20 -70 0
-20 -63 0
-20 -57 0
-20 -46 0
-20 -43 0
-20 -38 0
-20 -25 0
-20 -22 0
-19 -121 0
-19 -112 0
-19 -110 0
-19 -108 0
-19 -98 0
-19 -97 0
-19 -96 0
-19 -70 0
-19 -68 0
-19 -56 0
-19 -53 0
-19 -52 0
-19 -51 0
-19 -50 0
-19 -44 0
-19 -42 0
-19 -29 0
-19 -21 0
-18 -130 0
-18 -126 0
-18 -124 0
-18 -120 0
-18 -118 0
-18 -106 0
-18 -103 0
-18 -102 0
-18 -98 0
-18 -94 0
-18 -91 0
-18 -88 0
-18 -87 0
-18 -85 0
-18 -73 0
-18 -66 0
-18 -44 0
-18 -39 0
-18 -34 0
-17 -129 0
-17 -127 0
-17 -125 0
-17 -118 0
-17 -114 0
-17 -113 0
-17 -102 0
-17 -101 0
-17 -97 0
-17 -95 0
-17 -86 0
-17 -80 0
-17 -65 0
-17 -62 0
-17 -54 0
-17 -37 0
-17 -36 0
-17 -30 0
-17 -28 0
-16 -124 0
-16 -113 0
-16 -104 0
-16 -103 0
-16 -102 0
-16 -99 0
-16 -98 0
-16 -91 0
-16 -88 0
-16 -77 0
-16 -70 0
-16 -66 0
-16 -63 0
-16 -46 0
-16 -43 0
-16 -39 0
-16 -34 0
-16 -20 0
-16 -18 0
-15 -132 0
-15 -131 0
-15 -125 0
-15 -122 0
-15 -121 0
-15 -105 0
-15 -89 0
-15 -88 0
-15 -79 0
-15 -76 0
-15 -63 0
-15 -62 0
-15 -60 0
-15 -55 0
-15 -51 0
-15 -48 0
-15 -45 0
-15 -33 0
-15 -31 0
-14 -131 0
-14 -127 0
-14 -123 0
-14 -118 0
-14 -114 0
-14 -113 0
-14 -107 0
-14 -103 0
-14 -97 0
-14 -96 0
-14 -95 0
-14 -92 0
-14 -82 0
-14 -62 0
-14 -49 0
-14 -47 0
-14 -40 0
-14 -37 0
-14 -28 0
-14 -23 0
-14 -17 0
-13 -120 0
-13 -117 0
-13 -115 0
-13 -110 0
-13 -105 0
-13 -93 0
-13 -81 0
-13 -74 0
-13 -67 0
-13 -59 0
-13 -58 0
-13 -53 0
-13 -47 0
-13 -39 0
-13 -37 0
-13 -36 0
-13 -24 0
-13 -22 0
-12 -119 0
-12 -116 0
-12 -115 0
-12 -114 0
-12 -109 0
-12 -106 0
-12 -100 0
-12 -90 0
-12 -83 0
-12 -78 0
-12 -66 0
-12 -61 0
-12 -58 0
-12 -56 0
-12 -55 0
-12 -52 0
-12 -45 0
-12 -43 0
-12 -40 0
-12 -30 0
-11 -129 0
-11 -125 0
-11 -121 0
-11 -112 0
-11 -110 0
-11 -102 0
-11 -101 0
-11 -96 0
-11 -86 0
-11 -80 0
-11 -70 0
-11 -65 0
-11 -54 0
-11 -52 0
-11 -50 0
-11 -44 0
-11 -36 0
-11 -30 0
-11 -21 0
-11 -19 0
-11 -17 0
-10 -131 0
-10 -130 0
-10 -126 0
-10 -125 0
-10 -120 0
-10 -118 0
-10 -106 0
-10 -94 0
-10 -87 0
-10 -85 0
-10 -79 0
-10 -73 0
-10 -63 0
-10 -51 0
-10 -48 0
-10 -45 0
-10 -44 0
-10 -33 0
-10 -18 0
-10 -15 0
-9 -126 0
-9 -119 0
-9 -117 0
-9 -113 0
-9 -111 0
-9 -104 0
-9 -101 0
-9 -99 0
-9 -89 0
-9 -77 0
-9 -72 0
-9 -70 0
-9 -63 0
-9 -46 0
-9 -43 0
-9 -42 0
-9 -35 0
-9 -23 0
-9 -20 0
-9 -16 0
-8 -120 0
-8 -115 0
-8 -113 0
-8 -105 0
-8 -104 0
-8 -99 0
-8 -93 0
-8 -77 0
-8 -74 0
-8 -70 0
-8 -63 0
-8 -59 0
-8 -53 0
-8 -47 0
-8 -46 0
-8 -43 0
-8 -36 0
-8 -20 0
-8 -16 0
-8 -13 0
-8 -9 0
-7 -132 0
-7 -108 0
-7 -99 0
-7 -98 0
-7 -97 0
-7 -92 0
-7 -87 0
-7 -84 0
-7 -71 0
-7 -68 0
-7 -56 0
-7 -54 0
-7 -53 0
-7 -51 0
-7 -42 0
-7 -32 0
-7 -29 0
-7 -19 0
-6 -129 0
-6 -128 0
-6 -112 0
-6 -109 0
-6 -107 0
-6 -95 0
-6 -94 0
-6 -93 0
-6 -91 0
-6 -84 0
-6 -77 0
-6 -69 0
-6 -67 0
-6 -61 0
-6 -57 0
-6 -41 0
-6 -35 0
-6 -33 0
-6 -31 0
-6 -29 0
-6 -27 0
-4 -130 0
-4 -122 0
-4 -116 0
-4 -108 0
-4 -98 0
-4 -97 0
-4 -82 0
-4 -80 0
-4 -68 0
-4 -57 0
-4 -56 0
-4 -53 0
-4 -51 0
-4 -42 0
-4 -38 0
-4 -29 0
-4 -25 0
-4 -22 0
-4 -20 0
-4 -19 0
-4 -7 0
-3 -132 0
-3 -117 0
-3 -110 0
-3 -99 0
-3 -92 0
-3 -87 0
-3 -84 0
-3 -81 0
-3 -71 0
-3 -67 0
-3 -58 0
-3 -54 0
-3 -39 0
-3 -37 0
-3 -32 0
-3 -24 0
-3 -22 0
-3 -13 0
-3 -7 0
-2 -132 0
-2 -119 0
-2 -116 0
-2 -115 0
-2 -114 0
-2 -109 0
-2 -99 0
-2 -92 0
-2 -90 0
-2 -87 0
-2 -84 0
-2 -78 0
-2 -71 0
-2 -66 0
-2 -54 0
-2 -52 0
-2 -45 0
-2 -32 0
-2 -12 0
-2 -7 0
-2 -3 0
-1 -131 0
-1 -125 0
-1 -117 0
-1 -110 0
-1 -81 0
-1 -79 0
-1 -67 0
-1 -63 0
-1 -58 0
-1 -51 0
-1 -48 0
-1 -45 0
-1 -39 0
-1 -37 0
-1 -33 0
-1 -24 0
-1 -22 0
-1 -15 0
-1 -13 0
-1 -10 0
-1 -3 0
1 10 15 33 45 48 51 63 79 125 131 0
2 3 7 32 54 71 84 87 92 99 132 0
4 20 22 25 38 57 80 82 116 122 130 0
6 27 29 31 67 77 94 107 109 128 129 0
8 13 36 47 53 59 74 93 105 115 120 0
9 23 35 42 72 89 101 111 117 119 126 0
11 19 21 44 50 52 70 96 110 112 121 0
12 30 40 43 55 56 58 61 83 100 106 0
14 17 28 37 62 95 97 113 114 118 127 0
24 26 46 49 60 69 85 86 90 108 133 0
41 64 65 68 73 75 76 78 81 104 123 0
5 16 18 34 39 66 88 91 98 102 103 124 0
