p cnf 73 549
-69 -73 0
-66 -73 0
-64 -73 0
-64 -71 0
-64 -69 0
-63 -71 0
-63 -68 0
-63 -64 0
-62 -73 0
-62 -70 0
-62 -69 0
-62 -64 0
-61 -70 0
-61 -68 0
-61 -63 0
-61 -62 0
-60 -73 0
-60 -67 0
-60 -66 0
-59 -65 0
-58 -72 0
-58 -65 0
-57 -68 0
-57 -67 0
-57 -63 0
-57 -61 0
-56 -73 0
-56 -68 0
-56 -66 0
-56 -63 0
-56 -61 0
-56 -60 0
-56 -57 0
-55 -66 0
-55 -65 0
-55 -58 0
-54 -70 0
-54 -67 0
-54 -62 0
-54 -61 0
-54 -60 0
-53 -73 0
-53 -66 0
-53 -65 0
-53 -60 0
-53 -59 0
-53 -56 0
-52 -71 0
-52 -67 0
-52 -64 0
-52 -63 0
-52 -60 0
-52 -54 0
-51 -72 0
-51 -69 0
-51 -58 0
-50 -73 0
-50 -69 0
-50 -65 0
-50 -64 0
-50 -62 0
-50 -58 0
-50 -55 0
-49 -72 0
-49 -59 0
-49 -58 0
-49 -51 0
-48 -69 0
-48 -65 0
-48 -59 0
-48 -53 0
-48 -51 0
-47 -70 0
-47 -68 0
-46 -73 0
-46 -72 0
-46 -66 0
-46 -60 0
-46 -58 0
-46 -56 0
-46 -53 0
-46 -51 0
-46 -49 0
-45 -72 0
-45 -67 0
-45 -58 0
-45 -57 0
-45 -51 0
-45 -49 0
-45 -46 0
-44 -72 0
-44 -71 0
-44 -64 0
-44 -63 0
-44 -58 0
-44 -52 0
-44 -51 0
-44 -49 0
-44 -46 0
-44 -45 0
-43 -71 0
-43 -65 0
-43 -64 0
-43 -63 0
-43 -59 0
-43 -53 0
-43 -52 0
-43 -48 0
-43 -44 0
-42 -68 0
-42 -65 0
-42 -59 0
-42 -53 0
-42 -48 0
-42 -47 0
-42 -43 0
-41 -73 0
-41 -69 0
-41 -64 0
-41 -62 0
-41 -59 0
-41 -50 0
-41 -49 0
-40 -71 0
-40 -70 0
-40 -62 0
-40 -61 0
-40 -54 0
-39 -71 0
-39 -66 0
-39 -64 0
-39 -63 0
-39 -55 0
-39 -52 0
-39 -44 0
-39 -43 0
-38 -68 0
-38 -63 0
-38 -61 0
-38 -59 0
-38 -57 0
-38 -56 0
-38 -49 0
-38 -41 0
-37 -70 0
-37 -65 0
-37 -62 0
-37 -61 0
-37 -59 0
-37 -54 0
-37 -53 0
-37 -48 0
-37 -43 0
-37 -42 0
-37 -40 0
-36 -67 0
-36 -60 0
-36 -59 0
-36 -54 0
-36 -52 0
-36 -49 0
-36 -41 0
-36 -38 0
-35 -71 0
-35 -68 0
-35 -47 0
-35 -42 0
-35 -40 0
-34 -73 0
-34 -72 0
-34 -69 0
-34 -64 0
-34 -62 0
-34 -50 0
-34 -41 0
-33 -73 0
-33 -69 0
-33 -67 0
-33 -64 0
-33 -62 0
-33 -57 0
-33 -50 0
-33 -45 0
-33 -41 0
-33 -34 0
-32 -70 0
-32 -59 0
-32 -49 0
-32 -47 0
-32 -41 0
-32 -38 0
-32 -36 0
-31 -69 0
-31 -67 0
-31 -60 0
-31 -54 0
-31 -52 0
-31 -51 0
-31 -48 0
-31 -36 0
-30 -69 0
-30 -66 0
-30 -55 0
-30 -51 0
-30 -48 0
-30 -39 0
-30 -31 0
-29 -68 0
-29 -67 0
-29 -60 0
-29 -54 0
-29 -52 0
-29 -47 0
-29 -42 0
-29 -36 0
-29 -35 0
-29 -31 0
-28 -72 0
-28 -67 0
-28 -60 0
-28 -54 0
-28 -52 0
-28 -36 0
-28 -34 0
-28 -31 0
-28 -29 0
-27 -72 0
-27 -68 0
-27 -63 0
-27 -61 0
-27 -57 0
-27 -56 0
-27 -38 0
-27 -34 0
-27 -28 0
-26 -67 0
-26 -65 0
-26 -59 0
-26 -57 0
-26 -53 0
-26 -48 0
-26 -45 0
-26 -43 0
-26 -42 0
-26 -37 0
-26 -33 0
-25 -73 0
-25 -71 0
-25 -66 0
-25 -60 0
-25 -56 0
-25 -53 0
-25 -46 0
-25 -40 0
-25 -35 0
-24 -73 0
-24 -69 0
-24 -68 0
-24 -64 0
-24 -62 0
-24 -50 0
-24 -47 0
-24 -42 0
-24 -41 0
-24 -35 0
-24 -34 0
-24 -33 0
-24 -29 0
-23 -67 0
-23 -66 0
-23 -57 0
-23 -55 0
-23 -45 0
-23 -39 0
-23 -33 0
-23 -30 0
-23 -26 0
-22 -71 0
-22 -59 0
-22 -49 0
-22 -41 0
-22 -40 0
-22 -38 0
-22 -36 0
-22 -35 0
-22 -32 0
-22 -25 0
-20 -71 0
-20 -69 0
-20 -51 0
-20 -48 0
-20 -40 0
-20 -35 0
-20 -31 0
-20 -30 0
-20 -25 0
-20 -22 0
-19 -66 0
-19 -59 0
-19 -55 0
-19 -49 0
-19 -41 0
-19 -39 0
-19 -38 0
-19 -36 0
-19 -32 0
-19 -30 0
-19 -23 0
-19 -22 0
-18 -72 0
-18 -66 0
-18 -55 0
-18 -39 0
-18 -34 0
-18 -30 0
-18 -28 0
-18 -27 0
-18 -23 0
-18 -19 0
-17 -67 0
-17 -65 0
-17 -60 0
-17 -58 0
-17 -55 0
-17 -54 0
-17 -52 0
-17 -50 0
-17 -36 0
-17 -31 0
-17 -29 0
-17 -28 0
-16 -72 0
-16 -70 0
-16 -62 0
-16 -61 0
-16 -58 0
-16 -54 0
-16 -51 0
-16 -49 0
-16 -46 0
-16 -45 0
-16 -44 0
-16 -40 0
-16 -37 0
-15 -70 0
-15 -65 0
-15 -58 0
-15 -55 0
-15 -50 0
-15 -47 0
-15 -32 0
-15 -17 0
-14 -72 0
-14 -68 0
-14 -58 0
-14 -51 0
-14 -49 0
-14 -47 0
-14 -46 0
-14 -45 0
-14 -44 0
-14 -42 0
-14 -35 0
-14 -29 0
-14 -24 0
-14 -16 0
-13 -72 0
-13 -71 0
-13 -40 0
-13 -35 0
-13 -34 0
-13 -28 0
-13 -27 0
-13 -25 0
-13 -22 0
-13 -20 0
-13 -18 0
-12 -70 0
-12 -67 0
-12 -57 0
-12 -47 0
-12 -45 0
-12 -33 0
-12 -32 0
-12 -26 0
-12 -23 0
-12 -15 0
-11 -71 0
-11 -70 0
-11 -64 0
-11 -63 0
-11 -52 0
-11 -47 0
-11 -44 0
-11 -43 0
-11 -39 0
-11 -32 0
-11 -15 0
-11 -12 0
-10 -72 0
-10 -65 0
-10 -59 0
-10 -53 0
-10 -48 0
-10 -43 0
-10 -42 0
-10 -37 0
-10 -34 0
-10 -28 0
-10 -27 0
-10 -26 0
-10 -18 0
-10 -13 0
-9 -68 0
-9 -65 0
-9 -63 0
-9 -61 0
-9 -58 0
-9 -57 0
-9 -56 0
-9 -55 0
-9 -50 0
-9 -38 0
-9 -27 0
-9 -17 0
-9 -15 0
-8 -68 0
-8 -66 0
-8 -55 0
-8 -47 0
-8 -42 0
-8 -39 0
-8 -35 0
-8 -30 0
-8 -29 0
-8 -24 0
-8 -23 0
-8 -19 0
-8 -18 0
-8 -14 0
-7 -70 0
-7 -66 0
-7 -62 0
-7 -61 0
-7 -55 0
-7 -54 0
-7 -40 0
-7 -39 0
-7 -37 0
-7 -30 0
-7 -23 0
-7 -19 0
-7 -18 0
-7 -16 0
-7 -8 0
-6 -70 0
-6 -69 0
-6 -51 0
-6 -48 0
-6 -47 0
-6 -32 0
-6 -31 0
-6 -30 0
-6 -20 0
-6 -15 0
-6 -12 0
-6 -11 0
-5 -69 0
-5 -68 0
-5 -63 0
-5 -61 0
-5 -57 0
-5 -56 0
-5 -51 0
-5 -48 0
-5 -38 0
-5 -31 0
-5 -30 0
-5 -27 0
-5 -20 0
-5 -9 0
-5 -6 0
-4 -71 0
-4 -67 0
-4 -57 0
-4 -45 0
-4 -40 0
-4 -35 0
-4 -33 0
-4 -26 0
-4 -25 0
-4 -23 0
-4 -22 0
-4 -20 0
-4 -13 0
-4 -12 0
-3 -72 0
-3 -70 0
-3 -47 0
-3 -34 0
-3 -32 0
-3 -28 0
-3 -27 0
-3 -18 0
-3 -15 0
-3 -13 0
-3 -12 0
-3 -11 0
-3 -10 0
-3 -6 0
-2 -73 0
-2 -70 0
-2 -66 0
-2 -60 0
-2 -56 0
-2 -53 0
-2 -47 0
-2 -46 0
-2 -32 0
-2 -25 0
-2 -15 0
-2 -12 0
-2 -11 0
-2 -6 0
-2 -3 0
-1 -71 0
-1 -65 0
-1 -58 0
-1 -55 0
-1 -50 0
-1 -40 0
-1 -35 0
-1 -25 0
-1 -22 0
-1 -20 0
-1 -17 0
-1 -15 0
-1 -13 0
-1 -9 0
-1 -4 0
1 9 15 17 50 55 58 65 0
3 10 13 18 27 28 34 72 0
4 12 23 26 33 45 57 67 0
5 6 20 30 31 48 51 69 0
7 16 37 40 54 61 62 70 0
8 14 24 29 35 42 47 68 0
11 39 43 44 52 63 64 71 0
19 22 32 36 38 41 49 59 0
2 21 25 46 53 56 60 66 73 0
