p cnf 91 775
-87 -90 0
-86 -91 0
-85 -89 0
-85 -87 0
-84 -90 0
-83 -89 0
-83 -88 0
-83 -85 0
-81 -89 0
-81 -88 0
-80 -91 0
-80 -88 0
-80 -83 0
-79 -88 0
-79 -82 0
-79 -81 0
-78 -88 0
-78 -81 0
-78 -79 0
-77 -87 0
-77 -85 0
-76 -86 0
-75 -89 0
-75 -86 0
-75 -81 0
-75 -76 0
-74 -88 0
-74 -81 0
-74 -79 0
-74 -78 0
-74 -76 0
-73 -89 0
-73 -85 0
-73 -83 0
-73 -76 0
-73 -74 0
-72 -88 0
-72 -84 0
-72 -83 0
-72 -80 0
-71 -84 0
-71 -76 0
-71 -74 0
-71 -73 0
-71 -72 0
-70 -87 0
-70 -85 0
-70 -82 0
-70 -77 0
-69 -76 0
-69 -74 0
-69 -73 0
-69 -71 0
-68 -88 0
-68 -83 0
-68 -82 0
-68 -80 0
-68 -72 0
-68 -70 0
-67 -91 0
-67 -90 0
-67 -84 0
-67 -80 0
-66 -86 0
-66 -76 0
-66 -75 0
-65 -82 0
-65 -70 0
-65 -68 0
-65 -66 0
-64 -77 0
-64 -76 0
-64 -74 0
-64 -73 0
-64 -71 0
-64 -69 0
-63 -88 0
-63 -83 0
-63 -80 0
-63 -77 0
-63 -72 0
-63 -68 0
-63 -64 0
-62 -91 0
-62 -80 0
-62 -67 0
-62 -66 0
-62 -65 0
-61 -86 0
-61 -76 0
-61 -75 0
-61 -66 0
-60 -89 0
-60 -84 0
-60 -81 0
-60 -75 0
-60 -72 0
-60 -71 0
-59 -91 0
-59 -90 0
-59 -87 0
-59 -86 0
-58 -88 0
-58 -81 0
-58 -79 0
-58 -78 0
-58 -74 0
-58 -61 0
-57 -91 0
-57 -89 0
-57 -81 0
-57 -80 0
-57 -75 0
-57 -67 0
-57 -62 0
-57 -60 0
-56 -90 0
-56 -84 0
-56 -77 0
-56 -67 0
-56 -64 0
-56 -63 0
-55 -90 0
-55 -84 0
-55 -82 0
-55 -70 0
-55 -68 0
-55 -67 0
-55 -65 0
-55 -56 0
-54 -91 0
-54 -80 0
-54 -76 0
-54 -74 0
-54 -73 0
-54 -71 0
-54 -69 0
-54 -67 0
-54 -64 0
-54 -62 0
-54 -57 0
-53 -90 0
-53 -88 0
-53 -84 0
-53 -81 0
-53 -79 0
-53 -78 0
-53 -74 0
-53 -67 0
-53 -58 0
-53 -56 0
-53 -55 0
-52 -86 0
-52 -78 0
-52 -76 0
-52 -75 0
-52 -66 0
-52 -61 0
-51 -90 0
-51 -87 0
-51 -82 0
-51 -79 0
-51 -59 0
-50 -69 0
-50 -61 0
-50 -58 0
-49 -78 0
-49 -77 0
-49 -64 0
-49 -63 0
-49 -56 0
-49 -52 0
-48 -87 0
-48 -86 0
-48 -85 0
-48 -77 0
-48 -76 0
-48 -75 0
-48 -70 0
-48 -66 0
-48 -61 0
-48 -52 0
-47 -69 0
-47 -66 0
-47 -65 0
-47 -62 0
-47 -50 0
-46 -91 0
-46 -89 0
-46 -86 0
-46 -85 0
-46 -83 0
-46 -73 0
-46 -59 0
-45 -89 0
-45 -81 0
-45 -77 0
-45 -75 0
-45 -64 0
-45 -63 0
-45 -60 0
-45 -57 0
-45 -56 0
-45 -49 0
-44 -82 0
-44 -76 0
-44 -74 0
-44 -73 0
-44 -71 0
-44 -70 0
-44 -69 0
-44 -68 0
-44 -65 0
-44 -64 0
-44 -55 0
-44 -54 0
-43 -91 0
-43 -82 0
-43 -80 0
-43 -79 0
-43 -67 0
-43 -62 0
-43 -57 0
-43 -54 0
-43 -51 0
-42 -84 0
-42 -78 0
-42 -72 0
-42 -71 0
-42 -60 0
-42 -52 0
-42 -49 0
-41 -89 0
-41 -81 0
-41 -75 0
-41 -69 0
-41 -60 0
-41 -57 0
-41 -50 0
-41 -47 0
-41 -45 0
-40 -82 0
-40 -70 0
-40 -68 0
-40 -65 0
-40 -61 0
-40 -58 0
-40 -55 0
-40 -50 0
-40 -44 0
-39 -89 0
-39 -85 0
-39 -83 0
-39 -73 0
-39 -66 0
-39 -65 0
-39 -62 0
-39 -47 0
-39 -46 0
-38 -91 0
-38 -87 0
-38 -85 0
-38 -80 0
-38 -77 0
-38 -70 0
-38 -67 0
-38 -62 0
-38 -57 0
-38 -54 0
-38 -48 0
-38 -43 0
-37 -82 0
-37 -78 0
-37 -70 0
-37 -68 0
-37 -65 0
-37 -55 0
-37 -52 0
-37 -49 0
-37 -44 0
-37 -42 0
-37 -40 0
-36 -87 0
-36 -85 0
-36 -84 0
-36 -77 0
-36 -72 0
-36 -71 0
-36 -70 0
-36 -60 0
-36 -48 0
-36 -42 0
-36 -38 0
-35 -91 0
-35 -86 0
-35 -82 0
-35 -70 0
-35 -68 0
-35 -65 0
-35 -59 0
-35 -55 0
-35 -46 0
-35 -44 0
-35 -40 0
-35 -37 0
-34 -90 0
-34 -87 0
-34 -78 0
-34 -59 0
-34 -52 0
-34 -51 0
-34 -49 0
-34 -42 0
-34 -37 0
-33 -88 0
-33 -86 0
-33 -83 0
-33 -80 0
-33 -76 0
-33 -75 0
-33 -72 0
-33 -68 0
-33 -66 0
-33 -63 0
-33 -61 0
-33 -52 0
-33 -48 0
-32 -90 0
-32 -87 0
-32 -76 0
-32 -74 0
-32 -73 0
-32 -71 0
-32 -69 0
-32 -64 0
-32 -59 0
-32 -54 0
-32 -51 0
-32 -44 0
-32 -34 0
-31 -84 0
-31 -82 0
-31 -79 0
-31 -72 0
-31 -71 0
-31 -60 0
-31 -51 0
-31 -43 0
-31 -42 0
-31 -36 0
-30 -89 0
-30 -82 0
-30 -81 0
-30 -75 0
-30 -70 0
-30 -68 0
-30 -65 0
-30 -60 0
-30 -57 0
-30 -55 0
-30 -45 0
-30 -44 0
-30 -41 0
-30 -40 0
-30 -37 0
-30 -35 0
-29 -90 0
-29 -84 0
-29 -69 0
-29 -67 0
-29 -56 0
-29 -55 0
-29 -53 0
-29 -50 0
-29 -47 0
-29 -41 0
-28 -77 0
-28 -66 0
-28 -65 0
-28 -64 0
-28 -63 0
-28 -62 0
-28 -56 0
-28 -49 0
-28 -47 0
-28 -45 0
-28 -39 0
-27 -91 0
-27 -88 0
-27 -86 0
-27 -81 0
-27 -79 0
-27 -78 0
-27 -74 0
-27 -59 0
-27 -58 0
-27 -53 0
-27 -46 0
-27 -35 0
-26 -84 0
-26 -72 0
-26 -71 0
-26 -61 0
-26 -60 0
-26 -58 0
-26 -50 0
-26 -42 0
-26 -40 0
-26 -36 0
-26 -31 0
-25 -91 0
-25 -86 0
-25 -69 0
-25 -59 0
-25 -50 0
-25 -47 0
-25 -46 0
-25 -41 0
-25 -35 0
-25 -29 0
-25 -27 0
-24 -90 0
-24 -87 0
-24 -66 0
-24 -65 0
-24 -62 0
-24 -59 0
-24 -51 0
-24 -47 0
-24 -39 0
-24 -34 0
-24 -32 0
-24 -28 0
-23 -78 0
-23 -69 0
-23 -52 0
-23 -50 0
-23 -49 0
-23 -47 0
-23 -42 0
-23 -41 0
-23 -37 0
-23 -34 0
-23 -29 0
-23 -25 0
-22 -86 0
-22 -82 0
-22 -79 0
-22 -76 0
-22 -75 0
-22 -66 0
-22 -61 0
-22 -52 0
-22 -51 0
-22 -48 0
-22 -43 0
-22 -33 0
-22 -31 0
-21 -90 0
-21 -89 0
-21 -85 0
-21 -84 0
-21 -83 0
-21 -73 0
-21 -67 0
-21 -56 0
-21 -55 0
-21 -53 0
-21 -46 0
-21 -39 0
-21 -29 0
-20 -84 0
-20 -72 0
-20 -71 0
-20 -66 0
-20 -65 0
-20 -62 0
-20 -60 0
-20 -47 0
-20 -42 0
-20 -39 0
-20 -36 0
-20 -31 0
-20 -28 0
-20 -26 0
-20 -24 0
-19 -91 0
-19 -80 0
-19 -78 0
-19 -67 0
-19 -62 0
-19 -57 0
-19 -54 0
-19 -52 0
-19 -49 0
-19 -43 0
-19 -42 0
-19 -38 0
-19 -37 0
-19 -34 0
-19 -23 0
-18 -82 0
-18 -79 0
-18 -69 0
-18 -51 0
-18 -50 0
-18 -47 0
-18 -43 0
-18 -41 0
-18 -31 0
-18 -29 0
-18 -25 0
-18 -23 0
-18 -22 0
-17 -88 0
-17 -87 0
-17 -85 0
-17 -81 0
-17 -79 0
-17 -78 0
-17 -77 0
-17 -74 0
-17 -70 0
-17 -58 0
-17 -53 0
-17 -48 0
-17 -38 0
-17 -36 0
-17 -27 0
-15 -89 0
-15 -85 0
-15 -83 0
-15 -78 0
-15 -73 0
-15 -52 0
-15 -49 0
-15 -46 0
-15 -42 0
-15 -39 0
-15 -37 0
-15 -34 0
-15 -23 0
-15 -21 0
-15 -19 0
-14 -82 0
-14 -79 0
-14 -77 0
-14 -64 0
-14 -63 0
-14 -56 0
-14 -51 0
-14 -49 0
-14 -45 0
-14 -43 0
-14 -31 0
-14 -28 0
-14 -22 0
-14 -18 0
-13 -91 0
-13 -80 0
-13 -67 0
-13 -62 0
-13 -61 0
-13 -58 0
-13 -57 0
-13 -54 0
-13 -50 0
-13 -43 0
-13 -40 0
-13 -38 0
-13 -26 0
-13 -19 0
-12 -91 0
-12 -86 0
-12 -84 0
-12 -72 0
-12 -71 0
-12 -60 0
-12 -59 0
-12 -46 0
-12 -42 0
-12 -36 0
-12 -35 0
-12 -31 0
-12 -27 0
-12 -26 0
-12 -25 0
-12 -20 0
-11 -89 0
-11 -85 0
-11 -83 0
-11 -73 0
-11 -61 0
-11 -58 0
-11 -50 0
-11 -46 0
-11 -40 0
-11 -39 0
-11 -26 0
-11 -21 0
-11 -15 0
-11 -13 0
-10 -88 0
-10 -81 0
-10 -79 0
-10 -78 0
-10 -74 0
-10 -66 0
-10 -65 0
-10 -62 0
-10 -58 0
-10 -53 0
-10 -47 0
-10 -39 0
-10 -28 0
-10 -27 0
-10 -24 0
-10 -20 0
-10 -17 0
-9 -90 0
-9 -89 0
-9 -87 0
-9 -81 0
-9 -75 0
-9 -60 0
-9 -59 0
-9 -57 0
-9 -51 0
-9 -45 0
-9 -41 0
-9 -34 0
-9 -32 0
-9 -30 0
-9 -24 0
-8 -77 0
-8 -64 0
-8 -63 0
-8 -61 0
-8 -58 0
-8 -56 0
-8 -50 0
-8 -49 0
-8 -45 0
-8 -40 0
-8 -28 0
-8 -26 0
-8 -14 0
-8 -13 0
-8 -11 0
-7 -90 0
-7 -86 0
-7 -84 0
-7 -76 0
-7 -75 0
-7 -67 0
-7 -66 0
-7 -61 0
-7 -56 0
-7 -55 0
-7 -53 0
-7 -52 0
-7 -48 0
-7 -33 0
-7 -29 0
-7 -22 0
-7 -21 0
-6 -90 0
-6 -88 0
-6 -87 0
-6 -83 0
-6 -80 0
-6 -72 0
-6 -68 0
-6 -63 0
-6 -59 0
-6 -51 0
-6 -34 0
-6 -33 0
-6 -32 0
-6 -24 0
-6 -9 0
-5 -88 0
-5 -83 0
-5 -80 0
-5 -72 0
-5 -69 0
-5 -68 0
-5 -63 0
-5 -50 0
-5 -47 0
-5 -41 0
-5 -33 0
-5 -29 0
-5 -25 0
-5 -23 0
-5 -18 0
-5 -6 0
-4 -87 0
-4 -85 0
-4 -77 0
-4 -70 0
-4 -69 0
-4 -50 0
-4 -48 0
-4 -47 0
-4 -41 0
-4 -38 0
-4 -36 0
-4 -29 0
-4 -25 0
-4 -23 0
-4 -18 0
-4 -17 0
-4 -5 0
-3 -89 0
-3 -85 0
-3 -83 0
-3 -82 0
-3 -79 0
-3 -73 0
-3 -51 0
-3 -46 0
-3 -43 0
-3 -39 0
-3 -31 0
-3 -22 0
-3 -21 0
-3 -18 0
-3 -15 0
-3 -14 0
-3 -11 0
-2 -90 0
-2 -87 0
-2 -61 0
-2 -59 0
-2 -58 0
-2 -51 0
-2 -50 0
-2 -40 0
-2 -34 0
-2 -32 0
-2 -26 0
-2 -24 0
-2 -13 0
-2 -11 0
-2 -9 0
-2 -8 0
-2 -6 0
-1 -91 0
-1 -86 0
-1 -77 0
-1 -64 0
-1 -63 0
-1 -59 0
-1 -56 0
-1 -49 0
-1 -46 0
-1 -45 0
-1 -35 0
-1 -28 0
-1 -27 0
-1 -25 0
-1 -14 0
-1 -12 0
-1 -8 0
2 8 11 13 26 40 50 58 61 0
3 14 18 22 31 43 51 79 82 0
4 17 36 38 48 70 77 85 87 0
5 6 33 63 68 72 80 83 88 0
7 21 29 53 55 56 67 84 90 0
9 30 41 45 57 60 75 81 89 0
10 20 24 28 39 47 62 65 66 0
15 19 23 34 37 42 49 52 78 0
32 44 54 64 69 71 73 74 76 0
1 12 16 25 27 35 46 59 86 91 0
