p cnf 31 141
-29 -31 0
-29 -30 0
-27 -31 0
-27 -30 0
-26 -28 0
-25 -26 0
-24 -25 0
-23 -31 0
-23 -27 0
-22 -28 0
-22 -26 0
-22 -23 0
-21 -23 0
-21 -22 0
-20 -31 0
-20 -27 0
-20 -26 0
-20 -25 0
-20 -23 0
-19 -30 0
-19 -27 0
-19 -25 0
-19 -24 0
-18 -24 0
-18 -21 0
-16 -30 0
-16 -28 0
-16 -27 0
-16 -26 0
-16 -22 0
-16 -19 0
-15 -31 0
-15 -29 0
-15 -25 0
-15 -24 0
-15 -19 0
-14 -31 0
-14 -27 0
-14 -24 0
-14 -23 0
-14 -20 0
-14 -18 0
-13 -30 0
-13 -29 0
-13 -28 0
-12 -30 0
-12 -29 0
-12 -26 0
-12 -25 0
-12 -20 0
-12 -13 0
-11 -30 0
-11 -29 0
-11 -23 0
-11 -22 0
-11 -21 0
-11 -13 0
-11 -12 0
-10 -28 0
-10 -21 0
-10 -18 0
-10 -13 0
-9 -31 0
-9 -29 0
-9 -28 0
-9 -26 0
-9 -22 0
-9 -16 0
-9 -15 0
-8 -28 0
-8 -26 0
-8 -24 0
-8 -22 0
-8 -18 0
-8 -16 0
-8 -14 0
-8 -9 0
-7 -30 0
-7 -27 0
-7 -21 0
-7 -19 0
-7 -18 0
-7 -16 0
-7 -10 0
-6 -28 0
-6 -25 0
-6 -24 0
-6 -19 0
-6 -15 0
-6 -13 0
-6 -10 0
-5 -25 0
-5 -24 0
-5 -23 0
-5 -22 0
-5 -21 0
-5 -19 0
-5 -15 0
-5 -11 0
-5 -6 0
-4 -30 0
-4 -29 0
-4 -24 0
-4 -18 0
-4 -14 0
-4 -13 0
-4 -12 0
-4 -11 0
-4 -8 0
-3 -31 0
-3 -28 0
-3 -27 0
-3 -23 0
-3 -20 0
-3 -14 0
-3 -13 0
-3 -10 0
-3 -6 0
-2 -26 0
-2 -25 0
-2 -21 0
-2 -20 0
-2 -18 0
-2 -12 0
-2 -10 0
-2 -7 0
-1 -31 0
-1 -29 0
-1 -21 0
-1 -18 0
-1 -15 0
-1 -10 0
-1 -9 0
-1 -7 0
-1 -2 0
1 9 15 29 31 0
2 12 20 25 26 0
3 6 10 13 28 0
4 8 14 18 24 0
5 11 21 22 23 0
7 16 17 19 27 30 0
