p cnf 57 372
-53 -57 0
-53 -54 0
-52 -55 0
-50 -55 0
-50 -54 0
-50 -53 0
-49 -57 0
-49 -56 0
-48 -52 0
-47 -56 0
-47 -54 0
-46 -48 0
-45 -51 0
-45 -46 0
-44 -56 0
-44 -47 0
-43 -55 0
-43 -54 0
-43 -52 0
-43 -47 0
-42 -56 0
-42 -51 0
-42 -49 0
-42 -45 0
-41 -46 0
-41 -45 0
-40 -55 0
-40 -52 0
-40 -44 0
-40 -43 0
-39 -56 0
-39 -47 0
-39 -46 0
-39 -45 0
-39 -44 0
-39 -41 0
-38 -44 0
-38 -41 0
-38 -40 0
-37 -57 0
-37 -55 0
-37 -53 0
-37 -52 0
-37 -43 0
-37 -40 0
-36 -54 0
-36 -53 0
-36 -50 0
-36 -44 0
-36 -40 0
-36 -38 0
-35 -56 0
-35 -51 0
-35 -47 0
-35 -44 0
-35 -39 0
-34 -55 0
-34 -52 0
-34 -51 0
-34 -43 0
-34 -40 0
-34 -37 0
-34 -35 0
-33 -56 0
-33 -55 0
-33 -52 0
-33 -49 0
-33 -43 0
-33 -42 0
-33 -40 0
-33 -37 0
-33 -34 0
-32 -52 0
-32 -51 0
-32 -48 0
-32 -45 0
-32 -42 0
-31 -57 0
-31 -54 0
-31 -49 0
-31 -47 0
-31 -43 0
-30 -51 0
-30 -45 0
-30 -44 0
-30 -42 0
-30 -40 0
-30 -38 0
-30 -36 0
-30 -32 0
-29 -56 0
-29 -52 0
-29 -48 0
-29 -47 0
-29 -44 0
-29 -39 0
-29 -35 0
-29 -32 0
-28 -57 0
-28 -49 0
-28 -44 0
-28 -40 0
-28 -38 0
-28 -36 0
-28 -31 0
-28 -30 0
-27 -55 0
-27 -50 0
-27 -41 0
-27 -38 0
-26 -56 0
-26 -54 0
-26 -53 0
-26 -50 0
-26 -49 0
-26 -42 0
-26 -36 0
-26 -33 0
-25 -57 0
-25 -53 0
-25 -41 0
-25 -38 0
-25 -37 0
-25 -27 0
-24 -56 0
-24 -55 0
-24 -50 0
-24 -47 0
-24 -44 0
-24 -39 0
-24 -35 0
-24 -29 0
-24 -27 0
-23 -56 0
-23 -49 0
-23 -42 0
-23 -41 0
-23 -38 0
-23 -33 0
-23 -27 0
-23 -26 0
-23 -25 0
-22 -55 0
-22 -52 0
-22 -46 0
-22 -45 0
-22 -43 0
-22 -41 0
-22 -40 0
-22 -39 0
-22 -37 0
-22 -34 0
-22 -33 0
-21 -55 0
-21 -50 0
-21 -48 0
-21 -46 0
-21 -27 0
-21 -24 0
-20 -57 0
-20 -56 0
-20 -53 0
-20 -47 0
-20 -44 0
-20 -39 0
-20 -37 0
-20 -35 0
-20 -29 0
-20 -25 0
-20 -24 0
-19 -52 0
-19 -48 0
-19 -41 0
-19 -38 0
-19 -32 0
-19 -29 0
-19 -27 0
-19 -25 0
-19 -23 0
-18 -57 0
-18 -53 0
-18 -51 0
-18 -45 0
-18 -42 0
-18 -37 0
-18 -32 0
-18 -30 0
-18 -25 0
-18 -20 0
-17 -57 0
-17 -52 0
-17 -49 0
-17 -48 0
-17 -32 0
-17 -31 0
-17 -29 0
-17 -28 0
-17 -19 0
-16 -54 0
-16 -51 0
-16 -47 0
-16 -45 0
-16 -43 0
-16 -42 0
-16 -32 0
-16 -31 0
-16 -30 0
-16 -18 0
-15 -48 0
-15 -46 0
-15 -44 0
-15 -40 0
-15 -38 0
-15 -36 0
-15 -30 0
-15 -28 0
-15 -21 0
-14 -54 0
-14 -47 0
-14 -43 0
-14 -41 0
-14 -38 0
-14 -31 0
-14 -27 0
-14 -25 0
-14 -23 0
-14 -19 0
-14 -16 0
-13 -56 0
-13 -49 0
-13 -48 0
-13 -46 0
-13 -42 0
-13 -33 0
-13 -26 0
-13 -23 0
-13 -21 0
-13 -15 0
-12 -51 0
-12 -41 0
-12 -38 0
-12 -35 0
-12 -34 0
-12 -27 0
-12 -25 0
-12 -23 0
-12 -19 0
-12 -14 0
-11 -54 0
-11 -53 0
-11 -52 0
-11 -50 0
-11 -48 0
-11 -36 0
-11 -32 0
-11 -29 0
-11 -26 0
-11 -19 0
-11 -17 0
-10 -54 0
-10 -48 0
-10 -47 0
-10 -46 0
-10 -43 0
-10 -31 0
-10 -21 0
-10 -16 0
-10 -15 0
-10 -14 0
-10 -13 0
-8 -57 0
-8 -53 0
-8 -48 0
-8 -46 0
-8 -37 0
-8 -25 0
-8 -21 0
-8 -20 0
-8 -18 0
-8 -15 0
-8 -13 0
-8 -10 0
-7 -55 0
-7 -51 0
-7 -50 0
-7 -45 0
-7 -42 0
-7 -32 0
-7 -30 0
-7 -27 0
-7 -24 0
-7 -21 0
-7 -18 0
-7 -16 0
-6 -57 0
-6 -49 0
-6 -46 0
-6 -45 0
-6 -41 0
-6 -39 0
-6 -31 0
-6 -28 0
-6 -22 0
-6 -17 0
-5 -54 0
-5 -53 0
-5 -50 0
-5 -46 0
-5 -45 0
-5 -41 0
-5 -39 0
-5 -36 0
-5 -26 0
-5 -22 0
-5 -11 0
-5 -6 0
-4 -51 0
-4 -48 0
-4 -46 0
-4 -35 0
-4 -34 0
-4 -21 0
-4 -15 0
-4 -13 0
-4 -12 0
-4 -10 0
-4 -8 0
-3 -54 0
-3 -53 0
-3 -51 0
-3 -50 0
-3 -36 0
-3 -35 0
-3 -34 0
-3 -26 0
-3 -12 0
-3 -11 0
-3 -5 0
-3 -4 0
-2 -57 0
-2 -51 0
-2 -49 0
-2 -35 0
-2 -34 0
-2 -31 0
-2 -28 0
-2 -17 0
-2 -12 0
-2 -6 0
-2 -4 0
-2 -3 0
-1 -57 0
-1 -55 0
-1 -50 0
-1 -49 0
-1 -31 0
-1 -28 0
-1 -27 0
-1 -24 0
-1 -21 0
-1 -17 0
-1 -7 0
-1 -6 0
-1 -2 0
1 7 21 24 27 50 55 0
2 3 4 12 34 35 51 0
5 6 22 39 41 45 46 0
8 18 20 25 37 53 57 0
10 14 16 31 43 47 54 0
11 17 19 29 32 48 52 0
13 23 26 33 42 49 56 0
9 15 28 30 36 38 40 44 0
