p cnf 43 238
-41 -43 0
-40 -42 0
-39 -42 0
-38 -42 0
-38 -40 0
-37 -41 0
-36 -43 0
-36 -42 0
-36 -39 0
-35 -37 0
-34 -43 0
-34 -41 0
-34 -39 0
-33 -43 0
-33 -40 0
-33 -36 0
-32 -42 0
-32 -40 0
-32 -38 0
-31 -40 0
-31 -39 0
-31 -34 0
-31 -33 0
-30 -39 0
-30 -37 0
-30 -35 0
-30 -34 0
-30 -31 0
-29 -40 0
-29 -33 0
-29 -31 0
-28 -41 0
-28 -40 0
-28 -37 0
-28 -33 0
-28 -31 0
-28 -29 0
-27 -41 0
-27 -37 0
-27 -32 0
-27 -28 0
-26 -32 0
-26 -29 0
-26 -27 0
-25 -42 0
-25 -41 0
-25 -39 0
-25 -37 0
-25 -36 0
-25 -28 0
-25 -27 0
-24 -37 0
-24 -35 0
-24 -30 0
-23 -43 0
-23 -41 0
-23 -35 0
-23 -34 0
-22 -38 0
-22 -24 0
-21 -39 0
-21 -38 0
-21 -34 0
-21 -31 0
-21 -30 0
-21 -22 0
-20 -43 0
-20 -41 0
-20 -34 0
-20 -29 0
-20 -26 0
-20 -23 0
-19 -37 0
-19 -35 0
-19 -30 0
-19 -29 0
-19 -26 0
-19 -24 0
-19 -20 0
-18 -43 0
-18 -36 0
-18 -33 0
-18 -32 0
-18 -27 0
-18 -26 0
-17 -38 0
-17 -29 0
-17 -26 0
-17 -22 0
-17 -21 0
-17 -20 0
-17 -19 0
-16 -42 0
-16 -39 0
-16 -36 0
-16 -29 0
-16 -26 0
-16 -25 0
-16 -20 0
-16 -19 0
-16 -17 0
-15 -42 0
-15 -40 0
-15 -38 0
-15 -37 0
-15 -35 0
-15 -32 0
-15 -30 0
-15 -24 0
-15 -19 0
-14 -43 0
-14 -42 0
-14 -41 0
-14 -40 0
-14 -38 0
-14 -34 0
-14 -32 0
-14 -23 0
-14 -20 0
-14 -15 0
-13 -43 0
-13 -37 0
-13 -36 0
-13 -35 0
-13 -33 0
-13 -30 0
-13 -24 0
-13 -19 0
-13 -18 0
-13 -15 0
-12 -43 0
-12 -38 0
-12 -36 0
-12 -33 0
-12 -22 0
-12 -21 0
-12 -18 0
-12 -17 0
-12 -13 0
-11 -38 0
-11 -35 0
-11 -23 0
-11 -22 0
-11 -21 0
-11 -17 0
-11 -12 0
-10 -40 0
-10 -35 0
-10 -33 0
-10 -31 0
-10 -29 0
-10 -28 0
-10 -23 0
-10 -11 0
-9 -41 0
-9 -38 0
-9 -37 0
-9 -28 0
-9 -27 0
-9 -25 0
-9 -22 0
-9 -21 0
-9 -17 0
-9 -12 0
-9 -11 0
-8 -43 0
-8 -41 0
-8 -34 0
-8 -24 0
-8 -23 0
-8 -22 0
-8 -20 0
-8 -14 0
-7 -39 0
-7 -34 0
-7 -32 0
-7 -31 0
-7 -30 0
-7 -27 0
-7 -26 0
-7 -21 0
-7 -18 0
-6 -42 0
-6 -39 0
-6 -36 0
-6 -25 0
-6 -24 0
-6 -22 0
-6 -16 0
-6 -8 0
-5 -40 0
-5 -33 0
-5 -31 0
-5 -29 0
-5 -28 0
-5 -24 0
-5 -22 0
-5 -10 0
-5 -8 0
-5 -6 0
-4 -42 0
-4 -39 0
-4 -36 0
-4 -35 0
-4 -25 0
-4 -23 0
-4 -16 0
-4 -11 0
-4 -10 0
-4 -6 0
-3 -35 0
-3 -32 0
-3 -27 0
-3 -26 0
-3 -23 0
-3 -18 0
-3 -11 0
-3 -10 0
-3 -7 0
-3 -4 0
-1 -32 0
-1 -27 0
-1 -26 0
-1 -24 0
-1 -22 0
-1 -18 0
-1 -8 0
-1 -7 0
-1 -6 0
-1 -5 0
-1 -3 0
1 5 6 8 22 24 0
7 21 30 31 34 39 0
9 25 27 28 37 41 0
12 13 18 33 36 43 0
14 15 32 38 40 42 0
16 17 19 20 26 29 0
2 3 4 10 11 23 35 0
