p cnf 133 1398
-128 -133 0
-127 -131 0
-126 -132 0
-124 -133 0
-124 -128 0
-123 -132 0
-123 -129 0
-123 -126 0
-121 -131 0
-121 -122 0
-120 -130 0
-119 -131 0
-119 -121 0
-119 -120 0
-118 -130 0
-118 -128 0
-118 -120 0
-117 -131 0
-117 -129 0
-117 -127 0
-116 -130 0
-116 -127 0
-115 -132 0
-114 -125 0
-114 -120 0
-114 -119 0
-113 -132 0
-113 -127 0
-113 -116 0
-113 -115 0
-112 -122 0
-112 -121 0
-112 -115 0
-111 -125 0
-110 -128 0
-110 -118 0
-109 -129 0
-109 -123 0
-109 -122 0
-108 -128 0
-108 -122 0
-108 -118 0
-108 -110 0
-108 -109 0
-107 -128 0
-107 -118 0
-107 -110 0
-107 -108 0
-106 -131 0
-106 -129 0
-106 -123 0
-106 -121 0
-106 -119 0
-106 -109 0
-105 -132 0
-105 -115 0
-105 -113 0
-105 -110 0
-104 -131 0
-104 -127 0
-104 -125 0
-104 -117 0
-104 -114 0
-103 -122 0
-103 -121 0
-103 -112 0
-103 -110 0
-103 -105 0
-102 -124 0
-102 -115 0
-102 -112 0
-101 -122 0
-101 -121 0
-101 -112 0
-101 -111 0
-101 -103 0
-100 -130 0
-100 -124 0
-100 -120 0
-100 -118 0
-100 -102 0
-99 -124 0
-99 -107 0
-99 -102 0
-99 -100 0
-98 -126 0
-98 -107 0
-98 -99 0
-97 -130 0
-97 -125 0
-97 -120 0
-97 -118 0
-97 -111 0
-97 -100 0
-96 -129 0
-96 -125 0
-96 -117 0
-96 -111 0
-96 -97 0
-95 -129 0
-95 -126 0
-95 -117 0
-95 -98 0
-95 -96 0
-94 -130 0
-94 -122 0
-94 -121 0
-94 -120 0
-94 -118 0
-94 -112 0
-94 -103 0
-94 -101 0
-94 -100 0
-94 -97 0
-93 -128 0
-93 -118 0
-93 -115 0
-93 -112 0
-93 -110 0
-93 -108 0
-93 -107 0
-93 -102 0
-92 -124 0
-92 -110 0
-92 -105 0
-92 -103 0
-92 -102 0
-92 -100 0
-92 -99 0
-91 -133 0
-91 -125 0
-91 -114 0
-91 -104 0
-90 -120 0
-90 -119 0
-90 -114 0
-90 -111 0
-90 -101 0
-89 -130 0
-89 -116 0
-89 -110 0
-89 -105 0
-89 -103 0
-89 -92 0
-88 -132 0
-88 -125 0
-88 -115 0
-88 -114 0
-88 -113 0
-88 -105 0
-88 -104 0
-88 -91 0
-87 -131 0
-87 -130 0
-87 -121 0
-87 -119 0
-87 -116 0
-87 -106 0
-87 -89 0
-86 -126 0
-86 -110 0
-86 -105 0
-86 -103 0
-86 -98 0
-86 -95 0
-86 -92 0
-86 -89 0
-85 -122 0
-85 -121 0
-85 -112 0
-85 -107 0
-85 -103 0
-85 -101 0
-85 -99 0
-85 -98 0
-85 -94 0
-84 -129 0
-84 -128 0
-84 -118 0
-84 -117 0
-84 -110 0
-84 -108 0
-84 -107 0
-84 -96 0
-84 -95 0
-84 -93 0
-83 -132 0
-83 -128 0
-83 -126 0
-83 -123 0
-83 -118 0
-83 -110 0
-83 -108 0
-83 -107 0
-83 -93 0
-83 -84 0
-82 -127 0
-82 -125 0
-82 -116 0
-82 -113 0
-82 -111 0
-82 -97 0
-82 -96 0
-81 -127 0
-81 -124 0
-81 -116 0
-81 -113 0
-81 -102 0
-81 -100 0
-81 -99 0
-81 -92 0
-81 -82 0
-80 -127 0
-80 -126 0
-80 -116 0
-80 -113 0
-80 -98 0
-80 -95 0
-80 -86 0
-80 -82 0
-80 -81 0
-79 -125 0
-79 -115 0
-79 -112 0
-79 -111 0
-79 -102 0
-79 -97 0
-79 -96 0
-79 -93 0
-79 -82 0
-78 -131 0
-78 -127 0
-78 -117 0
-78 -111 0
-78 -104 0
-78 -101 0
-78 -90 0
-77 -126 0
-77 -111 0
-77 -101 0
-77 -98 0
-77 -95 0
-77 -90 0
-77 -86 0
-77 -80 0
-77 -78 0
-76 -133 0
-76 -129 0
-76 -117 0
-76 -96 0
-76 -95 0
-76 -91 0
-76 -84 0
-75 -131 0
-75 -127 0
-75 -117 0
-75 -110 0
-75 -105 0
-75 -104 0
-75 -103 0
-75 -92 0
-75 -89 0
-75 -86 0
-75 -78 0
-74 -133 0
-74 -131 0
-74 -128 0
-74 -127 0
-74 -124 0
-74 -117 0
-74 -104 0
-74 -78 0
-74 -75 0
-73 -133 0
-73 -131 0
-73 -121 0
-73 -119 0
-73 -106 0
-73 -91 0
-73 -87 0
-73 -76 0
-72 -130 0
-72 -126 0
-72 -120 0
-72 -118 0
-72 -100 0
-72 -98 0
-72 -97 0
-72 -95 0
-72 -94 0
-72 -86 0
-72 -80 0
-72 -77 0
-71 -133 0
-71 -132 0
-71 -126 0
-71 -123 0
-71 -91 0
-71 -83 0
-71 -76 0
-71 -73 0
-70 -128 0
-70 -118 0
-70 -111 0
-70 -110 0
-70 -108 0
-70 -107 0
-70 -101 0
-70 -93 0
-70 -90 0
-70 -84 0
-70 -83 0
-70 -78 0
-70 -77 0
-69 -128 0
-69 -127 0
-69 -118 0
-69 -116 0
-69 -113 0
-69 -110 0
-69 -108 0
-69 -107 0
-69 -93 0
-69 -84 0
-69 -83 0
-69 -82 0
-69 -81 0
-69 -80 0
-69 -70 0
-68 -124 0
-68 -122 0
-68 -109 0
-68 -108 0
-68 -102 0
-68 -100 0
-68 -99 0
-68 -92 0
-68 -81 0
-67 -133 0
-67 -110 0
-67 -105 0
-67 -103 0
-67 -92 0
-67 -91 0
-67 -89 0
-67 -86 0
-67 -76 0
-67 -75 0
-67 -73 0
-67 -71 0
-66 -127 0
-66 -122 0
-66 -121 0
-66 -116 0
-66 -113 0
-66 -112 0
-66 -103 0
-66 -101 0
-66 -94 0
-66 -85 0
-66 -82 0
-66 -81 0
-66 -80 0
-66 -69 0
-65 -132 0
-65 -126 0
-65 -123 0
-65 -122 0
-65 -121 0
-65 -112 0
-65 -103 0
-65 -101 0
-65 -94 0
-65 -85 0
-65 -83 0
-65 -71 0
-65 -66 0
-64 -127 0
-64 -120 0
-64 -119 0
-64 -116 0
-64 -114 0
-64 -113 0
-64 -90 0
-64 -82 0
-64 -81 0
-64 -80 0
-64 -69 0
-64 -66 0
-63 -133 0
-63 -128 0
-63 -125 0
-63 -124 0
-63 -111 0
-63 -97 0
-63 -96 0
-63 -82 0
-63 -79 0
-63 -74 0
-62 -130 0
-62 -125 0
-62 -116 0
-62 -114 0
-62 -104 0
-62 -91 0
-62 -89 0
-62 -88 0
-62 -87 0
-61 -130 0
-61 -116 0
-61 -111 0
-61 -101 0
-61 -90 0
-61 -89 0
-61 -87 0
-61 -78 0
-61 -77 0
-61 -70 0
-61 -62 0
-60 -133 0
-60 -115 0
-60 -112 0
-60 -102 0
-60 -93 0
-60 -91 0
-60 -79 0
-60 -76 0
-60 -73 0
-60 -71 0
-60 -67 0
-59 -133 0
-59 -122 0
-59 -109 0
-59 -108 0
-59 -91 0
-59 -76 0
-59 -73 0
-59 -71 0
-59 -68 0
-59 -67 0
-59 -60 0
-58 -129 0
-58 -123 0
-58 -111 0
-58 -109 0
-58 -106 0
-58 -101 0
-58 -90 0
-58 -78 0
-58 -77 0
-58 -70 0
-58 -61 0
-57 -126 0
-57 -125 0
-57 -114 0
-57 -104 0
-57 -98 0
-57 -95 0
-57 -91 0
-57 -88 0
-57 -86 0
-57 -80 0
-57 -77 0
-57 -72 0
-57 -62 0
-56 -132 0
-56 -126 0
-56 -124 0
-56 -123 0
-56 -102 0
-56 -100 0
-56 -99 0
-56 -92 0
-56 -83 0
-56 -81 0
-56 -71 0
-56 -68 0
-56 -65 0
-55 -125 0
-55 -122 0
-55 -121 0
-55 -114 0
-55 -112 0
-55 -104 0
-55 -103 0
-55 -101 0
-55 -94 0
-55 -91 0
-55 -88 0
-55 -85 0
-55 -66 0
-55 -65 0
-55 -62 0
-55 -57 0
-54 -133 0
-54 -111 0
-54 -101 0
-54 -91 0
-54 -90 0
-54 -78 0
-54 -77 0
-54 -76 0
-54 -73 0
-54 -71 0
-54 -70 0
-54 -67 0
-54 -61 0
-54 -60 0
-54 -59 0
-54 -58 0
-53 -133 0
-53 -132 0
-53 -128 0
-53 -124 0
-53 -115 0
-53 -113 0
-53 -105 0
-53 -88 0
-53 -74 0
-53 -63 0
-52 -125 0
-52 -111 0
-52 -107 0
-52 -99 0
-52 -98 0
-52 -97 0
-52 -96 0
-52 -85 0
-52 -82 0
-52 -79 0
-52 -63 0
-51 -129 0
-51 -123 0
-51 -115 0
-51 -112 0
-51 -109 0
-51 -106 0
-51 -102 0
-51 -93 0
-51 -79 0
-51 -60 0
-51 -58 0
-50 -131 0
-50 -124 0
-50 -121 0
-50 -119 0
-50 -106 0
-50 -102 0
-50 -100 0
-50 -99 0
-50 -92 0
-50 -87 0
-50 -81 0
-50 -73 0
-50 -68 0
-50 -56 0
-49 -130 0
-49 -129 0
-49 -123 0
-49 -120 0
-49 -118 0
-49 -109 0
-49 -106 0
-49 -100 0
-49 -97 0
-49 -94 0
-49 -72 0
-49 -58 0
-49 -51 0
-47 -129 0
-47 -122 0
-47 -121 0
-47 -117 0
-47 -112 0
-47 -103 0
-47 -101 0
-47 -96 0
-47 -95 0
-47 -94 0
-47 -85 0
-47 -84 0
-47 -76 0
-47 -66 0
-47 -65 0
-47 -55 0
-46 -130 0
-46 -129 0
-46 -117 0
-46 -116 0
-46 -96 0
-46 -95 0
-46 -89 0
-46 -87 0
-46 -84 0
-46 -76 0
-46 -62 0
-46 -61 0
-46 -47 0
-45 -126 0
-45 -122 0
-45 -109 0
-45 -108 0
-45 -98 0
-45 -95 0
-45 -86 0
-45 -80 0
-45 -77 0
-45 -72 0
-45 -68 0
-45 -59 0
-45 -57 0
-44 -132 0
-44 -129 0
-44 -117 0
-44 -115 0
-44 -113 0
-44 -105 0
-44 -96 0
-44 -95 0
-44 -88 0
-44 -84 0
-44 -76 0
-44 -53 0
-44 -47 0
-44 -46 0
-43 -133 0
-43 -128 0
-43 -124 0
-43 -120 0
-43 -119 0
-43 -114 0
-43 -90 0
-43 -74 0
-43 -64 0
-43 -63 0
-43 -53 0
-42 -120 0
-42 -119 0
-42 -114 0
-42 -107 0
-42 -99 0
-42 -98 0
-42 -90 0
-42 -85 0
-42 -64 0
-42 -52 0
-42 -43 0
-41 -130 0
-41 -122 0
-41 -116 0
-41 -109 0
-41 -108 0
-41 -89 0
-41 -87 0
-41 -68 0
-41 -62 0
-41 -61 0
-41 -59 0
-41 -46 0
-41 -45 0
-40 -122 0
-40 -120 0
-40 -119 0
-40 -114 0
-40 -109 0
-40 -108 0
-40 -90 0
-40 -68 0
-40 -64 0
-40 -59 0
-40 -45 0
-40 -43 0
-40 -42 0
-40 -41 0
-39 -124 0
-39 -111 0
-39 -102 0
-39 -101 0
-39 -100 0
-39 -99 0
-39 -92 0
-39 -90 0
-39 -81 0
-39 -78 0
-39 -77 0
-39 -70 0
-39 -68 0
-39 -61 0
-39 -58 0
-39 -56 0
-39 -54 0
-39 -50 0
-38 -132 0
-38 -126 0
-38 -123 0
-38 -120 0
-38 -119 0
-38 -114 0
-38 -90 0
-38 -83 0
-38 -71 0
-38 -65 0
-38 -64 0
-38 -56 0
-38 -43 0
-38 -42 0
-38 -40 0
-37 -130 0
-37 -116 0
-37 -115 0
-37 -112 0
-37 -102 0
-37 -93 0
-37 -89 0
-37 -87 0
-37 -79 0
-37 -62 0
-37 -61 0
-37 -60 0
-37 -51 0
-37 -46 0
-37 -41 0
-36 -129 0
-36 -127 0
-36 -123 0
-36 -116 0
-36 -113 0
-36 -109 0
-36 -106 0
-36 -82 0
-36 -81 0
-36 -80 0
-36 -69 0
-36 -66 0
-36 -64 0
-36 -58 0
-36 -51 0
-36 -49 0
-35 -129 0
-35 -125 0
-35 -123 0
-35 -114 0
-35 -109 0
-35 -106 0
-35 -104 0
-35 -91 0
-35 -88 0
-35 -62 0
-35 -58 0
-35 -57 0
-35 -55 0
-35 -51 0
-35 -49 0
-35 -36 0
-34 -128 0
-34 -125 0
-34 -118 0
-34 -114 0
-34 -110 0
-34 -108 0
-34 -107 0
-34 -104 0
-34 -93 0
-34 -91 0
-34 -88 0
-34 -84 0
-34 -83 0
-34 -70 0
-34 -69 0
-34 -62 0
-34 -57 0
-34 -55 0
-34 -35 0
-33 -132 0
-33 -115 0
-33 -113 0
-33 -111 0
-33 -105 0
-33 -101 0
-33 -90 0
-33 -88 0
-33 -78 0
-33 -77 0
-33 -70 0
-33 -61 0
-33 -58 0
-33 -54 0
-33 -53 0
-33 -44 0
-33 -39 0
-32 -129 0
-32 -123 0
-32 -110 0
-32 -109 0
-32 -106 0
-32 -105 0
-32 -103 0
-32 -92 0
-32 -89 0
-32 -86 0
-32 -75 0
-32 -67 0
-32 -58 0
-32 -51 0
-32 -49 0
-32 -36 0
-32 -35 0
-31 -133 0
-31 -130 0
-31 -128 0
-31 -124 0
-31 -116 0
-31 -89 0
-31 -87 0
-31 -74 0
-31 -63 0
-31 -62 0
-31 -61 0
-31 -53 0
-31 -46 0
-31 -43 0
-31 -41 0
-31 -37 0
-30 -133 0
-30 -128 0
-30 -126 0
-30 -124 0
-30 -98 0
-30 -95 0
-30 -86 0
-30 -80 0
-30 -77 0
-30 -74 0
-30 -72 0
-30 -63 0
-30 -57 0
-30 -53 0
-30 -45 0
-30 -43 0
-30 -31 0
-29 -133 0
-29 -128 0
-29 -124 0
-29 -122 0
-29 -121 0
-29 -112 0
-29 -103 0
-29 -101 0
-29 -94 0
-29 -85 0
-29 -74 0
-29 -66 0
-29 -65 0
-29 -63 0
-29 -55 0
-29 -53 0
-29 -47 0
-29 -43 0
-29 -31 0
-29 -30 0
-28 -120 0
-28 -119 0
-28 -115 0
-28 -114 0
-28 -112 0
-28 -102 0
-28 -93 0
-28 -90 0
-28 -79 0
-28 -64 0
-28 -60 0
-28 -51 0
-28 -43 0
-28 -42 0
-28 -40 0
-28 -38 0
-28 -37 0
-27 -133 0
-27 -129 0
-27 -128 0
-27 -124 0
-27 -123 0
-27 -109 0
-27 -106 0
-27 -74 0
-27 -63 0
-27 -58 0
-27 -53 0
-27 -51 0
-27 -49 0
-27 -43 0
-27 -36 0
-27 -35 0
-27 -32 0
-27 -31 0
-27 -30 0
-27 -29 0
-26 -129 0
-26 -120 0
-26 -119 0
-26 -117 0
-26 -114 0
-26 -96 0
-26 -95 0
-26 -90 0
-26 -84 0
-26 -76 0
-26 -64 0
-26 -47 0
-26 -46 0
-26 -44 0
-26 -43 0
-26 -42 0
-26 -40 0
-26 -38 0
-26 -28 0
-25 -130 0
-25 -116 0
-25 -107 0
-25 -99 0
-25 -98 0
-25 -89 0
-25 -87 0
-25 -85 0
-25 -62 0
-25 -61 0
-25 -52 0
-25 -46 0
-25 -42 0
-25 -41 0
-25 -37 0
-25 -31 0
-24 -129 0
-24 -123 0
-24 -109 0
-24 -107 0
-24 -106 0
-24 -99 0
-24 -98 0
-24 -85 0
-24 -58 0
-24 -52 0
-24 -51 0
-24 -49 0
-24 -42 0
-24 -36 0
-24 -35 0
-24 -32 0
-24 -27 0
-24 -25 0
-23 -131 0
-23 -130 0
-23 -127 0
-23 -120 0
-23 -118 0
-23 -117 0
-23 -104 0
-23 -100 0
-23 -97 0
-23 -94 0
-23 -78 0
-23 -75 0
-23 -74 0
-23 -72 0
-23 -49 0
-22 -132 0
-22 -115 0
-22 -113 0
-22 -107 0
-22 -105 0
-22 -99 0
-22 -98 0
-22 -88 0
-22 -85 0
-22 -53 0
-22 -52 0
-22 -44 0
-22 -42 0
-22 -33 0
-22 -25 0
-22 -24 0
-21 -131 0
-21 -127 0
-21 -117 0
-21 -115 0
-21 -112 0
-21 -104 0
-21 -102 0
-21 -93 0
-21 -79 0
-21 -78 0
-21 -75 0
-21 -74 0
-21 -60 0
-21 -51 0
-21 -37 0
-21 -28 0
-21 -23 0
-20 -132 0
-20 -122 0
-20 -115 0
-20 -113 0
-20 -109 0
-20 -108 0
-20 -105 0
-20 -88 0
-20 -68 0
-20 -59 0
-20 -53 0
-20 -45 0
-20 -44 0
-20 -41 0
-20 -40 0
-20 -33 0
-20 -22 0
-19 -132 0
-19 -126 0
-19 -125 0
-19 -123 0
-19 -111 0
-19 -97 0
-19 -96 0
-19 -83 0
-19 -82 0
-19 -79 0
-19 -71 0
-19 -65 0
-19 -63 0
-19 -56 0
-19 -52 0
-19 -38 0
-18 -131 0
-18 -128 0
-18 -121 0
-18 -119 0
-18 -118 0
-18 -110 0
-18 -108 0
-18 -107 0
-18 -106 0
-18 -93 0
-18 -87 0
-18 -84 0
-18 -83 0
-18 -73 0
-18 -70 0
-18 -69 0
-18 -50 0
-18 -34 0
-17 -129 0
-17 -124 0
-17 -117 0
-17 -102 0
-17 -100 0
-17 -99 0
-17 -96 0
-17 -95 0
-17 -92 0
-17 -84 0
-17 -81 0
-17 -76 0
-17 -68 0
-17 -56 0
-17 -50 0
-17 -47 0
-17 -46 0
-17 -44 0
-17 -39 0
-17 -26 0
-16 -125 0
-16 -111 0
-16 -110 0
-16 -105 0
-16 -103 0
-16 -97 0
-16 -96 0
-16 -92 0
-16 -89 0
-16 -86 0
-16 -82 0
-16 -79 0
-16 -75 0
-16 -67 0
-16 -63 0
-16 -52 0
-16 -32 0
-16 -19 0
-15 -133 0
-15 -127 0
-15 -116 0
-15 -113 0
-15 -91 0
-15 -82 0
-15 -81 0
-15 -80 0
-15 -76 0
-15 -73 0
-15 -71 0
-15 -69 0
-15 -67 0
-15 -66 0
-15 -64 0
-15 -60 0
-15 -59 0
-15 -54 0
-15 -36 0
-14 -132 0
-14 -130 0
-14 -126 0
-14 -123 0
-14 -116 0
-14 -89 0
-14 -87 0
-14 -83 0
-14 -71 0
-14 -65 0
-14 -62 0
-14 -61 0
-14 -56 0
-14 -46 0
-14 -41 0
-14 -38 0
-14 -37 0
-14 -31 0
-14 -25 0
-14 -19 0
-13 -131 0
-13 -125 0
-13 -121 0
-13 -119 0
-13 -111 0
-13 -106 0
-13 -97 0
-13 -96 0
-13 -87 0
-13 -82 0
-13 -79 0
-13 -73 0
-13 -63 0
-13 -52 0
-13 -50 0
-13 -19 0
-13 -18 0
-13 -16 0
-12 -131 0
-12 -126 0
-12 -121 0
-12 -119 0
-12 -106 0
-12 -98 0
-12 -95 0
-12 -87 0
-12 -86 0
-12 -80 0
-12 -77 0
-12 -73 0
-12 -72 0
-12 -57 0
-12 -50 0
-12 -45 0
-12 -30 0
-12 -18 0
-12 -13 0
-11 -132 0
-11 -131 0
-11 -121 0
-11 -119 0
-11 -115 0
-11 -113 0
-11 -106 0
-11 -105 0
-11 -88 0
-11 -87 0
-11 -73 0
-11 -53 0
-11 -50 0
-11 -44 0
-11 -33 0
-11 -22 0
-11 -20 0
-11 -18 0
-11 -13 0
-11 -12 0
-10 -132 0
-10 -131 0
-10 -127 0
-10 -126 0
-10 -123 0
-10 -117 0
-10 -104 0
-10 -83 0
-10 -78 0
-10 -75 0
-10 -74 0
-10 -71 0
-10 -65 0
-10 -56 0
-10 -38 0
-10 -23 0
-10 -21 0
-10 -19 0
-10 -14 0
-9 -131 0
-9 -127 0
-9 -117 0
-9 -107 0
-9 -104 0
-9 -99 0
-9 -98 0
-9 -85 0
-9 -78 0
-9 -75 0
-9 -74 0
-9 -52 0
-9 -42 0
-9 -25 0
-9 -24 0
-9 -23 0
-9 -22 0
-9 -21 0
-9 -10 0
-8 -133 0
-8 -130 0
-8 -120 0
-8 -118 0
-8 -100 0
-8 -97 0
-8 -94 0
-8 -91 0
-8 -76 0
-8 -73 0
-8 -72 0
-8 -71 0
-8 -67 0
-8 -60 0
-8 -59 0
-8 -54 0
-8 -49 0
-8 -23 0
-8 -15 0
-7 -120 0
-7 -119 0
-7 -114 0
-7 -110 0
-7 -105 0
-7 -103 0
-7 -92 0
-7 -90 0
-7 -89 0
-7 -86 0
-7 -75 0
-7 -67 0
-7 -64 0
-7 -43 0
-7 -42 0
-7 -40 0
-7 -38 0
-7 -32 0
-7 -28 0
-7 -26 0
-7 -16 0
-6 -126 0
-6 -115 0
-6 -112 0
-6 -102 0
-6 -98 0
-6 -95 0
-6 -93 0
-6 -86 0
-6 -80 0
-6 -79 0
-6 -77 0
-6 -72 0
-6 -60 0
-6 -57 0
-6 -51 0
-6 -45 0
-6 -37 0
-6 -30 0
-6 -28 0
-6 -21 0
-6 -12 0
-5 -133 0
-5 -107 0
-5 -99 0
-5 -98 0
-5 -91 0
-5 -85 0
-5 -76 0
-5 -73 0
-5 -71 0
-5 -67 0
-5 -60 0
-5 -59 0
-5 -54 0
-5 -52 0
-5 -42 0
-5 -25 0
-5 -24 0
-5 -22 0
-5 -15 0
-5 -9 0
-5 -8 0
-4 -132 0
-4 -130 0
-4 -120 0
-4 -118 0
-4 -115 0
-4 -113 0
-4 -105 0
-4 -100 0
-4 -97 0
-4 -94 0
-4 -88 0
-4 -72 0
-4 -53 0
-4 -49 0
-4 -44 0
-4 -33 0
-4 -23 0
-4 -22 0
-4 -20 0
-4 -11 0
-4 -8 0
-3 -131 0
-3 -127 0
-3 -122 0
-3 -117 0
-3 -109 0
-3 -108 0
-3 -104 0
-3 -78 0
-3 -75 0
-3 -74 0
-3 -68 0
-3 -59 0
-3 -45 0
-3 -41 0
-3 -40 0
-3 -23 0
-3 -21 0
-3 -20 0
-3 -10 0
-3 -9 0
-2 -125 0
-2 -122 0
-2 -111 0
-2 -109 0
-2 -108 0
-2 -97 0
-2 -96 0
-2 -82 0
-2 -79 0
-2 -68 0
-2 -63 0
-2 -59 0
-2 -52 0
-2 -45 0
-2 -41 0
-2 -40 0
-2 -20 0
-2 -19 0
-2 -16 0
-2 -13 0
-2 -3 0
-1 -125 0
-1 -124 0
-1 -114 0
-1 -104 0
-1 -102 0
-1 -100 0
-1 -99 0
-1 -92 0
-1 -91 0
-1 -88 0
-1 -81 0
-1 -68 0
-1 -62 0
-1 -57 0
-1 -56 0
-1 -55 0
-1 -50 0
-1 -39 0
-1 -35 0
-1 -34 0
-1 -17 0
1 34 35 55 57 62 88 91 104 114 125 0
2 3 20 40 41 45 59 68 108 109 122 0
4 8 23 49 72 94 97 100 118 120 130 0
5 9 22 24 25 42 52 85 98 99 107 0
6 21 28 37 51 60 79 93 102 112 115 0
7 16 32 67 75 86 89 92 103 105 110 0
10 14 19 38 56 65 71 83 123 126 132 0
11 12 13 18 50 73 87 106 119 121 131 0
15 36 64 66 69 80 81 82 113 116 127 0
27 29 30 31 43 53 63 74 124 128 133 0
33 39 54 58 61 70 77 78 90 101 111 0
17 26 44 46 47 48 76 84 95 96 117 129 0
