p cnf 31 141
-30 -31 0
-29 -31 0
-28 -31 0
-28 -29 0
-27 -29 0
-26 -29 0
-26 -27 0
-25 -27 0
-24 -31 0
-24 -30 0
-24 -27 0
-24 -25 0
-22 -31 0
-22 -29 0
-22 -28 0
-22 -25 0
-21 -31 0
-21 -30 0
-21 -24 0
-20 -26 0
-19 -28 0
-19 -27 0
-19 -25 0
-19 -24 0
-18 -30 0
-18 -20 0
-17 -29 0
-17 -27 0
-17 -26 0
-17 -21 0
-16 -30 0
-16 -28 0
-16 -19 0
-16 -18 0
-15 -26 0
-15 -25 0
-15 -22 0
-15 -20 0
-14 -31 0
-14 -30 0
-14 -26 0
-14 -24 0
-14 -21 0
-14 -20 0
-14 -15 0
-13 -29 0
-13 -27 0
-13 -26 0
-13 -17 0
-12 -20 0
-12 -18 0
-12 -13 0
-11 -31 0
-11 -30 0
-11 -24 0
-11 -21 0
-11 -14 0
-11 -13 0
-11 -12 0
-10 -28 0
-10 -19 0
-10 -16 0
-10 -13 0
-10 -12 0
-10 -11 0
-9 -30 0
-9 -29 0
-9 -27 0
-9 -26 0
-9 -18 0
-9 -17 0
-9 -16 0
-9 -13 0
-8 -31 0
-8 -29 0
-8 -28 0
-8 -22 0
-8 -20 0
-8 -18 0
-8 -12 0
-7 -25 0
-7 -22 0
-7 -21 0
-7 -17 0
-7 -15 0
-6 -27 0
-6 -25 0
-6 -24 0
-6 -20 0
-6 -19 0
-6 -18 0
-6 -12 0
-6 -8 0
-5 -30 0
-5 -25 0
-5 -22 0
-5 -18 0
-5 -16 0
-5 -15 0
-5 -9 0
-5 -7 0
-4 -28 0
-4 -21 0
-4 -19 0
-4 -17 0
-4 -16 0
-4 -10 0
-4 -7 0
-3 -21 0
-3 -20 0
-3 -18 0
-3 -17 0
-3 -12 0
-3 -8 0
-3 -7 0
-3 -6 0
-3 -4 0
-2 -28 0
-2 -26 0
-2 -20 0
-2 -19 0
-2 -16 0
-2 -15 0
-2 -14 0
-2 -10 0
-2 -4 0
-1 -25 0
-1 -22 0
-1 -15 0
-1 -13 0
-1 -12 0
-1 -11 0
-1 -10 0
-1 -7 0
-1 -5 0
1 10 11 12 13 0
3 4 7 17 21 0
5 9 16 18 30 0
6 19 24 25 27 0
8 22 28 29 31 0
2 14 15 20 23 26 0
