p cnf 43 238
-40 -43 0
-39 -43 0
-39 -42 0
-38 -42 0
-38 -39 0
-36 -41 0
-36 -38 0
-35 -43 0
-35 -39 0
-34 -38 0
-34 -36 0
-34 -35 0
-33 -43 0
-33 -40 0
-33 -38 0
-33 -36 0
-33 -34 0
-32 -38 0
-32 -37 0
-32 -36 0
-32 -34 0
-32 -33 0
-31 -42 0
-31 -40 0
-31 -39 0
-31 -38 0
-30 -42 0
-30 -41 0
-30 -39 0
-30 -38 0
-30 -31 0
-29 -37 0
-29 -35 0
-29 -34 0
-28 -42 0
-27 -41 0
-27 -40 0
-27 -36 0
-27 -31 0
-26 -43 0
-26 -39 0
-26 -37 0
-26 -35 0
-26 -32 0
-25 -41 0
-25 -37 0
-25 -36 0
-25 -29 0
-25 -27 0
-24 -43 0
-24 -39 0
-24 -35 0
-24 -28 0
-24 -26 0
-23 -41 0
-23 -30 0
-23 -28 0
-23 -24 0
-22 -43 0
-22 -40 0
-22 -37 0
-22 -33 0
-22 -29 0
-22 -25 0
-21 -37 0
-21 -29 0
-21 -28 0
-21 -25 0
-21 -24 0
-21 -23 0
-21 -22 0
-20 -40 0
-20 -31 0
-20 -28 0
-20 -27 0
-20 -24 0
-20 -23 0
-20 -21 0
-19 -42 0
-19 -37 0
-19 -32 0
-19 -28 0
-19 -26 0
-18 -42 0
-18 -39 0
-18 -38 0
-18 -37 0
-18 -31 0
-18 -30 0
-18 -29 0
-18 -25 0
-18 -22 0
-18 -21 0
-17 -42 0
-17 -41 0
-17 -36 0
-17 -28 0
-17 -27 0
-17 -25 0
-17 -19 0
-16 -38 0
-16 -36 0
-16 -34 0
-16 -33 0
-16 -32 0
-16 -28 0
-16 -24 0
-16 -23 0
-16 -21 0
-16 -20 0
-15 -35 0
-15 -34 0
-15 -29 0
-14 -37 0
-14 -32 0
-14 -26 0
-14 -19 0
-14 -15 0
-13 -43 0
-13 -42 0
-13 -40 0
-13 -33 0
-13 -28 0
-13 -22 0
-13 -19 0
-13 -17 0
-12 -28 0
-12 -24 0
-12 -23 0
-12 -21 0
-12 -20 0
-12 -16 0
-12 -15 0
-12 -14 0
-10 -41 0
-10 -35 0
-10 -34 0
-10 -30 0
-10 -29 0
-10 -23 0
-10 -15 0
-9 -42 0
-9 -39 0
-9 -38 0
-9 -31 0
-9 -30 0
-9 -18 0
-9 -15 0
-9 -14 0
-9 -12 0
-8 -40 0
-8 -37 0
-8 -32 0
-8 -31 0
-8 -27 0
-8 -26 0
-8 -20 0
-8 -19 0
-8 -14 0
-7 -43 0
-7 -40 0
-7 -33 0
-7 -22 0
-7 -15 0
-7 -14 0
-7 -13 0
-7 -12 0
-7 -9 0
-6 -43 0
-6 -41 0
-6 -39 0
-6 -36 0
-6 -35 0
-6 -27 0
-6 -26 0
-6 -25 0
-6 -24 0
-6 -17 0
-5 -41 0
-5 -36 0
-5 -27 0
-5 -25 0
-5 -17 0
-5 -15 0
-5 -14 0
-5 -12 0
-5 -9 0
-5 -7 0
-5 -6 0
-4 -40 0
-4 -35 0
-4 -34 0
-4 -31 0
-4 -29 0
-4 -27 0
-4 -20 0
-4 -15 0
-4 -10 0
-4 -8 0
-3 -43 0
-3 -41 0
-3 -40 0
-3 -33 0
-3 -30 0
-3 -23 0
-3 -22 0
-3 -13 0
-3 -10 0
-3 -7 0
-2 -42 0
-2 -35 0
-2 -34 0
-2 -29 0
-2 -28 0
-2 -19 0
-2 -17 0
-2 -15 0
-2 -13 0
-2 -10 0
-2 -4 0
-1 -41 0
-1 -37 0
-1 -32 0
-1 -30 0
-1 -26 0
-1 -23 0
-1 -19 0
-1 -14 0
-1 -10 0
-1 -8 0
-1 -3 0
1 3 10 23 30 41 0
2 13 17 19 28 42 0
4 8 20 27 31 40 0
5 7 9 12 14 15 0
16 32 33 34 36 38 0
18 21 22 25 29 37 0
6 11 24 26 35 39 43 0
