p cnf 73 549
-71 -72 0
-69 -73 0
-69 -72 0
-68 -70 0
-67 -73 0
-67 -69 0
-66 -71 0
-66 -68 0
-65 -73 0
-64 -71 0
-64 -70 0
-64 -66 0
-61 -70 0
-61 -64 0
-60 -73 0
-60 -65 0
-59 -71 0
-59 -66 0
-59 -64 0
-59 -60 0
-58 -68 0
-58 -66 0
-57 -65 0
-57 -63 0
-56 -72 0
-56 -69 0
-56 -68 0
-56 -66 0
-56 -58 0
-55 -63 0
-55 -62 0
-54 -67 0
-54 -62 0
-53 -70 0
-53 -64 0
-53 -63 0
-53 -61 0
-53 -57 0
-52 -73 0
-52 -69 0
-52 -67 0
-52 -61 0
-51 -70 0
-51 -64 0
-51 -62 0
-51 -61 0
-51 -55 0
-51 -53 0
-50 -72 0
-50 -69 0
-50 -60 0
-50 -59 0
-50 -56 0
-49 -65 0
-49 -58 0
-49 -57 0
-48 -70 0
-48 -68 0
-48 -63 0
-48 -55 0
-47 -63 0
-47 -62 0
-47 -57 0
-47 -54 0
-47 -53 0
-46 -67 0
-46 -60 0
-46 -59 0
-46 -54 0
-46 -50 0
-45 -67 0
-45 -65 0
-45 -57 0
-45 -54 0
-45 -49 0
-45 -46 0
-44 -73 0
-44 -69 0
-44 -67 0
-44 -62 0
-44 -55 0
-44 -52 0
-44 -51 0
-43 -72 0
-43 -69 0
-43 -63 0
-43 -56 0
-43 -55 0
-43 -50 0
-43 -48 0
-42 -72 0
-42 -71 0
-42 -67 0
-42 -54 0
-42 -46 0
-42 -45 0
-41 -68 0
-41 -66 0
-41 -61 0
-41 -58 0
-41 -56 0
-41 -52 0
-40 -71 0
-40 -66 0
-40 -64 0
-40 -63 0
-40 -59 0
-40 -55 0
-40 -48 0
-40 -43 0
-39 -63 0
-39 -61 0
-39 -55 0
-39 -52 0
-39 -48 0
-39 -43 0
-39 -41 0
-39 -40 0
-38 -65 0
-38 -61 0
-38 -57 0
-38 -52 0
-38 -49 0
-38 -45 0
-38 -41 0
-38 -39 0
-37 -73 0
-37 -71 0
-37 -69 0
-37 -67 0
-37 -66 0
-37 -64 0
-37 -59 0
-37 -52 0
-37 -44 0
-37 -40 0
-36 -63 0
-36 -58 0
-36 -55 0
-36 -49 0
-36 -48 0
-36 -43 0
-36 -40 0
-36 -39 0
-35 -73 0
-35 -68 0
-35 -66 0
-35 -65 0
-35 -60 0
-35 -58 0
-35 -56 0
-35 -41 0
-34 -71 0
-34 -66 0
-34 -64 0
-34 -62 0
-34 -59 0
-34 -54 0
-34 -47 0
-34 -40 0
-34 -37 0
-33 -61 0
-33 -60 0
-33 -59 0
-33 -52 0
-33 -50 0
-33 -46 0
-33 -41 0
-33 -39 0
-33 -38 0
-32 -72 0
-32 -71 0
-32 -61 0
-32 -52 0
-32 -42 0
-32 -41 0
-32 -39 0
-32 -38 0
-32 -33 0
-31 -62 0
-31 -58 0
-31 -54 0
-31 -49 0
-31 -47 0
-31 -36 0
-31 -34 0
-30 -70 0
-30 -68 0
-30 -62 0
-30 -54 0
-30 -48 0
-30 -47 0
-30 -34 0
-30 -31 0
-29 -68 0
-29 -66 0
-29 -62 0
-29 -58 0
-29 -56 0
-29 -55 0
-29 -51 0
-29 -44 0
-29 -41 0
-29 -35 0
-28 -70 0
-28 -67 0
-28 -64 0
-28 -61 0
-28 -54 0
-28 -53 0
-28 -51 0
-28 -46 0
-28 -45 0
-28 -42 0
-27 -72 0
-27 -71 0
-27 -63 0
-27 -57 0
-27 -53 0
-27 -47 0
-27 -42 0
-27 -32 0
-26 -70 0
-26 -68 0
-26 -65 0
-26 -57 0
-26 -49 0
-26 -48 0
-26 -45 0
-26 -38 0
-26 -30 0
-25 -73 0
-25 -65 0
-25 -62 0
-25 -60 0
-25 -54 0
-25 -47 0
-25 -35 0
-25 -34 0
-25 -31 0
-25 -30 0
-24 -73 0
-24 -65 0
-24 -63 0
-24 -60 0
-24 -55 0
-24 -48 0
-24 -43 0
-24 -40 0
-24 -39 0
-24 -36 0
-24 -35 0
-24 -25 0
-23 -73 0
-23 -70 0
-23 -65 0
-23 -64 0
-23 -61 0
-23 -60 0
-23 -53 0
-23 -51 0
-23 -35 0
-23 -28 0
-23 -25 0
-23 -24 0
-22 -72 0
-22 -70 0
-22 -69 0
-22 -64 0
-22 -61 0
-22 -56 0
-22 -53 0
-22 -51 0
-22 -50 0
-22 -43 0
-22 -28 0
-22 -23 0
-21 -72 0
-21 -71 0
-21 -58 0
-21 -49 0
-21 -42 0
-21 -36 0
-21 -32 0
-21 -31 0
-21 -27 0
-20 -72 0
-20 -71 0
-20 -62 0
-20 -55 0
-20 -51 0
-20 -44 0
-20 -42 0
-20 -32 0
-20 -29 0
-20 -27 0
-20 -21 0
-19 -72 0
-19 -69 0
-19 -65 0
-19 -57 0
-19 -56 0
-19 -50 0
-19 -49 0
-19 -45 0
-19 -43 0
-19 -38 0
-19 -26 0
-19 -22 0
-18 -73 0
-18 -69 0
-18 -67 0
-18 -63 0
-18 -57 0
-18 -53 0
-18 -52 0
-18 -47 0
-18 -44 0
-18 -37 0
-18 -27 0
-17 -71 0
-17 -66 0
-17 -65 0
-17 -64 0
-17 -59 0
-17 -57 0
-17 -49 0
-17 -45 0
-17 -40 0
-17 -38 0
-17 -37 0
-17 -34 0
-17 -26 0
-17 -19 0
-16 -73 0
-16 -69 0
-16 -67 0
-16 -58 0
-16 -52 0
-16 -49 0
-16 -44 0
-16 -37 0
-16 -36 0
-16 -31 0
-16 -21 0
-16 -18 0
-15 -65 0
-15 -62 0
-15 -57 0
-15 -55 0
-15 -51 0
-15 -49 0
-15 -45 0
-15 -44 0
-15 -38 0
-15 -29 0
-15 -26 0
-15 -20 0
-15 -19 0
-15 -17 0
-14 -67 0
-14 -63 0
-14 -55 0
-14 -54 0
-14 -48 0
-14 -46 0
-14 -45 0
-14 -43 0
-14 -42 0
-14 -40 0
-14 -39 0
-14 -36 0
-14 -28 0
-14 -24 0
-13 -73 0
-13 -72 0
-13 -71 0
-13 -65 0
-13 -60 0
-13 -42 0
-13 -35 0
-13 -32 0
-13 -27 0
-13 -25 0
-13 -24 0
-13 -23 0
-13 -21 0
-13 -20 0
-12 -62 0
-12 -61 0
-12 -54 0
-12 -52 0
-12 -47 0
-12 -41 0
-12 -39 0
-12 -38 0
-12 -34 0
-12 -33 0
-12 -32 0
-12 -31 0
-12 -30 0
-12 -25 0
-11 -70 0
-11 -64 0
-11 -61 0
-11 -58 0
-11 -53 0
-11 -51 0
-11 -49 0
-11 -36 0
-11 -31 0
-11 -28 0
-11 -23 0
-11 -22 0
-11 -21 0
-11 -16 0
-10 -60 0
-10 -59 0
-10 -58 0
-10 -50 0
-10 -49 0
-10 -46 0
-10 -36 0
-10 -33 0
-10 -31 0
-10 -21 0
-10 -16 0
-10 -11 0
-9 -68 0
-9 -67 0
-9 -66 0
-9 -58 0
-9 -56 0
-9 -54 0
-9 -46 0
-9 -45 0
-9 -42 0
-9 -41 0
-9 -35 0
-9 -29 0
-9 -28 0
-9 -14 0
-8 -73 0
-8 -70 0
-8 -69 0
-8 -68 0
-8 -67 0
-8 -52 0
-8 -48 0
-8 -44 0
-8 -37 0
-8 -30 0
-8 -26 0
-8 -18 0
-8 -16 0
-7 -63 0
-7 -60 0
-7 -59 0
-7 -57 0
-7 -53 0
-7 -50 0
-7 -47 0
-7 -46 0
-7 -33 0
-7 -27 0
-7 -18 0
-7 -10 0
-6 -72 0
-6 -69 0
-6 -62 0
-6 -56 0
-6 -54 0
-6 -50 0
-6 -47 0
-6 -43 0
-6 -34 0
-6 -31 0
-6 -30 0
-6 -25 0
-6 -22 0
-6 -19 0
-6 -12 0
-5 -70 0
-5 -68 0
-5 -60 0
-5 -59 0
-5 -50 0
-5 -48 0
-5 -46 0
-5 -33 0
-5 -30 0
-5 -26 0
-5 -10 0
-5 -8 0
-5 -7 0
-4 -68 0
-4 -66 0
-4 -63 0
-4 -58 0
-4 -57 0
-4 -56 0
-4 -53 0
-4 -47 0
-4 -41 0
-4 -35 0
-4 -29 0
-4 -27 0
-4 -18 0
-4 -9 0
-4 -7 0
-2 -62 0
-2 -60 0
-2 -59 0
-2 -55 0
-2 -51 0
-2 -50 0
-2 -46 0
-2 -44 0
-2 -33 0
-2 -29 0
-2 -20 0
-2 -15 0
-2 -10 0
-2 -7 0
-2 -5 0
-1 -72 0
-1 -71 0
-1 -70 0
-1 -68 0
-1 -48 0
-1 -42 0
-1 -32 0
-1 -30 0
-1 -27 0
-1 -26 0
-1 -21 0
-1 -20 0
-1 -13 0
-1 -8 0
-1 -5 0
1 5 8 26 30 48 68 70 0
2 15 20 29 44 51 55 62 0
4 7 18 27 47 53 57 63 0
6 19 22 43 50 56 69 72 0
10 11 16 21 31 36 49 58 0
12 32 33 38 39 41 52 61 0
13 23 24 25 35 60 65 73 0
17 34 37 40 59 64 66 71 0
3 9 14 28 42 45 46 54 67 0
