p cnf 43 238
-40 -41 0
-39 -40 0
-38 -41 0
-38 -40 0
-37 -41 0
-36 -38 0
-36 -37 0
-35 -42 0
-35 -41 0
-35 -37 0
-34 -40 0
-34 -39 0
-34 -37 0
-34 -36 0
-33 -43 0
-33 -41 0
-33 -40 0
-33 -38 0
-32 -42 0
-31 -41 0
-31 -39 0
-31 -37 0
-31 -35 0
-30 -42 0
-30 -32 0
-29 -42 0
-29 -40 0
-29 -39 0
-29 -35 0
-29 -34 0
-28 -43 0
-28 -42 0
-28 -35 0
-28 -33 0
-28 -29 0
-27 -40 0
-27 -39 0
-27 -34 0
-27 -32 0
-27 -29 0
-26 -42 0
-26 -39 0
-26 -32 0
-26 -31 0
-26 -30 0
-25 -38 0
-25 -36 0
-25 -32 0
-25 -27 0
-24 -40 0
-24 -39 0
-24 -34 0
-24 -30 0
-24 -29 0
-24 -27 0
-23 -43 0
-23 -37 0
-23 -36 0
-23 -34 0
-23 -33 0
-23 -28 0
-22 -41 0
-22 -37 0
-22 -35 0
-22 -32 0
-22 -31 0
-22 -27 0
-22 -25 0
-21 -39 0
-21 -38 0
-21 -36 0
-21 -31 0
-21 -26 0
-21 -25 0
-20 -43 0
-20 -41 0
-20 -37 0
-20 -35 0
-20 -31 0
-20 -22 0
-19 -37 0
-19 -36 0
-19 -34 0
-19 -23 0
-18 -43 0
-18 -40 0
-18 -39 0
-18 -34 0
-18 -29 0
-18 -27 0
-18 -24 0
-18 -20 0
-17 -42 0
-17 -38 0
-17 -36 0
-17 -35 0
-17 -29 0
-17 -28 0
-17 -25 0
-17 -21 0
-15 -43 0
-15 -42 0
-15 -32 0
-15 -30 0
-15 -26 0
-15 -20 0
-15 -18 0
-14 -43 0
-14 -39 0
-14 -33 0
-14 -31 0
-14 -28 0
-14 -26 0
-14 -23 0
-14 -21 0
-13 -42 0
-13 -35 0
-13 -29 0
-13 -28 0
-13 -19 0
-13 -17 0
-12 -41 0
-12 -40 0
-12 -38 0
-12 -33 0
-12 -19 0
-12 -13 0
-11 -43 0
-11 -33 0
-11 -30 0
-11 -28 0
-11 -24 0
-11 -23 0
-11 -14 0
-10 -41 0
-10 -37 0
-10 -35 0
-10 -31 0
-10 -30 0
-10 -24 0
-10 -22 0
-10 -20 0
-10 -11 0
-9 -43 0
-9 -38 0
-9 -36 0
-9 -25 0
-9 -21 0
-9 -20 0
-9 -18 0
-9 -17 0
-9 -15 0
-8 -30 0
-8 -24 0
-8 -19 0
-8 -13 0
-8 -12 0
-8 -11 0
-8 -10 0
-7 -42 0
-7 -37 0
-7 -36 0
-7 -34 0
-7 -32 0
-7 -30 0
-7 -26 0
-7 -23 0
-7 -19 0
-7 -15 0
-6 -32 0
-6 -27 0
-6 -25 0
-6 -22 0
-6 -19 0
-6 -13 0
-6 -12 0
-6 -8 0
-5 -43 0
-5 -33 0
-5 -32 0
-5 -28 0
-5 -27 0
-5 -25 0
-5 -23 0
-5 -22 0
-5 -14 0
-5 -11 0
-5 -6 0
-4 -42 0
-4 -41 0
-4 -40 0
-4 -38 0
-4 -33 0
-4 -32 0
-4 -30 0
-4 -26 0
-4 -15 0
-4 -12 0
-4 -7 0
-3 -43 0
-3 -20 0
-3 -19 0
-3 -18 0
-3 -15 0
-3 -13 0
-3 -12 0
-3 -9 0
-3 -8 0
-3 -6 0
-2 -38 0
-2 -36 0
-2 -30 0
-2 -25 0
-2 -24 0
-2 -21 0
-2 -17 0
-2 -11 0
-2 -10 0
-2 -9 0
-2 -8 0
-1 -39 0
-1 -31 0
-1 -26 0
-1 -21 0
-1 -19 0
-1 -14 0
-1 -13 0
-1 -12 0
-1 -8 0
-1 -6 0
-1 -3 0
1 14 21 26 31 39 0
3 9 15 18 20 43 0
4 12 33 38 40 41 0
5 6 22 25 27 32 0
7 19 23 34 36 37 0
13 17 28 29 35 42 0
2 8 10 11 16 24 30 0
