p cnf 111 1056
-109 -111 0
-108 -109 0
-107 -109 0
-107 -108 0
-105 -109 0
-105 -108 0
-105 -107 0
-104 -108 0
-103 -106 0
-103 -105 0
-102 -110 0
-102 -104 0
-100 -105 0
-100 -103 0
-100 -101 0
-99 -101 0
-98 -111 0
-98 -105 0
-98 -103 0
-98 -100 0
-97 -109 0
-97 -108 0
-97 -107 0
-97 -105 0
-96 -105 0
-96 -103 0
-96 -100 0
-96 -98 0
-95 -106 0
-95 -103 0
-94 -96 0
-93 -111 0
-93 -110 0
-93 -109 0
-92 -110 0
-92 -109 0
-92 -108 0
-92 -107 0
-92 -105 0
-92 -102 0
-92 -97 0
-91 -110 0
-91 -102 0
-91 -101 0
-91 -100 0
-91 -92 0
-90 -107 0
-90 -101 0
-90 -100 0
-90 -91 0
-89 -106 0
-88 -111 0
-88 -109 0
-88 -93 0
-88 -89 0
-87 -110 0
-87 -106 0
-87 -93 0
-87 -89 0
-86 -94 0
-85 -108 0
-85 -106 0
-85 -104 0
-85 -103 0
-85 -95 0
-84 -110 0
-84 -108 0
-84 -104 0
-84 -93 0
-84 -87 0
-84 -85 0
-83 -95 0
-83 -89 0
-83 -88 0
-82 -106 0
-82 -99 0
-82 -89 0
-82 -87 0
-81 -101 0
-81 -100 0
-81 -91 0
-81 -90 0
-80 -111 0
-80 -110 0
-80 -102 0
-80 -98 0
-80 -92 0
-80 -91 0
-79 -99 0
-79 -94 0
-79 -86 0
-79 -82 0
-78 -101 0
-78 -99 0
-78 -86 0
-77 -111 0
-77 -109 0
-77 -99 0
-77 -93 0
-77 -88 0
-77 -82 0
-77 -79 0
-76 -107 0
-76 -90 0
-76 -89 0
-76 -88 0
-76 -83 0
-75 -86 0
-75 -81 0
-75 -78 0
-74 -107 0
-74 -90 0
-74 -86 0
-74 -78 0
-74 -76 0
-74 -75 0
-73 -110 0
-73 -102 0
-73 -92 0
-73 -91 0
-73 -86 0
-73 -80 0
-73 -78 0
-73 -75 0
-73 -74 0
-72 -111 0
-72 -109 0
-72 -104 0
-72 -102 0
-72 -93 0
-72 -88 0
-72 -77 0
-71 -110 0
-71 -97 0
-71 -93 0
-71 -87 0
-71 -84 0
-70 -108 0
-70 -104 0
-70 -89 0
-70 -88 0
-70 -85 0
-70 -84 0
-70 -83 0
-70 -76 0
-69 -94 0
-69 -89 0
-69 -88 0
-69 -86 0
-69 -83 0
-69 -79 0
-69 -76 0
-69 -70 0
-68 -105 0
-68 -104 0
-68 -103 0
-68 -102 0
-68 -100 0
-68 -98 0
-68 -96 0
-68 -72 0
-67 -106 0
-67 -101 0
-67 -100 0
-67 -91 0
-67 -90 0
-67 -89 0
-67 -87 0
-67 -82 0
-67 -81 0
-66 -96 0
-66 -95 0
-66 -94 0
-66 -83 0
-65 -110 0
-65 -94 0
-65 -93 0
-65 -87 0
-65 -86 0
-65 -84 0
-65 -79 0
-65 -71 0
-65 -69 0
-64 -110 0
-64 -101 0
-64 -99 0
-64 -93 0
-64 -87 0
-64 -84 0
-64 -78 0
-64 -71 0
-64 -65 0
-63 -97 0
-63 -96 0
-63 -94 0
-63 -71 0
-63 -66 0
-62 -109 0
-62 -108 0
-62 -107 0
-62 -105 0
-62 -97 0
-62 -94 0
-62 -92 0
-62 -86 0
-62 -79 0
-62 -69 0
-62 -65 0
-61 -106 0
-61 -96 0
-61 -94 0
-61 -89 0
-61 -87 0
-61 -82 0
-61 -67 0
-61 -66 0
-61 -63 0
-60 -110 0
-60 -95 0
-60 -93 0
-60 -87 0
-60 -84 0
-60 -83 0
-60 -71 0
-60 -66 0
-60 -65 0
-60 -64 0
-59 -101 0
-59 -100 0
-59 -94 0
-59 -91 0
-59 -90 0
-59 -86 0
-59 -81 0
-59 -79 0
-59 -69 0
-59 -67 0
-59 -65 0
-59 -62 0
-58 -97 0
-58 -86 0
-58 -78 0
-58 -75 0
-58 -74 0
-58 -73 0
-58 -71 0
-58 -63 0
-57 -111 0
-57 -98 0
-57 -95 0
-57 -83 0
-57 -80 0
-57 -66 0
-57 -60 0
-56 -101 0
-56 -99 0
-56 -89 0
-56 -88 0
-56 -83 0
-56 -78 0
-56 -76 0
-56 -70 0
-56 -69 0
-56 -64 0
-55 -111 0
-55 -109 0
-55 -93 0
-55 -88 0
-55 -86 0
-55 -78 0
-55 -77 0
-55 -75 0
-55 -74 0
-55 -73 0
-55 -72 0
-55 -58 0
-54 -111 0
-54 -109 0
-54 -106 0
-54 -103 0
-54 -95 0
-54 -93 0
-54 -88 0
-54 -85 0
-54 -77 0
-54 -72 0
-54 -55 0
-53 -95 0
-53 -86 0
-53 -83 0
-53 -78 0
-53 -75 0
-53 -74 0
-53 -73 0
-53 -66 0
-53 -60 0
-53 -58 0
-53 -57 0
-53 -55 0
-52 -99 0
-52 -95 0
-52 -83 0
-52 -82 0
-52 -79 0
-52 -77 0
-52 -66 0
-52 -60 0
-52 -57 0
-52 -53 0
-51 -111 0
-51 -106 0
-51 -98 0
-51 -89 0
-51 -87 0
-51 -82 0
-51 -80 0
-51 -67 0
-51 -61 0
-51 -57 0
-50 -110 0
-50 -102 0
-50 -92 0
-50 -91 0
-50 -89 0
-50 -88 0
-50 -83 0
-50 -80 0
-50 -76 0
-50 -73 0
-50 -70 0
-50 -69 0
-50 -56 0
-49 -111 0
-49 -101 0
-49 -99 0
-49 -98 0
-49 -80 0
-49 -78 0
-49 -64 0
-49 -57 0
-49 -56 0
-49 -51 0
-48 -108 0
-48 -104 0
-48 -86 0
-48 -85 0
-48 -84 0
-48 -78 0
-48 -75 0
-48 -74 0
-48 -73 0
-48 -70 0
-48 -58 0
-48 -55 0
-48 -53 0
-47 -111 0
-47 -109 0
-47 -101 0
-47 -100 0
-47 -93 0
-47 -91 0
-47 -90 0
-47 -88 0
-47 -81 0
-47 -77 0
-47 -72 0
-47 -67 0
-47 -59 0
-47 -55 0
-47 -54 0
-46 -101 0
-46 -99 0
-46 -96 0
-46 -94 0
-46 -78 0
-46 -66 0
-46 -64 0
-46 -63 0
-46 -61 0
-46 -56 0
-46 -49 0
-45 -104 0
-45 -102 0
-45 -95 0
-45 -83 0
-45 -72 0
-45 -68 0
-45 -66 0
-45 -60 0
-45 -57 0
-45 -53 0
-45 -52 0
-44 -99 0
-44 -82 0
-44 -81 0
-44 -79 0
-44 -77 0
-44 -75 0
-44 -52 0
-43 -104 0
-43 -102 0
-43 -81 0
-43 -75 0
-43 -72 0
-43 -68 0
-43 -45 0
-43 -44 0
-42 -89 0
-42 -88 0
-42 -83 0
-42 -81 0
-42 -76 0
-42 -75 0
-42 -70 0
-42 -69 0
-42 -56 0
-42 -50 0
-42 -44 0
-42 -43 0
-41 -111 0
-41 -107 0
-41 -98 0
-41 -90 0
-41 -80 0
-41 -76 0
-41 -74 0
-41 -57 0
-41 -51 0
-41 -49 0
-40 -110 0
-40 -105 0
-40 -103 0
-40 -100 0
-40 -98 0
-40 -96 0
-40 -93 0
-40 -87 0
-40 -84 0
-40 -71 0
-40 -68 0
-40 -65 0
-40 -64 0
-40 -60 0
-38 -110 0
-38 -93 0
-38 -87 0
-38 -84 0
-38 -81 0
-38 -75 0
-38 -71 0
-38 -65 0
-38 -64 0
-38 -60 0
-38 -44 0
-38 -43 0
-38 -42 0
-38 -40 0
-37 -105 0
-37 -103 0
-37 -100 0
-37 -99 0
-37 -98 0
-37 -96 0
-37 -82 0
-37 -79 0
-37 -77 0
-37 -68 0
-37 -52 0
-37 -44 0
-37 -40 0
-36 -106 0
-36 -103 0
-36 -95 0
-36 -85 0
-36 -81 0
-36 -75 0
-36 -54 0
-36 -44 0
-36 -43 0
-36 -42 0
-36 -38 0
-35 -107 0
-35 -104 0
-35 -102 0
-35 -90 0
-35 -76 0
-35 -74 0
-35 -72 0
-35 -68 0
-35 -45 0
-35 -43 0
-35 -41 0
-34 -104 0
-34 -102 0
-34 -101 0
-34 -99 0
-34 -78 0
-34 -72 0
-34 -68 0
-34 -64 0
-34 -56 0
-34 -49 0
-34 -46 0
-34 -45 0
-34 -43 0
-34 -35 0
-33 -110 0
-33 -102 0
-33 -96 0
-33 -94 0
-33 -92 0
-33 -91 0
-33 -80 0
-33 -73 0
-33 -66 0
-33 -63 0
-33 -61 0
-33 -50 0
-33 -46 0
-32 -111 0
-32 -109 0
-32 -96 0
-32 -94 0
-32 -93 0
-32 -88 0
-32 -77 0
-32 -72 0
-32 -66 0
-32 -63 0
-32 -61 0
-32 -55 0
-32 -54 0
-32 -47 0
-32 -46 0
-32 -33 0
-31 -109 0
-31 -108 0
-31 -107 0
-31 -105 0
-31 -97 0
-31 -95 0
-31 -92 0
-31 -83 0
-31 -66 0
-31 -62 0
-31 -60 0
-31 -57 0
-31 -53 0
-31 -52 0
-31 -45 0
-30 -97 0
-30 -89 0
-30 -88 0
-30 -83 0
-30 -76 0
-30 -71 0
-30 -70 0
-30 -69 0
-30 -63 0
-30 -58 0
-30 -56 0
-30 -50 0
-30 -42 0
-29 -111 0
-29 -98 0
-29 -97 0
-29 -80 0
-29 -71 0
-29 -63 0
-29 -58 0
-29 -57 0
-29 -51 0
-29 -49 0
-29 -41 0
-29 -30 0
-28 -109 0
-28 -108 0
-28 -107 0
-28 -106 0
-28 -105 0
-28 -97 0
-28 -92 0
-28 -89 0
-28 -87 0
-28 -82 0
-28 -67 0
-28 -62 0
-28 -61 0
-28 -51 0
-28 -31 0
-27 -106 0
-27 -103 0
-27 -95 0
-27 -94 0
-27 -86 0
-27 -85 0
-27 -79 0
-27 -69 0
-27 -65 0
-27 -62 0
-27 -59 0
-27 -54 0
-27 -36 0
-26 -110 0
-26 -106 0
-26 -103 0
-26 -102 0
-26 -95 0
-26 -92 0
-26 -91 0
-26 -85 0
-26 -80 0
-26 -73 0
-26 -54 0
-26 -50 0
-26 -36 0
-26 -33 0
-26 -27 0
-25 -106 0
-25 -104 0
-25 -102 0
-25 -89 0
-25 -87 0
-25 -82 0
-25 -72 0
-25 -68 0
-25 -67 0
-25 -61 0
-25 -51 0
-25 -45 0
-25 -43 0
-25 -35 0
-25 -34 0
-25 -28 0
-24 -107 0
-24 -96 0
-24 -94 0
-24 -90 0
-24 -76 0
-24 -74 0
-24 -66 0
-24 -63 0
-24 -61 0
-24 -46 0
-24 -41 0
-24 -35 0
-24 -33 0
-24 -32 0
-23 -111 0
-23 -98 0
-23 -94 0
-23 -86 0
-23 -80 0
-23 -79 0
-23 -69 0
-23 -65 0
-23 -62 0
-23 -59 0
-23 -57 0
-23 -51 0
-23 -49 0
-23 -41 0
-23 -29 0
-23 -27 0
-22 -109 0
-22 -108 0
-22 -107 0
-22 -105 0
-22 -97 0
-22 -92 0
-22 -81 0
-22 -75 0
-22 -62 0
-22 -44 0
-22 -43 0
-22 -42 0
-22 -38 0
-22 -36 0
-22 -31 0
-22 -28 0
-21 -109 0
-21 -108 0
-21 -107 0
-21 -105 0
-21 -101 0
-21 -99 0
-21 -97 0
-21 -92 0
-21 -78 0
-21 -64 0
-21 -62 0
-21 -56 0
-21 -49 0
-21 -46 0
-21 -34 0
-21 -31 0
-21 -28 0
-21 -22 0
-20 -104 0
-20 -102 0
-20 -94 0
-20 -86 0
-20 -79 0
-20 -72 0
-20 -69 0
-20 -68 0
-20 -65 0
-20 -62 0
-20 -59 0
-20 -45 0
-20 -43 0
-20 -35 0
-20 -34 0
-20 -27 0
-20 -25 0
-20 -23 0
-19 -107 0
-19 -106 0
-19 -103 0
-19 -95 0
-19 -90 0
-19 -85 0
-19 -76 0
-19 -74 0
-19 -54 0
-19 -41 0
-19 -36 0
-19 -35 0
-19 -27 0
-19 -26 0
-19 -24 0
-18 -106 0
-18 -103 0
-18 -101 0
-18 -99 0
-18 -95 0
-18 -85 0
-18 -78 0
-18 -64 0
-18 -56 0
-18 -54 0
-18 -49 0
-18 -46 0
-18 -36 0
-18 -34 0
-18 -27 0
-18 -26 0
-18 -21 0
-18 -19 0
-17 -104 0
-17 -102 0
-17 -97 0
-17 -72 0
-17 -71 0
-17 -68 0
-17 -63 0
-17 -58 0
-17 -45 0
-17 -43 0
-17 -35 0
-17 -34 0
-17 -30 0
-17 -29 0
-17 -25 0
-17 -20 0
-16 -108 0
-16 -104 0
-16 -101 0
-16 -100 0
-16 -91 0
-16 -90 0
-16 -85 0
-16 -84 0
-16 -81 0
-16 -70 0
-16 -67 0
-16 -59 0
-16 -48 0
-16 -47 0
-15 -106 0
-15 -89 0
-15 -87 0
-15 -86 0
-15 -82 0
-15 -78 0
-15 -75 0
-15 -74 0
-15 -73 0
-15 -67 0
-15 -61 0
-15 -58 0
-15 -55 0
-15 -53 0
-15 -51 0
-15 -48 0
-15 -28 0
-15 -25 0
-14 -101 0
-14 -100 0
-14 -97 0
-14 -91 0
-14 -90 0
-14 -81 0
-14 -71 0
-14 -67 0
-14 -63 0
-14 -59 0
-14 -58 0
-14 -47 0
-14 -30 0
-14 -29 0
-14 -17 0
-14 -16 0
-13 -108 0
-13 -104 0
-13 -96 0
-13 -94 0
-13 -85 0
-13 -84 0
-13 -70 0
-13 -66 0
-13 -63 0
-13 -61 0
-13 -48 0
-13 -46 0
-13 -33 0
-13 -32 0
-13 -24 0
-13 -16 0
-12 -105 0
-12 -103 0
-12 -100 0
-12 -98 0
-12 -96 0
-12 -89 0
-12 -88 0
-12 -83 0
-12 -76 0
-12 -70 0
-12 -69 0
-12 -68 0
-12 -56 0
-12 -50 0
-12 -42 0
-12 -40 0
-12 -37 0
-12 -30 0
-11 -111 0
-11 -108 0
-11 -104 0
-11 -98 0
-11 -85 0
-11 -84 0
-11 -80 0
-11 -70 0
-11 -57 0
-11 -51 0
-11 -49 0
-11 -48 0
-11 -41 0
-11 -29 0
-11 -23 0
-11 -16 0
-11 -13 0
-10 -99 0
-10 -97 0
-10 -82 0
-10 -79 0
-10 -77 0
-10 -71 0
-10 -63 0
-10 -58 0
-10 -52 0
-10 -44 0
-10 -37 0
-10 -30 0
-10 -29 0
-10 -17 0
-10 -14 0
-9 -107 0
-9 -99 0
-9 -90 0
-9 -82 0
-9 -79 0
-9 -77 0
-9 -76 0
-9 -74 0
-9 -52 0
-9 -44 0
-9 -41 0
-9 -37 0
-9 -35 0
-9 -24 0
-9 -19 0
-9 -10 0
-8 -106 0
-8 -103 0
-8 -97 0
-8 -95 0
-8 -85 0
-8 -71 0
-8 -63 0
-8 -58 0
-8 -54 0
-8 -36 0
-8 -30 0
-8 -29 0
-8 -27 0
-8 -26 0
-8 -19 0
-8 -18 0
-8 -17 0
-8 -14 0
-8 -10 0
-7 -111 0
-7 -98 0
-7 -81 0
-7 -80 0
-7 -75 0
-7 -57 0
-7 -51 0
-7 -49 0
-7 -44 0
-7 -43 0
-7 -42 0
-7 -41 0
-7 -38 0
-7 -36 0
-7 -29 0
-7 -23 0
-7 -22 0
-7 -11 0
-6 -110 0
-6 -102 0
-6 -99 0
-6 -92 0
-6 -91 0
-6 -82 0
-6 -80 0
-6 -79 0
-6 -77 0
-6 -73 0
-6 -52 0
-6 -50 0
-6 -44 0
-6 -37 0
-6 -33 0
-6 -26 0
-6 -10 0
-6 -9 0
-5 -108 0
-5 -104 0
-5 -99 0
-5 -85 0
-5 -84 0
-5 -82 0
-5 -79 0
-5 -77 0
-5 -70 0
-5 -52 0
-5 -48 0
-5 -44 0
-5 -37 0
-5 -16 0
-5 -13 0
-5 -11 0
-5 -10 0
-5 -9 0
-5 -6 0
-4 -105 0
-4 -103 0
-4 -100 0
-4 -98 0
-4 -96 0
-4 -86 0
-4 -78 0
-4 -75 0
-4 -74 0
-4 -73 0
-4 -68 0
-4 -58 0
-4 -55 0
-4 -53 0
-4 -48 0
-4 -40 0
-4 -37 0
-4 -15 0
-4 -12 0
-3 -110 0
-3 -107 0
-3 -93 0
-3 -90 0
-3 -87 0
-3 -84 0
-3 -76 0
-3 -74 0
-3 -71 0
-3 -65 0
-3 -64 0
-3 -60 0
-3 -41 0
-3 -40 0
-3 -38 0
-3 -35 0
-3 -24 0
-3 -19 0
-3 -9 0
-2 -101 0
-2 -100 0
-2 -95 0
-2 -91 0
-2 -90 0
-2 -83 0
-2 -81 0
-2 -67 0
-2 -66 0
-2 -60 0
-2 -59 0
-2 -57 0
-2 -53 0
-2 -52 0
-2 -47 0
-2 -45 0
-2 -31 0
-2 -16 0
-2 -14 0
-1 -96 0
-1 -94 0
-1 -81 0
-1 -75 0
-1 -66 0
-1 -63 0
-1 -61 0
-1 -46 0
-1 -44 0
-1 -43 0
-1 -42 0
-1 -38 0
-1 -36 0
-1 -33 0
-1 -32 0
-1 -24 0
-1 -22 0
-1 -13 0
-1 -7 0
2 31 45 52 53 57 60 66 83 95 0
3 9 19 24 35 41 74 76 90 107 0
4 12 37 40 68 96 98 100 103 105 0
5 11 13 16 48 70 84 85 104 108 0
6 26 33 50 73 80 91 92 102 110 0
8 10 14 17 29 30 58 63 71 97 0
15 25 28 51 61 67 82 87 89 106 0
18 21 34 46 49 56 64 78 99 101 0
20 23 27 59 62 65 69 79 86 94 0
32 47 54 55 72 77 88 93 109 111 0
1 7 22 36 38 39 42 43 44 75 81 0
