p cnf 133 1398
-128 -132 0
-127 -130 0
-126 -127 0
-125 -132 0
-124 -129 0
-124 -128 0
-123 -126 0
-122 -132 0
-122 -128 0
-122 -126 0
-122 -123 0
-121 -129 0
-120 -131 0
-119 -129 0
-119 -124 0
-118 -132 0
-118 -125 0
-117 -130 0
-117 -127 0
-117 -123 0
-116 -125 0
-115 -116 0
-114 -127 0
-114 -126 0
-114 -120 0
-113 -127 0
-113 -126 0
-113 -116 0
-113 -115 0
-113 -114 0
-112 -133 0
-112 -128 0
-112 -124 0
-111 -121 0
-110 -132 0
-110 -129 0
-110 -125 0
-110 -124 0
-110 -119 0
-110 -118 0
-109 -132 0
-109 -128 0
-109 -122 0
-109 -116 0
-109 -115 0
-109 -113 0
-108 -123 0
-108 -117 0
-108 -111 0
-107 -131 0
-107 -126 0
-107 -123 0
-107 -122 0
-107 -120 0
-106 -133 0
-106 -112 0
-106 -111 0
-106 -108 0
-105 -133 0
-105 -121 0
-105 -111 0
-104 -129 0
-104 -124 0
-104 -120 0
-104 -119 0
-104 -114 0
-104 -110 0
-103 -130 0
-103 -127 0
-103 -118 0
-103 -117 0
-102 -130 0
-102 -111 0
-102 -108 0
-102 -106 0
-101 -133 0
-101 -125 0
-101 -116 0
-101 -105 0
-100 -127 0
-100 -126 0
-100 -114 0
-100 -113 0
-100 -111 0
-100 -108 0
-100 -106 0
-100 -102 0
-99 -130 0
-99 -119 0
-99 -102 0
-98 -131 0
-98 -118 0
-98 -103 0
-97 -131 0
-97 -120 0
-97 -111 0
-97 -108 0
-97 -107 0
-97 -106 0
-97 -102 0
-97 -100 0
-96 -128 0
-96 -124 0
-96 -112 0
-95 -119 0
-95 -115 0
-95 -99 0
-94 -132 0
-94 -125 0
-94 -123 0
-94 -118 0
-94 -117 0
-94 -110 0
-94 -108 0
-93 -133 0
-93 -105 0
-93 -101 0
-93 -96 0
-92 -131 0
-92 -123 0
-92 -117 0
-92 -108 0
-92 -98 0
-92 -94 0
-91 -119 0
-91 -118 0
-91 -103 0
-91 -99 0
-91 -98 0
-91 -95 0
-90 -132 0
-90 -125 0
-90 -118 0
-90 -115 0
-90 -110 0
-90 -95 0
-90 -94 0
-89 -133 0
-89 -116 0
-89 -115 0
-89 -113 0
-89 -112 0
-89 -109 0
-89 -106 0
-88 -125 0
-88 -120 0
-88 -116 0
-88 -114 0
-88 -104 0
-88 -101 0
-87 -133 0
-87 -132 0
-87 -128 0
-87 -122 0
-87 -109 0
-87 -105 0
-87 -101 0
-87 -93 0
-86 -131 0
-86 -120 0
-86 -119 0
-86 -107 0
-86 -99 0
-86 -97 0
-86 -95 0
-86 -91 0
-85 -130 0
-85 -127 0
-85 -121 0
-85 -117 0
-85 -111 0
-85 -105 0
-85 -103 0
-84 -133 0
-84 -131 0
-84 -120 0
-84 -107 0
-84 -105 0
-84 -101 0
-84 -97 0
-84 -93 0
-84 -87 0
-84 -86 0
-83 -132 0
-83 -125 0
-83 -121 0
-83 -118 0
-83 -111 0
-83 -110 0
-83 -105 0
-83 -94 0
-83 -90 0
-83 -85 0
-82 -132 0
-82 -131 0
-82 -128 0
-82 -122 0
-82 -109 0
-82 -98 0
-82 -92 0
-82 -87 0
-81 -120 0
-81 -118 0
-81 -114 0
-81 -104 0
-81 -103 0
-81 -98 0
-81 -91 0
-81 -88 0
-80 -126 0
-80 -123 0
-80 -122 0
-80 -107 0
-80 -96 0
-80 -93 0
-79 -132 0
-79 -127 0
-79 -126 0
-79 -125 0
-79 -118 0
-79 -114 0
-79 -113 0
-79 -110 0
-79 -100 0
-79 -94 0
-79 -90 0
-79 -83 0
-78 -133 0
-78 -129 0
-78 -121 0
-78 -112 0
-78 -106 0
-78 -89 0
-77 -130 0
-77 -127 0
-77 -125 0
-77 -117 0
-77 -116 0
-77 -103 0
-77 -101 0
-77 -88 0
-77 -85 0
-76 -120 0
-76 -114 0
-76 -104 0
-76 -96 0
-76 -93 0
-76 -88 0
-76 -81 0
-76 -80 0
-75 -133 0
-75 -129 0
-75 -124 0
-75 -119 0
-75 -110 0
-75 -105 0
-75 -104 0
-75 -101 0
-75 -93 0
-75 -87 0
-75 -84 0
-74 -133 0
-74 -115 0
-74 -105 0
-74 -101 0
-74 -95 0
-74 -93 0
-74 -90 0
-74 -87 0
-74 -84 0
-74 -75 0
-73 -131 0
-73 -130 0
-73 -127 0
-73 -120 0
-73 -117 0
-73 -107 0
-73 -103 0
-73 -97 0
-73 -86 0
-73 -85 0
-73 -84 0
-73 -77 0
-72 -129 0
-72 -126 0
-72 -124 0
-72 -123 0
-72 -122 0
-72 -119 0
-72 -110 0
-72 -107 0
-72 -104 0
-72 -80 0
-72 -75 0
-71 -111 0
-71 -108 0
-71 -106 0
-71 -102 0
-71 -100 0
-71 -97 0
-71 -96 0
-71 -93 0
-71 -80 0
-71 -76 0
-70 -129 0
-70 -121 0
-70 -115 0
-70 -95 0
-70 -90 0
-70 -78 0
-70 -74 0
-69 -128 0
-69 -124 0
-69 -115 0
-69 -112 0
-69 -96 0
-69 -95 0
-69 -90 0
-69 -74 0
-69 -70 0
-68 -126 0
-68 -123 0
-68 -122 0
-68 -118 0
-68 -107 0
-68 -103 0
-68 -98 0
-68 -91 0
-68 -81 0
-68 -80 0
-68 -72 0
-67 -131 0
-67 -128 0
-67 -124 0
-67 -120 0
-67 -112 0
-67 -107 0
-67 -97 0
-67 -96 0
-67 -86 0
-67 -84 0
-67 -73 0
-67 -69 0
-66 -133 0
-66 -126 0
-66 -123 0
-66 -122 0
-66 -112 0
-66 -107 0
-66 -106 0
-66 -89 0
-66 -80 0
-66 -78 0
-66 -72 0
-66 -68 0
-65 -133 0
-65 -131 0
-65 -112 0
-65 -106 0
-65 -98 0
-65 -92 0
-65 -89 0
-65 -82 0
-65 -78 0
-65 -66 0
-64 -121 0
-64 -116 0
-64 -115 0
-64 -113 0
-64 -111 0
-64 -109 0
-64 -105 0
-64 -89 0
-64 -85 0
-64 -83 0
-63 -131 0
-63 -121 0
-63 -111 0
-63 -105 0
-63 -98 0
-63 -92 0
-63 -85 0
-63 -83 0
-63 -82 0
-63 -65 0
-63 -64 0
-62 -131 0
-62 -129 0
-62 -124 0
-62 -119 0
-62 -110 0
-62 -104 0
-62 -98 0
-62 -92 0
-62 -82 0
-62 -75 0
-62 -72 0
-62 -65 0
-62 -63 0
-61 -116 0
-61 -115 0
-61 -113 0
-61 -109 0
-61 -96 0
-61 -93 0
-61 -89 0
-61 -80 0
-61 -76 0
-61 -71 0
-61 -64 0
-60 -133 0
-60 -132 0
-60 -125 0
-60 -118 0
-60 -112 0
-60 -110 0
-60 -106 0
-60 -94 0
-60 -90 0
-60 -89 0
-60 -83 0
-60 -79 0
-60 -78 0
-60 -66 0
-60 -65 0
-59 -123 0
-59 -119 0
-59 -117 0
-59 -108 0
-59 -99 0
-59 -95 0
-59 -94 0
-59 -92 0
-59 -91 0
-59 -86 0
-58 -132 0
-58 -130 0
-58 -125 0
-58 -118 0
-58 -110 0
-58 -102 0
-58 -99 0
-58 -94 0
-58 -90 0
-58 -83 0
-58 -79 0
-58 -60 0
-57 -129 0
-57 -124 0
-57 -119 0
-57 -111 0
-57 -110 0
-57 -108 0
-57 -106 0
-57 -104 0
-57 -102 0
-57 -100 0
-57 -97 0
-57 -75 0
-57 -72 0
-57 -71 0
-57 -62 0
-56 -130 0
-56 -127 0
-56 -117 0
-56 -103 0
-56 -96 0
-56 -93 0
-56 -85 0
-56 -80 0
-56 -77 0
-56 -76 0
-56 -73 0
-56 -71 0
-56 -61 0
-55 -119 0
-55 -99 0
-55 -96 0
-55 -95 0
-55 -93 0
-55 -91 0
-55 -86 0
-55 -80 0
-55 -76 0
-55 -71 0
-55 -61 0
-55 -59 0
-55 -56 0
-54 -128 0
-54 -125 0
-54 -124 0
-54 -116 0
-54 -112 0
-54 -101 0
-54 -96 0
-54 -88 0
-54 -77 0
-54 -69 0
-54 -67 0
-53 -133 0
-53 -119 0
-53 -112 0
-53 -106 0
-53 -99 0
-53 -95 0
-53 -91 0
-53 -89 0
-53 -86 0
-53 -78 0
-53 -66 0
-53 -65 0
-53 -60 0
-53 -59 0
-53 -55 0
-52 -123 0
-52 -120 0
-52 -117 0
-52 -114 0
-52 -108 0
-52 -104 0
-52 -94 0
-52 -92 0
-52 -88 0
-52 -81 0
-52 -76 0
-52 -59 0
-51 -132 0
-51 -128 0
-51 -122 0
-51 -120 0
-51 -114 0
-51 -109 0
-51 -104 0
-51 -88 0
-51 -87 0
-51 -82 0
-51 -81 0
-51 -76 0
-51 -52 0
-50 -127 0
-50 -126 0
-50 -119 0
-50 -114 0
-50 -113 0
-50 -100 0
-50 -99 0
-50 -95 0
-50 -91 0
-50 -86 0
-50 -79 0
-50 -59 0
-50 -55 0
-50 -53 0
-48 -121 0
-48 -119 0
-48 -111 0
-48 -105 0
-48 -99 0
-48 -95 0
-48 -91 0
-48 -86 0
-48 -85 0
-48 -83 0
-48 -64 0
-48 -63 0
-48 -59 0
-48 -55 0
-48 -53 0
-48 -50 0
-47 -128 0
-47 -124 0
-47 -118 0
-47 -112 0
-47 -103 0
-47 -98 0
-47 -96 0
-47 -91 0
-47 -81 0
-47 -69 0
-47 -68 0
-47 -67 0
-47 -54 0
-46 -126 0
-46 -123 0
-46 -122 0
-46 -121 0
-46 -111 0
-46 -107 0
-46 -105 0
-46 -85 0
-46 -83 0
-46 -80 0
-46 -72 0
-46 -68 0
-46 -66 0
-46 -64 0
-46 -63 0
-46 -48 0
-45 -130 0
-45 -128 0
-45 -124 0
-45 -112 0
-45 -102 0
-45 -99 0
-45 -96 0
-45 -69 0
-45 -67 0
-45 -58 0
-45 -54 0
-45 -47 0
-44 -132 0
-44 -131 0
-44 -125 0
-44 -120 0
-44 -118 0
-44 -110 0
-44 -107 0
-44 -97 0
-44 -94 0
-44 -90 0
-44 -86 0
-44 -84 0
-44 -83 0
-44 -79 0
-44 -73 0
-44 -67 0
-44 -60 0
-44 -58 0
-43 -118 0
-43 -116 0
-43 -115 0
-43 -113 0
-43 -109 0
-43 -103 0
-43 -98 0
-43 -91 0
-43 -89 0
-43 -81 0
-43 -68 0
-43 -64 0
-43 -61 0
-43 -47 0
-42 -130 0
-42 -127 0
-42 -117 0
-42 -115 0
-42 -103 0
-42 -95 0
-42 -90 0
-42 -85 0
-42 -77 0
-42 -74 0
-42 -73 0
-42 -70 0
-42 -69 0
-42 -56 0
-41 -129 0
-41 -127 0
-41 -126 0
-41 -121 0
-41 -114 0
-41 -113 0
-41 -100 0
-41 -79 0
-41 -78 0
-41 -70 0
-41 -50 0
-40 -128 0
-40 -124 0
-40 -123 0
-40 -117 0
-40 -112 0
-40 -108 0
-40 -96 0
-40 -94 0
-40 -92 0
-40 -69 0
-40 -67 0
-40 -59 0
-40 -54 0
-40 -52 0
-40 -47 0
-40 -45 0
-39 -131 0
-39 -130 0
-39 -102 0
-39 -99 0
-39 -98 0
-39 -92 0
-39 -82 0
-39 -65 0
-39 -63 0
-39 -62 0
-39 -58 0
-39 -45 0
-38 -133 0
-38 -123 0
-38 -117 0
-38 -108 0
-38 -105 0
-38 -101 0
-38 -94 0
-38 -93 0
-38 -92 0
-38 -87 0
-38 -84 0
-38 -75 0
-38 -74 0
-38 -59 0
-38 -52 0
-38 -40 0
-37 -129 0
-37 -125 0
-37 -121 0
-37 -116 0
-37 -101 0
-37 -88 0
-37 -78 0
-37 -77 0
-37 -70 0
-37 -54 0
-37 -41 0
-36 -131 0
-36 -120 0
-36 -116 0
-36 -115 0
-36 -113 0
-36 -109 0
-36 -107 0
-36 -97 0
-36 -89 0
-36 -86 0
-36 -84 0
-36 -73 0
-36 -67 0
-36 -64 0
-36 -61 0
-36 -44 0
-36 -43 0
-35 -131 0
-35 -115 0
-35 -98 0
-35 -95 0
-35 -92 0
-35 -90 0
-35 -82 0
-35 -74 0
-35 -70 0
-35 -69 0
-35 -65 0
-35 -63 0
-35 -62 0
-35 -42 0
-35 -39 0
-34 -120 0
-34 -115 0
-34 -114 0
-34 -104 0
-34 -95 0
-34 -90 0
-34 -88 0
-34 -81 0
-34 -76 0
-34 -74 0
-34 -70 0
-34 -69 0
-34 -52 0
-34 -51 0
-34 -42 0
-34 -35 0
-33 -133 0
-33 -120 0
-33 -114 0
-33 -112 0
-33 -106 0
-33 -104 0
-33 -89 0
-33 -88 0
-33 -81 0
-33 -78 0
-33 -76 0
-33 -66 0
-33 -65 0
-33 -60 0
-33 -53 0
-33 -52 0
-33 -51 0
-33 -34 0
-32 -126 0
-32 -125 0
-32 -123 0
-32 -122 0
-32 -116 0
-32 -107 0
-32 -101 0
-32 -88 0
-32 -80 0
-32 -77 0
-32 -72 0
-32 -68 0
-32 -66 0
-32 -54 0
-32 -46 0
-32 -37 0
-31 -130 0
-31 -129 0
-31 -127 0
-31 -124 0
-31 -119 0
-31 -117 0
-31 -110 0
-31 -104 0
-31 -103 0
-31 -85 0
-31 -77 0
-31 -75 0
-31 -73 0
-31 -72 0
-31 -62 0
-31 -57 0
-31 -56 0
-31 -42 0
-30 -130 0
-30 -120 0
-30 -114 0
-30 -104 0
-30 -102 0
-30 -99 0
-30 -88 0
-30 -81 0
-30 -76 0
-30 -58 0
-30 -52 0
-30 -51 0
-30 -45 0
-30 -39 0
-30 -34 0
-30 -33 0
-29 -126 0
-29 -123 0
-29 -122 0
-29 -115 0
-29 -107 0
-29 -95 0
-29 -90 0
-29 -80 0
-29 -74 0
-29 -72 0
-29 -70 0
-29 -69 0
-29 -68 0
-29 -66 0
-29 -46 0
-29 -42 0
-29 -35 0
-29 -34 0
-29 -32 0
-28 -130 0
-28 -129 0
-28 -121 0
-28 -102 0
-28 -99 0
-28 -78 0
-28 -70 0
-28 -58 0
-28 -45 0
-28 -41 0
-28 -39 0
-28 -37 0
-28 -30 0
-27 -133 0
-27 -118 0
-27 -105 0
-27 -103 0
-27 -101 0
-27 -98 0
-27 -93 0
-27 -91 0
-27 -87 0
-27 -84 0
-27 -81 0
-27 -75 0
-27 -74 0
-27 -68 0
-27 -47 0
-27 -43 0
-27 -38 0
-26 -115 0
-26 -111 0
-26 -108 0
-26 -106 0
-26 -102 0
-26 -100 0
-26 -97 0
-26 -95 0
-26 -90 0
-26 -74 0
-26 -71 0
-26 -70 0
-26 -69 0
-26 -57 0
-26 -42 0
-26 -35 0
-26 -34 0
-26 -29 0
-25 -121 0
-25 -120 0
-25 -114 0
-25 -111 0
-25 -105 0
-25 -104 0
-25 -88 0
-25 -85 0
-25 -83 0
-25 -81 0
-25 -76 0
-25 -64 0
-25 -63 0
-25 -52 0
-25 -51 0
-25 -48 0
-25 -46 0
-25 -34 0
-25 -33 0
-25 -30 0
-24 -132 0
-24 -130 0
-24 -128 0
-24 -127 0
-24 -122 0
-24 -117 0
-24 -109 0
-24 -103 0
-24 -87 0
-24 -85 0
-24 -82 0
-24 -77 0
-24 -73 0
-24 -56 0
-24 -51 0
-24 -42 0
-24 -31 0
-23 -129 0
-23 -123 0
-23 -121 0
-23 -117 0
-23 -108 0
-23 -94 0
-23 -92 0
-23 -78 0
-23 -70 0
-23 -59 0
-23 -52 0
-23 -41 0
-23 -40 0
-23 -38 0
-23 -37 0
-23 -28 0
-22 -131 0
-22 -127 0
-22 -126 0
-22 -114 0
-22 -113 0
-22 -100 0
-22 -98 0
-22 -92 0
-22 -82 0
-22 -79 0
-22 -65 0
-22 -63 0
-22 -62 0
-22 -50 0
-22 -41 0
-22 -39 0
-22 -35 0
-21 -129 0
-21 -121 0
-21 -118 0
-21 -103 0
-21 -98 0
-21 -91 0
-21 -81 0
-21 -78 0
-21 -70 0
-21 -68 0
-21 -47 0
-21 -43 0
-21 -41 0
-21 -37 0
-21 -28 0
-21 -27 0
-21 -23 0
-20 -131 0
-20 -98 0
-20 -96 0
-20 -93 0
-20 -92 0
-20 -82 0
-20 -80 0
-20 -76 0
-20 -71 0
-20 -65 0
-20 -63 0
-20 -62 0
-20 -61 0
-20 -56 0
-20 -55 0
-20 -39 0
-20 -35 0
-20 -22 0
-19 -125 0
-19 -119 0
-19 -116 0
-19 -101 0
-19 -99 0
-19 -95 0
-19 -91 0
-19 -88 0
-19 -86 0
-19 -77 0
-19 -59 0
-19 -55 0
-19 -54 0
-19 -53 0
-19 -50 0
-19 -48 0
-19 -37 0
-19 -32 0
-18 -118 0
-18 -111 0
-18 -108 0
-18 -106 0
-18 -103 0
-18 -102 0
-18 -100 0
-18 -98 0
-18 -97 0
-18 -91 0
-18 -81 0
-18 -71 0
-18 -68 0
-18 -57 0
-18 -47 0
-18 -43 0
-18 -27 0
-18 -26 0
-18 -21 0
-17 -123 0
-17 -117 0
-17 -116 0
-17 -115 0
-17 -113 0
-17 -109 0
-17 -108 0
-17 -94 0
-17 -92 0
-17 -89 0
-17 -64 0
-17 -61 0
-17 -59 0
-17 -52 0
-17 -43 0
-17 -40 0
-17 -38 0
-17 -36 0
-17 -23 0
-16 -131 0
-16 -125 0
-16 -116 0
-16 -101 0
-16 -98 0
-16 -92 0
-16 -88 0
-16 -82 0
-16 -77 0
-16 -65 0
-16 -63 0
-16 -62 0
-16 -54 0
-16 -39 0
-16 -37 0
-16 -35 0
-16 -32 0
-16 -22 0
-16 -20 0
-16 -19 0
-15 -133 0
-15 -130 0
-15 -105 0
-15 -102 0
-15 -101 0
-15 -99 0
-15 -93 0
-15 -87 0
-15 -84 0
-15 -75 0
-15 -74 0
-15 -58 0
-15 -45 0
-15 -39 0
-15 -38 0
-15 -30 0
-15 -28 0
-15 -27 0
-14 -129 0
-14 -124 0
-14 -119 0
-14 -116 0
-14 -115 0
-14 -113 0
-14 -110 0
-14 -109 0
-14 -104 0
-14 -89 0
-14 -75 0
-14 -72 0
-14 -64 0
-14 -62 0
-14 -61 0
-14 -57 0
-14 -43 0
-14 -36 0
-14 -31 0
-14 -17 0
-13 -132 0
-13 -128 0
-13 -122 0
-13 -119 0
-13 -109 0
-13 -99 0
-13 -95 0
-13 -91 0
-13 -87 0
-13 -86 0
-13 -82 0
-13 -59 0
-13 -55 0
-13 -53 0
-13 -51 0
-13 -50 0
-13 -48 0
-13 -24 0
-13 -19 0
-12 -130 0
-12 -116 0
-12 -115 0
-12 -113 0
-12 -109 0
-12 -102 0
-12 -99 0
-12 -89 0
-12 -64 0
-12 -61 0
-12 -58 0
-12 -45 0
-12 -43 0
-12 -39 0
-12 -36 0
-12 -30 0
-12 -28 0
-12 -17 0
-12 -15 0
-12 -14 0
-11 -133 0
-11 -130 0
-11 -127 0
-11 -117 0
-11 -112 0
-11 -106 0
-11 -103 0
-11 -89 0
-11 -85 0
-11 -78 0
-11 -77 0
-11 -73 0
-11 -66 0
-11 -65 0
-11 -60 0
-11 -56 0
-11 -53 0
-11 -42 0
-11 -33 0
-11 -31 0
-11 -24 0
-10 -133 0
-10 -127 0
-10 -126 0
-10 -114 0
-10 -113 0
-10 -105 0
-10 -101 0
-10 -100 0
-10 -93 0
-10 -87 0
-10 -84 0
-10 -79 0
-10 -75 0
-10 -74 0
-10 -50 0
-10 -41 0
-10 -38 0
-10 -27 0
-10 -22 0
-10 -15 0
-9 -132 0
-9 -125 0
-9 -118 0
-9 -110 0
-9 -96 0
-9 -94 0
-9 -93 0
-9 -90 0
-9 -83 0
-9 -80 0
-9 -79 0
-9 -76 0
-9 -71 0
-9 -61 0
-9 -60 0
-9 -58 0
-9 -56 0
-9 -55 0
-9 -44 0
-9 -20 0
-8 -128 0
-8 -127 0
-8 -126 0
-8 -124 0
-8 -114 0
-8 -113 0
-8 -112 0
-8 -100 0
-8 -96 0
-8 -79 0
-8 -69 0
-8 -67 0
-8 -54 0
-8 -50 0
-8 -47 0
-8 -45 0
-8 -41 0
-8 -40 0
-8 -22 0
-8 -10 0
-7 -128 0
-7 -124 0
-7 -121 0
-7 -112 0
-7 -111 0
-7 -105 0
-7 -96 0
-7 -85 0
-7 -83 0
-7 -69 0
-7 -67 0
-7 -64 0
-7 -63 0
-7 -54 0
-7 -48 0
-7 -47 0
-7 -46 0
-7 -45 0
-7 -40 0
-7 -25 0
-7 -8 0
-6 -131 0
-6 -129 0
-6 -121 0
-6 -120 0
-6 -107 0
-6 -97 0
-6 -86 0
-6 -84 0
-6 -78 0
-6 -73 0
-6 -70 0
-6 -67 0
-6 -44 0
-6 -41 0
-6 -37 0
-6 -36 0
-6 -28 0
-6 -23 0
-6 -21 0
-5 -132 0
-5 -128 0
-5 -122 0
-5 -111 0
-5 -109 0
-5 -108 0
-5 -106 0
-5 -102 0
-5 -100 0
-5 -97 0
-5 -87 0
-5 -82 0
-5 -71 0
-5 -57 0
-5 -51 0
-5 -26 0
-5 -24 0
-5 -18 0
-5 -13 0
-4 -132 0
-4 -129 0
-4 -128 0
-4 -122 0
-4 -121 0
-4 -109 0
-4 -87 0
-4 -82 0
-4 -78 0
-4 -70 0
-4 -51 0
-4 -41 0
-4 -37 0
-4 -28 0
-4 -24 0
-4 -23 0
-4 -21 0
-4 -13 0
-4 -6 0
-4 -5 0
-3 -129 0
-3 -121 0
-3 -96 0
-3 -93 0
-3 -80 0
-3 -78 0
-3 -76 0
-3 -71 0
-3 -70 0
-3 -61 0
-3 -56 0
-3 -55 0
-3 -41 0
-3 -37 0
-3 -28 0
-3 -23 0
-3 -21 0
-3 -20 0
-3 -9 0
-3 -6 0
-3 -4 0
-2 -125 0
-2 -116 0
-2 -111 0
-2 -108 0
-2 -106 0
-2 -102 0
-2 -101 0
-2 -100 0
-2 -97 0
-2 -88 0
-2 -77 0
-2 -71 0
-2 -57 0
-2 -54 0
-2 -37 0
-2 -32 0
-2 -26 0
-2 -19 0
-2 -18 0
-2 -16 0
-2 -5 0
-1 -130 0
-1 -126 0
-1 -123 0
-1 -122 0
-1 -107 0
-1 -102 0
-1 -99 0
-1 -80 0
-1 -72 0
-1 -68 0
-1 -66 0
-1 -58 0
-1 -46 0
-1 -45 0
-1 -39 0
-1 -32 0
-1 -30 0
-1 -29 0
-1 -28 0
-1 -15 0
-1 -12 0
1 12 15 28 30 39 45 58 99 102 130 0
2 16 19 32 37 54 77 88 101 116 125 0
3 9 20 55 56 61 71 76 80 93 96 0
4 5 13 24 51 82 87 109 122 128 132 0
6 36 44 67 73 84 86 97 107 120 131 0
7 25 46 48 63 64 83 85 105 111 121 0
8 10 22 41 50 79 100 113 114 126 127 0
11 33 53 60 65 66 78 89 106 112 133 0
14 31 57 62 72 75 104 110 119 124 129 0
17 23 38 40 52 59 92 94 108 117 123 0
18 21 27 43 47 68 81 91 98 103 118 0
26 29 34 35 42 49 69 70 74 90 95 115 0
