p cnf 111 1056
-109 -110 0
-107 -110 0
-107 -109 0
-105 -107 0
-104 -108 0
-103 -110 0
-102 -110 0
-102 -106 0
-102 -103 0
-101 -110 0
-101 -109 0
-101 -107 0
-101 -106 0
-100 -105 0
-99 -106 0
-99 -101 0
-98 -110 0
-98 -105 0
-98 -103 0
-98 -102 0
-98 -100 0
-97 -100 0
-97 -99 0
-96 -106 0
-96 -101 0
-96 -99 0
-95 -111 0
-94 -99 0
-94 -97 0
-92 -107 0
-92 -105 0
-92 -93 0
-91 -109 0
-91 -95 0
-90 -109 0
-90 -93 0
-90 -92 0
-90 -91 0
-89 -109 0
-89 -103 0
-89 -91 0
-89 -90 0
-88 -108 0
-88 -104 0
-88 -94 0
-87 -106 0
-87 -101 0
-87 -99 0
-87 -96 0
-87 -95 0
-87 -91 0
-86 -107 0
-86 -105 0
-86 -92 0
-85 -106 0
-85 -102 0
-85 -94 0
-85 -88 0
-84 -110 0
-84 -103 0
-84 -102 0
-84 -99 0
-84 -98 0
-84 -97 0
-84 -94 0
-83 -104 0
-83 -103 0
-83 -89 0
-82 -100 0
-82 -97 0
-82 -95 0
-82 -91 0
-82 -87 0
-81 -106 0
-81 -102 0
-81 -93 0
-81 -85 0
-80 -105 0
-80 -100 0
-80 -98 0
-80 -94 0
-80 -88 0
-80 -85 0
-79 -111 0
-79 -94 0
-79 -88 0
-79 -85 0
-79 -80 0
-78 -109 0
-78 -91 0
-78 -90 0
-78 -89 0
-78 -86 0
-77 -105 0
-77 -100 0
-77 -98 0
-77 -93 0
-77 -81 0
-77 -80 0
-76 -107 0
-76 -105 0
-76 -99 0
-76 -97 0
-76 -94 0
-76 -92 0
-76 -86 0
-76 -84 0
-75 -104 0
-75 -93 0
-75 -92 0
-75 -90 0
-75 -83 0
-74 -96 0
-74 -94 0
-74 -88 0
-74 -85 0
-74 -80 0
-74 -79 0
-73 -96 0
-73 -93 0
-73 -81 0
-73 -77 0
-73 -74 0
-72 -110 0
-72 -103 0
-72 -102 0
-72 -98 0
-72 -95 0
-72 -91 0
-72 -87 0
-72 -84 0
-72 -82 0
-71 -106 0
-71 -102 0
-71 -100 0
-71 -97 0
-71 -85 0
-71 -82 0
-71 -81 0
-70 -108 0
-70 -104 0
-70 -100 0
-70 -97 0
-70 -88 0
-70 -82 0
-70 -71 0
-69 -111 0
-69 -108 0
-69 -104 0
-69 -95 0
-69 -88 0
-69 -70 0
-68 -110 0
-68 -109 0
-68 -108 0
-68 -107 0
-68 -101 0
-66 -107 0
-66 -105 0
-66 -103 0
-66 -92 0
-66 -89 0
-66 -86 0
-66 -83 0
-66 -76 0
-65 -108 0
-65 -93 0
-65 -92 0
-65 -90 0
-65 -75 0
-65 -68 0
-64 -111 0
-64 -106 0
-64 -102 0
-64 -95 0
-64 -85 0
-64 -81 0
-64 -71 0
-64 -69 0
-63 -108 0
-63 -86 0
-63 -78 0
-63 -68 0
-63 -65 0
-62 -108 0
-62 -105 0
-62 -100 0
-62 -98 0
-62 -80 0
-62 -77 0
-62 -68 0
-62 -65 0
-62 -63 0
-61 -104 0
-61 -96 0
-61 -83 0
-61 -75 0
-61 -74 0
-61 -73 0
-60 -109 0
-60 -106 0
-60 -102 0
-60 -91 0
-60 -90 0
-60 -89 0
-60 -85 0
-60 -81 0
-60 -78 0
-60 -71 0
-60 -64 0
-59 -111 0
-59 -107 0
-59 -105 0
-59 -92 0
-59 -86 0
-59 -79 0
-59 -76 0
-59 -66 0
-58 -109 0
-58 -108 0
-58 -104 0
-58 -91 0
-58 -90 0
-58 -89 0
-58 -88 0
-58 -78 0
-58 -70 0
-58 -69 0
-58 -60 0
-57 -104 0
-57 -99 0
-57 -97 0
-57 -94 0
-57 -84 0
-57 -83 0
-57 -76 0
-57 -75 0
-57 -61 0
-56 -110 0
-56 -103 0
-56 -102 0
-56 -98 0
-56 -96 0
-56 -84 0
-56 -74 0
-56 -73 0
-56 -72 0
-56 -61 0
-55 -100 0
-55 -97 0
-55 -86 0
-55 -82 0
-55 -78 0
-55 -71 0
-55 -70 0
-55 -63 0
-54 -100 0
-54 -97 0
-54 -93 0
-54 -92 0
-54 -90 0
-54 -82 0
-54 -75 0
-54 -71 0
-54 -70 0
-54 -65 0
-54 -55 0
-53 -95 0
-53 -93 0
-53 -91 0
-53 -87 0
-53 -82 0
-53 -81 0
-53 -77 0
-53 -73 0
-53 -72 0
-52 -111 0
-52 -100 0
-52 -97 0
-52 -82 0
-52 -79 0
-52 -71 0
-52 -70 0
-52 -59 0
-52 -55 0
-52 -54 0
-51 -108 0
-51 -99 0
-51 -97 0
-51 -94 0
-51 -84 0
-51 -76 0
-51 -68 0
-51 -65 0
-51 -63 0
-51 -62 0
-51 -57 0
-50 -106 0
-50 -104 0
-50 -102 0
-50 -85 0
-50 -83 0
-50 -81 0
-50 -75 0
-50 -71 0
-50 -64 0
-50 -61 0
-50 -60 0
-50 -57 0
-49 -108 0
-49 -103 0
-49 -89 0
-49 -83 0
-49 -68 0
-49 -66 0
-49 -65 0
-49 -63 0
-49 -62 0
-49 -51 0
-48 -104 0
-48 -86 0
-48 -83 0
-48 -78 0
-48 -75 0
-48 -63 0
-48 -61 0
-48 -57 0
-48 -55 0
-48 -50 0
-47 -106 0
-47 -101 0
-47 -99 0
-47 -96 0
-47 -87 0
-47 -86 0
-47 -78 0
-47 -63 0
-47 -55 0
-47 -48 0
-46 -99 0
-46 -97 0
-46 -94 0
-46 -93 0
-46 -84 0
-46 -81 0
-46 -77 0
-46 -76 0
-46 -73 0
-46 -57 0
-46 -53 0
-46 -51 0
-45 -110 0
-45 -103 0
-45 -102 0
-45 -98 0
-45 -93 0
-45 -92 0
-45 -90 0
-45 -84 0
-45 -75 0
-45 -72 0
-45 -65 0
-45 -56 0
-45 -54 0
-44 -111 0
-44 -95 0
-44 -93 0
-44 -92 0
-44 -90 0
-44 -75 0
-44 -69 0
-44 -65 0
-44 -64 0
-44 -54 0
-44 -45 0
-43 -111 0
-43 -109 0
-43 -91 0
-43 -90 0
-43 -89 0
-43 -79 0
-43 -78 0
-43 -60 0
-43 -59 0
-43 -58 0
-43 -52 0
-42 -106 0
-42 -101 0
-42 -99 0
-42 -96 0
-42 -93 0
-42 -92 0
-42 -90 0
-42 -87 0
-42 -75 0
-42 -65 0
-42 -54 0
-42 -47 0
-42 -45 0
-42 -44 0
-41 -107 0
-41 -105 0
-41 -95 0
-41 -92 0
-41 -91 0
-41 -87 0
-41 -86 0
-41 -82 0
-41 -76 0
-41 -72 0
-41 -66 0
-41 -59 0
-41 -53 0
-40 -110 0
-40 -109 0
-40 -107 0
-40 -101 0
-40 -100 0
-40 -97 0
-40 -82 0
-40 -71 0
-40 -70 0
-40 -68 0
-40 -55 0
-40 -54 0
-40 -52 0
-39 -103 0
-39 -94 0
-39 -89 0
-39 -88 0
-39 -85 0
-39 -83 0
-39 -80 0
-39 -79 0
-39 -74 0
-39 -66 0
-39 -49 0
-38 -111 0
-38 -108 0
-38 -79 0
-38 -68 0
-38 -65 0
-38 -63 0
-38 -62 0
-38 -59 0
-38 -52 0
-38 -51 0
-38 -49 0
-38 -43 0
-37 -106 0
-37 -103 0
-37 -101 0
-37 -99 0
-37 -96 0
-37 -89 0
-37 -87 0
-37 -83 0
-37 -66 0
-37 -49 0
-37 -47 0
-37 -42 0
-37 -39 0
-36 -111 0
-36 -105 0
-36 -100 0
-36 -98 0
-36 -95 0
-36 -80 0
-36 -77 0
-36 -69 0
-36 -64 0
-36 -62 0
-36 -44 0
-35 -103 0
-35 -100 0
-35 -97 0
-35 -89 0
-35 -83 0
-35 -82 0
-35 -71 0
-35 -70 0
-35 -66 0
-35 -55 0
-35 -54 0
-35 -52 0
-35 -49 0
-35 -40 0
-35 -39 0
-35 -37 0
-34 -93 0
-34 -86 0
-34 -81 0
-34 -78 0
-34 -77 0
-34 -73 0
-34 -63 0
-34 -55 0
-34 -53 0
-34 -48 0
-34 -47 0
-34 -46 0
-33 -105 0
-33 -104 0
-33 -100 0
-33 -98 0
-33 -83 0
-33 -80 0
-33 -77 0
-33 -75 0
-33 -62 0
-33 -61 0
-33 -57 0
-33 -50 0
-33 -48 0
-33 -36 0
-32 -108 0
-32 -107 0
-32 -105 0
-32 -104 0
-32 -92 0
-32 -88 0
-32 -86 0
-32 -76 0
-32 -70 0
-32 -69 0
-32 -66 0
-32 -59 0
-32 -58 0
-32 -41 0
-31 -110 0
-31 -109 0
-31 -107 0
-31 -101 0
-31 -94 0
-31 -88 0
-31 -85 0
-31 -80 0
-31 -79 0
-31 -74 0
-31 -68 0
-31 -40 0
-31 -39 0
-30 -104 0
-30 -95 0
-30 -91 0
-30 -87 0
-30 -83 0
-30 -82 0
-30 -75 0
-30 -72 0
-30 -61 0
-30 -57 0
-30 -53 0
-30 -50 0
-30 -48 0
-30 -41 0
-30 -33 0
-29 -94 0
-29 -93 0
-29 -92 0
-29 -90 0
-29 -88 0
-29 -85 0
-29 -80 0
-29 -79 0
-29 -75 0
-29 -74 0
-29 -65 0
-29 -54 0
-29 -45 0
-29 -44 0
-29 -42 0
-29 -39 0
-29 -31 0
-28 -111 0
-28 -106 0
-28 -101 0
-28 -99 0
-28 -96 0
-28 -87 0
-28 -79 0
-28 -59 0
-28 -52 0
-28 -47 0
-28 -43 0
-28 -42 0
-28 -38 0
-28 -37 0
-27 -111 0
-27 -110 0
-27 -103 0
-27 -102 0
-27 -98 0
-27 -84 0
-27 -79 0
-27 -72 0
-27 -59 0
-27 -56 0
-27 -52 0
-27 -45 0
-27 -43 0
-27 -38 0
-27 -28 0
-26 -108 0
-26 -96 0
-26 -74 0
-26 -73 0
-26 -68 0
-26 -65 0
-26 -63 0
-26 -62 0
-26 -61 0
-26 -56 0
-26 -51 0
-26 -49 0
-26 -38 0
-25 -108 0
-25 -106 0
-25 -102 0
-25 -85 0
-25 -81 0
-25 -71 0
-25 -68 0
-25 -65 0
-25 -64 0
-25 -63 0
-25 -62 0
-25 -60 0
-25 -51 0
-25 -50 0
-25 -49 0
-25 -38 0
-25 -26 0
-24 -111 0
-24 -110 0
-24 -109 0
-24 -107 0
-24 -101 0
-24 -95 0
-24 -69 0
-24 -68 0
-24 -64 0
-24 -44 0
-24 -40 0
-24 -36 0
-24 -31 0
-23 -106 0
-23 -105 0
-23 -101 0
-23 -100 0
-23 -99 0
-23 -98 0
-23 -96 0
-23 -87 0
-23 -80 0
-23 -77 0
-23 -62 0
-23 -47 0
-23 -42 0
-23 -37 0
-23 -36 0
-23 -33 0
-23 -28 0
-22 -111 0
-22 -103 0
-22 -95 0
-22 -89 0
-22 -83 0
-22 -69 0
-22 -66 0
-22 -64 0
-22 -49 0
-22 -44 0
-22 -39 0
-22 -37 0
-22 -36 0
-22 -35 0
-22 -24 0
-21 -94 0
-21 -88 0
-21 -86 0
-21 -85 0
-21 -80 0
-21 -79 0
-21 -78 0
-21 -74 0
-21 -63 0
-21 -55 0
-21 -48 0
-21 -47 0
-21 -39 0
-21 -34 0
-21 -31 0
-21 -29 0
-20 -109 0
-20 -99 0
-20 -97 0
-20 -94 0
-20 -91 0
-20 -90 0
-20 -89 0
-20 -84 0
-20 -78 0
-20 -76 0
-20 -60 0
-20 -58 0
-20 -57 0
-20 -51 0
-20 -46 0
-20 -43 0
-19 -107 0
-19 -106 0
-19 -105 0
-19 -102 0
-19 -92 0
-19 -86 0
-19 -85 0
-19 -81 0
-19 -76 0
-19 -71 0
-19 -66 0
-19 -64 0
-19 -60 0
-19 -59 0
-19 -50 0
-19 -41 0
-19 -32 0
-19 -25 0
-18 -95 0
-18 -94 0
-18 -91 0
-18 -88 0
-18 -87 0
-18 -85 0
-18 -82 0
-18 -80 0
-18 -79 0
-18 -74 0
-18 -72 0
-18 -53 0
-18 -41 0
-18 -39 0
-18 -31 0
-18 -30 0
-18 -29 0
-18 -21 0
-17 -111 0
-17 -96 0
-17 -95 0
-17 -74 0
-17 -73 0
-17 -69 0
-17 -64 0
-17 -61 0
-17 -56 0
-17 -44 0
-17 -36 0
-17 -26 0
-17 -24 0
-17 -22 0
-16 -108 0
-16 -95 0
-16 -91 0
-16 -87 0
-16 -82 0
-16 -72 0
-16 -68 0
-16 -65 0
-16 -63 0
-16 -62 0
-16 -53 0
-16 -51 0
-16 -49 0
-16 -41 0
-16 -38 0
-16 -30 0
-16 -26 0
-16 -25 0
-16 -18 0
-15 -110 0
-15 -103 0
-15 -102 0
-15 -98 0
-15 -86 0
-15 -84 0
-15 -78 0
-15 -72 0
-15 -63 0
-15 -56 0
-15 -55 0
-15 -48 0
-15 -47 0
-15 -45 0
-15 -34 0
-15 -27 0
-15 -21 0
-14 -109 0
-14 -105 0
-14 -100 0
-14 -98 0
-14 -91 0
-14 -90 0
-14 -89 0
-14 -80 0
-14 -78 0
-14 -77 0
-14 -62 0
-14 -60 0
-14 -58 0
-14 -43 0
-14 -36 0
-14 -33 0
-14 -23 0
-14 -20 0
-13 -111 0
-13 -93 0
-13 -81 0
-13 -79 0
-13 -77 0
-13 -73 0
-13 -59 0
-13 -53 0
-13 -52 0
-13 -46 0
-13 -43 0
-13 -38 0
-13 -34 0
-13 -28 0
-13 -27 0
-12 -110 0
-12 -109 0
-12 -107 0
-12 -101 0
-12 -93 0
-12 -81 0
-12 -77 0
-12 -73 0
-12 -68 0
-12 -53 0
-12 -46 0
-12 -40 0
-12 -34 0
-12 -31 0
-12 -24 0
-12 -13 0
-11 -103 0
-11 -93 0
-11 -89 0
-11 -83 0
-11 -81 0
-11 -77 0
-11 -73 0
-11 -66 0
-11 -53 0
-11 -49 0
-11 -46 0
-11 -39 0
-11 -37 0
-11 -35 0
-11 -34 0
-11 -22 0
-11 -13 0
-11 -12 0
-10 -111 0
-10 -99 0
-10 -97 0
-10 -95 0
-10 -94 0
-10 -84 0
-10 -76 0
-10 -69 0
-10 -64 0
-10 -57 0
-10 -51 0
-10 -46 0
-10 -44 0
-10 -36 0
-10 -24 0
-10 -22 0
-10 -20 0
-10 -17 0
-9 -111 0
-9 -95 0
-9 -86 0
-9 -78 0
-9 -69 0
-9 -64 0
-9 -63 0
-9 -55 0
-9 -48 0
-9 -47 0
-9 -44 0
-9 -36 0
-9 -34 0
-9 -24 0
-9 -22 0
-9 -21 0
-9 -17 0
-9 -15 0
-9 -10 0
-8 -110 0
-8 -108 0
-8 -104 0
-8 -103 0
-8 -102 0
-8 -98 0
-8 -88 0
-8 -84 0
-8 -72 0
-8 -70 0
-8 -69 0
-8 -58 0
-8 -56 0
-8 -45 0
-8 -32 0
-8 -27 0
-8 -15 0
-7 -109 0
-7 -96 0
-7 -91 0
-7 -90 0
-7 -89 0
-7 -78 0
-7 -74 0
-7 -73 0
-7 -61 0
-7 -60 0
-7 -58 0
-7 -56 0
-7 -43 0
-7 -26 0
-7 -20 0
-7 -17 0
-7 -14 0
-6 -108 0
-6 -104 0
-6 -93 0
-6 -88 0
-6 -81 0
-6 -77 0
-6 -73 0
-6 -70 0
-6 -69 0
-6 -58 0
-6 -53 0
-6 -46 0
-6 -34 0
-6 -32 0
-6 -13 0
-6 -12 0
-6 -11 0
-6 -8 0
-5 -108 0
-5 -106 0
-5 -104 0
-5 -101 0
-5 -99 0
-5 -96 0
-5 -88 0
-5 -87 0
-5 -70 0
-5 -69 0
-5 -58 0
-5 -47 0
-5 -42 0
-5 -37 0
-5 -32 0
-5 -28 0
-5 -23 0
-5 -8 0
-5 -6 0
-4 -100 0
-4 -97 0
-4 -96 0
-4 -82 0
-4 -74 0
-4 -73 0
-4 -71 0
-4 -70 0
-4 -61 0
-4 -56 0
-4 -55 0
-4 -54 0
-4 -52 0
-4 -40 0
-4 -35 0
-4 -26 0
-4 -17 0
-4 -7 0
-3 -110 0
-3 -109 0
-3 -107 0
-3 -104 0
-3 -101 0
-3 -83 0
-3 -75 0
-3 -68 0
-3 -61 0
-3 -57 0
-3 -50 0
-3 -48 0
-3 -40 0
-3 -33 0
-3 -31 0
-3 -30 0
-3 -24 0
-3 -12 0
-2 -107 0
-2 -105 0
-2 -96 0
-2 -92 0
-2 -86 0
-2 -76 0
-2 -74 0
-2 -73 0
-2 -66 0
-2 -61 0
-2 -59 0
-2 -56 0
-2 -41 0
-2 -32 0
-2 -26 0
-2 -19 0
-2 -17 0
-2 -7 0
-2 -4 0
-1 -111 0
-1 -104 0
-1 -83 0
-1 -79 0
-1 -75 0
-1 -61 0
-1 -59 0
-1 -57 0
-1 -52 0
-1 -50 0
-1 -48 0
-1 -43 0
-1 -38 0
-1 -33 0
-1 -30 0
-1 -28 0
-1 -27 0
-1 -13 0
-1 -3 0
1 13 27 28 38 43 52 59 79 111 0
2 4 7 17 26 56 61 73 74 96 0
3 12 24 31 40 68 101 107 109 110 0
5 6 8 32 58 69 70 88 104 108 0
9 15 21 34 47 48 55 63 78 86 0
11 22 35 37 39 49 66 83 89 103 0
14 23 33 36 62 77 80 98 100 105 0
16 18 30 41 53 72 82 87 91 95 0
19 25 50 60 64 71 81 85 102 106 0
29 42 44 45 54 65 75 90 92 93 0
10 20 46 51 57 67 76 84 94 97 99 0
