p cnf 111 1056
-109 -111 0
-106 -110 0
-105 -109 0
-103 -110 0
-103 -106 0
-102 -103 0
-101 -108 0
-101 -103 0
-101 -102 0
-100 -111 0
-99 -110 0
-98 -109 0
-98 -105 0
-97 -107 0
-96 -108 0
-96 -107 0
-96 -97 0
-95 -111 0
-95 -100 0
-95 -98 0
-94 -108 0
-94 -104 0
-94 -101 0
-93 -105 0
-93 -104 0
-93 -94 0
-92 -100 0
-91 -108 0
-91 -102 0
-91 -96 0
-90 -105 0
-90 -93 0
-90 -92 0
-89 -111 0
-89 -107 0
-89 -100 0
-89 -97 0
-89 -96 0
-89 -95 0
-88 -106 0
-88 -102 0
-88 -91 0
-87 -111 0
-87 -109 0
-87 -97 0
-86 -107 0
-86 -104 0
-86 -97 0
-86 -96 0
-86 -94 0
-86 -93 0
-86 -89 0
-85 -110 0
-85 -104 0
-85 -99 0
-84 -106 0
-84 -100 0
-84 -92 0
-84 -88 0
-83 -110 0
-83 -107 0
-83 -106 0
-83 -103 0
-82 -108 0
-82 -104 0
-82 -96 0
-82 -91 0
-82 -85 0
-81 -111 0
-81 -100 0
-81 -95 0
-81 -89 0
-80 -107 0
-80 -102 0
-80 -91 0
-80 -88 0
-80 -83 0
-79 -109 0
-79 -105 0
-79 -102 0
-79 -98 0
-79 -91 0
-79 -88 0
-79 -80 0
-78 -110 0
-78 -109 0
-78 -106 0
-78 -105 0
-78 -103 0
-78 -98 0
-78 -83 0
-78 -79 0
-77 -106 0
-77 -104 0
-77 -88 0
-77 -85 0
-77 -84 0
-77 -82 0
-76 -111 0
-76 -110 0
-76 -109 0
-76 -99 0
-76 -87 0
-76 -85 0
-75 -109 0
-75 -105 0
-75 -99 0
-75 -98 0
-75 -79 0
-75 -78 0
-74 -108 0
-74 -106 0
-74 -101 0
-74 -94 0
-74 -88 0
-74 -84 0
-74 -77 0
-73 -103 0
-73 -102 0
-73 -101 0
-73 -81 0
-72 -99 0
-72 -97 0
-72 -87 0
-72 -75 0
-71 -102 0
-71 -92 0
-71 -91 0
-71 -90 0
-71 -88 0
-71 -80 0
-71 -79 0
-70 -109 0
-70 -105 0
-70 -98 0
-70 -81 0
-70 -79 0
-70 -78 0
-70 -75 0
-70 -73 0
-69 -106 0
-69 -105 0
-69 -93 0
-69 -90 0
-69 -88 0
-69 -84 0
-69 -77 0
-69 -74 0
-68 -108 0
-68 -101 0
-68 -94 0
-68 -92 0
-68 -90 0
-68 -74 0
-68 -71 0
-67 -110 0
-67 -106 0
-67 -103 0
-67 -97 0
-67 -87 0
-67 -83 0
-67 -78 0
-67 -72 0
-66 -108 0
-66 -96 0
-66 -91 0
-66 -82 0
-66 -81 0
-66 -73 0
-66 -70 0
-65 -108 0
-65 -100 0
-65 -96 0
-65 -92 0
-65 -91 0
-65 -84 0
-65 -82 0
-65 -66 0
-64 -92 0
-64 -90 0
-64 -81 0
-64 -73 0
-64 -71 0
-64 -70 0
-64 -68 0
-64 -66 0
-63 -111 0
-63 -105 0
-63 -100 0
-63 -95 0
-63 -93 0
-63 -90 0
-63 -89 0
-63 -81 0
-63 -69 0
-62 -109 0
-62 -105 0
-62 -100 0
-62 -98 0
-62 -92 0
-62 -84 0
-62 -79 0
-62 -78 0
-62 -75 0
-62 -70 0
-62 -65 0
-61 -104 0
-61 -92 0
-61 -90 0
-61 -85 0
-61 -82 0
-61 -77 0
-61 -71 0
-61 -68 0
-61 -64 0
-60 -110 0
-60 -108 0
-60 -101 0
-60 -99 0
-60 -94 0
-60 -85 0
-60 -76 0
-60 -74 0
-60 -68 0
-59 -107 0
-59 -104 0
-59 -85 0
-59 -83 0
-59 -82 0
-59 -80 0
-59 -77 0
-59 -61 0
-58 -110 0
-58 -108 0
-58 -106 0
-58 -103 0
-58 -96 0
-58 -91 0
-58 -83 0
-58 -82 0
-58 -78 0
-58 -67 0
-58 -66 0
-58 -65 0
-57 -105 0
-57 -97 0
-57 -93 0
-57 -90 0
-57 -87 0
-57 -72 0
-57 -69 0
-57 -67 0
-57 -63 0
-56 -104 0
-56 -99 0
-56 -94 0
-56 -93 0
-56 -86 0
-56 -75 0
-56 -72 0
-55 -110 0
-55 -99 0
-55 -98 0
-55 -95 0
-55 -85 0
-55 -76 0
-55 -60 0
-54 -111 0
-54 -109 0
-54 -92 0
-54 -90 0
-54 -87 0
-54 -76 0
-54 -71 0
-54 -68 0
-54 -64 0
-54 -61 0
-53 -97 0
-53 -87 0
-53 -81 0
-53 -73 0
-53 -72 0
-53 -70 0
-53 -67 0
-53 -66 0
-53 -64 0
-53 -57 0
-52 -107 0
-52 -99 0
-52 -83 0
-52 -80 0
-52 -75 0
-52 -72 0
-52 -59 0
-52 -56 0
-51 -110 0
-51 -107 0
-51 -99 0
-51 -97 0
-51 -96 0
-51 -89 0
-51 -86 0
-51 -85 0
-51 -76 0
-51 -60 0
-51 -55 0
-50 -104 0
-50 -100 0
-50 -94 0
-50 -93 0
-50 -92 0
-50 -86 0
-50 -84 0
-50 -65 0
-50 -62 0
-50 -56 0
-49 -110 0
-49 -105 0
-49 -99 0
-49 -93 0
-49 -90 0
-49 -85 0
-49 -76 0
-49 -69 0
-49 -63 0
-49 -60 0
-49 -57 0
-49 -55 0
-49 -51 0
-48 -110 0
-48 -100 0
-48 -99 0
-48 -92 0
-48 -85 0
-48 -84 0
-48 -76 0
-48 -65 0
-48 -62 0
-48 -60 0
-48 -55 0
-48 -51 0
-48 -50 0
-48 -49 0
-47 -98 0
-47 -97 0
-47 -95 0
-47 -87 0
-47 -72 0
-47 -67 0
-47 -57 0
-47 -55 0
-47 -53 0
-46 -107 0
-46 -105 0
-46 -93 0
-46 -90 0
-46 -83 0
-46 -80 0
-46 -69 0
-46 -63 0
-46 -59 0
-46 -57 0
-46 -52 0
-46 -49 0
-45 -110 0
-45 -106 0
-45 -103 0
-45 -92 0
-45 -90 0
-45 -83 0
-45 -78 0
-45 -71 0
-45 -68 0
-45 -67 0
-45 -64 0
-45 -61 0
-45 -58 0
-45 -54 0
-44 -105 0
-44 -103 0
-44 -102 0
-44 -101 0
-44 -93 0
-44 -90 0
-44 -73 0
-44 -69 0
-44 -63 0
-44 -57 0
-44 -49 0
-44 -46 0
-43 -111 0
-43 -109 0
-43 -107 0
-43 -87 0
-43 -83 0
-43 -80 0
-43 -76 0
-43 -59 0
-43 -54 0
-43 -52 0
-43 -46 0
-42 -110 0
-42 -99 0
-42 -85 0
-42 -81 0
-42 -76 0
-42 -73 0
-42 -70 0
-42 -66 0
-42 -64 0
-42 -60 0
-42 -55 0
-42 -53 0
-42 -51 0
-42 -49 0
-42 -48 0
-41 -107 0
-41 -97 0
-41 -96 0
-41 -92 0
-41 -90 0
-41 -89 0
-41 -86 0
-41 -71 0
-41 -68 0
-41 -64 0
-41 -61 0
-41 -54 0
-41 -51 0
-41 -45 0
-40 -106 0
-40 -99 0
-40 -88 0
-40 -84 0
-40 -77 0
-40 -75 0
-40 -74 0
-40 -72 0
-40 -69 0
-40 -56 0
-40 -52 0
-39 -111 0
-39 -109 0
-39 -103 0
-39 -102 0
-39 -101 0
-39 -87 0
-39 -76 0
-39 -73 0
-39 -54 0
-39 -44 0
-39 -43 0
-38 -103 0
-38 -102 0
-38 -101 0
-38 -100 0
-38 -92 0
-38 -84 0
-38 -73 0
-38 -65 0
-38 -62 0
-38 -50 0
-38 -48 0
-38 -44 0
-38 -39 0
-37 -107 0
-37 -100 0
-37 -92 0
-37 -84 0
-37 -83 0
-37 -80 0
-37 -65 0
-37 -62 0
-37 -59 0
-37 -52 0
-37 -50 0
-37 -48 0
-37 -46 0
-37 -43 0
-37 -38 0
-36 -104 0
-36 -103 0
-36 -102 0
-36 -101 0
-36 -85 0
-36 -82 0
-36 -77 0
-36 -73 0
-36 -61 0
-36 -59 0
-36 -44 0
-36 -39 0
-36 -38 0
-35 -104 0
-35 -97 0
-35 -87 0
-35 -85 0
-35 -82 0
-35 -77 0
-35 -72 0
-35 -67 0
-35 -61 0
-35 -59 0
-35 -57 0
-35 -53 0
-35 -47 0
-35 -36 0
-34 -107 0
-34 -83 0
-34 -81 0
-34 -80 0
-34 -73 0
-34 -70 0
-34 -66 0
-34 -64 0
-34 -59 0
-34 -53 0
-34 -52 0
-34 -46 0
-34 -43 0
-34 -42 0
-34 -37 0
-33 -110 0
-33 -106 0
-33 -104 0
-33 -103 0
-33 -94 0
-33 -93 0
-33 -86 0
-33 -83 0
-33 -78 0
-33 -67 0
-33 -58 0
-33 -56 0
-33 -50 0
-33 -45 0
-32 -111 0
-32 -109 0
-32 -104 0
-32 -94 0
-32 -93 0
-32 -87 0
-32 -86 0
-32 -76 0
-32 -56 0
-32 -54 0
-32 -50 0
-32 -43 0
-32 -39 0
-32 -33 0
-30 -111 0
-30 -108 0
-30 -101 0
-30 -100 0
-30 -95 0
-30 -94 0
-30 -89 0
-30 -81 0
-30 -74 0
-30 -68 0
-30 -63 0
-30 -60 0
-29 -102 0
-29 -97 0
-29 -91 0
-29 -88 0
-29 -87 0
-29 -80 0
-29 -79 0
-29 -72 0
-29 -71 0
-29 -67 0
-29 -57 0
-29 -53 0
-29 -47 0
-29 -35 0
-28 -107 0
-28 -103 0
-28 -102 0
-28 -101 0
-28 -97 0
-28 -96 0
-28 -89 0
-28 -86 0
-28 -73 0
-28 -51 0
-28 -44 0
-28 -41 0
-28 -39 0
-28 -38 0
-28 -36 0
-27 -106 0
-27 -98 0
-27 -95 0
-27 -88 0
-27 -84 0
-27 -77 0
-27 -74 0
-27 -69 0
-27 -55 0
-27 -47 0
-27 -40 0
-26 -109 0
-26 -108 0
-26 -105 0
-26 -101 0
-26 -98 0
-26 -94 0
-26 -79 0
-26 -78 0
-26 -75 0
-26 -74 0
-26 -70 0
-26 -68 0
-26 -62 0
-26 -60 0
-26 -30 0
-25 -111 0
-25 -104 0
-25 -100 0
-25 -95 0
-25 -89 0
-25 -85 0
-25 -82 0
-25 -81 0
-25 -77 0
-25 -63 0
-25 -61 0
-25 -59 0
-25 -36 0
-25 -35 0
-25 -30 0
-24 -100 0
-24 -97 0
-24 -92 0
-24 -87 0
-24 -84 0
-24 -72 0
-24 -67 0
-24 -65 0
-24 -62 0
-24 -57 0
-24 -53 0
-24 -50 0
-24 -48 0
-24 -47 0
-24 -38 0
-24 -37 0
-24 -35 0
-24 -29 0
-23 -111 0
-23 -100 0
-23 -99 0
-23 -95 0
-23 -89 0
-23 -81 0
-23 -75 0
-23 -72 0
-23 -63 0
-23 -56 0
-23 -52 0
-23 -40 0
-23 -30 0
-23 -25 0
-22 -103 0
-22 -102 0
-22 -101 0
-22 -98 0
-22 -95 0
-22 -73 0
-22 -55 0
-22 -47 0
-22 -44 0
-22 -39 0
-22 -38 0
-22 -36 0
-22 -28 0
-22 -27 0
-21 -109 0
-21 -107 0
-21 -105 0
-21 -98 0
-21 -97 0
-21 -96 0
-21 -89 0
-21 -86 0
-21 -79 0
-21 -78 0
-21 -75 0
-21 -70 0
-21 -62 0
-21 -51 0
-21 -41 0
-21 -28 0
-21 -26 0
-20 -109 0
-20 -105 0
-20 -104 0
-20 -98 0
-20 -85 0
-20 -82 0
-20 -79 0
-20 -78 0
-20 -77 0
-20 -75 0
-20 -70 0
-20 -62 0
-20 -61 0
-20 -59 0
-20 -36 0
-20 -35 0
-20 -26 0
-20 -25 0
-20 -21 0
-19 -107 0
-19 -106 0
-19 -97 0
-19 -96 0
-19 -89 0
-19 -88 0
-19 -86 0
-19 -84 0
-19 -77 0
-19 -74 0
-19 -69 0
-19 -51 0
-19 -41 0
-19 -40 0
-19 -28 0
-19 -27 0
-19 -21 0
-18 -104 0
-18 -94 0
-18 -93 0
-18 -86 0
-18 -81 0
-18 -73 0
-18 -70 0
-18 -66 0
-18 -64 0
-18 -56 0
-18 -53 0
-18 -50 0
-18 -42 0
-18 -34 0
-18 -33 0
-18 -32 0
-17 -111 0
-17 -102 0
-17 -100 0
-17 -95 0
-17 -91 0
-17 -89 0
-17 -88 0
-17 -81 0
-17 -80 0
-17 -79 0
-17 -71 0
-17 -63 0
-17 -30 0
-17 -29 0
-17 -25 0
-17 -23 0
-16 -110 0
-16 -102 0
-16 -99 0
-16 -91 0
-16 -88 0
-16 -85 0
-16 -80 0
-16 -79 0
-16 -76 0
-16 -71 0
-16 -60 0
-16 -55 0
-16 -51 0
-16 -49 0
-16 -48 0
-16 -42 0
-16 -29 0
-16 -17 0
-15 -111 0
-15 -109 0
-15 -106 0
-15 -88 0
-15 -87 0
-15 -84 0
-15 -77 0
-15 -76 0
-15 -74 0
-15 -69 0
-15 -54 0
-15 -43 0
-15 -40 0
-15 -39 0
-15 -32 0
-15 -27 0
-15 -19 0
-14 -111 0
-14 -110 0
-14 -106 0
-14 -103 0
-14 -100 0
-14 -95 0
-14 -89 0
-14 -83 0
-14 -81 0
-14 -78 0
-14 -67 0
-14 -63 0
-14 -58 0
-14 -45 0
-14 -33 0
-14 -30 0
-14 -25 0
-14 -23 0
-14 -17 0
-13 -98 0
-13 -95 0
-13 -92 0
-13 -90 0
-13 -71 0
-13 -68 0
-13 -64 0
-13 -61 0
-13 -55 0
-13 -54 0
-13 -47 0
-13 -45 0
-13 -41 0
-13 -27 0
-13 -22 0
-12 -107 0
-12 -98 0
-12 -95 0
-12 -83 0
-12 -80 0
-12 -59 0
-12 -55 0
-12 -52 0
-12 -47 0
-12 -46 0
-12 -43 0
-12 -37 0
-12 -34 0
-12 -27 0
-12 -22 0
-12 -13 0
-11 -106 0
-11 -88 0
-11 -84 0
-11 -81 0
-11 -77 0
-11 -74 0
-11 -73 0
-11 -70 0
-11 -69 0
-11 -66 0
-11 -64 0
-11 -53 0
-11 -42 0
-11 -40 0
-11 -34 0
-11 -27 0
-11 -19 0
-11 -18 0
-11 -15 0
-10 -104 0
-10 -98 0
-10 -95 0
-10 -94 0
-10 -93 0
-10 -86 0
-10 -56 0
-10 -55 0
-10 -50 0
-10 -47 0
-10 -33 0
-10 -32 0
-10 -27 0
-10 -22 0
-10 -18 0
-10 -13 0
-10 -12 0
-9 -111 0
-9 -109 0
-9 -108 0
-9 -96 0
-9 -91 0
-9 -87 0
-9 -82 0
-9 -76 0
-9 -66 0
-9 -65 0
-9 -58 0
-9 -54 0
-9 -43 0
-9 -39 0
-9 -32 0
-9 -15 0
-8 -108 0
-8 -99 0
-8 -96 0
-8 -91 0
-8 -82 0
-8 -75 0
-8 -72 0
-8 -66 0
-8 -65 0
-8 -58 0
-8 -56 0
-8 -52 0
-8 -40 0
-8 -23 0
-8 -9 0
-7 -99 0
-7 -92 0
-7 -90 0
-7 -75 0
-7 -72 0
-7 -71 0
-7 -68 0
-7 -64 0
-7 -61 0
-7 -56 0
-7 -54 0
-7 -52 0
-7 -45 0
-7 -41 0
-7 -40 0
-7 -23 0
-7 -13 0
-7 -8 0
-6 -104 0
-6 -102 0
-6 -94 0
-6 -93 0
-6 -91 0
-6 -88 0
-6 -86 0
-6 -80 0
-6 -79 0
-6 -71 0
-6 -56 0
-6 -50 0
-6 -33 0
-6 -32 0
-6 -29 0
-6 -18 0
-6 -17 0
-6 -16 0
-6 -10 0
-5 -108 0
-5 -105 0
-5 -96 0
-5 -93 0
-5 -91 0
-5 -90 0
-5 -82 0
-5 -69 0
-5 -66 0
-5 -65 0
-5 -63 0
-5 -58 0
-5 -57 0
-5 -49 0
-5 -46 0
-5 -44 0
-5 -9 0
-5 -8 0
-4 -108 0
-4 -98 0
-4 -96 0
-4 -95 0
-4 -91 0
-4 -82 0
-4 -66 0
-4 -65 0
-4 -58 0
-4 -55 0
-4 -47 0
-4 -27 0
-4 -22 0
-4 -13 0
-4 -12 0
-4 -10 0
-4 -9 0
-4 -8 0
-4 -5 0
-3 -108 0
-3 -107 0
-3 -101 0
-3 -94 0
-3 -83 0
-3 -80 0
-3 -74 0
-3 -68 0
-3 -60 0
-3 -59 0
-3 -52 0
-3 -46 0
-3 -43 0
-3 -37 0
-3 -34 0
-3 -30 0
-3 -26 0
-3 -12 0
-2 -108 0
-2 -101 0
-2 -97 0
-2 -94 0
-2 -87 0
-2 -74 0
-2 -72 0
-2 -68 0
-2 -67 0
-2 -60 0
-2 -57 0
-2 -53 0
-2 -47 0
-2 -35 0
-2 -30 0
-2 -29 0
-2 -26 0
-2 -24 0
-2 -3 0
-1 -103 0
-1 -102 0
-1 -101 0
-1 -99 0
-1 -75 0
-1 -73 0
-1 -72 0
-1 -56 0
-1 -52 0
-1 -44 0
-1 -40 0
-1 -39 0
-1 -38 0
-1 -36 0
-1 -28 0
-1 -23 0
-1 -22 0
-1 -8 0
-1 -7 0
2 3 26 30 60 68 74 94 101 108 0
4 10 12 13 22 27 47 55 95 98 0
5 44 46 49 57 63 69 90 93 105 0
6 16 17 29 71 79 80 88 91 102 0
9 15 32 39 43 54 76 87 109 111 0
11 18 34 42 53 64 66 70 73 81 0
14 33 45 58 67 78 83 103 106 110 0
19 21 28 41 51 86 89 96 97 107 0
20 25 35 36 59 61 77 82 85 104 0
24 37 38 48 50 62 65 84 92 100 0
1 7 8 23 31 40 52 56 72 75 99 0
