p cnf 133 1398
-127 -128 0
-126 -133 0
-126 -130 0
-125 -132 0
-124 -131 0
-123 -130 0
-123 -129 0
-122 -133 0
-122 -130 0
-122 -123 0
-121 -125 0
-120 -121 0
-119 -130 0
-119 -123 0
-119 -122 0
-118 -132 0
-118 -124 0
-117 -129 0
-116 -133 0
-116 -132 0
-116 -122 0
-116 -118 0
-115 -133 0
-115 -127 0
-115 -126 0
-113 -132 0
-113 -129 0
-113 -125 0
-113 -117 0
-112 -128 0
-112 -127 0
-112 -124 0
-112 -118 0
-111 -130 0
-111 -123 0
-111 -122 0
-111 -119 0
-111 -114 0
-110 -114 0
-110 -111 0
-109 -128 0
-109 -120 0
-108 -128 0
-108 -127 0
-108 -117 0
-108 -112 0
-107 -125 0
-107 -121 0
-107 -114 0
-107 -111 0
-107 -110 0
-106 -128 0
-106 -125 0
-106 -121 0
-106 -109 0
-106 -107 0
-105 -131 0
-105 -124 0
-105 -119 0
-104 -128 0
-104 -127 0
-104 -121 0
-104 -120 0
-104 -112 0
-104 -108 0
-103 -133 0
-103 -126 0
-103 -117 0
-103 -115 0
-103 -108 0
-102 -132 0
-102 -125 0
-102 -113 0
-101 -131 0
-101 -125 0
-101 -121 0
-101 -107 0
-101 -106 0
-100 -133 0
-100 -129 0
-100 -126 0
-100 -123 0
-100 -115 0
-100 -103 0
-99 -114 0
-99 -111 0
-99 -110 0
-99 -107 0
-99 -102 0
-98 -129 0
-98 -123 0
-98 -102 0
-98 -100 0
-98 -99 0
-97 -131 0
-97 -128 0
-97 -127 0
-97 -112 0
-97 -108 0
-97 -104 0
-97 -101 0
-96 -128 0
-96 -110 0
-96 -109 0
-96 -106 0
-95 -129 0
-95 -117 0
-95 -114 0
-95 -113 0
-95 -111 0
-95 -110 0
-95 -107 0
-95 -99 0
-94 -127 0
-94 -125 0
-94 -121 0
-94 -115 0
-94 -107 0
-94 -106 0
-94 -101 0
-93 -133 0
-93 -128 0
-93 -126 0
-93 -115 0
-93 -109 0
-93 -106 0
-93 -103 0
-93 -100 0
-93 -96 0
-92 -131 0
-92 -129 0
-92 -124 0
-92 -123 0
-92 -105 0
-92 -100 0
-92 -98 0
-91 -131 0
-91 -128 0
-91 -124 0
-91 -109 0
-91 -106 0
-91 -105 0
-91 -96 0
-91 -93 0
-91 -92 0
-90 -133 0
-90 -131 0
-90 -124 0
-90 -122 0
-90 -116 0
-90 -105 0
-90 -92 0
-90 -91 0
-89 -132 0
-89 -128 0
-89 -127 0
-89 -125 0
-89 -113 0
-89 -112 0
-89 -108 0
-89 -104 0
-89 -102 0
-89 -97 0
-88 -125 0
-88 -121 0
-88 -119 0
-88 -107 0
-88 -106 0
-88 -105 0
-88 -101 0
-88 -94 0
-87 -129 0
-87 -123 0
-87 -114 0
-87 -100 0
-87 -98 0
-87 -92 0
-86 -133 0
-86 -122 0
-86 -120 0
-86 -116 0
-86 -109 0
-86 -90 0
-85 -127 0
-85 -115 0
-85 -102 0
-85 -99 0
-85 -98 0
-85 -94 0
-84 -117 0
-84 -110 0
-84 -108 0
-84 -103 0
-84 -96 0
-83 -131 0
-83 -114 0
-83 -101 0
-83 -97 0
-83 -87 0
-82 -132 0
-82 -125 0
-82 -120 0
-82 -113 0
-82 -109 0
-82 -102 0
-82 -89 0
-82 -86 0
-81 -130 0
-81 -123 0
-81 -122 0
-81 -121 0
-81 -120 0
-81 -119 0
-81 -111 0
-81 -104 0
-80 -132 0
-80 -130 0
-80 -126 0
-80 -118 0
-80 -116 0
-79 -133 0
-79 -128 0
-79 -127 0
-79 -122 0
-79 -116 0
-79 -112 0
-79 -108 0
-79 -104 0
-79 -97 0
-79 -90 0
-79 -89 0
-79 -86 0
-78 -120 0
-78 -119 0
-78 -109 0
-78 -105 0
-78 -88 0
-78 -86 0
-78 -82 0
-77 -127 0
-77 -115 0
-77 -110 0
-77 -96 0
-77 -94 0
-77 -85 0
-77 -84 0
-76 -119 0
-76 -105 0
-76 -102 0
-76 -99 0
-76 -98 0
-76 -88 0
-76 -85 0
-76 -78 0
-75 -125 0
-75 -121 0
-75 -117 0
-75 -108 0
-75 -107 0
-75 -106 0
-75 -103 0
-75 -101 0
-75 -94 0
-75 -88 0
-75 -84 0
-74 -124 0
-74 -118 0
-74 -112 0
-74 -102 0
-74 -99 0
-74 -98 0
-74 -85 0
-74 -76 0
-73 -131 0
-73 -130 0
-73 -126 0
-73 -124 0
-73 -105 0
-73 -92 0
-73 -91 0
-73 -90 0
-73 -80 0
-72 -130 0
-72 -124 0
-72 -123 0
-72 -122 0
-72 -119 0
-72 -118 0
-72 -112 0
-72 -111 0
-72 -81 0
-72 -74 0
-71 -133 0
-71 -125 0
-71 -122 0
-71 -121 0
-71 -116 0
-71 -107 0
-71 -106 0
-71 -101 0
-71 -94 0
-71 -90 0
-71 -88 0
-71 -86 0
-71 -79 0
-71 -75 0
-70 -133 0
-70 -126 0
-70 -124 0
-70 -118 0
-70 -115 0
-70 -112 0
-70 -103 0
-70 -100 0
-70 -93 0
-70 -74 0
-70 -72 0
-69 -127 0
-69 -120 0
-69 -115 0
-69 -109 0
-69 -94 0
-69 -86 0
-69 -85 0
-69 -82 0
-69 -78 0
-69 -77 0
-68 -131 0
-68 -127 0
-68 -124 0
-68 -115 0
-68 -105 0
-68 -94 0
-68 -92 0
-68 -91 0
-68 -90 0
-68 -85 0
-68 -77 0
-68 -73 0
-68 -69 0
-67 -132 0
-67 -125 0
-67 -114 0
-67 -113 0
-67 -102 0
-67 -89 0
-67 -87 0
-67 -83 0
-67 -82 0
-66 -124 0
-66 -120 0
-66 -118 0
-66 -112 0
-66 -109 0
-66 -86 0
-66 -82 0
-66 -78 0
-66 -74 0
-66 -72 0
-66 -70 0
-66 -69 0
-65 -120 0
-65 -117 0
-65 -109 0
-65 -108 0
-65 -103 0
-65 -86 0
-65 -84 0
-65 -82 0
-65 -78 0
-65 -75 0
-65 -69 0
-65 -66 0
-64 -132 0
-64 -130 0
-64 -125 0
-64 -123 0
-64 -122 0
-64 -119 0
-64 -113 0
-64 -111 0
-64 -102 0
-64 -89 0
-64 -82 0
-64 -81 0
-64 -72 0
-64 -67 0
-63 -131 0
-63 -110 0
-63 -101 0
-63 -97 0
-63 -96 0
-63 -84 0
-63 -83 0
-63 -77 0
-62 -133 0
-62 -126 0
-62 -119 0
-62 -115 0
-62 -105 0
-62 -103 0
-62 -100 0
-62 -93 0
-62 -88 0
-62 -78 0
-62 -76 0
-62 -70 0
-60 -133 0
-60 -122 0
-60 -116 0
-60 -110 0
-60 -96 0
-60 -90 0
-60 -86 0
-60 -84 0
-60 -79 0
-60 -77 0
-60 -71 0
-60 -63 0
-59 -129 0
-59 -124 0
-59 -118 0
-59 -117 0
-59 -113 0
-59 -112 0
-59 -95 0
-59 -74 0
-59 -72 0
-59 -70 0
-59 -66 0
-58 -121 0
-58 -120 0
-58 -114 0
-58 -104 0
-58 -87 0
-58 -83 0
-58 -81 0
-58 -67 0
-57 -128 0
-57 -127 0
-57 -119 0
-57 -112 0
-57 -108 0
-57 -105 0
-57 -104 0
-57 -97 0
-57 -89 0
-57 -88 0
-57 -79 0
-57 -78 0
-57 -76 0
-57 -62 0
-56 -133 0
-56 -129 0
-56 -122 0
-56 -117 0
-56 -116 0
-56 -113 0
-56 -95 0
-56 -90 0
-56 -86 0
-56 -79 0
-56 -71 0
-56 -60 0
-56 -59 0
-55 -131 0
-55 -124 0
-55 -114 0
-55 -111 0
-55 -110 0
-55 -107 0
-55 -105 0
-55 -99 0
-55 -95 0
-55 -92 0
-55 -91 0
-55 -90 0
-55 -73 0
-55 -68 0
-54 -130 0
-54 -126 0
-54 -120 0
-54 -109 0
-54 -86 0
-54 -82 0
-54 -80 0
-54 -78 0
-54 -73 0
-54 -69 0
-54 -66 0
-54 -65 0
-53 -132 0
-53 -119 0
-53 -118 0
-53 -116 0
-53 -105 0
-53 -88 0
-53 -80 0
-53 -78 0
-53 -76 0
-53 -62 0
-53 -57 0
-52 -129 0
-52 -123 0
-52 -120 0
-52 -109 0
-52 -100 0
-52 -98 0
-52 -92 0
-52 -87 0
-52 -86 0
-52 -82 0
-52 -78 0
-52 -69 0
-52 -66 0
-52 -65 0
-52 -54 0
-51 -129 0
-51 -121 0
-51 -120 0
-51 -117 0
-51 -113 0
-51 -104 0
-51 -95 0
-51 -81 0
-51 -59 0
-51 -58 0
-51 -56 0
-50 -129 0
-50 -119 0
-50 -117 0
-50 -113 0
-50 -105 0
-50 -95 0
-50 -88 0
-50 -78 0
-50 -76 0
-50 -62 0
-50 -59 0
-50 -57 0
-50 -56 0
-50 -53 0
-50 -51 0
-49 -132 0
-49 -118 0
-49 -116 0
-49 -114 0
-49 -111 0
-49 -110 0
-49 -107 0
-49 -99 0
-49 -95 0
-49 -80 0
-49 -55 0
-49 -53 0
-48 -132 0
-48 -121 0
-48 -120 0
-48 -118 0
-48 -116 0
-48 -104 0
-48 -81 0
-48 -80 0
-48 -58 0
-48 -53 0
-48 -51 0
-48 -49 0
-47 -131 0
-47 -124 0
-47 -117 0
-47 -108 0
-47 -105 0
-47 -103 0
-47 -92 0
-47 -91 0
-47 -90 0
-47 -84 0
-47 -75 0
-47 -73 0
-47 -68 0
-47 -65 0
-47 -55 0
-46 -132 0
-46 -131 0
-46 -125 0
-46 -124 0
-46 -113 0
-46 -105 0
-46 -102 0
-46 -92 0
-46 -91 0
-46 -90 0
-46 -89 0
-46 -82 0
-46 -73 0
-46 -68 0
-46 -67 0
-46 -64 0
-46 -55 0
-46 -47 0
-45 -129 0
-45 -128 0
-45 -127 0
-45 -123 0
-45 -112 0
-45 -108 0
-45 -104 0
-45 -100 0
-45 -98 0
-45 -97 0
-45 -92 0
-45 -89 0
-45 -87 0
-45 -79 0
-45 -57 0
-45 -52 0
-44 -133 0
-44 -122 0
-44 -116 0
-44 -114 0
-44 -90 0
-44 -87 0
-44 -86 0
-44 -83 0
-44 -79 0
-44 -71 0
-44 -67 0
-44 -60 0
-44 -58 0
-44 -56 0
-43 -131 0
-43 -102 0
-43 -101 0
-43 -99 0
-43 -98 0
-43 -97 0
-43 -85 0
-43 -83 0
-43 -76 0
-43 -74 0
-43 -63 0
-42 -130 0
-42 -126 0
-42 -125 0
-42 -121 0
-42 -107 0
-42 -106 0
-42 -101 0
-42 -94 0
-42 -88 0
-42 -80 0
-42 -75 0
-42 -73 0
-42 -71 0
-42 -54 0
-41 -121 0
-41 -120 0
-41 -110 0
-41 -104 0
-41 -96 0
-41 -84 0
-41 -81 0
-41 -77 0
-41 -63 0
-41 -60 0
-41 -58 0
-41 -51 0
-41 -48 0
-40 -130 0
-40 -127 0
-40 -123 0
-40 -122 0
-40 -119 0
-40 -115 0
-40 -111 0
-40 -94 0
-40 -85 0
-40 -81 0
-40 -77 0
-40 -72 0
-40 -69 0
-40 -68 0
-40 -64 0
-39 -131 0
-39 -120 0
-39 -109 0
-39 -101 0
-39 -97 0
-39 -86 0
-39 -83 0
-39 -82 0
-39 -78 0
-39 -69 0
-39 -66 0
-39 -65 0
-39 -63 0
-39 -54 0
-39 -52 0
-39 -43 0
-38 -121 0
-38 -120 0
-38 -104 0
-38 -102 0
-38 -99 0
-38 -98 0
-38 -85 0
-38 -81 0
-38 -76 0
-38 -74 0
-38 -58 0
-38 -51 0
-38 -48 0
-38 -43 0
-38 -41 0
-37 -133 0
-37 -132 0
-37 -126 0
-37 -125 0
-37 -115 0
-37 -113 0
-37 -103 0
-37 -102 0
-37 -100 0
-37 -93 0
-37 -89 0
-37 -82 0
-37 -70 0
-37 -67 0
-37 -64 0
-37 -62 0
-37 -46 0
-36 -128 0
-36 -109 0
-36 -106 0
-36 -102 0
-36 -99 0
-36 -98 0
-36 -96 0
-36 -93 0
-36 -91 0
-36 -85 0
-36 -76 0
-36 -74 0
-36 -43 0
-36 -38 0
-35 -133 0
-35 -126 0
-35 -115 0
-35 -114 0
-35 -111 0
-35 -110 0
-35 -107 0
-35 -103 0
-35 -100 0
-35 -99 0
-35 -95 0
-35 -93 0
-35 -70 0
-35 -62 0
-35 -55 0
-35 -49 0
-35 -37 0
-34 -120 0
-34 -114 0
-34 -111 0
-34 -110 0
-34 -109 0
-34 -107 0
-34 -99 0
-34 -95 0
-34 -86 0
-34 -82 0
-34 -78 0
-34 -69 0
-34 -66 0
-34 -65 0
-34 -55 0
-34 -54 0
-34 -52 0
-34 -49 0
-34 -39 0
-34 -35 0
-33 -132 0
-33 -127 0
-33 -118 0
-33 -116 0
-33 -115 0
-33 -94 0
-33 -85 0
-33 -80 0
-33 -77 0
-33 -69 0
-33 -68 0
-33 -53 0
-33 -49 0
-33 -48 0
-33 -40 0
-32 -128 0
-32 -114 0
-32 -109 0
-32 -106 0
-32 -96 0
-32 -93 0
-32 -91 0
-32 -87 0
-32 -83 0
-32 -67 0
-32 -58 0
-32 -44 0
-32 -36 0
-31 -130 0
-31 -129 0
-31 -126 0
-31 -117 0
-31 -113 0
-31 -95 0
-31 -80 0
-31 -73 0
-31 -59 0
-31 -56 0
-31 -54 0
-31 -51 0
-31 -50 0
-31 -42 0
-30 -129 0
-30 -127 0
-30 -117 0
-30 -115 0
-30 -113 0
-30 -95 0
-30 -94 0
-30 -85 0
-30 -77 0
-30 -69 0
-30 -68 0
-30 -59 0
-30 -56 0
-30 -51 0
-30 -50 0
-30 -40 0
-30 -33 0
-30 -31 0
-29 -131 0
-29 -130 0
-29 -123 0
-29 -122 0
-29 -119 0
-29 -111 0
-29 -101 0
-29 -97 0
-29 -83 0
-29 -81 0
-29 -72 0
-29 -64 0
-29 -63 0
-29 -43 0
-29 -40 0
-29 -39 0
-28 -130 0
-28 -128 0
-28 -123 0
-28 -122 0
-28 -119 0
-28 -111 0
-28 -109 0
-28 -106 0
-28 -96 0
-28 -93 0
-28 -91 0
-28 -81 0
-28 -72 0
-28 -64 0
-28 -40 0
-28 -36 0
-28 -32 0
-28 -29 0
-27 -132 0
-27 -125 0
-27 -113 0
-27 -110 0
-27 -102 0
-27 -96 0
-27 -89 0
-27 -84 0
-27 -82 0
-27 -77 0
-27 -67 0
-27 -64 0
-27 -63 0
-27 -60 0
-27 -46 0
-27 -41 0
-27 -37 0
-26 -117 0
-26 -108 0
-26 -103 0
-26 -102 0
-26 -99 0
-26 -98 0
-26 -85 0
-26 -84 0
-26 -76 0
-26 -75 0
-26 -74 0
-26 -65 0
-26 -47 0
-26 -43 0
-26 -38 0
-26 -36 0
-25 -129 0
-25 -125 0
-25 -123 0
-25 -121 0
-25 -107 0
-25 -106 0
-25 -101 0
-25 -100 0
-25 -98 0
-25 -94 0
-25 -92 0
-25 -88 0
-25 -87 0
-25 -75 0
-25 -71 0
-25 -52 0
-25 -45 0
-25 -42 0
-24 -124 0
-24 -118 0
-24 -114 0
-24 -112 0
-24 -87 0
-24 -83 0
-24 -74 0
-24 -72 0
-24 -70 0
-24 -67 0
-24 -66 0
-24 -59 0
-24 -58 0
-24 -44 0
-24 -32 0
-23 -132 0
-23 -129 0
-23 -123 0
-23 -118 0
-23 -116 0
-23 -100 0
-23 -98 0
-23 -92 0
-23 -87 0
-23 -80 0
-23 -53 0
-23 -52 0
-23 -49 0
-23 -48 0
-23 -45 0
-23 -33 0
-23 -25 0
-22 -125 0
-22 -124 0
-22 -121 0
-22 -118 0
-22 -112 0
-22 -107 0
-22 -106 0
-22 -101 0
-22 -94 0
-22 -88 0
-22 -75 0
-22 -74 0
-22 -72 0
-22 -71 0
-22 -70 0
-22 -66 0
-22 -59 0
-22 -42 0
-22 -25 0
-22 -24 0
-21 -132 0
-21 -131 0
-21 -118 0
-21 -116 0
-21 -101 0
-21 -97 0
-21 -83 0
-21 -80 0
-21 -63 0
-21 -53 0
-21 -49 0
-21 -48 0
-21 -43 0
-21 -39 0
-21 -33 0
-21 -29 0
-21 -23 0
-20 -130 0
-20 -126 0
-20 -110 0
-20 -96 0
-20 -84 0
-20 -80 0
-20 -77 0
-20 -73 0
-20 -63 0
-20 -60 0
-20 -54 0
-20 -42 0
-20 -41 0
-20 -31 0
-20 -27 0
-19 -130 0
-19 -126 0
-19 -102 0
-19 -99 0
-19 -98 0
-19 -85 0
-19 -80 0
-19 -76 0
-19 -74 0
-19 -73 0
-19 -54 0
-19 -43 0
-19 -42 0
-19 -38 0
-19 -36 0
-19 -31 0
-19 -26 0
-19 -20 0
-18 -119 0
-18 -114 0
-18 -105 0
-18 -88 0
-18 -87 0
-18 -83 0
-18 -78 0
-18 -76 0
-18 -67 0
-18 -62 0
-18 -58 0
-18 -57 0
-18 -53 0
-18 -50 0
-18 -44 0
-18 -32 0
-18 -24 0
-17 -129 0
-17 -123 0
-17 -110 0
-17 -100 0
-17 -98 0
-17 -96 0
-17 -92 0
-17 -87 0
-17 -84 0
-17 -77 0
-17 -63 0
-17 -60 0
-17 -52 0
-17 -45 0
-17 -41 0
-17 -27 0
-17 -25 0
-17 -23 0
-17 -20 0
-16 -132 0
-16 -118 0
-16 -117 0
-16 -116 0
-16 -108 0
-16 -103 0
-16 -84 0
-16 -80 0
-16 -75 0
-16 -65 0
-16 -53 0
-16 -49 0
-16 -48 0
-16 -47 0
-16 -33 0
-16 -26 0
-16 -23 0
-16 -21 0
-15 -117 0
-15 -114 0
-15 -108 0
-15 -103 0
-15 -87 0
-15 -84 0
-15 -83 0
-15 -75 0
-15 -67 0
-15 -65 0
-15 -58 0
-15 -47 0
-15 -44 0
-15 -32 0
-15 -26 0
-15 -24 0
-15 -18 0
-15 -16 0
-14 -130 0
-14 -123 0
-14 -122 0
-14 -119 0
-14 -117 0
-14 -111 0
-14 -108 0
-14 -103 0
-14 -84 0
-14 -81 0
-14 -75 0
-14 -72 0
-14 -65 0
-14 -64 0
-14 -47 0
-14 -40 0
-14 -29 0
-14 -28 0
-14 -26 0
-14 -16 0
-14 -15 0
-13 -128 0
-13 -127 0
-13 -114 0
-13 -112 0
-13 -111 0
-13 -110 0
-13 -108 0
-13 -107 0
-13 -104 0
-13 -99 0
-13 -97 0
-13 -95 0
-13 -89 0
-13 -79 0
-13 -57 0
-13 -55 0
-13 -49 0
-13 -45 0
-13 -35 0
-13 -34 0
-12 -130 0
-12 -126 0
-12 -114 0
-12 -87 0
-12 -83 0
-12 -80 0
-12 -73 0
-12 -67 0
-12 -58 0
-12 -54 0
-12 -44 0
-12 -42 0
-12 -32 0
-12 -31 0
-12 -24 0
-12 -20 0
-12 -19 0
-12 -18 0
-12 -15 0
-11 -129 0
-11 -128 0
-11 -117 0
-11 -113 0
-11 -109 0
-11 -106 0
-11 -96 0
-11 -95 0
-11 -93 0
-11 -91 0
-11 -59 0
-11 -56 0
-11 -51 0
-11 -50 0
-11 -36 0
-11 -32 0
-11 -31 0
-11 -30 0
-11 -28 0
-10 -133 0
-10 -122 0
-10 -116 0
-10 -102 0
-10 -99 0
-10 -98 0
-10 -90 0
-10 -86 0
-10 -85 0
-10 -79 0
-10 -76 0
-10 -74 0
-10 -71 0
-10 -60 0
-10 -56 0
-10 -44 0
-10 -43 0
-10 -38 0
-10 -36 0
-10 -26 0
-10 -19 0
-9 -124 0
-9 -118 0
-9 -112 0
-9 -110 0
-9 -96 0
-9 -84 0
-9 -77 0
-9 -74 0
-9 -72 0
-9 -70 0
-9 -66 0
-9 -63 0
-9 -60 0
-9 -59 0
-9 -41 0
-9 -27 0
-9 -24 0
-9 -22 0
-9 -20 0
-9 -17 0
-8 -133 0
-8 -126 0
-8 -121 0
-8 -120 0
-8 -115 0
-8 -104 0
-8 -103 0
-8 -100 0
-8 -93 0
-8 -81 0
-8 -70 0
-8 -62 0
-8 -58 0
-8 -51 0
-8 -48 0
-8 -41 0
-8 -38 0
-8 -37 0
-8 -35 0
-7 -131 0
-7 -129 0
-7 -117 0
-7 -113 0
-7 -101 0
-7 -97 0
-7 -95 0
-7 -83 0
-7 -63 0
-7 -59 0
-7 -56 0
-7 -51 0
-7 -50 0
-7 -43 0
-7 -39 0
-7 -31 0
-7 -30 0
-7 -29 0
-7 -21 0
-7 -11 0
-6 -127 0
-6 -115 0
-6 -114 0
-6 -94 0
-6 -87 0
-6 -85 0
-6 -83 0
-6 -77 0
-6 -69 0
-6 -68 0
-6 -67 0
-6 -58 0
-6 -44 0
-6 -40 0
-6 -33 0
-6 -32 0
-6 -30 0
-6 -24 0
-6 -18 0
-6 -15 0
-6 -12 0
-5 -119 0
-5 -110 0
-5 -105 0
-5 -96 0
-5 -88 0
-5 -84 0
-5 -78 0
-5 -77 0
-5 -76 0
-5 -63 0
-5 -62 0
-5 -60 0
-5 -57 0
-5 -53 0
-5 -50 0
-5 -41 0
-5 -27 0
-5 -20 0
-5 -18 0
-5 -17 0
-5 -9 0
-4 -130 0
-4 -128 0
-4 -127 0
-4 -126 0
-4 -112 0
-4 -108 0
-4 -104 0
-4 -97 0
-4 -89 0
-4 -80 0
-4 -79 0
-4 -73 0
-4 -57 0
-4 -54 0
-4 -45 0
-4 -42 0
-4 -31 0
-4 -20 0
-4 -19 0
-4 -13 0
-4 -12 0
-3 -132 0
-3 -128 0
-3 -118 0
-3 -116 0
-3 -109 0
-3 -106 0
-3 -96 0
-3 -93 0
-3 -91 0
-3 -80 0
-3 -53 0
-3 -49 0
-3 -48 0
-3 -36 0
-3 -33 0
-3 -32 0
-3 -28 0
-3 -23 0
-3 -21 0
-3 -16 0
-3 -11 0
-2 -133 0
-2 -131 0
-2 -126 0
-2 -115 0
-2 -103 0
-2 -101 0
-2 -100 0
-2 -97 0
-2 -93 0
-2 -83 0
-2 -70 0
-2 -63 0
-2 -62 0
-2 -43 0
-2 -39 0
-2 -37 0
-2 -35 0
-2 -29 0
-2 -21 0
-2 -8 0
-2 -7 0
-1 -131 0
-1 -124 0
-1 -121 0
-1 -120 0
-1 -105 0
-1 -104 0
-1 -92 0
-1 -91 0
-1 -90 0
-1 -81 0
-1 -73 0
-1 -68 0
-1 -58 0
-1 -55 0
-1 -51 0
-1 -48 0
-1 -47 0
-1 -46 0
-1 -41 0
-1 -38 0
-1 -8 0
1 8 38 41 48 51 58 81 104 120 121 0
3 11 28 32 36 91 93 96 106 109 128 0
4 12 19 20 31 42 54 73 80 126 130 0
5 18 50 53 57 62 76 78 88 105 119 0
6 30 33 40 68 69 77 85 94 115 127 0
9 22 24 59 66 70 72 74 112 118 124 0
10 44 56 60 71 79 86 90 116 122 133 0
13 34 35 49 55 95 99 107 110 111 114 0
14 15 16 26 47 65 75 84 103 108 117 0
17 23 25 45 52 87 92 98 100 123 129 0
27 37 46 64 67 82 89 102 113 125 132 0
2 7 21 29 39 43 61 63 83 97 101 131 0
