p cnf 91 775
-89 -91 0
-89 -90 0
-88 -90 0
-87 -90 0
-87 -89 0
-84 -88 0
-84 -86 0
-83 -86 0
-82 -90 0
-82 -88 0
-82 -85 0
-81 -87 0
-78 -90 0
-78 -88 0
-78 -82 0
-78 -79 0
-77 -85 0
-77 -83 0
-77 -82 0
-76 -80 0
-76 -79 0
-76 -78 0
-75 -79 0
-75 -78 0
-75 -76 0
-74 -83 0
-74 -77 0
-73 -86 0
-73 -84 0
-72 -90 0
-72 -89 0
-72 -87 0
-72 -86 0
-72 -84 0
-72 -73 0
-71 -80 0
-71 -79 0
-70 -87 0
-70 -81 0
-70 -73 0
-69 -80 0
-69 -75 0
-69 -71 0
-68 -91 0
-68 -89 0
-68 -88 0
-68 -84 0
-67 -90 0
-67 -89 0
-67 -87 0
-67 -75 0
-67 -72 0
-67 -69 0
-66 -90 0
-66 -88 0
-66 -82 0
-66 -78 0
-66 -73 0
-66 -70 0
-65 -91 0
-65 -75 0
-65 -69 0
-65 -67 0
-64 -79 0
-64 -73 0
-64 -71 0
-64 -70 0
-64 -66 0
-63 -81 0
-63 -79 0
-63 -71 0
-63 -64 0
-62 -90 0
-62 -89 0
-62 -87 0
-62 -80 0
-62 -76 0
-62 -72 0
-62 -67 0
-61 -85 0
-61 -82 0
-61 -79 0
-61 -77 0
-61 -71 0
-61 -64 0
-61 -63 0
-60 -83 0
-60 -81 0
-60 -77 0
-60 -74 0
-60 -63 0
-59 -91 0
-59 -89 0
-59 -85 0
-59 -82 0
-59 -77 0
-59 -68 0
-59 -61 0
-58 -88 0
-58 -87 0
-58 -84 0
-58 -81 0
-58 -70 0
-58 -68 0
-57 -87 0
-57 -81 0
-57 -79 0
-57 -78 0
-57 -76 0
-57 -75 0
-57 -70 0
-57 -58 0
-56 -90 0
-56 -88 0
-56 -82 0
-56 -81 0
-56 -78 0
-56 -66 0
-56 -63 0
-56 -60 0
-55 -88 0
-55 -84 0
-55 -83 0
-55 -77 0
-55 -74 0
-55 -68 0
-55 -60 0
-55 -58 0
-54 -85 0
-54 -80 0
-54 -71 0
-54 -69 0
-53 -75 0
-53 -73 0
-53 -70 0
-53 -69 0
-53 -67 0
-53 -66 0
-53 -65 0
-53 -64 0
-52 -87 0
-52 -81 0
-52 -80 0
-52 -71 0
-52 -70 0
-52 -69 0
-52 -58 0
-52 -57 0
-52 -54 0
-51 -91 0
-51 -80 0
-51 -76 0
-51 -65 0
-51 -62 0
-50 -90 0
-50 -89 0
-50 -87 0
-50 -83 0
-50 -77 0
-50 -74 0
-50 -72 0
-50 -67 0
-50 -62 0
-50 -60 0
-50 -55 0
-49 -83 0
-49 -80 0
-49 -77 0
-49 -74 0
-49 -71 0
-49 -69 0
-49 -60 0
-49 -55 0
-49 -54 0
-49 -52 0
-49 -50 0
-48 -90 0
-48 -88 0
-48 -82 0
-48 -78 0
-48 -74 0
-48 -66 0
-48 -56 0
-47 -86 0
-47 -85 0
-47 -83 0
-47 -54 0
-46 -91 0
-46 -87 0
-46 -81 0
-46 -70 0
-46 -65 0
-46 -58 0
-46 -57 0
-46 -52 0
-46 -51 0
-45 -91 0
-45 -89 0
-45 -80 0
-45 -71 0
-45 -69 0
-45 -68 0
-45 -59 0
-45 -54 0
-45 -52 0
-45 -49 0
-44 -88 0
-44 -85 0
-44 -84 0
-44 -68 0
-44 -58 0
-44 -55 0
-44 -54 0
-44 -47 0
-43 -88 0
-43 -84 0
-43 -79 0
-43 -71 0
-43 -68 0
-43 -64 0
-43 -63 0
-43 -61 0
-43 -58 0
-43 -55 0
-43 -44 0
-42 -85 0
-42 -73 0
-42 -70 0
-42 -66 0
-42 -64 0
-42 -54 0
-42 -53 0
-42 -47 0
-42 -44 0
-41 -86 0
-41 -84 0
-41 -79 0
-41 -78 0
-41 -76 0
-41 -75 0
-41 -73 0
-41 -72 0
-41 -57 0
-40 -83 0
-40 -79 0
-40 -78 0
-40 -77 0
-40 -76 0
-40 -75 0
-40 -74 0
-40 -60 0
-40 -57 0
-40 -55 0
-40 -50 0
-40 -49 0
-40 -41 0
-39 -88 0
-39 -84 0
-39 -75 0
-39 -69 0
-39 -68 0
-39 -67 0
-39 -65 0
-39 -58 0
-39 -55 0
-39 -53 0
-39 -44 0
-39 -43 0
-38 -86 0
-38 -84 0
-38 -81 0
-38 -73 0
-38 -72 0
-38 -63 0
-38 -60 0
-38 -56 0
-38 -41 0
-37 -90 0
-37 -89 0
-37 -87 0
-37 -85 0
-37 -72 0
-37 -67 0
-37 -62 0
-37 -54 0
-37 -50 0
-37 -47 0
-37 -44 0
-37 -42 0
-36 -86 0
-36 -85 0
-36 -84 0
-36 -82 0
-36 -77 0
-36 -73 0
-36 -72 0
-36 -61 0
-36 -59 0
-36 -41 0
-36 -38 0
-35 -85 0
-35 -82 0
-35 -77 0
-35 -75 0
-35 -69 0
-35 -67 0
-35 -65 0
-35 -61 0
-35 -59 0
-35 -53 0
-35 -39 0
-35 -36 0
-34 -91 0
-34 -89 0
-34 -73 0
-34 -70 0
-34 -68 0
-34 -66 0
-34 -64 0
-34 -59 0
-34 -53 0
-34 -45 0
-34 -42 0
-33 -91 0
-33 -86 0
-33 -84 0
-33 -73 0
-33 -72 0
-33 -65 0
-33 -51 0
-33 -46 0
-33 -41 0
-33 -38 0
-33 -36 0
-32 -91 0
-32 -79 0
-32 -71 0
-32 -65 0
-32 -64 0
-32 -63 0
-32 -61 0
-32 -51 0
-32 -46 0
-32 -43 0
-32 -33 0
-30 -86 0
-30 -84 0
-30 -74 0
-30 -73 0
-30 -72 0
-30 -48 0
-30 -41 0
-30 -38 0
-30 -36 0
-30 -33 0
-29 -86 0
-29 -83 0
-29 -75 0
-29 -69 0
-29 -67 0
-29 -65 0
-29 -53 0
-29 -47 0
-29 -39 0
-29 -35 0
-28 -91 0
-28 -89 0
-28 -74 0
-28 -68 0
-28 -59 0
-28 -48 0
-28 -45 0
-28 -34 0
-28 -30 0
-27 -90 0
-27 -89 0
-27 -87 0
-27 -79 0
-27 -72 0
-27 -71 0
-27 -67 0
-27 -64 0
-27 -63 0
-27 -62 0
-27 -61 0
-27 -50 0
-27 -43 0
-27 -37 0
-27 -32 0
-26 -88 0
-26 -84 0
-26 -80 0
-26 -76 0
-26 -68 0
-26 -62 0
-26 -58 0
-26 -55 0
-26 -51 0
-26 -44 0
-26 -43 0
-26 -39 0
-25 -85 0
-25 -82 0
-25 -80 0
-25 -77 0
-25 -76 0
-25 -62 0
-25 -61 0
-25 -59 0
-25 -51 0
-25 -36 0
-25 -35 0
-25 -26 0
-24 -81 0
-24 -75 0
-24 -69 0
-24 -67 0
-24 -65 0
-24 -63 0
-24 -60 0
-24 -56 0
-24 -53 0
-24 -39 0
-24 -38 0
-24 -35 0
-24 -29 0
-23 -91 0
-23 -85 0
-23 -65 0
-23 -54 0
-23 -51 0
-23 -47 0
-23 -46 0
-23 -44 0
-23 -42 0
-23 -37 0
-23 -33 0
-23 -32 0
-22 -79 0
-22 -74 0
-22 -71 0
-22 -64 0
-22 -63 0
-22 -61 0
-22 -48 0
-22 -43 0
-22 -32 0
-22 -30 0
-22 -28 0
-22 -27 0
-21 -81 0
-21 -80 0
-21 -76 0
-21 -63 0
-21 -62 0
-21 -60 0
-21 -56 0
-21 -51 0
-21 -38 0
-21 -26 0
-21 -25 0
-21 -24 0
-20 -87 0
-20 -85 0
-20 -82 0
-20 -81 0
-20 -77 0
-20 -70 0
-20 -61 0
-20 -59 0
-20 -58 0
-20 -57 0
-20 -52 0
-20 -46 0
-20 -36 0
-20 -35 0
-20 -25 0
-19 -85 0
-19 -79 0
-19 -78 0
-19 -76 0
-19 -75 0
-19 -57 0
-19 -54 0
-19 -47 0
-19 -44 0
-19 -42 0
-19 -41 0
-19 -40 0
-19 -37 0
-19 -23 0
-18 -80 0
-18 -76 0
-18 -73 0
-18 -70 0
-18 -66 0
-18 -64 0
-18 -62 0
-18 -53 0
-18 -51 0
-18 -42 0
-18 -34 0
-18 -26 0
-18 -25 0
-18 -21 0
-17 -87 0
-17 -86 0
-17 -83 0
-17 -81 0
-17 -70 0
-17 -58 0
-17 -57 0
-17 -52 0
-17 -47 0
-17 -46 0
-17 -29 0
-17 -20 0
-16 -86 0
-16 -83 0
-16 -80 0
-16 -76 0
-16 -62 0
-16 -51 0
-16 -47 0
-16 -29 0
-16 -26 0
-16 -25 0
-16 -21 0
-16 -18 0
-16 -17 0
-15 -91 0
-15 -90 0
-15 -88 0
-15 -82 0
-15 -78 0
-15 -66 0
-15 -65 0
-15 -56 0
-15 -51 0
-15 -48 0
-15 -46 0
-15 -33 0
-15 -32 0
-15 -23 0
-14 -75 0
-14 -74 0
-14 -69 0
-14 -67 0
-14 -65 0
-14 -53 0
-14 -48 0
-14 -39 0
-14 -35 0
-14 -30 0
-14 -29 0
-14 -28 0
-14 -24 0
-14 -22 0
-13 -85 0
-13 -81 0
-13 -63 0
-13 -60 0
-13 -56 0
-13 -54 0
-13 -47 0
-13 -44 0
-13 -42 0
-13 -38 0
-13 -37 0
-13 -24 0
-13 -23 0
-13 -21 0
-13 -19 0
-12 -90 0
-12 -88 0
-12 -86 0
-12 -83 0
-12 -82 0
-12 -78 0
-12 -66 0
-12 -56 0
-12 -48 0
-12 -47 0
-12 -29 0
-12 -17 0
-12 -16 0
-12 -15 0
-11 -83 0
-11 -77 0
-11 -74 0
-11 -73 0
-11 -70 0
-11 -66 0
-11 -64 0
-11 -60 0
-11 -55 0
-11 -53 0
-11 -50 0
-11 -49 0
-11 -42 0
-11 -40 0
-11 -34 0
-11 -18 0
-10 -86 0
-10 -83 0
-10 -79 0
-10 -71 0
-10 -64 0
-10 -63 0
-10 -61 0
-10 -47 0
-10 -43 0
-10 -32 0
-10 -29 0
-10 -27 0
-10 -22 0
-10 -17 0
-10 -16 0
-10 -12 0
-9 -86 0
-9 -84 0
-9 -80 0
-9 -73 0
-9 -72 0
-9 -71 0
-9 -69 0
-9 -54 0
-9 -52 0
-9 -49 0
-9 -45 0
-9 -41 0
-9 -38 0
-9 -36 0
-9 -33 0
-9 -30 0
-8 -90 0
-8 -88 0
-8 -82 0
-8 -80 0
-8 -78 0
-8 -71 0
-8 -69 0
-8 -66 0
-8 -56 0
-8 -54 0
-8 -52 0
-8 -49 0
-8 -48 0
-8 -45 0
-8 -15 0
-8 -12 0
-8 -9 0
-7 -80 0
-7 -76 0
-7 -74 0
-7 -62 0
-7 -51 0
-7 -48 0
-7 -30 0
-7 -28 0
-7 -26 0
-7 -25 0
-7 -22 0
-7 -21 0
-7 -18 0
-7 -16 0
-7 -14 0
-6 -91 0
-6 -89 0
-6 -86 0
-6 -83 0
-6 -68 0
-6 -59 0
-6 -47 0
-6 -45 0
-6 -34 0
-6 -29 0
-6 -28 0
-6 -17 0
-6 -16 0
-6 -12 0
-6 -10 0
-5 -91 0
-5 -83 0
-5 -77 0
-5 -74 0
-5 -65 0
-5 -60 0
-5 -55 0
-5 -51 0
-5 -50 0
-5 -49 0
-5 -46 0
-5 -40 0
-5 -33 0
-5 -32 0
-5 -23 0
-5 -15 0
-5 -11 0
-4 -91 0
-4 -89 0
-4 -81 0
-4 -68 0
-4 -63 0
-4 -60 0
-4 -59 0
-4 -56 0
-4 -45 0
-4 -38 0
-4 -34 0
-4 -28 0
-4 -24 0
-4 -21 0
-4 -13 0
-4 -6 0
-3 -85 0
-3 -74 0
-3 -54 0
-3 -48 0
-3 -47 0
-3 -44 0
-3 -42 0
-3 -37 0
-3 -30 0
-3 -28 0
-3 -23 0
-3 -22 0
-3 -19 0
-3 -14 0
-3 -13 0
-3 -7 0
-2 -87 0
-2 -81 0
-2 -74 0
-2 -70 0
-2 -58 0
-2 -57 0
-2 -52 0
-2 -48 0
-2 -46 0
-2 -30 0
-2 -28 0
-2 -22 0
-2 -20 0
-2 -17 0
-2 -14 0
-2 -7 0
-2 -3 0
-1 -91 0
-1 -89 0
-1 -79 0
-1 -78 0
-1 -76 0
-1 -75 0
-1 -68 0
-1 -59 0
-1 -57 0
-1 -45 0
-1 -41 0
-1 -40 0
-1 -34 0
-1 -28 0
-1 -19 0
-1 -6 0
-1 -4 0
2 3 7 14 22 28 30 48 74 0
4 13 21 24 38 56 60 63 81 0
5 15 23 32 33 46 51 65 91 0
6 10 12 16 17 29 47 83 86 0
8 9 45 49 52 54 69 71 80 0
11 18 34 42 53 64 66 70 73 0
20 25 35 36 59 61 77 82 85 0
26 39 43 44 55 58 68 84 88 0
27 37 50 62 67 72 87 89 90 0
1 19 31 40 41 57 75 76 78 79 0
