p cnf 111 1056
-108 -111 0
-105 -107 0
-104 -110 0
-103 -107 0
-103 -105 0
-102 -110 0
-102 -106 0
-101 -111 0
-100 -107 0
-99 -110 0
-99 -109 0
-99 -102 0
-98 -106 0
-97 -109 0
-97 -99 0
-96 -100 0
-95 -106 0
-95 -102 0
-95 -100 0
-95 -96 0
-94 -111 0
-94 -108 0
-94 -106 0
-94 -102 0
-94 -95 0
-93 -110 0
-93 -108 0
-93 -102 0
-93 -99 0
-92 -107 0
-92 -106 0
-92 -105 0
-92 -103 0
-92 -102 0
-92 -95 0
-92 -94 0
-91 -107 0
-91 -100 0
-90 -104 0
-90 -96 0
-89 -108 0
-89 -104 0
-89 -93 0
-89 -90 0
-88 -105 0
-88 -100 0
-88 -96 0
-88 -95 0
-87 -109 0
-87 -101 0
-87 -99 0
-87 -97 0
-86 -106 0
-86 -104 0
-86 -102 0
-86 -95 0
-86 -94 0
-86 -92 0
-86 -90 0
-86 -89 0
-85 -110 0
-85 -103 0
-85 -102 0
-85 -99 0
-85 -93 0
-84 -111 0
-84 -110 0
-84 -108 0
-84 -104 0
-84 -94 0
-83 -109 0
-83 -106 0
-83 -102 0
-83 -95 0
-83 -94 0
-83 -92 0
-83 -86 0
-82 -103 0
-82 -97 0
-82 -85 0
-81 -110 0
-81 -102 0
-81 -99 0
-81 -98 0
-81 -93 0
-81 -85 0
-80 -111 0
-80 -109 0
-80 -108 0
-80 -99 0
-80 -97 0
-80 -94 0
-80 -87 0
-80 -84 0
-79 -105 0
-79 -91 0
-79 -88 0
-78 -107 0
-78 -100 0
-78 -97 0
-78 -91 0
-78 -82 0
-77 -97 0
-77 -96 0
-77 -90 0
-77 -82 0
-77 -78 0
-76 -98 0
-76 -97 0
-76 -82 0
-76 -81 0
-76 -78 0
-76 -77 0
-75 -110 0
-75 -104 0
-75 -100 0
-75 -96 0
-75 -95 0
-75 -88 0
-75 -84 0
-74 -111 0
-74 -110 0
-74 -102 0
-74 -101 0
-74 -99 0
-74 -93 0
-74 -85 0
-74 -81 0
-73 -109 0
-73 -108 0
-73 -93 0
-73 -89 0
-73 -83 0
-72 -110 0
-72 -105 0
-72 -102 0
-72 -99 0
-72 -93 0
-72 -88 0
-72 -85 0
-72 -81 0
-72 -79 0
-72 -74 0
-71 -101 0
-71 -98 0
-71 -87 0
-71 -81 0
-71 -76 0
-70 -105 0
-70 -97 0
-70 -88 0
-70 -82 0
-70 -79 0
-70 -78 0
-70 -77 0
-70 -76 0
-70 -72 0
-69 -111 0
-69 -101 0
-69 -91 0
-69 -79 0
-69 -74 0
-68 -111 0
-68 -109 0
-68 -101 0
-68 -83 0
-68 -74 0
-68 -73 0
-68 -69 0
-67 -106 0
-67 -98 0
-67 -96 0
-67 -90 0
-67 -77 0
-66 -109 0
-66 -83 0
-66 -73 0
-66 -68 0
-65 -111 0
-65 -108 0
-65 -96 0
-65 -94 0
-65 -90 0
-65 -84 0
-65 -80 0
-65 -77 0
-65 -67 0
-64 -96 0
-64 -91 0
-64 -90 0
-64 -79 0
-64 -77 0
-64 -69 0
-64 -67 0
-64 -65 0
-63 -106 0
-63 -103 0
-63 -98 0
-63 -85 0
-63 -82 0
-63 -67 0
-62 -108 0
-62 -101 0
-62 -93 0
-62 -89 0
-62 -87 0
-62 -73 0
-62 -71 0
-61 -109 0
-61 -99 0
-61 -97 0
-61 -91 0
-61 -87 0
-61 -80 0
-61 -79 0
-61 -69 0
-61 -64 0
-60 -110 0
-60 -104 0
-60 -101 0
-60 -87 0
-60 -84 0
-60 -75 0
-60 -71 0
-60 -62 0
-59 -109 0
-59 -104 0
-59 -99 0
-59 -97 0
-59 -90 0
-59 -89 0
-59 -87 0
-59 -86 0
-59 -80 0
-59 -61 0
-58 -106 0
-58 -102 0
-58 -101 0
-58 -95 0
-58 -94 0
-58 -92 0
-58 -87 0
-58 -86 0
-58 -83 0
-58 -71 0
-58 -62 0
-58 -60 0
-57 -111 0
-57 -108 0
-57 -94 0
-57 -84 0
-57 -80 0
-57 -66 0
-57 -65 0
-56 -108 0
-56 -97 0
-56 -93 0
-56 -89 0
-56 -82 0
-56 -78 0
-56 -77 0
-56 -76 0
-56 -73 0
-56 -70 0
-56 -62 0
-55 -109 0
-55 -107 0
-55 -105 0
-55 -103 0
-55 -99 0
-55 -97 0
-55 -92 0
-55 -87 0
-55 -80 0
-55 -61 0
-55 -59 0
-54 -111 0
-54 -108 0
-54 -98 0
-54 -94 0
-54 -84 0
-54 -81 0
-54 -80 0
-54 -76 0
-54 -71 0
-54 -65 0
-54 -57 0
-53 -110 0
-53 -102 0
-53 -99 0
-53 -96 0
-53 -93 0
-53 -90 0
-53 -85 0
-53 -81 0
-53 -77 0
-53 -74 0
-53 -72 0
-53 -67 0
-53 -65 0
-53 -64 0
-52 -109 0
-52 -106 0
-52 -99 0
-52 -98 0
-52 -97 0
-52 -87 0
-52 -80 0
-52 -67 0
-52 -63 0
-52 -61 0
-52 -59 0
-52 -55 0
-51 -106 0
-51 -98 0
-51 -67 0
-51 -66 0
-51 -63 0
-51 -57 0
-51 -52 0
-50 -106 0
-50 -105 0
-50 -98 0
-50 -88 0
-50 -79 0
-50 -72 0
-50 -70 0
-50 -67 0
-50 -63 0
-50 -52 0
-50 -51 0
-49 -107 0
-49 -104 0
-49 -100 0
-49 -91 0
-49 -90 0
-49 -89 0
-49 -86 0
-49 -78 0
-49 -59 0
-48 -100 0
-48 -96 0
-48 -95 0
-48 -88 0
-48 -75 0
-48 -66 0
-48 -57 0
-48 -51 0
-47 -91 0
-47 -79 0
-47 -69 0
-47 -66 0
-47 -64 0
-47 -61 0
-47 -57 0
-47 -51 0
-47 -48 0
-46 -98 0
-46 -91 0
-46 -81 0
-46 -79 0
-46 -76 0
-46 -71 0
-46 -69 0
-46 -64 0
-46 -61 0
-46 -54 0
-46 -47 0
-45 -110 0
-45 -104 0
-45 -91 0
-45 -84 0
-45 -79 0
-45 -75 0
-45 -69 0
-45 -64 0
-45 -61 0
-45 -60 0
-45 -47 0
-45 -46 0
-44 -107 0
-44 -101 0
-44 -100 0
-44 -91 0
-44 -87 0
-44 -78 0
-44 -71 0
-44 -62 0
-44 -60 0
-44 -58 0
-44 -49 0
-43 -101 0
-43 -87 0
-43 -71 0
-43 -66 0
-43 -62 0
-43 -60 0
-43 -58 0
-43 -57 0
-43 -51 0
-43 -48 0
-43 -47 0
-43 -44 0
-42 -108 0
-42 -107 0
-42 -105 0
-42 -103 0
-42 -93 0
-42 -92 0
-42 -89 0
-42 -73 0
-42 -62 0
-42 -56 0
-42 -55 0
-41 -110 0
-41 -109 0
-41 -104 0
-41 -84 0
-41 -83 0
-41 -75 0
-41 -73 0
-41 -68 0
-41 -66 0
-41 -60 0
-41 -45 0
-40 -101 0
-40 -96 0
-40 -90 0
-40 -87 0
-40 -77 0
-40 -71 0
-40 -67 0
-40 -65 0
-40 -64 0
-40 -62 0
-40 -60 0
-40 -58 0
-40 -53 0
-40 -44 0
-40 -43 0
-39 -111 0
-39 -101 0
-39 -100 0
-39 -96 0
-39 -95 0
-39 -88 0
-39 -75 0
-39 -74 0
-39 -69 0
-39 -68 0
-39 -48 0
-38 -103 0
-38 -91 0
-38 -85 0
-38 -82 0
-38 -79 0
-38 -69 0
-38 -64 0
-38 -63 0
-38 -61 0
-38 -47 0
-38 -46 0
-38 -45 0
-37 -108 0
-37 -106 0
-37 -98 0
-37 -93 0
-37 -89 0
-37 -73 0
-37 -67 0
-37 -63 0
-37 -62 0
-37 -56 0
-37 -52 0
-37 -51 0
-37 -50 0
-37 -42 0
-36 -97 0
-36 -82 0
-36 -78 0
-36 -77 0
-36 -76 0
-36 -70 0
-36 -66 0
-36 -57 0
-36 -56 0
-36 -51 0
-36 -48 0
-36 -47 0
-36 -43 0
-35 -107 0
-35 -106 0
-35 -100 0
-35 -98 0
-35 -91 0
-35 -78 0
-35 -67 0
-35 -63 0
-35 -52 0
-35 -51 0
-35 -50 0
-35 -49 0
-35 -44 0
-35 -37 0
-34 -108 0
-34 -93 0
-34 -91 0
-34 -89 0
-34 -79 0
-34 -73 0
-34 -69 0
-34 -64 0
-34 -62 0
-34 -61 0
-34 -56 0
-34 -47 0
-34 -46 0
-34 -45 0
-34 -42 0
-34 -38 0
-34 -37 0
-33 -106 0
-33 -102 0
-33 -97 0
-33 -95 0
-33 -94 0
-33 -92 0
-33 -86 0
-33 -83 0
-33 -82 0
-33 -78 0
-33 -77 0
-33 -76 0
-33 -70 0
-33 -58 0
-33 -56 0
-33 -36 0
-32 -104 0
-32 -103 0
-32 -90 0
-32 -89 0
-32 -86 0
-32 -85 0
-32 -82 0
-32 -63 0
-32 -59 0
-32 -49 0
-32 -38 0
-31 -110 0
-31 -102 0
-31 -99 0
-31 -93 0
-31 -85 0
-31 -81 0
-31 -74 0
-31 -72 0
-31 -66 0
-31 -57 0
-31 -53 0
-31 -51 0
-31 -48 0
-31 -47 0
-31 -43 0
-31 -36 0
-30 -110 0
-30 -106 0
-30 -104 0
-30 -98 0
-30 -84 0
-30 -75 0
-30 -67 0
-30 -63 0
-30 -60 0
-30 -52 0
-30 -51 0
-30 -50 0
-30 -45 0
-30 -41 0
-30 -37 0
-30 -35 0
-29 -109 0
-29 -96 0
-29 -90 0
-29 -83 0
-29 -77 0
-29 -73 0
-29 -68 0
-29 -67 0
-29 -66 0
-29 -65 0
-29 -64 0
-29 -53 0
-29 -41 0
-29 -40 0
-28 -104 0
-28 -98 0
-28 -90 0
-28 -89 0
-28 -86 0
-28 -81 0
-28 -76 0
-28 -71 0
-28 -59 0
-28 -54 0
-28 -49 0
-28 -46 0
-28 -32 0
-27 -111 0
-27 -108 0
-27 -105 0
-27 -94 0
-27 -88 0
-27 -84 0
-27 -80 0
-27 -79 0
-27 -72 0
-27 -70 0
-27 -65 0
-27 -57 0
-27 -54 0
-27 -50 0
-26 -107 0
-26 -105 0
-26 -103 0
-26 -98 0
-26 -92 0
-26 -81 0
-26 -76 0
-26 -71 0
-26 -55 0
-26 -54 0
-26 -46 0
-26 -42 0
-26 -28 0
-25 -109 0
-25 -100 0
-25 -99 0
-25 -97 0
-25 -96 0
-25 -95 0
-25 -88 0
-25 -87 0
-25 -80 0
-25 -75 0
-25 -61 0
-25 -59 0
-25 -55 0
-25 -52 0
-25 -48 0
-25 -39 0
-24 -107 0
-24 -105 0
-24 -103 0
-24 -92 0
-24 -66 0
-24 -57 0
-24 -55 0
-24 -51 0
-24 -48 0
-24 -47 0
-24 -43 0
-24 -42 0
-24 -36 0
-24 -31 0
-24 -26 0
-23 -111 0
-23 -101 0
-23 -97 0
-23 -82 0
-23 -78 0
-23 -77 0
-23 -76 0
-23 -74 0
-23 -70 0
-23 -69 0
-23 -68 0
-23 -56 0
-23 -39 0
-23 -36 0
-23 -33 0
-22 -110 0
-22 -107 0
-22 -105 0
-22 -104 0
-22 -103 0
-22 -92 0
-22 -84 0
-22 -75 0
-22 -60 0
-22 -55 0
-22 -45 0
-22 -42 0
-22 -41 0
-22 -30 0
-22 -26 0
-22 -24 0
-21 -103 0
-21 -100 0
-21 -96 0
-21 -95 0
-21 -88 0
-21 -85 0
-21 -82 0
-21 -75 0
-21 -63 0
-21 -48 0
-21 -39 0
-21 -38 0
-21 -32 0
-21 -25 0
-20 -109 0
-20 -105 0
-20 -88 0
-20 -83 0
-20 -79 0
-20 -73 0
-20 -72 0
-20 -70 0
-20 -68 0
-20 -66 0
-20 -50 0
-20 -41 0
-20 -29 0
-20 -27 0
-19 -107 0
-19 -105 0
-19 -103 0
-19 -96 0
-19 -92 0
-19 -90 0
-19 -77 0
-19 -67 0
-19 -65 0
-19 -64 0
-19 -55 0
-19 -53 0
-19 -42 0
-19 -40 0
-19 -29 0
-19 -26 0
-19 -24 0
-19 -22 0
-17 -110 0
-17 -104 0
-17 -97 0
-17 -84 0
-17 -82 0
-17 -78 0
-17 -77 0
-17 -76 0
-17 -75 0
-17 -70 0
-17 -60 0
-17 -56 0
-17 -45 0
-17 -41 0
-17 -36 0
-17 -33 0
-17 -30 0
-17 -23 0
-17 -22 0
-16 -100 0
-16 -98 0
-16 -96 0
-16 -95 0
-16 -88 0
-16 -81 0
-16 -76 0
-16 -75 0
-16 -71 0
-16 -54 0
-16 -48 0
-16 -46 0
-16 -39 0
-16 -28 0
-16 -26 0
-16 -25 0
-16 -21 0
-15 -109 0
-15 -107 0
-15 -100 0
-15 -91 0
-15 -83 0
-15 -78 0
-15 -73 0
-15 -68 0
-15 -66 0
-15 -49 0
-15 -44 0
-15 -41 0
-15 -35 0
-15 -29 0
-15 -20 0
-14 -109 0
-14 -103 0
-14 -85 0
-14 -83 0
-14 -82 0
-14 -73 0
-14 -68 0
-14 -66 0
-14 -63 0
-14 -41 0
-14 -38 0
-14 -32 0
-14 -29 0
-14 -21 0
-14 -20 0
-14 -15 0
-13 -105 0
-13 -101 0
-13 -88 0
-13 -87 0
-13 -79 0
-13 -72 0
-13 -71 0
-13 -70 0
-13 -62 0
-13 -60 0
-13 -58 0
-13 -50 0
-13 -44 0
-13 -43 0
-13 -40 0
-13 -27 0
-13 -20 0
-12 -110 0
-12 -107 0
-12 -102 0
-12 -100 0
-12 -99 0
-12 -93 0
-12 -91 0
-12 -85 0
-12 -81 0
-12 -78 0
-12 -74 0
-12 -72 0
-12 -53 0
-12 -49 0
-12 -44 0
-12 -35 0
-12 -31 0
-12 -15 0
-11 -111 0
-11 -108 0
-11 -103 0
-11 -94 0
-11 -85 0
-11 -84 0
-11 -82 0
-11 -80 0
-11 -65 0
-11 -63 0
-11 -57 0
-11 -54 0
-11 -38 0
-11 -32 0
-11 -27 0
-11 -21 0
-11 -14 0
-10 -109 0
-10 -98 0
-10 -83 0
-10 -81 0
-10 -76 0
-10 -73 0
-10 -71 0
-10 -68 0
-10 -66 0
-10 -54 0
-10 -46 0
-10 -41 0
-10 -29 0
-10 -28 0
-10 -26 0
-10 -20 0
-10 -16 0
-10 -15 0
-10 -14 0
-9 -111 0
-9 -108 0
-9 -107 0
-9 -100 0
-9 -94 0
-9 -91 0
-9 -84 0
-9 -80 0
-9 -78 0
-9 -65 0
-9 -57 0
-9 -54 0
-9 -49 0
-9 -44 0
-9 -35 0
-9 -27 0
-9 -15 0
-9 -12 0
-9 -11 0
-8 -106 0
-8 -102 0
-8 -95 0
-8 -94 0
-8 -92 0
-8 -91 0
-8 -86 0
-8 -83 0
-8 -79 0
-8 -69 0
-8 -64 0
-8 -61 0
-8 -58 0
-8 -47 0
-8 -46 0
-8 -45 0
-8 -38 0
-8 -34 0
-8 -33 0
-7 -111 0
-7 -106 0
-7 -101 0
-7 -98 0
-7 -74 0
-7 -69 0
-7 -68 0
-7 -67 0
-7 -63 0
-7 -52 0
-7 -51 0
-7 -50 0
-7 -39 0
-7 -37 0
-7 -35 0
-7 -30 0
-7 -23 0
-6 -111 0
-6 -104 0
-6 -101 0
-6 -90 0
-6 -89 0
-6 -86 0
-6 -74 0
-6 -69 0
-6 -68 0
-6 -59 0
-6 -49 0
-6 -39 0
-6 -32 0
-6 -28 0
-6 -23 0
-6 -7 0
-5 -108 0
-5 -100 0
-5 -96 0
-5 -95 0
-5 -93 0
-5 -89 0
-5 -88 0
-5 -75 0
-5 -73 0
-5 -62 0
-5 -56 0
-5 -48 0
-5 -42 0
-5 -39 0
-5 -37 0
-5 -34 0
-5 -25 0
-5 -21 0
-5 -16 0
-4 -103 0
-4 -101 0
-4 -87 0
-4 -85 0
-4 -82 0
-4 -71 0
-4 -63 0
-4 -62 0
-4 -60 0
-4 -58 0
-4 -44 0
-4 -43 0
-4 -40 0
-4 -38 0
-4 -32 0
-4 -21 0
-4 -14 0
-4 -13 0
-4 -11 0
-3 -111 0
-3 -107 0
-3 -105 0
-3 -103 0
-3 -101 0
-3 -92 0
-3 -74 0
-3 -69 0
-3 -68 0
-3 -55 0
-3 -42 0
-3 -39 0
-3 -26 0
-3 -24 0
-3 -23 0
-3 -22 0
-3 -19 0
-3 -7 0
-3 -6 0
-2 -104 0
-2 -90 0
-2 -89 0
-2 -86 0
-2 -66 0
-2 -59 0
-2 -57 0
-2 -51 0
-2 -49 0
-2 -48 0
-2 -47 0
-2 -43 0
-2 -36 0
-2 -32 0
-2 -31 0
-2 -28 0
-2 -24 0
-2 -6 0
-1 -105 0
-1 -104 0
-1 -90 0
-1 -89 0
-1 -88 0
-1 -86 0
-1 -79 0
-1 -72 0
-1 -70 0
-1 -59 0
-1 -50 0
-1 -49 0
-1 -32 0
-1 -28 0
-1 -27 0
-1 -20 0
-1 -13 0
-1 -6 0
-1 -2 0
2 24 31 36 43 47 48 51 57 66 0
3 6 7 23 39 68 69 74 101 111 0
4 11 14 21 32 38 63 82 85 103 0
5 34 37 42 56 62 73 89 93 108 0
8 33 58 83 86 92 94 95 102 106 0
9 12 15 35 44 49 78 91 100 107 0
10 16 26 28 46 54 71 76 81 98 0
17 22 30 41 45 60 75 84 104 110 0
19 29 40 53 64 65 67 77 90 96 0
25 52 55 59 61 80 87 97 99 109 0
1 13 18 20 27 50 70 72 79 88 105 0
