p cnf 91 775
-89 -90 0
-87 -90 0
-86 -90 0
-86 -87 0
-85 -91 0
-84 -90 0
-84 -89 0
-83 -90 0
-83 -89 0
-83 -85 0
-83 -84 0
-82 -88 0
-82 -87 0
-80 -86 0
-79 -91 0
-78 -81 0
-77 -91 0
-77 -88 0
-77 -79 0
-76 -84 0
-75 -90 0
-75 -89 0
-75 -84 0
-75 -83 0
-74 -81 0
-74 -78 0
-74 -76 0
-73 -81 0
-73 -75 0
-72 -81 0
-72 -78 0
-72 -74 0
-71 -87 0
-71 -82 0
-71 -81 0
-71 -78 0
-71 -74 0
-71 -72 0
-70 -91 0
-70 -88 0
-70 -85 0
-70 -82 0
-69 -91 0
-69 -79 0
-69 -78 0
-69 -77 0
-68 -84 0
-68 -79 0
-68 -76 0
-67 -88 0
-67 -80 0
-67 -77 0
-66 -81 0
-66 -80 0
-66 -73 0
-66 -67 0
-65 -91 0
-65 -89 0
-65 -85 0
-65 -70 0
-64 -91 0
-64 -79 0
-64 -77 0
-64 -72 0
-64 -69 0
-63 -89 0
-63 -87 0
-63 -82 0
-63 -71 0
-63 -65 0
-62 -88 0
-62 -82 0
-62 -78 0
-62 -70 0
-62 -69 0
-61 -84 0
-61 -81 0
-61 -76 0
-61 -73 0
-61 -68 0
-61 -66 0
-60 -88 0
-60 -82 0
-60 -81 0
-60 -73 0
-60 -70 0
-60 -66 0
-60 -62 0
-60 -61 0
-59 -84 0
-59 -78 0
-59 -76 0
-59 -69 0
-59 -68 0
-59 -62 0
-59 -61 0
-58 -88 0
-58 -84 0
-58 -77 0
-58 -76 0
-58 -68 0
-58 -67 0
-58 -61 0
-58 -59 0
-57 -84 0
-57 -76 0
-57 -72 0
-57 -68 0
-57 -64 0
-57 -61 0
-57 -59 0
-57 -58 0
-56 -90 0
-56 -87 0
-56 -86 0
-56 -81 0
-56 -73 0
-56 -66 0
-56 -61 0
-56 -60 0
-55 -85 0
-55 -83 0
-55 -72 0
-55 -64 0
-55 -57 0
-54 -89 0
-54 -72 0
-54 -65 0
-54 -64 0
-54 -63 0
-54 -57 0
-54 -55 0
-53 -85 0
-53 -83 0
-53 -79 0
-53 -68 0
-53 -55 0
-52 -90 0
-52 -87 0
-52 -86 0
-52 -78 0
-52 -69 0
-52 -62 0
-52 -59 0
-52 -56 0
-51 -86 0
-51 -84 0
-51 -80 0
-51 -76 0
-51 -68 0
-51 -61 0
-51 -59 0
-51 -58 0
-51 -57 0
-50 -91 0
-50 -85 0
-50 -81 0
-50 -78 0
-50 -74 0
-50 -72 0
-50 -71 0
-50 -70 0
-50 -65 0
-49 -87 0
-49 -84 0
-49 -82 0
-49 -76 0
-49 -71 0
-49 -68 0
-49 -63 0
-49 -61 0
-49 -59 0
-49 -58 0
-49 -57 0
-49 -51 0
-48 -79 0
-48 -75 0
-48 -73 0
-48 -68 0
-48 -53 0
-47 -86 0
-47 -85 0
-47 -83 0
-47 -80 0
-47 -55 0
-47 -53 0
-47 -51 0
-46 -91 0
-46 -86 0
-46 -80 0
-46 -79 0
-46 -77 0
-46 -69 0
-46 -64 0
-46 -51 0
-46 -47 0
-45 -85 0
-45 -83 0
-45 -81 0
-45 -73 0
-45 -66 0
-45 -61 0
-45 -60 0
-45 -56 0
-45 -55 0
-45 -53 0
-45 -47 0
-44 -88 0
-44 -82 0
-44 -76 0
-44 -74 0
-44 -70 0
-44 -62 0
-44 -60 0
-43 -89 0
-43 -78 0
-43 -69 0
-43 -65 0
-43 -63 0
-43 -62 0
-43 -59 0
-43 -54 0
-43 -52 0
-42 -89 0
-42 -86 0
-42 -80 0
-42 -65 0
-42 -63 0
-42 -54 0
-42 -51 0
-42 -47 0
-42 -46 0
-42 -43 0
-41 -89 0
-41 -88 0
-41 -77 0
-41 -67 0
-41 -65 0
-41 -63 0
-41 -58 0
-41 -54 0
-41 -43 0
-41 -42 0
-40 -85 0
-40 -83 0
-40 -78 0
-40 -69 0
-40 -62 0
-40 -59 0
-40 -55 0
-40 -53 0
-40 -52 0
-40 -47 0
-40 -45 0
-40 -43 0
-39 -89 0
-39 -76 0
-39 -74 0
-39 -65 0
-39 -63 0
-39 -54 0
-39 -44 0
-39 -43 0
-39 -42 0
-39 -41 0
-38 -89 0
-38 -79 0
-38 -68 0
-38 -65 0
-38 -63 0
-38 -54 0
-38 -53 0
-38 -48 0
-38 -43 0
-38 -42 0
-38 -41 0
-38 -39 0
-37 -88 0
-37 -77 0
-37 -75 0
-37 -73 0
-37 -67 0
-37 -58 0
-37 -48 0
-37 -41 0
-36 -91 0
-36 -81 0
-36 -79 0
-36 -77 0
-36 -73 0
-36 -69 0
-36 -66 0
-36 -64 0
-36 -61 0
-36 -60 0
-36 -56 0
-36 -46 0
-36 -45 0
-35 -80 0
-35 -76 0
-35 -74 0
-35 -67 0
-35 -66 0
-35 -44 0
-35 -39 0
-34 -88 0
-34 -81 0
-34 -78 0
-34 -77 0
-34 -74 0
-34 -72 0
-34 -71 0
-34 -67 0
-34 -58 0
-34 -50 0
-34 -41 0
-34 -37 0
-33 -90 0
-33 -87 0
-33 -86 0
-33 -76 0
-33 -74 0
-33 -56 0
-33 -52 0
-33 -44 0
-33 -39 0
-33 -35 0
-31 -80 0
-31 -79 0
-31 -68 0
-31 -67 0
-31 -66 0
-31 -53 0
-31 -48 0
-31 -38 0
-31 -35 0
-30 -88 0
-30 -86 0
-30 -82 0
-30 -80 0
-30 -70 0
-30 -62 0
-30 -60 0
-30 -51 0
-30 -47 0
-30 -46 0
-30 -44 0
-30 -42 0
-29 -91 0
-29 -90 0
-29 -89 0
-29 -84 0
-29 -83 0
-29 -79 0
-29 -77 0
-29 -75 0
-29 -69 0
-29 -64 0
-29 -46 0
-29 -36 0
-28 -90 0
-28 -87 0
-28 -86 0
-28 -72 0
-28 -64 0
-28 -57 0
-28 -56 0
-28 -55 0
-28 -54 0
-28 -52 0
-28 -33 0
-27 -91 0
-27 -85 0
-27 -84 0
-27 -76 0
-27 -70 0
-27 -68 0
-27 -65 0
-27 -61 0
-27 -59 0
-27 -58 0
-27 -57 0
-27 -51 0
-27 -50 0
-27 -49 0
-26 -87 0
-26 -82 0
-26 -75 0
-26 -73 0
-26 -71 0
-26 -63 0
-26 -49 0
-26 -48 0
-26 -37 0
-25 -88 0
-25 -82 0
-25 -72 0
-25 -70 0
-25 -64 0
-25 -62 0
-25 -60 0
-25 -57 0
-25 -55 0
-25 -54 0
-25 -44 0
-25 -30 0
-25 -28 0
-24 -87 0
-24 -82 0
-24 -80 0
-24 -71 0
-24 -67 0
-24 -66 0
-24 -63 0
-24 -49 0
-24 -35 0
-24 -31 0
-24 -26 0
-23 -91 0
-23 -85 0
-23 -75 0
-23 -73 0
-23 -70 0
-23 -65 0
-23 -50 0
-23 -48 0
-23 -37 0
-23 -27 0
-23 -26 0
-22 -91 0
-22 -79 0
-22 -77 0
-22 -76 0
-22 -74 0
-22 -69 0
-22 -64 0
-22 -46 0
-22 -44 0
-22 -39 0
-22 -36 0
-22 -35 0
-22 -33 0
-22 -29 0
-21 -90 0
-21 -87 0
-21 -86 0
-21 -79 0
-21 -68 0
-21 -56 0
-21 -53 0
-21 -52 0
-21 -48 0
-21 -38 0
-21 -33 0
-21 -31 0
-21 -28 0
-20 -89 0
-20 -81 0
-20 -73 0
-20 -66 0
-20 -65 0
-20 -63 0
-20 -61 0
-20 -60 0
-20 -56 0
-20 -54 0
-20 -45 0
-20 -43 0
-20 -42 0
-20 -41 0
-20 -39 0
-20 -38 0
-20 -36 0
-19 -78 0
-19 -75 0
-19 -73 0
-19 -69 0
-19 -62 0
-19 -59 0
-19 -52 0
-19 -48 0
-19 -43 0
-19 -40 0
-19 -37 0
-19 -26 0
-19 -23 0
-18 -85 0
-18 -83 0
-18 -76 0
-18 -74 0
-18 -55 0
-18 -53 0
-18 -47 0
-18 -45 0
-18 -44 0
-18 -40 0
-18 -39 0
-18 -35 0
-18 -33 0
-18 -22 0
-17 -91 0
-17 -90 0
-17 -87 0
-17 -86 0
-17 -85 0
-17 -70 0
-17 -65 0
-17 -56 0
-17 -52 0
-17 -50 0
-17 -33 0
-17 -28 0
-17 -27 0
-17 -23 0
-17 -21 0
-16 -80 0
-16 -78 0
-16 -69 0
-16 -67 0
-16 -66 0
-16 -62 0
-16 -59 0
-16 -52 0
-16 -43 0
-16 -40 0
-16 -35 0
-16 -31 0
-16 -24 0
-16 -19 0
-15 -88 0
-15 -85 0
-15 -83 0
-15 -77 0
-15 -67 0
-15 -58 0
-15 -55 0
-15 -53 0
-15 -47 0
-15 -45 0
-15 -41 0
-15 -40 0
-15 -37 0
-15 -34 0
-15 -18 0
-14 -91 0
-14 -87 0
-14 -82 0
-14 -79 0
-14 -77 0
-14 -71 0
-14 -69 0
-14 -64 0
-14 -63 0
-14 -49 0
-14 -46 0
-14 -36 0
-14 -29 0
-14 -26 0
-14 -24 0
-14 -22 0
-13 -80 0
-13 -72 0
-13 -67 0
-13 -66 0
-13 -64 0
-13 -57 0
-13 -55 0
-13 -54 0
-13 -35 0
-13 -31 0
-13 -28 0
-13 -25 0
-13 -24 0
-13 -16 0
-12 -75 0
-12 -73 0
-12 -72 0
-12 -64 0
-12 -57 0
-12 -55 0
-12 -54 0
-12 -48 0
-12 -37 0
-12 -28 0
-12 -26 0
-12 -25 0
-12 -23 0
-12 -19 0
-12 -13 0
-11 -87 0
-11 -85 0
-11 -83 0
-11 -82 0
-11 -71 0
-11 -63 0
-11 -55 0
-11 -53 0
-11 -49 0
-11 -47 0
-11 -45 0
-11 -40 0
-11 -26 0
-11 -24 0
-11 -18 0
-11 -15 0
-11 -14 0
-10 -90 0
-10 -89 0
-10 -88 0
-10 -84 0
-10 -83 0
-10 -82 0
-10 -75 0
-10 -70 0
-10 -62 0
-10 -60 0
-10 -44 0
-10 -30 0
-10 -29 0
-10 -25 0
-9 -86 0
-9 -80 0
-9 -75 0
-9 -73 0
-9 -51 0
-9 -48 0
-9 -47 0
-9 -46 0
-9 -42 0
-9 -37 0
-9 -30 0
-9 -26 0
-9 -23 0
-9 -19 0
-9 -12 0
-8 -90 0
-8 -88 0
-8 -87 0
-8 -86 0
-8 -77 0
-8 -67 0
-8 -58 0
-8 -56 0
-8 -52 0
-8 -41 0
-8 -37 0
-8 -34 0
-8 -33 0
-8 -28 0
-8 -21 0
-8 -17 0
-8 -15 0
-7 -90 0
-7 -89 0
-7 -84 0
-7 -83 0
-7 -80 0
-7 -75 0
-7 -67 0
-7 -66 0
-7 -35 0
-7 -31 0
-7 -29 0
-7 -24 0
-7 -16 0
-7 -13 0
-7 -10 0
-6 -76 0
-6 -75 0
-6 -74 0
-6 -73 0
-6 -48 0
-6 -44 0
-6 -39 0
-6 -37 0
-6 -35 0
-6 -33 0
-6 -26 0
-6 -23 0
-6 -22 0
-6 -19 0
-6 -18 0
-6 -12 0
-6 -9 0
-5 -88 0
-5 -82 0
-5 -79 0
-5 -70 0
-5 -68 0
-5 -62 0
-5 -60 0
-5 -53 0
-5 -48 0
-5 -44 0
-5 -38 0
-5 -31 0
-5 -30 0
-5 -25 0
-5 -21 0
-5 -10 0
-4 -90 0
-4 -89 0
-4 -84 0
-4 -83 0
-4 -81 0
-4 -78 0
-4 -75 0
-4 -74 0
-4 -72 0
-4 -71 0
-4 -50 0
-4 -34 0
-4 -29 0
-4 -10 0
-4 -7 0
-3 -86 0
-3 -81 0
-3 -80 0
-3 -78 0
-3 -74 0
-3 -72 0
-3 -71 0
-3 -51 0
-3 -50 0
-3 -47 0
-3 -46 0
-3 -42 0
-3 -34 0
-3 -30 0
-3 -9 0
-3 -4 0
-2 -91 0
-2 -85 0
-2 -80 0
-2 -70 0
-2 -67 0
-2 -66 0
-2 -65 0
-2 -50 0
-2 -35 0
-2 -31 0
-2 -27 0
-2 -24 0
-2 -23 0
-2 -17 0
-2 -16 0
-2 -13 0
-2 -7 0
-1 -81 0
-1 -79 0
-1 -78 0
-1 -74 0
-1 -72 0
-1 -71 0
-1 -68 0
-1 -53 0
-1 -50 0
-1 -48 0
-1 -38 0
-1 -34 0
-1 -31 0
-1 -21 0
-1 -5 0
-1 -4 0
-1 -3 0
1 5 21 31 38 48 53 68 79 0
2 17 23 27 50 65 70 85 91 0
3 9 30 42 46 47 51 80 86 0
4 7 10 29 75 83 84 89 90 0
6 18 22 33 35 39 44 74 76 0
11 14 24 26 49 63 71 82 87 0
12 13 25 28 54 55 57 64 72 0
16 19 40 43 52 59 62 69 78 0
20 36 45 56 60 61 66 73 81 0
8 15 32 34 37 41 58 67 77 88 0
