p cnf 31 141
-28 -29 0
-27 -30 0
-27 -29 0
-27 -28 0
-25 -28 0
-25 -26 0
-24 -28 0
-24 -25 0
-23 -30 0
-23 -27 0
-23 -24 0
-22 -29 0
-22 -26 0
-22 -25 0
-21 -30 0
-21 -26 0
-20 -31 0
-20 -30 0
-20 -21 0
-19 -31 0
-19 -26 0
-19 -21 0
-18 -30 0
-18 -21 0
-18 -20 0
-17 -26 0
-17 -25 0
-17 -22 0
-17 -18 0
-16 -30 0
-16 -29 0
-16 -22 0
-16 -21 0
-16 -20 0
-16 -18 0
-15 -24 0
-15 -23 0
-15 -18 0
-15 -17 0
-14 -31 0
-14 -29 0
-14 -22 0
-14 -19 0
-14 -16 0
-13 -29 0
-13 -28 0
-13 -27 0
-13 -18 0
-13 -17 0
-13 -15 0
-12 -31 0
-12 -19 0
-12 -18 0
-12 -17 0
-12 -15 0
-12 -14 0
-12 -13 0
-11 -31 0
-11 -30 0
-11 -27 0
-11 -23 0
-11 -19 0
-11 -14 0
-11 -12 0
-10 -29 0
-10 -28 0
-10 -27 0
-10 -26 0
-10 -21 0
-10 -19 0
-10 -13 0
-9 -30 0
-9 -28 0
-9 -25 0
-9 -24 0
-9 -21 0
-9 -20 0
-9 -18 0
-9 -16 0
-8 -30 0
-8 -27 0
-8 -26 0
-8 -25 0
-8 -23 0
-8 -22 0
-8 -17 0
-8 -11 0
-7 -31 0
-7 -28 0
-7 -25 0
-7 -24 0
-7 -19 0
-7 -14 0
-7 -12 0
-7 -11 0
-7 -9 0
-5 -31 0
-5 -26 0
-5 -25 0
-5 -22 0
-5 -20 0
-5 -17 0
-5 -8 0
-4 -29 0
-4 -24 0
-4 -23 0
-4 -22 0
-4 -16 0
-4 -15 0
-4 -14 0
-3 -31 0
-3 -24 0
-3 -23 0
-3 -20 0
-3 -15 0
-3 -5 0
-3 -4 0
-2 -26 0
-2 -24 0
-2 -23 0
-2 -21 0
-2 -19 0
-2 -15 0
-2 -10 0
-2 -4 0
-2 -3 0
-1 -31 0
-1 -29 0
-1 -28 0
-1 -27 0
-1 -20 0
-1 -13 0
-1 -10 0
-1 -5 0
-1 -3 0
1 3 5 20 31 0
2 10 19 21 26 0
4 14 16 22 29 0
7 9 24 25 28 0
8 11 23 27 30 0
6 12 13 15 17 18 0
