p cnf 43 238
-40 -41 0
-38 -41 0
-38 -39 0
-37 -40 0
-36 -37 0
-35 -39 0
-35 -38 0
-34 -43 0
-34 -41 0
-34 -38 0
-33 -41 0
-33 -40 0
-33 -39 0
-32 -43 0
-32 -35 0
-32 -34 0
-30 -43 0
-30 -42 0
-30 -34 0
-30 -32 0
-29 -42 0
-29 -35 0
-29 -32 0
-28 -43 0
-28 -36 0
-28 -34 0
-28 -32 0
-28 -30 0
-27 -35 0
-27 -32 0
-27 -29 0
-26 -42 0
-26 -39 0
-26 -38 0
-26 -35 0
-26 -30 0
-25 -39 0
-25 -37 0
-25 -36 0
-25 -33 0
-24 -41 0
-24 -38 0
-24 -34 0
-24 -27 0
-23 -43 0
-23 -39 0
-23 -38 0
-23 -35 0
-23 -26 0
-22 -42 0
-22 -39 0
-22 -33 0
-22 -29 0
-22 -25 0
-21 -39 0
-21 -38 0
-21 -36 0
-21 -35 0
-21 -28 0
-21 -26 0
-21 -23 0
-20 -42 0
-20 -36 0
-20 -29 0
-20 -28 0
-20 -22 0
-20 -21 0
-19 -43 0
-19 -27 0
-19 -24 0
-19 -23 0
-18 -43 0
-18 -40 0
-18 -37 0
-18 -34 0
-18 -32 0
-18 -30 0
-18 -28 0
-17 -42 0
-17 -41 0
-17 -38 0
-17 -34 0
-17 -29 0
-17 -24 0
-17 -22 0
-17 -20 0
-16 -41 0
-16 -40 0
-16 -35 0
-16 -33 0
-16 -32 0
-16 -29 0
-16 -27 0
-15 -43 0
-15 -42 0
-15 -29 0
-15 -23 0
-15 -22 0
-15 -20 0
-15 -19 0
-15 -17 0
-14 -42 0
-14 -30 0
-14 -27 0
-14 -26 0
-14 -24 0
-14 -19 0
-13 -43 0
-13 -37 0
-13 -36 0
-13 -25 0
-13 -23 0
-13 -19 0
-13 -15 0
-12 -41 0
-12 -38 0
-12 -37 0
-12 -36 0
-12 -34 0
-12 -25 0
-12 -24 0
-12 -17 0
-12 -13 0
-11 -42 0
-11 -40 0
-11 -37 0
-11 -29 0
-11 -22 0
-11 -20 0
-11 -18 0
-11 -17 0
-11 -15 0
-10 -41 0
-10 -40 0
-10 -36 0
-10 -33 0
-10 -28 0
-10 -21 0
-10 -20 0
-10 -16 0
-9 -36 0
-9 -28 0
-9 -27 0
-9 -24 0
-9 -21 0
-9 -20 0
-9 -19 0
-9 -14 0
-9 -10 0
-8 -42 0
-8 -37 0
-8 -36 0
-8 -30 0
-8 -26 0
-8 -25 0
-8 -14 0
-8 -13 0
-8 -12 0
-7 -43 0
-7 -39 0
-7 -34 0
-7 -33 0
-7 -32 0
-7 -30 0
-7 -28 0
-7 -25 0
-7 -22 0
-7 -18 0
-6 -37 0
-6 -36 0
-6 -35 0
-6 -32 0
-6 -29 0
-6 -27 0
-6 -25 0
-6 -16 0
-6 -13 0
-6 -12 0
-6 -8 0
-5 -40 0
-5 -39 0
-5 -38 0
-5 -37 0
-5 -35 0
-5 -26 0
-5 -23 0
-5 -21 0
-5 -18 0
-5 -11 0
-4 -42 0
-4 -41 0
-4 -40 0
-4 -33 0
-4 -30 0
-4 -26 0
-4 -16 0
-4 -14 0
-4 -10 0
-4 -8 0
-3 -40 0
-3 -37 0
-3 -27 0
-3 -24 0
-3 -19 0
-3 -18 0
-3 -14 0
-3 -11 0
-3 -9 0
-3 -5 0
-2 -43 0
-2 -41 0
-2 -40 0
-2 -33 0
-2 -23 0
-2 -19 0
-2 -16 0
-2 -15 0
-2 -13 0
-2 -10 0
-2 -4 0
-1 -39 0
-1 -33 0
-1 -27 0
-1 -25 0
-1 -24 0
-1 -22 0
-1 -19 0
-1 -14 0
-1 -9 0
-1 -7 0
-1 -3 0
1 7 22 25 33 39 0
2 13 15 19 23 43 0
4 8 14 26 30 42 0
6 16 27 29 32 35 0
9 10 20 21 28 36 0
12 17 24 34 38 41 0
3 5 11 18 31 37 40 0
