p cnf 91 775
-89 -91 0
-87 -90 0
-86 -91 0
-85 -91 0
-85 -89 0
-84 -88 0
-83 -90 0
-83 -89 0
-81 -88 0
-81 -82 0
-80 -82 0
-79 -86 0
-78 -90 0
-78 -87 0
-78 -82 0
-78 -80 0
-77 -91 0
-77 -90 0
-77 -89 0
-77 -87 0
-77 -85 0
-77 -78 0
-76 -91 0
-76 -89 0
-76 -85 0
-76 -77 0
-75 -86 0
-75 -85 0
-75 -79 0
-74 -89 0
-74 -87 0
-74 -83 0
-73 -85 0
-73 -75 0
-72 -87 0
-72 -76 0
-72 -74 0
-71 -85 0
-71 -82 0
-71 -80 0
-71 -78 0
-71 -75 0
-71 -73 0
-70 -79 0
-70 -73 0
-69 -90 0
-69 -88 0
-69 -87 0
-69 -81 0
-69 -78 0
-69 -77 0
-68 -86 0
-68 -80 0
-68 -79 0
-68 -75 0
-67 -84 0
-67 -82 0
-67 -81 0
-66 -87 0
-66 -79 0
-66 -74 0
-66 -72 0
-66 -70 0
-65 -90 0
-65 -87 0
-65 -86 0
-65 -79 0
-65 -78 0
-65 -77 0
-65 -75 0
-65 -69 0
-65 -68 0
-64 -84 0
-64 -79 0
-64 -70 0
-64 -67 0
-64 -66 0
-63 -90 0
-63 -87 0
-63 -78 0
-63 -77 0
-63 -69 0
-63 -65 0
-62 -88 0
-62 -84 0
-62 -73 0
-62 -70 0
-61 -90 0
-61 -83 0
-60 -91 0
-60 -86 0
-60 -63 0
-59 -90 0
-59 -83 0
-59 -80 0
-59 -68 0
-59 -61 0
-58 -89 0
-58 -83 0
-58 -74 0
-58 -73 0
-58 -70 0
-58 -62 0
-57 -89 0
-57 -86 0
-57 -83 0
-57 -79 0
-57 -75 0
-57 -74 0
-57 -68 0
-57 -65 0
-57 -58 0
-56 -90 0
-56 -83 0
-56 -82 0
-56 -81 0
-56 -67 0
-56 -61 0
-56 -59 0
-54 -80 0
-54 -73 0
-54 -70 0
-54 -68 0
-54 -62 0
-54 -59 0
-54 -58 0
-53 -86 0
-53 -82 0
-53 -81 0
-53 -79 0
-53 -75 0
-53 -68 0
-53 -67 0
-53 -65 0
-53 -57 0
-53 -56 0
-52 -91 0
-52 -90 0
-52 -86 0
-52 -83 0
-52 -61 0
-52 -60 0
-52 -59 0
-52 -56 0
-51 -91 0
-51 -86 0
-51 -84 0
-51 -67 0
-51 -64 0
-51 -60 0
-51 -52 0
-50 -82 0
-50 -81 0
-50 -73 0
-50 -70 0
-50 -67 0
-50 -62 0
-50 -58 0
-50 -56 0
-50 -54 0
-50 -53 0
-49 -91 0
-49 -89 0
-49 -85 0
-49 -79 0
-49 -77 0
-49 -76 0
-49 -70 0
-49 -66 0
-49 -64 0
-48 -89 0
-48 -84 0
-48 -83 0
-48 -74 0
-48 -67 0
-48 -64 0
-48 -58 0
-48 -57 0
-48 -51 0
-47 -82 0
-47 -80 0
-47 -78 0
-47 -71 0
-47 -61 0
-46 -89 0
-46 -83 0
-46 -82 0
-46 -80 0
-46 -78 0
-46 -74 0
-46 -71 0
-46 -58 0
-46 -57 0
-46 -48 0
-46 -47 0
-45 -90 0
-45 -85 0
-45 -83 0
-45 -75 0
-45 -73 0
-45 -71 0
-45 -61 0
-45 -59 0
-45 -56 0
-45 -52 0
-44 -84 0
-44 -76 0
-44 -72 0
-44 -67 0
-44 -64 0
-44 -51 0
-44 -48 0
-43 -91 0
-43 -89 0
-43 -88 0
-43 -85 0
-43 -84 0
-43 -77 0
-43 -76 0
-43 -62 0
-43 -49 0
-42 -88 0
-42 -85 0
-42 -81 0
-42 -75 0
-42 -73 0
-42 -71 0
-42 -69 0
-42 -45 0
-41 -88 0
-41 -84 0
-41 -82 0
-41 -80 0
-41 -78 0
-41 -71 0
-41 -62 0
-41 -47 0
-41 -46 0
-41 -43 0
-40 -82 0
-40 -81 0
-40 -67 0
-40 -63 0
-40 -60 0
-40 -56 0
-40 -53 0
-40 -50 0
-39 -85 0
-39 -75 0
-39 -73 0
-39 -71 0
-39 -63 0
-39 -60 0
-39 -45 0
-39 -42 0
-39 -40 0
-38 -88 0
-38 -87 0
-38 -84 0
-38 -74 0
-38 -72 0
-38 -66 0
-38 -62 0
-38 -43 0
-38 -41 0
-37 -90 0
-37 -88 0
-37 -84 0
-37 -83 0
-37 -62 0
-37 -61 0
-37 -59 0
-37 -56 0
-37 -52 0
-37 -45 0
-37 -43 0
-37 -41 0
-37 -38 0
-36 -90 0
-36 -87 0
-36 -84 0
-36 -78 0
-36 -77 0
-36 -69 0
-36 -67 0
-36 -65 0
-36 -64 0
-36 -63 0
-36 -51 0
-36 -48 0
-36 -44 0
-35 -90 0
-35 -83 0
-35 -79 0
-35 -70 0
-35 -66 0
-35 -64 0
-35 -61 0
-35 -59 0
-35 -56 0
-35 -52 0
-35 -49 0
-35 -45 0
-35 -37 0
-34 -90 0
-34 -83 0
-34 -76 0
-34 -72 0
-34 -61 0
-34 -59 0
-34 -56 0
-34 -52 0
-34 -45 0
-34 -44 0
-34 -37 0
-34 -35 0
-33 -91 0
-33 -87 0
-33 -86 0
-33 -74 0
-33 -72 0
-33 -66 0
-33 -60 0
-33 -52 0
-33 -51 0
-33 -38 0
-32 -84 0
-32 -67 0
-32 -64 0
-32 -61 0
-32 -51 0
-32 -48 0
-32 -47 0
-32 -44 0
-32 -36 0
-31 -84 0
-31 -80 0
-31 -68 0
-31 -67 0
-31 -64 0
-31 -59 0
-31 -54 0
-31 -51 0
-31 -48 0
-31 -44 0
-31 -36 0
-31 -32 0
-30 -73 0
-30 -70 0
-30 -62 0
-30 -61 0
-30 -58 0
-30 -54 0
-30 -50 0
-30 -47 0
-30 -32 0
-29 -85 0
-29 -84 0
-29 -75 0
-29 -73 0
-29 -71 0
-29 -67 0
-29 -64 0
-29 -51 0
-29 -48 0
-29 -45 0
-29 -44 0
-29 -42 0
-29 -39 0
-29 -36 0
-29 -32 0
-29 -31 0
-28 -86 0
-28 -79 0
-28 -76 0
-28 -75 0
-28 -72 0
-28 -68 0
-28 -65 0
-28 -57 0
-28 -53 0
-28 -44 0
-28 -34 0
-27 -80 0
-27 -68 0
-27 -63 0
-27 -60 0
-27 -59 0
-27 -54 0
-27 -40 0
-27 -39 0
-27 -31 0
-26 -88 0
-26 -81 0
-26 -80 0
-26 -69 0
-26 -68 0
-26 -59 0
-26 -54 0
-26 -42 0
-26 -31 0
-26 -27 0
-25 -82 0
-25 -80 0
-25 -79 0
-25 -78 0
-25 -71 0
-25 -70 0
-25 -66 0
-25 -64 0
-25 -49 0
-25 -47 0
-25 -46 0
-25 -41 0
-25 -35 0
-24 -86 0
-24 -79 0
-24 -75 0
-24 -68 0
-24 -65 0
-24 -61 0
-24 -57 0
-24 -53 0
-24 -47 0
-24 -32 0
-24 -30 0
-24 -28 0
-23 -88 0
-23 -81 0
-23 -76 0
-23 -72 0
-23 -69 0
-23 -44 0
-23 -42 0
-23 -34 0
-23 -28 0
-23 -26 0
-22 -90 0
-22 -87 0
-22 -78 0
-22 -77 0
-22 -73 0
-22 -70 0
-22 -69 0
-22 -65 0
-22 -63 0
-22 -62 0
-22 -58 0
-22 -54 0
-22 -50 0
-22 -36 0
-22 -30 0
-21 -87 0
-21 -85 0
-21 -75 0
-21 -74 0
-21 -73 0
-21 -72 0
-21 -71 0
-21 -66 0
-21 -45 0
-21 -42 0
-21 -39 0
-21 -38 0
-21 -33 0
-21 -29 0
-20 -91 0
-20 -89 0
-20 -85 0
-20 -77 0
-20 -76 0
-20 -61 0
-20 -49 0
-20 -47 0
-20 -43 0
-20 -32 0
-20 -30 0
-20 -24 0
-19 -89 0
-19 -88 0
-19 -83 0
-19 -81 0
-19 -74 0
-19 -69 0
-19 -58 0
-19 -57 0
-19 -48 0
-19 -46 0
-19 -42 0
-19 -26 0
-19 -23 0
-18 -88 0
-18 -81 0
-18 -79 0
-18 -70 0
-18 -69 0
-18 -66 0
-18 -64 0
-18 -49 0
-18 -42 0
-18 -35 0
-18 -26 0
-18 -25 0
-18 -23 0
-18 -19 0
-17 -76 0
-17 -73 0
-17 -72 0
-17 -70 0
-17 -62 0
-17 -58 0
-17 -54 0
-17 -50 0
-17 -44 0
-17 -34 0
-17 -30 0
-17 -28 0
-17 -23 0
-17 -22 0
-16 -76 0
-16 -72 0
-16 -63 0
-16 -60 0
-16 -44 0
-16 -40 0
-16 -39 0
-16 -34 0
-16 -28 0
-16 -27 0
-16 -23 0
-16 -17 0
-15 -91 0
-15 -86 0
-15 -73 0
-15 -70 0
-15 -62 0
-15 -60 0
-15 -58 0
-15 -54 0
-15 -52 0
-15 -51 0
-15 -50 0
-15 -33 0
-15 -30 0
-15 -22 0
-15 -17 0
-14 -88 0
-14 -81 0
-14 -69 0
-14 -61 0
-14 -47 0
-14 -42 0
-14 -32 0
-14 -30 0
-14 -26 0
-14 -24 0
-14 -23 0
-14 -20 0
-14 -19 0
-14 -18 0
-13 -91 0
-13 -89 0
-13 -85 0
-13 -82 0
-13 -81 0
-13 -77 0
-13 -76 0
-13 -67 0
-13 -56 0
-13 -53 0
-13 -50 0
-13 -49 0
-13 -43 0
-13 -40 0
-13 -20 0
-12 -88 0
-12 -84 0
-12 -63 0
-12 -62 0
-12 -60 0
-12 -43 0
-12 -41 0
-12 -40 0
-12 -39 0
-12 -38 0
-12 -37 0
-12 -27 0
-12 -16 0
-11 -88 0
-11 -86 0
-11 -84 0
-11 -79 0
-11 -75 0
-11 -68 0
-11 -65 0
-11 -62 0
-11 -57 0
-11 -53 0
-11 -43 0
-11 -41 0
-11 -38 0
-11 -37 0
-11 -28 0
-11 -24 0
-11 -12 0
-10 -79 0
-10 -70 0
-10 -66 0
-10 -64 0
-10 -63 0
-10 -60 0
-10 -49 0
-10 -40 0
-10 -39 0
-10 -35 0
-10 -27 0
-10 -25 0
-10 -18 0
-10 -16 0
-10 -12 0
-9 -87 0
-9 -74 0
-9 -72 0
-9 -66 0
-9 -61 0
-9 -47 0
-9 -38 0
-9 -33 0
-9 -32 0
-9 -30 0
-9 -24 0
-9 -21 0
-9 -20 0
-9 -14 0
-8 -91 0
-8 -88 0
-8 -86 0
-8 -81 0
-8 -69 0
-8 -60 0
-8 -52 0
-8 -51 0
-8 -42 0
-8 -33 0
-8 -26 0
-8 -23 0
-8 -19 0
-8 -18 0
-8 -15 0
-8 -14 0
-7 -91 0
-7 -86 0
-7 -82 0
-7 -80 0
-7 -78 0
-7 -71 0
-7 -60 0
-7 -52 0
-7 -51 0
-7 -47 0
-7 -46 0
-7 -41 0
-7 -33 0
-7 -25 0
-7 -15 0
-7 -8 0
-6 -87 0
-6 -80 0
-6 -74 0
-6 -72 0
-6 -68 0
-6 -66 0
-6 -59 0
-6 -54 0
-6 -38 0
-6 -33 0
-6 -31 0
-6 -27 0
-6 -26 0
-6 -21 0
-6 -9 0
-5 -87 0
-5 -82 0
-5 -81 0
-5 -74 0
-5 -72 0
-5 -67 0
-5 -66 0
-5 -56 0
-5 -53 0
-5 -50 0
-5 -40 0
-5 -38 0
-5 -33 0
-5 -21 0
-5 -13 0
-5 -9 0
-5 -6 0
-4 -63 0
-4 -61 0
-4 -60 0
-4 -47 0
-4 -40 0
-4 -39 0
-4 -32 0
-4 -30 0
-4 -27 0
-4 -24 0
-4 -20 0
-4 -16 0
-4 -14 0
-4 -12 0
-4 -10 0
-4 -9 0
-3 -89 0
-3 -83 0
-3 -74 0
-3 -63 0
-3 -60 0
-3 -58 0
-3 -57 0
-3 -48 0
-3 -46 0
-3 -40 0
-3 -39 0
-3 -27 0
-3 -19 0
-3 -16 0
-3 -12 0
-3 -10 0
-3 -4 0
-2 -91 0
-2 -89 0
-2 -85 0
-2 -80 0
-2 -77 0
-2 -76 0
-2 -68 0
-2 -59 0
-2 -54 0
-2 -49 0
-2 -43 0
-2 -31 0
-2 -27 0
-2 -26 0
-2 -20 0
-2 -13 0
-2 -6 0
-1 -82 0
-1 -80 0
-1 -78 0
-1 -76 0
-1 -72 0
-1 -71 0
-1 -47 0
-1 -46 0
-1 -44 0
-1 -41 0
-1 -34 0
-1 -28 0
-1 -25 0
-1 -23 0
-1 -17 0
-1 -16 0
-1 -7 0
1 16 17 23 28 34 44 72 76 0
2 6 26 27 31 54 59 68 80 0
3 19 46 48 57 58 74 83 89 0
4 9 14 20 24 30 32 47 61 0
5 13 40 50 53 56 67 81 82 0
7 8 15 33 51 52 60 86 91 0
10 18 25 35 49 64 66 70 79 0
11 12 37 38 41 43 62 84 88 0
21 29 39 42 45 71 73 75 85 0
22 36 55 63 65 69 77 78 87 90 0
