p cnf 73 549
-72 -73 0
-70 -72 0
-69 -73 0
-69 -72 0
-68 -73 0
-68 -72 0
-68 -69 0
-67 -72 0
-67 -70 0
-66 -72 0
-66 -70 0
-66 -67 0
-64 -67 0
-63 -71 0
-63 -69 0
-62 -72 0
-62 -70 0
-62 -67 0
-62 -66 0
-60 -71 0
-60 -65 0
-59 -71 0
-59 -66 0
-59 -60 0
-58 -68 0
-58 -65 0
-58 -60 0
-57 -72 0
-57 -70 0
-57 -67 0
-57 -66 0
-57 -62 0
-57 -61 0
-56 -69 0
-56 -65 0
-56 -63 0
-56 -60 0
-56 -58 0
-55 -70 0
-55 -69 0
-55 -63 0
-55 -56 0
-54 -71 0
-54 -62 0
-54 -60 0
-54 -59 0
-53 -67 0
-53 -64 0
-53 -61 0
-52 -71 0
-52 -60 0
-52 -59 0
-52 -54 0
-51 -73 0
-51 -67 0
-51 -64 0
-51 -53 0
-50 -66 0
-50 -64 0
-50 -59 0
-49 -69 0
-49 -63 0
-49 -56 0
-49 -55 0
-49 -52 0
-48 -71 0
-48 -70 0
-48 -60 0
-48 -59 0
-48 -55 0
-48 -54 0
-48 -52 0
-47 -71 0
-47 -67 0
-47 -64 0
-47 -60 0
-47 -59 0
-47 -54 0
-47 -53 0
-47 -52 0
-47 -51 0
-47 -48 0
-46 -71 0
-46 -63 0
-46 -61 0
-46 -53 0
-45 -62 0
-45 -61 0
-45 -54 0
-45 -53 0
-45 -46 0
-44 -73 0
-44 -72 0
-44 -71 0
-44 -69 0
-44 -68 0
-44 -60 0
-44 -59 0
-44 -54 0
-44 -52 0
-44 -48 0
-44 -47 0
-43 -69 0
-43 -67 0
-43 -64 0
-43 -63 0
-43 -56 0
-43 -55 0
-43 -53 0
-43 -51 0
-43 -49 0
-43 -47 0
-42 -68 0
-42 -58 0
-42 -52 0
-42 -49 0
-41 -71 0
-41 -64 0
-41 -63 0
-41 -50 0
-41 -46 0
-40 -73 0
-40 -72 0
-40 -69 0
-40 -68 0
-40 -64 0
-40 -50 0
-40 -44 0
-40 -41 0
-39 -66 0
-39 -61 0
-39 -59 0
-39 -53 0
-39 -50 0
-39 -46 0
-39 -45 0
-38 -73 0
-38 -71 0
-38 -63 0
-38 -51 0
-38 -46 0
-38 -41 0
-37 -65 0
-37 -52 0
-37 -49 0
-37 -42 0
-36 -70 0
-36 -61 0
-36 -55 0
-36 -53 0
-36 -48 0
-36 -46 0
-36 -45 0
-36 -39 0
-35 -65 0
-35 -61 0
-35 -57 0
-35 -37 0
-34 -61 0
-34 -53 0
-34 -52 0
-34 -49 0
-34 -46 0
-34 -45 0
-34 -42 0
-34 -39 0
-34 -37 0
-34 -36 0
-33 -68 0
-33 -62 0
-33 -58 0
-33 -54 0
-33 -45 0
-33 -42 0
-32 -68 0
-32 -61 0
-32 -58 0
-32 -57 0
-32 -42 0
-32 -35 0
-32 -33 0
-31 -69 0
-31 -63 0
-31 -61 0
-31 -57 0
-31 -56 0
-31 -55 0
-31 -49 0
-31 -43 0
-31 -35 0
-31 -32 0
-30 -73 0
-30 -72 0
-30 -69 0
-30 -68 0
-30 -65 0
-30 -44 0
-30 -40 0
-30 -37 0
-30 -35 0
-29 -73 0
-29 -70 0
-29 -55 0
-29 -51 0
-29 -48 0
-29 -38 0
-29 -36 0
-28 -65 0
-28 -64 0
-28 -60 0
-28 -58 0
-28 -56 0
-28 -50 0
-28 -41 0
-28 -40 0
-27 -73 0
-27 -65 0
-27 -60 0
-27 -58 0
-27 -56 0
-27 -51 0
-27 -38 0
-27 -29 0
-27 -28 0
-26 -68 0
-26 -66 0
-26 -59 0
-26 -58 0
-26 -50 0
-26 -42 0
-26 -39 0
-26 -33 0
-26 -32 0
-25 -68 0
-25 -67 0
-25 -64 0
-25 -58 0
-25 -53 0
-25 -51 0
-25 -47 0
-25 -43 0
-25 -42 0
-25 -33 0
-25 -32 0
-25 -26 0
-24 -71 0
-24 -65 0
-24 -63 0
-24 -46 0
-24 -41 0
-24 -38 0
-24 -37 0
-24 -35 0
-24 -30 0
-23 -72 0
-23 -70 0
-23 -67 0
-23 -66 0
-23 -62 0
-23 -57 0
-23 -52 0
-23 -49 0
-23 -42 0
-23 -37 0
-23 -34 0
-22 -73 0
-22 -72 0
-22 -69 0
-22 -68 0
-22 -61 0
-22 -53 0
-22 -46 0
-22 -45 0
-22 -44 0
-22 -40 0
-22 -39 0
-22 -36 0
-22 -34 0
-22 -30 0
-21 -71 0
-21 -61 0
-21 -60 0
-21 -59 0
-21 -57 0
-21 -54 0
-21 -52 0
-21 -48 0
-21 -47 0
-21 -44 0
-21 -35 0
-21 -32 0
-21 -31 0
-20 -73 0
-20 -62 0
-20 -54 0
-20 -51 0
-20 -45 0
-20 -38 0
-20 -33 0
-20 -29 0
-20 -27 0
-19 -64 0
-19 -52 0
-19 -50 0
-19 -49 0
-19 -42 0
-19 -41 0
-19 -40 0
-19 -37 0
-19 -34 0
-19 -28 0
-19 -23 0
-18 -71 0
-18 -68 0
-18 -63 0
-18 -58 0
-18 -46 0
-18 -42 0
-18 -41 0
-18 -38 0
-18 -33 0
-18 -32 0
-18 -26 0
-18 -25 0
-18 -24 0
-17 -72 0
-17 -70 0
-17 -67 0
-17 -66 0
-17 -65 0
-17 -62 0
-17 -60 0
-17 -58 0
-17 -57 0
-17 -56 0
-17 -28 0
-17 -27 0
-17 -23 0
-15 -73 0
-15 -52 0
-15 -51 0
-15 -49 0
-15 -42 0
-15 -38 0
-15 -37 0
-15 -34 0
-15 -29 0
-15 -27 0
-15 -23 0
-15 -20 0
-15 -19 0
-14 -70 0
-14 -65 0
-14 -55 0
-14 -48 0
-14 -37 0
-14 -36 0
-14 -35 0
-14 -30 0
-14 -29 0
-14 -24 0
-13 -73 0
-13 -66 0
-13 -59 0
-13 -51 0
-13 -50 0
-13 -39 0
-13 -38 0
-13 -29 0
-13 -27 0
-13 -26 0
-13 -20 0
-13 -15 0
-12 -70 0
-12 -64 0
-12 -55 0
-12 -50 0
-12 -48 0
-12 -41 0
-12 -40 0
-12 -36 0
-12 -29 0
-12 -28 0
-12 -19 0
-12 -14 0
-11 -67 0
-11 -65 0
-11 -64 0
-11 -53 0
-11 -51 0
-11 -47 0
-11 -43 0
-11 -37 0
-11 -35 0
-11 -30 0
-11 -25 0
-11 -24 0
-11 -14 0
-10 -64 0
-10 -62 0
-10 -54 0
-10 -50 0
-10 -45 0
-10 -41 0
-10 -40 0
-10 -33 0
-10 -28 0
-10 -20 0
-10 -19 0
-10 -12 0
-9 -69 0
-9 -66 0
-9 -63 0
-9 -59 0
-9 -56 0
-9 -55 0
-9 -50 0
-9 -49 0
-9 -43 0
-9 -39 0
-9 -31 0
-9 -26 0
-9 -13 0
-8 -66 0
-8 -65 0
-8 -59 0
-8 -50 0
-8 -39 0
-8 -37 0
-8 -35 0
-8 -30 0
-8 -26 0
-8 -24 0
-8 -14 0
-8 -13 0
-8 -11 0
-8 -9 0
-7 -64 0
-7 -61 0
-7 -57 0
-7 -50 0
-7 -41 0
-7 -40 0
-7 -35 0
-7 -32 0
-7 -31 0
-7 -28 0
-7 -21 0
-7 -19 0
-7 -12 0
-7 -10 0
-6 -70 0
-6 -68 0
-6 -58 0
-6 -55 0
-6 -48 0
-6 -42 0
-6 -36 0
-6 -33 0
-6 -32 0
-6 -29 0
-6 -26 0
-6 -25 0
-6 -18 0
-6 -14 0
-6 -12 0
-5 -73 0
-5 -61 0
-5 -57 0
-5 -51 0
-5 -38 0
-5 -35 0
-5 -32 0
-5 -31 0
-5 -29 0
-5 -27 0
-5 -21 0
-5 -20 0
-5 -15 0
-5 -13 0
-5 -7 0
-4 -65 0
-4 -61 0
-4 -60 0
-4 -58 0
-4 -56 0
-4 -53 0
-4 -46 0
-4 -45 0
-4 -39 0
-4 -36 0
-4 -34 0
-4 -28 0
-4 -27 0
-4 -22 0
-4 -17 0
-3 -65 0
-3 -62 0
-3 -54 0
-3 -45 0
-3 -37 0
-3 -35 0
-3 -33 0
-3 -30 0
-3 -24 0
-3 -20 0
-3 -14 0
-3 -11 0
-3 -10 0
-3 -8 0
-2 -72 0
-2 -71 0
-2 -70 0
-2 -67 0
-2 -66 0
-2 -63 0
-2 -62 0
-2 -57 0
-2 -46 0
-2 -41 0
-2 -38 0
-2 -24 0
-2 -23 0
-2 -18 0
-2 -17 0
-1 -69 0
-1 -63 0
-1 -62 0
-1 -56 0
-1 -55 0
-1 -54 0
-1 -49 0
-1 -45 0
-1 -43 0
-1 -33 0
-1 -31 0
-1 -20 0
-1 -10 0
-1 -9 0
-1 -3 0
1 3 10 20 33 45 54 62 0
2 18 24 38 41 46 63 71 0
4 17 27 28 56 58 60 65 0
5 7 21 31 32 35 57 61 0
8 9 13 26 39 50 59 66 0
11 25 43 47 51 53 64 67 0
15 19 23 34 37 42 49 52 0
22 30 40 44 68 69 72 73 0
6 12 14 16 29 36 48 55 70 0
