p cnf 73 549
-70 -73 0
-70 -72 0
-69 -71 0
-67 -73 0
-67 -71 0
-67 -69 0
-66 -73 0
-66 -67 0
-65 -71 0
-65 -69 0
-65 -67 0
-64 -68 0
-63 -73 0
-63 -67 0
-63 -66 0
-61 -65 0
-61 -63 0
-59 -72 0
-59 -71 0
-59 -70 0
-59 -69 0
-59 -67 0
-59 -65 0
-58 -73 0
-58 -68 0
-58 -67 0
-58 -66 0
-58 -64 0
-58 -63 0
-57 -64 0
-57 -60 0
-56 -73 0
-56 -70 0
-56 -62 0
-55 -66 0
-55 -60 0
-54 -68 0
-54 -66 0
-54 -55 0
-53 -73 0
-53 -70 0
-53 -69 0
-53 -56 0
-52 -73 0
-52 -72 0
-52 -67 0
-52 -66 0
-52 -63 0
-52 -58 0
-51 -72 0
-51 -69 0
-51 -53 0
-51 -52 0
-50 -63 0
-50 -62 0
-50 -61 0
-50 -56 0
-49 -71 0
-49 -60 0
-49 -57 0
-48 -73 0
-48 -70 0
-48 -60 0
-48 -56 0
-48 -55 0
-48 -53 0
-47 -72 0
-47 -64 0
-47 -57 0
-47 -52 0
-47 -51 0
-46 -68 0
-46 -62 0
-46 -54 0
-45 -68 0
-45 -65 0
-45 -64 0
-45 -61 0
-45 -58 0
-44 -69 0
-44 -62 0
-44 -53 0
-44 -51 0
-44 -46 0
-43 -66 0
-43 -62 0
-43 -56 0
-43 -55 0
-43 -54 0
-43 -50 0
-42 -69 0
-42 -63 0
-42 -61 0
-42 -53 0
-42 -51 0
-42 -50 0
-42 -44 0
-41 -65 0
-41 -61 0
-41 -60 0
-41 -57 0
-41 -49 0
-41 -45 0
-40 -65 0
-40 -62 0
-40 -61 0
-40 -46 0
-40 -45 0
-40 -44 0
-40 -41 0
-39 -71 0
-39 -69 0
-39 -67 0
-39 -65 0
-39 -60 0
-39 -59 0
-39 -55 0
-39 -48 0
-38 -72 0
-38 -60 0
-38 -55 0
-38 -52 0
-38 -51 0
-38 -48 0
-38 -47 0
-38 -39 0
-37 -71 0
-37 -66 0
-37 -55 0
-37 -54 0
-37 -49 0
-37 -43 0
-36 -71 0
-36 -69 0
-36 -67 0
-36 -65 0
-36 -64 0
-36 -59 0
-36 -57 0
-36 -47 0
-36 -39 0
-35 -73 0
-35 -70 0
-35 -68 0
-35 -56 0
-35 -54 0
-35 -53 0
-35 -48 0
-35 -46 0
-34 -72 0
-34 -70 0
-34 -66 0
-34 -59 0
-34 -55 0
-34 -54 0
-34 -43 0
-34 -37 0
-33 -72 0
-33 -70 0
-33 -60 0
-33 -59 0
-33 -57 0
-33 -49 0
-33 -41 0
-33 -34 0
-32 -68 0
-32 -64 0
-32 -60 0
-32 -58 0
-32 -55 0
-32 -48 0
-32 -45 0
-32 -39 0
-32 -38 0
-31 -69 0
-31 -60 0
-31 -57 0
-31 -53 0
-31 -51 0
-31 -49 0
-31 -44 0
-31 -42 0
-31 -41 0
-31 -33 0
-30 -71 0
-30 -69 0
-30 -67 0
-30 -65 0
-30 -62 0
-30 -59 0
-30 -56 0
-30 -50 0
-30 -43 0
-30 -39 0
-30 -36 0
-29 -73 0
-29 -71 0
-29 -70 0
-29 -56 0
-29 -53 0
-29 -49 0
-29 -48 0
-29 -37 0
-29 -35 0
-28 -69 0
-28 -66 0
-28 -55 0
-28 -54 0
-28 -53 0
-28 -51 0
-28 -44 0
-28 -43 0
-28 -42 0
-28 -37 0
-28 -34 0
-28 -31 0
-27 -69 0
-27 -68 0
-27 -64 0
-27 -58 0
-27 -53 0
-27 -51 0
-27 -45 0
-27 -44 0
-27 -42 0
-27 -32 0
-27 -31 0
-27 -28 0
-26 -72 0
-26 -70 0
-26 -62 0
-26 -59 0
-26 -46 0
-26 -44 0
-26 -40 0
-26 -34 0
-26 -33 0
-25 -72 0
-25 -70 0
-25 -63 0
-25 -61 0
-25 -59 0
-25 -50 0
-25 -42 0
-25 -34 0
-25 -33 0
-25 -26 0
-24 -71 0
-24 -69 0
-24 -68 0
-24 -67 0
-24 -65 0
-24 -59 0
-24 -54 0
-24 -46 0
-24 -39 0
-24 -36 0
-24 -35 0
-24 -30 0
-23 -73 0
-23 -67 0
-23 -66 0
-23 -63 0
-23 -60 0
-23 -58 0
-23 -57 0
-23 -52 0
-23 -49 0
-23 -41 0
-23 -33 0
-23 -31 0
-22 -68 0
-22 -60 0
-22 -57 0
-22 -54 0
-22 -49 0
-22 -46 0
-22 -41 0
-22 -35 0
-22 -33 0
-22 -31 0
-22 -24 0
-22 -23 0
-21 -66 0
-21 -65 0
-21 -61 0
-21 -55 0
-21 -54 0
-21 -45 0
-21 -43 0
-21 -41 0
-21 -40 0
-21 -37 0
-21 -34 0
-21 -28 0
-20 -72 0
-20 -71 0
-20 -52 0
-20 -51 0
-20 -49 0
-20 -47 0
-20 -38 0
-20 -37 0
-20 -29 0
-19 -72 0
-19 -65 0
-19 -61 0
-19 -52 0
-19 -51 0
-19 -47 0
-19 -45 0
-19 -41 0
-19 -40 0
-19 -38 0
-19 -21 0
-19 -20 0
-18 -72 0
-18 -70 0
-18 -68 0
-18 -64 0
-18 -59 0
-18 -58 0
-18 -45 0
-18 -34 0
-18 -33 0
-18 -32 0
-18 -27 0
-18 -26 0
-18 -25 0
-17 -66 0
-17 -64 0
-17 -57 0
-17 -55 0
-17 -54 0
-17 -47 0
-17 -43 0
-17 -37 0
-17 -36 0
-17 -34 0
-17 -28 0
-17 -21 0
-16 -73 0
-16 -70 0
-16 -65 0
-16 -61 0
-16 -56 0
-16 -53 0
-16 -48 0
-16 -45 0
-16 -41 0
-16 -40 0
-16 -35 0
-16 -29 0
-16 -21 0
-16 -19 0
-15 -62 0
-15 -60 0
-15 -55 0
-15 -48 0
-15 -46 0
-15 -44 0
-15 -40 0
-15 -39 0
-15 -38 0
-15 -32 0
-15 -26 0
-14 -68 0
-14 -63 0
-14 -61 0
-14 -54 0
-14 -50 0
-14 -46 0
-14 -42 0
-14 -35 0
-14 -25 0
-14 -24 0
-14 -22 0
-13 -71 0
-13 -63 0
-13 -61 0
-13 -50 0
-13 -49 0
-13 -42 0
-13 -37 0
-13 -29 0
-13 -25 0
-13 -20 0
-13 -14 0
-12 -63 0
-12 -61 0
-12 -60 0
-12 -55 0
-12 -50 0
-12 -48 0
-12 -42 0
-12 -39 0
-12 -38 0
-12 -32 0
-12 -25 0
-12 -15 0
-12 -14 0
-12 -13 0
-11 -72 0
-11 -62 0
-11 -56 0
-11 -52 0
-11 -51 0
-11 -50 0
-11 -47 0
-11 -43 0
-11 -38 0
-11 -30 0
-11 -20 0
-11 -19 0
-10 -68 0
-10 -64 0
-10 -62 0
-10 -58 0
-10 -56 0
-10 -50 0
-10 -45 0
-10 -43 0
-10 -32 0
-10 -30 0
-10 -27 0
-10 -18 0
-10 -11 0
-9 -71 0
-9 -62 0
-9 -49 0
-9 -46 0
-9 -44 0
-9 -40 0
-9 -37 0
-9 -29 0
-9 -26 0
-9 -20 0
-9 -15 0
-9 -13 0
-8 -64 0
-8 -63 0
-8 -61 0
-8 -57 0
-8 -50 0
-8 -47 0
-8 -42 0
-8 -36 0
-8 -25 0
-8 -17 0
-8 -14 0
-8 -13 0
-8 -12 0
-7 -73 0
-7 -67 0
-7 -66 0
-7 -63 0
-7 -62 0
-7 -58 0
-7 -52 0
-7 -46 0
-7 -44 0
-7 -40 0
-7 -26 0
-7 -23 0
-7 -15 0
-7 -9 0
-6 -64 0
-6 -62 0
-6 -57 0
-6 -47 0
-6 -46 0
-6 -44 0
-6 -40 0
-6 -36 0
-6 -26 0
-6 -17 0
-6 -15 0
-6 -9 0
-6 -8 0
-6 -7 0
-4 -71 0
-4 -68 0
-4 -64 0
-4 -58 0
-4 -49 0
-4 -45 0
-4 -37 0
-4 -32 0
-4 -29 0
-4 -27 0
-4 -20 0
-4 -18 0
-4 -13 0
-4 -10 0
-4 -9 0
-3 -62 0
-3 -60 0
-3 -57 0
-3 -56 0
-3 -50 0
-3 -49 0
-3 -43 0
-3 -41 0
-3 -33 0
-3 -31 0
-3 -30 0
-3 -23 0
-3 -22 0
-3 -11 0
-3 -10 0
-2 -72 0
-2 -68 0
-2 -54 0
-2 -52 0
-2 -51 0
-2 -47 0
-2 -46 0
-2 -38 0
-2 -35 0
-2 -24 0
-2 -22 0
-2 -20 0
-2 -19 0
-2 -14 0
-2 -11 0
-1 -73 0
-1 -70 0
-1 -64 0
-1 -57 0
-1 -56 0
-1 -53 0
-1 -48 0
-1 -47 0
-1 -36 0
-1 -35 0
-1 -29 0
-1 -17 0
-1 -16 0
-1 -8 0
-1 -6 0
1 6 8 17 36 47 57 64 0
2 14 22 24 35 46 54 68 0
3 10 11 30 43 50 56 62 0
4 9 13 20 29 37 49 71 0
12 15 32 38 39 48 55 60 0
16 19 21 40 41 45 61 65 0
18 25 26 33 34 59 70 72 0
27 28 31 42 44 51 53 69 0
5 7 23 52 58 63 66 67 73 0
