p cnf 57 372
-55 -57 0
-52 -57 0
-52 -55 0
-52 -54 0
-50 -57 0
-50 -55 0
-50 -53 0
-50 -52 0
-49 -57 0
-49 -55 0
-49 -52 0
-49 -50 0
-48 -56 0
-48 -53 0
-48 -50 0
-47 -53 0
-47 -51 0
-47 -50 0
-47 -48 0
-46 -51 0
-46 -49 0
-46 -47 0
-45 -51 0
-44 -51 0
-44 -47 0
-44 -46 0
-42 -56 0
-42 -55 0
-42 -48 0
-41 -57 0
-41 -55 0
-41 -52 0
-41 -50 0
-41 -49 0
-41 -44 0
-40 -54 0
-40 -52 0
-40 -51 0
-40 -47 0
-40 -46 0
-40 -44 0
-39 -56 0
-39 -53 0
-38 -44 0
-38 -41 0
-37 -51 0
-37 -45 0
-37 -38 0
-36 -53 0
-36 -44 0
-36 -41 0
-36 -39 0
-36 -38 0
-35 -56 0
-35 -49 0
-35 -48 0
-35 -46 0
-35 -42 0
-34 -54 0
-34 -44 0
-34 -41 0
-34 -38 0
-34 -36 0
-33 -57 0
-33 -53 0
-33 -39 0
-33 -36 0
-32 -56 0
-32 -39 0
-32 -38 0
-32 -37 0
-31 -55 0
-31 -42 0
-31 -38 0
-31 -37 0
-31 -32 0
-30 -53 0
-30 -49 0
-30 -46 0
-30 -39 0
-30 -36 0
-30 -35 0
-30 -33 0
-29 -55 0
-29 -53 0
-29 -42 0
-29 -39 0
-29 -36 0
-29 -33 0
-29 -31 0
-29 -30 0
-28 -54 0
-28 -52 0
-28 -45 0
-28 -40 0
-27 -57 0
-27 -45 0
-27 -33 0
-27 -28 0
-26 -54 0
-26 -49 0
-26 -46 0
-26 -35 0
-26 -34 0
-26 -30 0
-25 -54 0
-25 -52 0
-25 -40 0
-25 -38 0
-25 -37 0
-25 -32 0
-25 -31 0
-25 -28 0
-24 -57 0
-24 -56 0
-24 -48 0
-24 -42 0
-24 -35 0
-24 -33 0
-24 -27 0
-23 -55 0
-23 -45 0
-23 -42 0
-23 -31 0
-23 -29 0
-23 -28 0
-23 -27 0
-22 -53 0
-22 -50 0
-22 -48 0
-22 -47 0
-22 -45 0
-22 -28 0
-22 -27 0
-22 -23 0
-21 -54 0
-21 -51 0
-21 -45 0
-21 -37 0
-21 -34 0
-21 -26 0
-20 -56 0
-20 -51 0
-20 -48 0
-20 -45 0
-20 -42 0
-20 -37 0
-20 -35 0
-20 -24 0
-20 -21 0
-19 -57 0
-19 -54 0
-19 -34 0
-19 -33 0
-19 -27 0
-19 -26 0
-19 -24 0
-19 -21 0
-18 -49 0
-18 -46 0
-18 -38 0
-18 -37 0
-18 -35 0
-18 -32 0
-18 -31 0
-18 -30 0
-18 -26 0
-18 -25 0
-17 -49 0
-17 -46 0
-17 -45 0
-17 -35 0
-17 -30 0
-17 -28 0
-17 -27 0
-17 -26 0
-17 -23 0
-17 -22 0
-17 -18 0
-16 -56 0
-16 -48 0
-16 -44 0
-16 -42 0
-16 -41 0
-16 -38 0
-16 -36 0
-16 -35 0
-16 -34 0
-16 -24 0
-16 -20 0
-15 -57 0
-15 -51 0
-15 -47 0
-15 -46 0
-15 -44 0
-15 -40 0
-15 -33 0
-15 -27 0
-15 -24 0
-15 -19 0
-14 -53 0
-14 -51 0
-14 -45 0
-14 -39 0
-14 -37 0
-14 -36 0
-14 -33 0
-14 -30 0
-14 -29 0
-14 -21 0
-14 -20 0
-13 -54 0
-13 -53 0
-13 -50 0
-13 -48 0
-13 -47 0
-13 -34 0
-13 -26 0
-13 -22 0
-13 -21 0
-13 -19 0
-12 -57 0
-12 -55 0
-12 -52 0
-12 -51 0
-12 -50 0
-12 -49 0
-12 -45 0
-12 -41 0
-12 -37 0
-12 -21 0
-12 -20 0
-12 -14 0
-11 -56 0
-11 -45 0
-11 -39 0
-11 -32 0
-11 -28 0
-11 -27 0
-11 -23 0
-11 -22 0
-11 -17 0
-10 -55 0
-10 -54 0
-10 -42 0
-10 -34 0
-10 -31 0
-10 -29 0
-10 -26 0
-10 -23 0
-10 -21 0
-10 -19 0
-10 -13 0
-9 -53 0
-9 -50 0
-9 -48 0
-9 -47 0
-9 -38 0
-9 -37 0
-9 -32 0
-9 -31 0
-9 -25 0
-9 -22 0
-9 -18 0
-9 -13 0
-8 -56 0
-8 -51 0
-8 -47 0
-8 -46 0
-8 -44 0
-8 -40 0
-8 -39 0
-8 -32 0
-8 -15 0
-8 -11 0
-7 -57 0
-7 -56 0
-7 -55 0
-7 -52 0
-7 -50 0
-7 -49 0
-7 -41 0
-7 -39 0
-7 -32 0
-7 -12 0
-7 -11 0
-7 -8 0
-6 -57 0
-6 -38 0
-6 -37 0
-6 -33 0
-6 -32 0
-6 -31 0
-6 -27 0
-6 -25 0
-6 -24 0
-6 -19 0
-6 -18 0
-6 -15 0
-6 -9 0
-5 -56 0
-5 -54 0
-5 -39 0
-5 -34 0
-5 -32 0
-5 -26 0
-5 -21 0
-5 -19 0
-5 -13 0
-5 -11 0
-5 -10 0
-5 -8 0
-5 -7 0
-4 -55 0
-4 -51 0
-4 -47 0
-4 -46 0
-4 -44 0
-4 -42 0
-4 -40 0
-4 -31 0
-4 -29 0
-4 -23 0
-4 -15 0
-4 -10 0
-4 -8 0
-3 -56 0
-3 -54 0
-3 -52 0
-3 -48 0
-3 -42 0
-3 -40 0
-3 -35 0
-3 -28 0
-3 -25 0
-3 -24 0
-3 -20 0
-3 -16 0
-2 -45 0
-2 -44 0
-2 -41 0
-2 -38 0
-2 -36 0
-2 -34 0
-2 -28 0
-2 -27 0
-2 -23 0
-2 -22 0
-2 -17 0
-2 -16 0
-2 -11 0
-1 -54 0
-1 -53 0
-1 -52 0
-1 -40 0
-1 -39 0
-1 -36 0
-1 -33 0
-1 -30 0
-1 -29 0
-1 -28 0
-1 -25 0
-1 -14 0
-1 -3 0
1 3 25 28 40 52 54 0
2 16 34 36 38 41 44 0
4 10 23 29 31 42 55 0
5 7 8 11 32 39 56 0
6 15 19 24 27 33 57 0
9 13 22 47 48 50 53 0
12 14 20 21 37 45 51 0
17 18 26 30 35 43 46 49 0
