p cnf 111 1056
-109 -110 0
-104 -108 0
-103 -111 0
-101 -102 0
-100 -107 0
-100 -105 0
-99 -111 0
-99 -104 0
-99 -103 0
-98 -104 0
-98 -102 0
-98 -101 0
-98 -99 0
-97 -110 0
-97 -109 0
-96 -110 0
-96 -109 0
-96 -106 0
-96 -97 0
-95 -105 0
-95 -100 0
-95 -97 0
-94 -105 0
-94 -104 0
-94 -99 0
-94 -98 0
-93 -111 0
-93 -107 0
-93 -103 0
-93 -99 0
-92 -111 0
-92 -110 0
-92 -109 0
-92 -103 0
-92 -99 0
-92 -97 0
-92 -96 0
-92 -93 0
-91 -101 0
-90 -109 0
-90 -105 0
-90 -100 0
-90 -95 0
-89 -111 0
-89 -110 0
-88 -104 0
-88 -99 0
-88 -98 0
-88 -94 0
-88 -91 0
-87 -107 0
-87 -93 0
-86 -109 0
-86 -103 0
-86 -90 0
-85 -110 0
-85 -109 0
-85 -102 0
-85 -101 0
-85 -98 0
-85 -97 0
-85 -96 0
-85 -92 0
-84 -102 0
-84 -87 0
-83 -105 0
-83 -100 0
-83 -95 0
-83 -90 0
-83 -87 0
-83 -84 0
-82 -106 0
-82 -104 0
-82 -99 0
-82 -98 0
-82 -96 0
-82 -94 0
-82 -88 0
-81 -109 0
-81 -104 0
-81 -99 0
-81 -98 0
-81 -94 0
-81 -90 0
-81 -88 0
-81 -86 0
-81 -82 0
-80 -108 0
-80 -106 0
-80 -96 0
-80 -82 0
-79 -106 0
-79 -97 0
-79 -95 0
-78 -107 0
-78 -106 0
-78 -96 0
-78 -93 0
-78 -87 0
-78 -82 0
-78 -80 0
-77 -107 0
-77 -102 0
-77 -100 0
-77 -84 0
-76 -107 0
-76 -93 0
-76 -91 0
-76 -88 0
-76 -87 0
-76 -78 0
-75 -108 0
-75 -104 0
-75 -101 0
-75 -91 0
-74 -111 0
-74 -106 0
-74 -96 0
-74 -89 0
-74 -82 0
-74 -80 0
-74 -78 0
-73 -110 0
-73 -101 0
-73 -91 0
-73 -89 0
-73 -75 0
-72 -103 0
-72 -102 0
-72 -101 0
-72 -98 0
-72 -86 0
-72 -85 0
-71 -105 0
-71 -103 0
-71 -94 0
-71 -86 0
-71 -72 0
-70 -110 0
-70 -103 0
-70 -89 0
-70 -86 0
-70 -73 0
-70 -72 0
-70 -71 0
-69 -101 0
-69 -97 0
-69 -95 0
-69 -91 0
-69 -79 0
-69 -75 0
-69 -73 0
-68 -111 0
-68 -89 0
-68 -87 0
-68 -84 0
-68 -83 0
-68 -74 0
-67 -103 0
-67 -97 0
-67 -95 0
-67 -86 0
-67 -79 0
-67 -72 0
-67 -71 0
-67 -70 0
-67 -69 0
-66 -105 0
-66 -101 0
-66 -94 0
-66 -91 0
-66 -75 0
-66 -73 0
-66 -71 0
-66 -69 0
-65 -111 0
-65 -108 0
-65 -104 0
-65 -89 0
-65 -75 0
-65 -74 0
-65 -68 0
-64 -106 0
-64 -87 0
-64 -84 0
-64 -83 0
-64 -79 0
-64 -68 0
-63 -108 0
-63 -87 0
-63 -84 0
-63 -83 0
-63 -80 0
-63 -68 0
-63 -64 0
-62 -106 0
-62 -91 0
-62 -88 0
-62 -79 0
-62 -76 0
-62 -64 0
-61 -108 0
-61 -107 0
-61 -104 0
-61 -93 0
-61 -87 0
-61 -78 0
-61 -76 0
-61 -75 0
-61 -65 0
-60 -107 0
-60 -104 0
-60 -100 0
-60 -99 0
-60 -98 0
-60 -94 0
-60 -88 0
-60 -82 0
-60 -81 0
-60 -77 0
-59 -108 0
-59 -107 0
-59 -100 0
-59 -80 0
-59 -77 0
-59 -63 0
-59 -60 0
-58 -106 0
-58 -102 0
-58 -96 0
-58 -84 0
-58 -82 0
-58 -80 0
-58 -78 0
-58 -77 0
-58 -74 0
-57 -104 0
-57 -99 0
-57 -98 0
-57 -94 0
-57 -88 0
-57 -87 0
-57 -84 0
-57 -83 0
-57 -82 0
-57 -81 0
-57 -68 0
-57 -64 0
-57 -63 0
-57 -60 0
-56 -109 0
-56 -102 0
-56 -90 0
-56 -86 0
-56 -84 0
-56 -81 0
-56 -77 0
-56 -58 0
-55 -107 0
-55 -102 0
-55 -101 0
-55 -98 0
-55 -93 0
-55 -87 0
-55 -85 0
-55 -78 0
-55 -76 0
-55 -72 0
-55 -61 0
-54 -109 0
-54 -106 0
-54 -90 0
-54 -86 0
-54 -81 0
-54 -79 0
-54 -64 0
-54 -62 0
-54 -56 0
-53 -110 0
-53 -104 0
-53 -99 0
-53 -98 0
-53 -94 0
-53 -89 0
-53 -88 0
-53 -82 0
-53 -81 0
-53 -73 0
-53 -70 0
-53 -60 0
-53 -57 0
-52 -107 0
-52 -97 0
-52 -95 0
-52 -93 0
-52 -87 0
-52 -79 0
-52 -78 0
-52 -76 0
-52 -69 0
-52 -67 0
-52 -61 0
-52 -55 0
-51 -110 0
-51 -106 0
-51 -89 0
-51 -79 0
-51 -73 0
-51 -70 0
-51 -64 0
-51 -62 0
-51 -54 0
-51 -53 0
-50 -110 0
-50 -109 0
-50 -97 0
-50 -96 0
-50 -92 0
-50 -91 0
-50 -88 0
-50 -85 0
-50 -76 0
-50 -62 0
-49 -105 0
-49 -102 0
-49 -94 0
-49 -84 0
-49 -77 0
-49 -71 0
-49 -66 0
-49 -58 0
-49 -56 0
-48 -111 0
-48 -91 0
-48 -89 0
-48 -88 0
-48 -76 0
-48 -74 0
-48 -68 0
-48 -65 0
-48 -62 0
-48 -50 0
-47 -110 0
-47 -107 0
-47 -93 0
-47 -89 0
-47 -87 0
-47 -78 0
-47 -76 0
-47 -73 0
-47 -70 0
-47 -61 0
-47 -55 0
-47 -53 0
-47 -52 0
-47 -51 0
-46 -109 0
-46 -108 0
-46 -90 0
-46 -86 0
-46 -81 0
-46 -80 0
-46 -63 0
-46 -59 0
-46 -56 0
-46 -54 0
-45 -110 0
-45 -109 0
-45 -108 0
-45 -104 0
-45 -97 0
-45 -96 0
-45 -92 0
-45 -85 0
-45 -75 0
-45 -65 0
-45 -61 0
-45 -50 0
-44 -106 0
-44 -105 0
-44 -100 0
-44 -96 0
-44 -95 0
-44 -90 0
-44 -83 0
-44 -82 0
-44 -80 0
-44 -78 0
-44 -74 0
-44 -58 0
-43 -111 0
-43 -97 0
-43 -95 0
-43 -89 0
-43 -79 0
-43 -74 0
-43 -69 0
-43 -68 0
-43 -67 0
-43 -65 0
-43 -52 0
-43 -48 0
-42 -106 0
-42 -101 0
-42 -96 0
-42 -91 0
-42 -82 0
-42 -80 0
-42 -78 0
-42 -75 0
-42 -74 0
-42 -73 0
-42 -69 0
-42 -66 0
-42 -58 0
-42 -44 0
-41 -108 0
-41 -106 0
-41 -104 0
-41 -79 0
-41 -75 0
-41 -65 0
-41 -64 0
-41 -62 0
-41 -61 0
-41 -54 0
-41 -51 0
-41 -45 0
-40 -108 0
-40 -105 0
-40 -104 0
-40 -100 0
-40 -95 0
-40 -90 0
-40 -83 0
-40 -75 0
-40 -65 0
-40 -61 0
-40 -45 0
-40 -44 0
-40 -41 0
-39 -107 0
-39 -103 0
-39 -100 0
-39 -86 0
-39 -77 0
-39 -72 0
-39 -71 0
-39 -70 0
-39 -67 0
-39 -60 0
-39 -59 0
-38 -110 0
-38 -109 0
-38 -97 0
-38 -96 0
-38 -92 0
-38 -87 0
-38 -85 0
-38 -84 0
-38 -83 0
-38 -68 0
-38 -64 0
-38 -63 0
-38 -57 0
-38 -50 0
-38 -45 0
-37 -111 0
-37 -103 0
-37 -101 0
-37 -99 0
-37 -93 0
-37 -92 0
-37 -91 0
-37 -75 0
-37 -73 0
-37 -69 0
-37 -66 0
-37 -42 0
-36 -108 0
-36 -97 0
-36 -95 0
-36 -80 0
-36 -79 0
-36 -69 0
-36 -67 0
-36 -63 0
-36 -59 0
-36 -52 0
-36 -46 0
-36 -43 0
-35 -106 0
-35 -102 0
-35 -101 0
-35 -98 0
-35 -85 0
-35 -79 0
-35 -72 0
-35 -64 0
-35 -62 0
-35 -55 0
-35 -54 0
-35 -51 0
-35 -41 0
-34 -111 0
-34 -105 0
-34 -103 0
-34 -100 0
-34 -99 0
-34 -95 0
-34 -93 0
-34 -92 0
-34 -90 0
-34 -83 0
-34 -44 0
-34 -40 0
-34 -37 0
-33 -111 0
-33 -105 0
-33 -94 0
-33 -89 0
-33 -74 0
-33 -71 0
-33 -68 0
-33 -66 0
-33 -65 0
-33 -49 0
-33 -48 0
-33 -43 0
-32 -110 0
-32 -102 0
-32 -89 0
-32 -84 0
-32 -77 0
-32 -73 0
-32 -70 0
-32 -58 0
-32 -56 0
-32 -53 0
-32 -51 0
-32 -49 0
-32 -47 0
-31 -102 0
-31 -97 0
-31 -95 0
-31 -84 0
-31 -79 0
-31 -77 0
-31 -69 0
-31 -67 0
-31 -58 0
-31 -56 0
-31 -52 0
-31 -49 0
-31 -43 0
-31 -36 0
-31 -32 0
-30 -111 0
-30 -109 0
-30 -90 0
-30 -89 0
-30 -86 0
-30 -81 0
-30 -74 0
-30 -68 0
-30 -65 0
-30 -56 0
-30 -54 0
-30 -48 0
-30 -46 0
-30 -43 0
-30 -33 0
-29 -111 0
-29 -103 0
-29 -102 0
-29 -99 0
-29 -93 0
-29 -92 0
-29 -84 0
-29 -77 0
-29 -58 0
-29 -56 0
-29 -49 0
-29 -37 0
-29 -34 0
-29 -32 0
-29 -31 0
-28 -104 0
-28 -99 0
-28 -98 0
-28 -97 0
-28 -95 0
-28 -94 0
-28 -88 0
-28 -82 0
-28 -81 0
-28 -79 0
-28 -69 0
-28 -67 0
-28 -60 0
-28 -57 0
-28 -53 0
-28 -52 0
-28 -43 0
-28 -36 0
-28 -31 0
-27 -108 0
-27 -91 0
-27 -88 0
-27 -80 0
-27 -76 0
-27 -63 0
-27 -62 0
-27 -59 0
-27 -50 0
-27 -48 0
-27 -46 0
-27 -36 0
-26 -108 0
-26 -102 0
-26 -101 0
-26 -98 0
-26 -85 0
-26 -80 0
-26 -72 0
-26 -63 0
-26 -59 0
-26 -55 0
-26 -46 0
-26 -36 0
-26 -35 0
-26 -27 0
-25 -103 0
-25 -91 0
-25 -88 0
-25 -86 0
-25 -76 0
-25 -72 0
-25 -71 0
-25 -70 0
-25 -67 0
-25 -62 0
-25 -50 0
-25 -48 0
-25 -39 0
-25 -27 0
-24 -111 0
-24 -107 0
-24 -100 0
-24 -89 0
-24 -77 0
-24 -74 0
-24 -68 0
-24 -65 0
-24 -60 0
-24 -59 0
-24 -48 0
-24 -43 0
-24 -39 0
-24 -33 0
-24 -30 0
-23 -102 0
-23 -91 0
-23 -88 0
-23 -84 0
-23 -77 0
-23 -76 0
-23 -62 0
-23 -58 0
-23 -56 0
-23 -50 0
-23 -49 0
-23 -48 0
-23 -32 0
-23 -31 0
-23 -29 0
-23 -27 0
-23 -25 0
-22 -101 0
-22 -91 0
-22 -87 0
-22 -84 0
-22 -83 0
-22 -75 0
-22 -73 0
-22 -69 0
-22 -68 0
-22 -66 0
-22 -64 0
-22 -63 0
-22 -57 0
-22 -42 0
-22 -38 0
-22 -37 0
-21 -107 0
-21 -105 0
-21 -94 0
-21 -93 0
-21 -87 0
-21 -78 0
-21 -76 0
-21 -71 0
-21 -66 0
-21 -61 0
-21 -55 0
-21 -52 0
-21 -49 0
-21 -47 0
-21 -33 0
-20 -111 0
-20 -106 0
-20 -103 0
-20 -99 0
-20 -93 0
-20 -92 0
-20 -79 0
-20 -64 0
-20 -62 0
-20 -54 0
-20 -51 0
-20 -41 0
-20 -37 0
-20 -35 0
-20 -34 0
-20 -29 0
-19 -108 0
-19 -104 0
-19 -102 0
-19 -84 0
-19 -77 0
-19 -75 0
-19 -65 0
-19 -61 0
-19 -58 0
-19 -56 0
-19 -49 0
-19 -45 0
-19 -41 0
-19 -40 0
-19 -32 0
-19 -31 0
-19 -29 0
-19 -23 0
-18 -109 0
-18 -107 0
-18 -93 0
-18 -90 0
-18 -87 0
-18 -86 0
-18 -81 0
-18 -78 0
-18 -76 0
-18 -61 0
-18 -56 0
-18 -55 0
-18 -54 0
-18 -52 0
-18 -47 0
-18 -46 0
-18 -30 0
-18 -21 0
-17 -107 0
-17 -106 0
-17 -100 0
-17 -79 0
-17 -77 0
-17 -64 0
-17 -62 0
-17 -60 0
-17 -59 0
-17 -54 0
-17 -51 0
-17 -41 0
-17 -39 0
-17 -35 0
-17 -24 0
-17 -20 0
-16 -108 0
-16 -104 0
-16 -103 0
-16 -86 0
-16 -75 0
-16 -72 0
-16 -71 0
-16 -70 0
-16 -67 0
-16 -65 0
-16 -61 0
-16 -45 0
-16 -41 0
-16 -40 0
-16 -39 0
-16 -25 0
-16 -19 0
-15 -110 0
-15 -109 0
-15 -107 0
-15 -100 0
-15 -97 0
-15 -96 0
-15 -92 0
-15 -85 0
-15 -77 0
-15 -60 0
-15 -59 0
-15 -50 0
-15 -45 0
-15 -39 0
-15 -38 0
-15 -24 0
-15 -17 0
-14 -105 0
-14 -102 0
-14 -101 0
-14 -100 0
-14 -98 0
-14 -95 0
-14 -90 0
-14 -85 0
-14 -83 0
-14 -72 0
-14 -55 0
-14 -44 0
-14 -40 0
-14 -35 0
-14 -34 0
-14 -26 0
-13 -106 0
-13 -103 0
-13 -96 0
-13 -86 0
-13 -82 0
-13 -80 0
-13 -78 0
-13 -74 0
-13 -72 0
-13 -71 0
-13 -70 0
-13 -67 0
-13 -58 0
-13 -44 0
-13 -42 0
-13 -39 0
-13 -25 0
-13 -16 0
-12 -106 0
-12 -105 0
-12 -94 0
-12 -79 0
-12 -71 0
-12 -66 0
-12 -64 0
-12 -62 0
-12 -54 0
-12 -51 0
-12 -49 0
-12 -41 0
-12 -35 0
-12 -33 0
-12 -21 0
-12 -20 0
-12 -17 0
-11 -111 0
-11 -102 0
-11 -101 0
-11 -98 0
-11 -89 0
-11 -85 0
-11 -74 0
-11 -72 0
-11 -68 0
-11 -65 0
-11 -55 0
-11 -48 0
-11 -43 0
-11 -35 0
-11 -33 0
-11 -30 0
-11 -26 0
-11 -24 0
-11 -14 0
-10 -105 0
-10 -100 0
-10 -95 0
-10 -91 0
-10 -90 0
-10 -88 0
-10 -83 0
-10 -76 0
-10 -62 0
-10 -50 0
-10 -48 0
-10 -44 0
-10 -40 0
-10 -34 0
-10 -27 0
-10 -25 0
-10 -23 0
-10 -14 0
-9 -103 0
-9 -87 0
-9 -86 0
-9 -84 0
-9 -83 0
-9 -72 0
-9 -71 0
-9 -70 0
-9 -68 0
-9 -67 0
-9 -64 0
-9 -63 0
-9 -57 0
-9 -39 0
-9 -38 0
-9 -25 0
-9 -22 0
-9 -16 0
-9 -13 0
-8 -108 0
-8 -105 0
-8 -94 0
-8 -80 0
-8 -71 0
-8 -66 0
-8 -63 0
-8 -59 0
-8 -49 0
-8 -46 0
-8 -36 0
-8 -33 0
-8 -27 0
-8 -26 0
-8 -21 0
-8 -12 0
-7 -111 0
-7 -108 0
-7 -103 0
-7 -99 0
-7 -93 0
-7 -92 0
-7 -80 0
-7 -63 0
-7 -59 0
-7 -46 0
-7 -37 0
-7 -36 0
-7 -34 0
-7 -29 0
-7 -27 0
-7 -26 0
-7 -20 0
-7 -8 0
-6 -109 0
-6 -101 0
-6 -91 0
-6 -90 0
-6 -86 0
-6 -81 0
-6 -75 0
-6 -73 0
-6 -69 0
-6 -66 0
-6 -56 0
-6 -54 0
-6 -46 0
-6 -42 0
-6 -37 0
-6 -30 0
-6 -22 0
-6 -18 0
-4 -110 0
-4 -105 0
-4 -100 0
-4 -95 0
-4 -90 0
-4 -89 0
-4 -83 0
-4 -73 0
-4 -70 0
-4 -53 0
-4 -51 0
-4 -47 0
-4 -44 0
-4 -40 0
-4 -34 0
-4 -32 0
-4 -14 0
-4 -10 0
-3 -110 0
-3 -108 0
-3 -89 0
-3 -80 0
-3 -73 0
-3 -70 0
-3 -63 0
-3 -59 0
-3 -53 0
-3 -51 0
-3 -47 0
-3 -46 0
-3 -36 0
-3 -32 0
-3 -27 0
-3 -26 0
-3 -8 0
-3 -7 0
-3 -4 0
-2 -110 0
-2 -109 0
-2 -105 0
-2 -97 0
-2 -96 0
-2 -94 0
-2 -92 0
-2 -85 0
-2 -71 0
-2 -66 0
-2 -50 0
-2 -49 0
-2 -45 0
-2 -38 0
-2 -33 0
-2 -21 0
-2 -15 0
-2 -12 0
-2 -8 0
-1 -107 0
-1 -101 0
-1 -100 0
-1 -91 0
-1 -77 0
-1 -75 0
-1 -73 0
-1 -69 0
-1 -66 0
-1 -60 0
-1 -59 0
-1 -42 0
-1 -39 0
-1 -37 0
-1 -24 0
-1 -22 0
-1 -17 0
-1 -15 0
-1 -6 0
1 15 17 24 39 59 60 77 100 107 0
2 8 12 21 33 49 66 71 94 105 0
3 4 32 47 51 53 70 73 89 110 0
6 18 30 46 54 56 81 86 90 109 0
7 20 29 34 37 92 93 99 103 111 0
10 23 25 27 48 50 62 76 88 91 0
11 14 26 35 55 72 85 98 101 102 0
13 42 44 58 74 78 80 82 96 106 0
16 19 40 41 45 61 65 75 104 108 0
28 31 36 43 52 67 69 79 95 97 0
5 9 22 38 57 63 64 68 83 84 87 0
