p cnf 133 1398
-130 -131 0
-129 -133 0
-128 -131 0
-127 -130 0
-125 -132 0
-123 -131 0
-123 -130 0
-122 -129 0
-121 -133 0
-121 -129 0
-120 -128 0
-119 -133 0
-119 -129 0
-119 -125 0
-119 -121 0
-118 -128 0
-118 -120 0
-117 -133 0
-117 -124 0
-116 -133 0
-116 -130 0
-116 -127 0
-116 -117 0
-115 -133 0
-115 -122 0
-115 -117 0
-115 -116 0
-114 -124 0
-114 -117 0
-113 -130 0
-113 -127 0
-113 -124 0
-113 -116 0
-112 -133 0
-112 -126 0
-112 -117 0
-112 -116 0
-112 -115 0
-111 -133 0
-111 -129 0
-111 -128 0
-111 -121 0
-111 -120 0
-111 -119 0
-111 -118 0
-109 -132 0
-109 -122 0
-109 -115 0
-108 -126 0
-108 -118 0
-107 -133 0
-107 -132 0
-107 -129 0
-107 -121 0
-107 -119 0
-107 -111 0
-107 -109 0
-106 -131 0
-106 -128 0
-105 -121 0
-105 -118 0
-105 -108 0
-104 -118 0
-104 -108 0
-104 -106 0
-104 -105 0
-103 -126 0
-103 -121 0
-103 -112 0
-103 -105 0
-102 -130 0
-102 -127 0
-102 -116 0
-102 -113 0
-102 -106 0
-102 -104 0
-101 -127 0
-101 -124 0
-101 -117 0
-101 -114 0
-100 -131 0
-100 -128 0
-100 -121 0
-100 -106 0
-100 -105 0
-100 -103 0
-99 -124 0
-99 -121 0
-99 -117 0
-99 -114 0
-99 -105 0
-99 -103 0
-99 -101 0
-99 -100 0
-98 -131 0
-98 -128 0
-98 -114 0
-98 -106 0
-98 -100 0
-97 -131 0
-97 -130 0
-97 -124 0
-97 -123 0
-97 -117 0
-97 -114 0
-97 -101 0
-97 -99 0
-96 -131 0
-96 -130 0
-96 -123 0
-96 -118 0
-96 -108 0
-96 -105 0
-96 -104 0
-96 -97 0
-95 -127 0
-95 -122 0
-95 -115 0
-95 -109 0
-95 -101 0
-94 -122 0
-94 -115 0
-94 -109 0
-94 -106 0
-94 -104 0
-94 -102 0
-94 -95 0
-93 -130 0
-93 -127 0
-93 -116 0
-93 -114 0
-93 -113 0
-93 -102 0
-93 -98 0
-92 -131 0
-92 -128 0
-92 -127 0
-92 -106 0
-92 -101 0
-92 -100 0
-92 -98 0
-92 -95 0
-91 -126 0
-91 -122 0
-91 -115 0
-91 -109 0
-91 -108 0
-91 -95 0
-91 -94 0
-90 -133 0
-90 -129 0
-90 -124 0
-90 -121 0
-90 -119 0
-90 -113 0
-90 -111 0
-90 -107 0
-89 -127 0
-89 -123 0
-89 -101 0
-89 -95 0
-89 -92 0
-88 -133 0
-88 -131 0
-88 -130 0
-88 -129 0
-88 -123 0
-88 -121 0
-88 -119 0
-88 -111 0
-88 -107 0
-88 -97 0
-88 -96 0
-88 -90 0
-87 -128 0
-87 -122 0
-87 -120 0
-87 -118 0
-87 -115 0
-87 -111 0
-87 -109 0
-87 -95 0
-87 -94 0
-87 -91 0
-86 -133 0
-86 -118 0
-86 -117 0
-86 -116 0
-86 -115 0
-86 -112 0
-86 -108 0
-86 -105 0
-86 -104 0
-86 -96 0
-85 -132 0
-85 -118 0
-85 -109 0
-85 -108 0
-85 -107 0
-85 -105 0
-85 -104 0
-85 -96 0
-85 -86 0
-84 -132 0
-84 -126 0
-84 -125 0
-84 -108 0
-84 -91 0
-83 -114 0
-83 -98 0
-83 -93 0
-82 -133 0
-82 -117 0
-82 -116 0
-82 -115 0
-82 -112 0
-82 -86 0
-82 -83 0
-81 -130 0
-81 -129 0
-81 -127 0
-81 -122 0
-81 -116 0
-81 -113 0
-81 -102 0
-81 -93 0
-80 -131 0
-80 -129 0
-80 -128 0
-80 -122 0
-80 -106 0
-80 -100 0
-80 -98 0
-80 -92 0
-80 -81 0
-79 -129 0
-79 -124 0
-79 -122 0
-79 -117 0
-79 -114 0
-79 -101 0
-79 -99 0
-79 -97 0
-79 -81 0
-79 -80 0
-78 -128 0
-78 -124 0
-78 -120 0
-78 -118 0
-78 -117 0
-78 -114 0
-78 -111 0
-78 -101 0
-78 -99 0
-78 -97 0
-78 -87 0
-78 -79 0
-77 -133 0
-77 -123 0
-77 -117 0
-77 -116 0
-77 -115 0
-77 -112 0
-77 -89 0
-77 -86 0
-77 -82 0
-76 -129 0
-76 -122 0
-76 -118 0
-76 -108 0
-76 -105 0
-76 -104 0
-76 -96 0
-76 -86 0
-76 -85 0
-76 -81 0
-76 -80 0
-76 -79 0
-75 -126 0
-75 -123 0
-75 -108 0
-75 -91 0
-75 -89 0
-75 -84 0
-75 -77 0
-74 -131 0
-74 -128 0
-74 -124 0
-74 -113 0
-74 -106 0
-74 -100 0
-74 -98 0
-74 -92 0
-74 -90 0
-74 -80 0
-73 -122 0
-73 -121 0
-73 -115 0
-73 -109 0
-73 -105 0
-73 -103 0
-73 -100 0
-73 -99 0
-73 -95 0
-73 -94 0
-73 -91 0
-73 -87 0
-72 -133 0
-72 -120 0
-72 -117 0
-72 -116 0
-72 -115 0
-72 -112 0
-72 -86 0
-72 -82 0
-72 -77 0
-71 -133 0
-71 -129 0
-71 -126 0
-71 -121 0
-71 -119 0
-71 -111 0
-71 -108 0
-71 -107 0
-71 -91 0
-71 -90 0
-71 -88 0
-71 -84 0
-71 -75 0
-70 -132 0
-70 -131 0
-70 -130 0
-70 -125 0
-70 -123 0
-70 -97 0
-70 -96 0
-70 -88 0
-70 -84 0
-69 -132 0
-69 -127 0
-69 -125 0
-69 -101 0
-69 -95 0
-69 -92 0
-69 -89 0
-69 -84 0
-69 -70 0
-68 -120 0
-68 -114 0
-68 -98 0
-68 -93 0
-68 -83 0
-68 -72 0
-67 -132 0
-67 -131 0
-67 -128 0
-67 -109 0
-67 -107 0
-67 -106 0
-67 -100 0
-67 -98 0
-67 -92 0
-67 -85 0
-67 -80 0
-67 -74 0
-66 -133 0
-66 -129 0
-66 -121 0
-66 -119 0
-66 -111 0
-66 -107 0
-66 -106 0
-66 -104 0
-66 -102 0
-66 -94 0
-66 -90 0
-66 -88 0
-66 -71 0
-65 -132 0
-65 -125 0
-65 -114 0
-65 -98 0
-65 -93 0
-65 -84 0
-65 -83 0
-65 -70 0
-65 -69 0
-65 -68 0
-64 -129 0
-64 -126 0
-64 -122 0
-64 -112 0
-64 -103 0
-64 -81 0
-64 -80 0
-64 -79 0
-64 -76 0
-63 -125 0
-63 -123 0
-63 -119 0
-63 -89 0
-63 -77 0
-63 -75 0
-62 -133 0
-62 -129 0
-62 -127 0
-62 -121 0
-62 -119 0
-62 -111 0
-62 -107 0
-62 -101 0
-62 -95 0
-62 -92 0
-62 -90 0
-62 -89 0
-62 -88 0
-62 -71 0
-62 -69 0
-62 -66 0
-61 -125 0
-61 -119 0
-61 -83 0
-61 -82 0
-61 -63 0
-60 -120 0
-60 -106 0
-60 -104 0
-60 -102 0
-60 -94 0
-60 -72 0
-60 -68 0
-60 -66 0
-59 -128 0
-59 -120 0
-59 -118 0
-59 -111 0
-59 -87 0
-59 -83 0
-59 -82 0
-59 -78 0
-59 -61 0
-58 -124 0
-58 -123 0
-58 -113 0
-58 -90 0
-58 -89 0
-58 -77 0
-58 -75 0
-58 -74 0
-58 -63 0
-57 -132 0
-57 -125 0
-57 -106 0
-57 -104 0
-57 -102 0
-57 -94 0
-57 -84 0
-57 -70 0
-57 -69 0
-57 -66 0
-57 -65 0
-57 -60 0
-56 -132 0
-56 -123 0
-56 -109 0
-56 -107 0
-56 -89 0
-56 -85 0
-56 -77 0
-56 -75 0
-56 -67 0
-56 -63 0
-56 -58 0
-55 -106 0
-55 -104 0
-55 -102 0
-55 -94 0
-55 -83 0
-55 -82 0
-55 -66 0
-55 -61 0
-55 -60 0
-55 -59 0
-55 -57 0
-54 -133 0
-54 -131 0
-54 -128 0
-54 -117 0
-54 -116 0
-54 -115 0
-54 -112 0
-54 -106 0
-54 -100 0
-54 -98 0
-54 -92 0
-54 -86 0
-54 -82 0
-54 -80 0
-54 -77 0
-54 -74 0
-54 -72 0
-54 -67 0
-53 -123 0
-53 -121 0
-53 -105 0
-53 -103 0
-53 -100 0
-53 -99 0
-53 -89 0
-53 -77 0
-53 -75 0
-53 -73 0
-53 -63 0
-53 -58 0
-53 -56 0
-52 -127 0
-52 -126 0
-52 -112 0
-52 -103 0
-52 -101 0
-52 -95 0
-52 -92 0
-52 -89 0
-52 -69 0
-52 -64 0
-52 -62 0
-51 -124 0
-51 -113 0
-51 -90 0
-51 -83 0
-51 -82 0
-51 -74 0
-51 -61 0
-51 -59 0
-51 -58 0
-51 -55 0
-50 -131 0
-50 -130 0
-50 -123 0
-50 -120 0
-50 -97 0
-50 -96 0
-50 -88 0
-50 -72 0
-50 -70 0
-50 -68 0
-50 -60 0
-49 -132 0
-49 -125 0
-49 -121 0
-49 -105 0
-49 -103 0
-49 -100 0
-49 -99 0
-49 -84 0
-49 -73 0
-49 -70 0
-49 -69 0
-49 -65 0
-49 -57 0
-49 -53 0
-48 -124 0
-48 -118 0
-48 -113 0
-48 -108 0
-48 -105 0
-48 -104 0
-48 -96 0
-48 -90 0
-48 -86 0
-48 -85 0
-48 -76 0
-48 -74 0
-48 -58 0
-48 -51 0
-47 -125 0
-47 -124 0
-47 -119 0
-47 -117 0
-47 -114 0
-47 -101 0
-47 -99 0
-47 -97 0
-47 -79 0
-47 -78 0
-47 -63 0
-47 -61 0
-46 -124 0
-46 -122 0
-46 -115 0
-46 -113 0
-46 -109 0
-46 -95 0
-46 -94 0
-46 -91 0
-46 -90 0
-46 -87 0
-46 -74 0
-46 -73 0
-46 -58 0
-46 -51 0
-46 -48 0
-45 -133 0
-45 -129 0
-45 -121 0
-45 -119 0
-45 -114 0
-45 -111 0
-45 -107 0
-45 -98 0
-45 -93 0
-45 -90 0
-45 -88 0
-45 -83 0
-45 -71 0
-45 -68 0
-45 -66 0
-45 -65 0
-45 -62 0
-44 -128 0
-44 -123 0
-44 -120 0
-44 -118 0
-44 -111 0
-44 -89 0
-44 -87 0
-44 -78 0
-44 -77 0
-44 -75 0
-44 -63 0
-44 -59 0
-44 -58 0
-44 -56 0
-44 -53 0
-43 -125 0
-43 -119 0
-43 -118 0
-43 -108 0
-43 -105 0
-43 -104 0
-43 -96 0
-43 -86 0
-43 -85 0
-43 -76 0
-43 -63 0
-43 -61 0
-43 -48 0
-43 -47 0
-42 -123 0
-42 -114 0
-42 -98 0
-42 -93 0
-42 -89 0
-42 -83 0
-42 -77 0
-42 -75 0
-42 -68 0
-42 -65 0
-42 -63 0
-42 -58 0
-42 -56 0
-42 -53 0
-42 -45 0
-42 -44 0
-41 -127 0
-41 -101 0
-41 -95 0
-41 -92 0
-41 -89 0
-41 -83 0
-41 -82 0
-41 -69 0
-41 -62 0
-41 -61 0
-41 -59 0
-41 -55 0
-41 -52 0
-41 -51 0
-40 -133 0
-40 -132 0
-40 -125 0
-40 -117 0
-40 -116 0
-40 -115 0
-40 -112 0
-40 -86 0
-40 -84 0
-40 -82 0
-40 -77 0
-40 -72 0
-40 -70 0
-40 -69 0
-40 -65 0
-40 -57 0
-40 -54 0
-40 -49 0
-39 -125 0
-39 -120 0
-39 -119 0
-39 -72 0
-39 -68 0
-39 -63 0
-39 -61 0
-39 -60 0
-39 -50 0
-39 -47 0
-39 -43 0
-38 -127 0
-38 -120 0
-38 -101 0
-38 -95 0
-38 -92 0
-38 -89 0
-38 -72 0
-38 -69 0
-38 -68 0
-38 -62 0
-38 -60 0
-38 -52 0
-38 -50 0
-38 -41 0
-38 -39 0
-37 -127 0
-37 -118 0
-37 -108 0
-37 -105 0
-37 -104 0
-37 -101 0
-37 -96 0
-37 -95 0
-37 -92 0
-37 -89 0
-37 -86 0
-37 -85 0
-37 -76 0
-37 -69 0
-37 -62 0
-37 -52 0
-37 -48 0
-37 -43 0
-37 -41 0
-37 -38 0
-36 -121 0
-36 -105 0
-36 -103 0
-36 -100 0
-36 -99 0
-36 -83 0
-36 -82 0
-36 -73 0
-36 -61 0
-36 -59 0
-36 -55 0
-36 -53 0
-36 -51 0
-36 -49 0
-36 -41 0
-35 -121 0
-35 -120 0
-35 -105 0
-35 -103 0
-35 -100 0
-35 -99 0
-35 -73 0
-35 -72 0
-35 -68 0
-35 -60 0
-35 -53 0
-35 -50 0
-35 -49 0
-35 -39 0
-35 -38 0
-35 -36 0
-34 -122 0
-34 -115 0
-34 -114 0
-34 -109 0
-34 -98 0
-34 -95 0
-34 -94 0
-34 -93 0
-34 -91 0
-34 -87 0
-34 -83 0
-34 -73 0
-34 -68 0
-34 -65 0
-34 -46 0
-34 -45 0
-34 -42 0
-33 -129 0
-33 -123 0
-33 -122 0
-33 -89 0
-33 -81 0
-33 -80 0
-33 -79 0
-33 -77 0
-33 -76 0
-33 -75 0
-33 -64 0
-33 -63 0
-33 -58 0
-33 -56 0
-33 -53 0
-33 -44 0
-33 -42 0
-32 -132 0
-32 -130 0
-32 -127 0
-32 -116 0
-32 -113 0
-32 -109 0
-32 -107 0
-32 -102 0
-32 -93 0
-32 -85 0
-32 -81 0
-32 -67 0
-32 -56 0
-31 -131 0
-31 -128 0
-31 -126 0
-31 -108 0
-31 -106 0
-31 -100 0
-31 -98 0
-31 -92 0
-31 -91 0
-31 -84 0
-31 -80 0
-31 -75 0
-31 -74 0
-31 -71 0
-31 -67 0
-31 -54 0
-30 -124 0
-30 -117 0
-30 -114 0
-30 -106 0
-30 -104 0
-30 -102 0
-30 -101 0
-30 -99 0
-30 -97 0
-30 -94 0
-30 -79 0
-30 -78 0
-30 -66 0
-30 -60 0
-30 -57 0
-30 -55 0
-30 -47 0
-29 -128 0
-29 -126 0
-29 -120 0
-29 -118 0
-29 -112 0
-29 -111 0
-29 -103 0
-29 -87 0
-29 -78 0
-29 -64 0
-29 -59 0
-29 -52 0
-29 -44 0
-28 -126 0
-28 -125 0
-28 -119 0
-28 -112 0
-28 -103 0
-28 -64 0
-28 -63 0
-28 -61 0
-28 -52 0
-28 -47 0
-28 -43 0
-28 -39 0
-28 -29 0
-27 -130 0
-27 -127 0
-27 -121 0
-27 -116 0
-27 -113 0
-27 -105 0
-27 -103 0
-27 -102 0
-27 -100 0
-27 -99 0
-27 -93 0
-27 -81 0
-27 -73 0
-27 -53 0
-27 -49 0
-27 -36 0
-27 -35 0
-27 -32 0
-26 -132 0
-26 -120 0
-26 -109 0
-26 -107 0
-26 -85 0
-26 -72 0
-26 -68 0
-26 -67 0
-26 -60 0
-26 -56 0
-26 -50 0
-26 -39 0
-26 -38 0
-26 -35 0
-26 -32 0
-25 -130 0
-25 -128 0
-25 -127 0
-25 -120 0
-25 -118 0
-25 -116 0
-25 -113 0
-25 -111 0
-25 -102 0
-25 -93 0
-25 -87 0
-25 -81 0
-25 -78 0
-25 -59 0
-25 -44 0
-25 -32 0
-25 -29 0
-25 -27 0
-24 -129 0
-24 -122 0
-24 -120 0
-24 -81 0
-24 -80 0
-24 -79 0
-24 -76 0
-24 -72 0
-24 -68 0
-24 -64 0
-24 -60 0
-24 -50 0
-24 -39 0
-24 -38 0
-24 -35 0
-24 -33 0
-24 -26 0
-23 -132 0
-23 -128 0
-23 -125 0
-23 -120 0
-23 -118 0
-23 -111 0
-23 -87 0
-23 -84 0
-23 -78 0
-23 -70 0
-23 -69 0
-23 -65 0
-23 -59 0
-23 -57 0
-23 -49 0
-23 -44 0
-23 -40 0
-23 -29 0
-23 -25 0
-22 -132 0
-22 -129 0
-22 -125 0
-22 -122 0
-22 -84 0
-22 -81 0
-22 -80 0
-22 -79 0
-22 -76 0
-22 -70 0
-22 -69 0
-22 -65 0
-22 -64 0
-22 -57 0
-22 -49 0
-22 -40 0
-22 -33 0
-22 -24 0
-22 -23 0
-21 -132 0
-21 -124 0
-21 -117 0
-21 -114 0
-21 -109 0
-21 -107 0
-21 -101 0
-21 -99 0
-21 -97 0
-21 -85 0
-21 -79 0
-21 -78 0
-21 -67 0
-21 -56 0
-21 -47 0
-21 -32 0
-21 -30 0
-21 -26 0
-20 -118 0
-20 -114 0
-20 -108 0
-20 -105 0
-20 -104 0
-20 -98 0
-20 -96 0
-20 -93 0
-20 -86 0
-20 -85 0
-20 -83 0
-20 -76 0
-20 -68 0
-20 -65 0
-20 -48 0
-20 -45 0
-20 -43 0
-20 -42 0
-20 -37 0
-20 -34 0
-19 -126 0
-19 -124 0
-19 -113 0
-19 -112 0
-19 -103 0
-19 -90 0
-19 -74 0
-19 -64 0
-19 -58 0
-19 -52 0
-19 -51 0
-19 -48 0
-19 -46 0
-19 -29 0
-19 -28 0
-18 -131 0
-18 -128 0
-18 -125 0
-18 -119 0
-18 -106 0
-18 -100 0
-18 -98 0
-18 -92 0
-18 -80 0
-18 -74 0
-18 -67 0
-18 -63 0
-18 -61 0
-18 -54 0
-18 -47 0
-18 -43 0
-18 -39 0
-18 -31 0
-18 -28 0
-17 -132 0
-17 -109 0
-17 -107 0
-17 -85 0
-17 -83 0
-17 -82 0
-17 -67 0
-17 -61 0
-17 -59 0
-17 -56 0
-17 -55 0
-17 -51 0
-17 -41 0
-17 -36 0
-17 -32 0
-17 -26 0
-17 -21 0
-16 -131 0
-16 -130 0
-16 -123 0
-16 -97 0
-16 -96 0
-16 -88 0
-16 -83 0
-16 -82 0
-16 -70 0
-16 -61 0
-16 -59 0
-16 -55 0
-16 -51 0
-16 -50 0
-16 -41 0
-16 -36 0
-16 -17 0
-15 -123 0
-15 -106 0
-15 -104 0
-15 -102 0
-15 -94 0
-15 -89 0
-15 -77 0
-15 -75 0
-15 -66 0
-15 -63 0
-15 -60 0
-15 -58 0
-15 -57 0
-15 -56 0
-15 -55 0
-15 -53 0
-15 -44 0
-15 -42 0
-15 -33 0
-15 -30 0
-14 -130 0
-14 -127 0
-14 -126 0
-14 -116 0
-14 -113 0
-14 -108 0
-14 -102 0
-14 -93 0
-14 -91 0
-14 -84 0
-14 -81 0
-14 -75 0
-14 -71 0
-14 -32 0
-14 -31 0
-14 -27 0
-14 -25 0
-13 -132 0
-13 -126 0
-13 -112 0
-13 -109 0
-13 -107 0
-13 -103 0
-13 -85 0
-13 -67 0
-13 -64 0
-13 -56 0
-13 -52 0
-13 -32 0
-13 -29 0
-13 -28 0
-13 -26 0
-13 -21 0
-13 -19 0
-13 -17 0
-12 -130 0
-12 -127 0
-12 -125 0
-12 -119 0
-12 -116 0
-12 -113 0
-12 -102 0
-12 -93 0
-12 -81 0
-12 -63 0
-12 -61 0
-12 -47 0
-12 -43 0
-12 -39 0
-12 -32 0
-12 -28 0
-12 -27 0
-12 -25 0
-12 -18 0
-12 -14 0
-11 -132 0
-11 -125 0
-11 -124 0
-11 -113 0
-11 -90 0
-11 -84 0
-11 -74 0
-11 -70 0
-11 -69 0
-11 -65 0
-11 -58 0
-11 -57 0
-11 -51 0
-11 -49 0
-11 -48 0
-11 -46 0
-11 -40 0
-11 -23 0
-11 -22 0
-11 -19 0
-10 -129 0
-10 -122 0
-10 -83 0
-10 -82 0
-10 -81 0
-10 -80 0
-10 -79 0
-10 -76 0
-10 -64 0
-10 -61 0
-10 -59 0
-10 -55 0
-10 -51 0
-10 -41 0
-10 -36 0
-10 -33 0
-10 -24 0
-10 -22 0
-10 -17 0
-10 -16 0
-9 -131 0
-9 -130 0
-9 -123 0
-9 -122 0
-9 -115 0
-9 -109 0
-9 -97 0
-9 -96 0
-9 -95 0
-9 -94 0
-9 -91 0
-9 -88 0
-9 -87 0
-9 -73 0
-9 -70 0
-9 -50 0
-9 -46 0
-9 -34 0
-9 -16 0
-8 -125 0
-8 -122 0
-8 -119 0
-8 -115 0
-8 -109 0
-8 -95 0
-8 -94 0
-8 -91 0
-8 -87 0
-8 -73 0
-8 -63 0
-8 -61 0
-8 -47 0
-8 -46 0
-8 -43 0
-8 -39 0
-8 -34 0
-8 -28 0
-8 -18 0
-8 -12 0
-8 -9 0
-7 -126 0
-7 -112 0
-7 -106 0
-7 -104 0
-7 -103 0
-7 -102 0
-7 -94 0
-7 -66 0
-7 -64 0
-7 -60 0
-7 -57 0
-7 -55 0
-7 -52 0
-7 -30 0
-7 -29 0
-7 -28 0
-7 -19 0
-7 -15 0
-7 -13 0
-6 -131 0
-6 -130 0
-6 -126 0
-6 -123 0
-6 -112 0
-6 -103 0
-6 -97 0
-6 -96 0
-6 -88 0
-6 -70 0
-6 -64 0
-6 -52 0
-6 -50 0
-6 -29 0
-6 -28 0
-6 -19 0
-6 -16 0
-6 -13 0
-6 -9 0
-6 -7 0
-5 -126 0
-5 -120 0
-5 -108 0
-5 -91 0
-5 -84 0
-5 -75 0
-5 -72 0
-5 -71 0
-5 -68 0
-5 -60 0
-5 -50 0
-5 -39 0
-5 -38 0
-5 -35 0
-5 -31 0
-5 -26 0
-5 -24 0
-5 -14 0
-4 -126 0
-4 -108 0
-4 -91 0
-4 -84 0
-4 -83 0
-4 -82 0
-4 -75 0
-4 -71 0
-4 -61 0
-4 -59 0
-4 -55 0
-4 -51 0
-4 -41 0
-4 -36 0
-4 -31 0
-4 -17 0
-4 -16 0
-4 -14 0
-4 -10 0
-4 -5 0
-3 -124 0
-3 -120 0
-3 -113 0
-3 -90 0
-3 -74 0
-3 -72 0
-3 -68 0
-3 -60 0
-3 -58 0
-3 -51 0
-3 -50 0
-3 -48 0
-3 -46 0
-3 -39 0
-3 -38 0
-3 -35 0
-3 -26 0
-3 -24 0
-3 -19 0
-3 -11 0
-3 -5 0
-2 -126 0
-2 -114 0
-2 -112 0
-2 -103 0
-2 -98 0
-2 -93 0
-2 -83 0
-2 -68 0
-2 -65 0
-2 -64 0
-2 -52 0
-2 -45 0
-2 -42 0
-2 -34 0
-2 -29 0
-2 -28 0
-2 -20 0
-2 -19 0
-2 -13 0
-2 -7 0
-2 -6 0
-1 -126 0
-1 -124 0
-1 -117 0
-1 -114 0
-1 -108 0
-1 -101 0
-1 -99 0
-1 -97 0
-1 -91 0
-1 -84 0
-1 -79 0
-1 -78 0
-1 -75 0
-1 -71 0
-1 -47 0
-1 -31 0
-1 -30 0
-1 -21 0
-1 -14 0
-1 -5 0
-1 -4 0
1 4 5 14 31 71 75 84 91 108 126 0
3 11 19 46 48 51 58 74 90 113 124 0
6 9 16 50 70 88 96 97 123 130 131 0
7 15 30 55 57 60 66 94 102 104 106 0
8 12 18 28 39 43 47 61 63 119 125 0
10 22 24 33 64 76 79 80 81 122 129 0
13 17 21 26 32 56 67 85 107 109 132 0
23 25 29 44 59 78 87 111 118 120 128 0
27 35 36 49 53 73 99 100 103 105 121 0
37 38 41 52 62 69 89 92 95 101 127 0
40 54 72 77 82 86 112 115 116 117 133 0
2 20 34 42 45 65 68 83 93 98 110 114 0
