p cnf 43 238
-41 -43 0
-41 -42 0
-40 -43 0
-40 -41 0
-39 -42 0
-38 -43 0
-38 -42 0
-38 -39 0
-37 -40 0
-36 -43 0
-36 -41 0
-36 -40 0
-35 -43 0
-35 -38 0
-34 -40 0
-34 -37 0
-33 -39 0
-33 -37 0
-31 -43 0
-31 -41 0
-31 -40 0
-31 -39 0
-31 -36 0
-31 -33 0
-30 -36 0
-30 -32 0
-29 -40 0
-29 -37 0
-29 -34 0
-29 -32 0
-29 -30 0
-28 -43 0
-28 -38 0
-28 -37 0
-28 -35 0
-28 -33 0
-27 -39 0
-27 -35 0
-27 -33 0
-27 -31 0
-26 -39 0
-26 -34 0
-26 -33 0
-26 -31 0
-26 -27 0
-25 -42 0
-25 -39 0
-25 -38 0
-25 -32 0
-24 -39 0
-24 -33 0
-24 -32 0
-24 -31 0
-24 -30 0
-24 -29 0
-24 -27 0
-24 -26 0
-23 -42 0
-23 -39 0
-23 -38 0
-23 -36 0
-23 -30 0
-23 -25 0
-22 -37 0
-22 -36 0
-22 -33 0
-22 -30 0
-22 -28 0
-22 -23 0
-21 -36 0
-21 -34 0
-21 -30 0
-21 -26 0
-21 -23 0
-21 -22 0
-19 -42 0
-19 -41 0
-19 -34 0
-19 -26 0
-19 -21 0
-18 -37 0
-18 -33 0
-18 -28 0
-18 -22 0
-17 -43 0
-17 -38 0
-17 -35 0
-17 -32 0
-17 -30 0
-17 -29 0
-17 -28 0
-17 -24 0
-16 -35 0
-16 -32 0
-16 -27 0
-16 -25 0
-15 -32 0
-15 -30 0
-15 -29 0
-15 -24 0
-15 -18 0
-15 -17 0
-14 -42 0
-14 -40 0
-14 -39 0
-14 -38 0
-14 -37 0
-14 -34 0
-14 -29 0
-14 -25 0
-14 -23 0
-13 -40 0
-13 -37 0
-13 -35 0
-13 -34 0
-13 -29 0
-13 -27 0
-13 -16 0
-13 -14 0
-12 -34 0
-12 -32 0
-12 -26 0
-12 -25 0
-12 -21 0
-12 -19 0
-12 -16 0
-11 -43 0
-11 -38 0
-11 -35 0
-11 -34 0
-11 -28 0
-11 -26 0
-11 -21 0
-11 -19 0
-11 -17 0
-11 -12 0
-10 -37 0
-10 -33 0
-10 -32 0
-10 -28 0
-10 -25 0
-10 -22 0
-10 -18 0
-10 -16 0
-10 -12 0
-9 -42 0
-9 -39 0
-9 -38 0
-9 -25 0
-9 -23 0
-9 -18 0
-9 -15 0
-9 -14 0
-8 -43 0
-8 -41 0
-8 -40 0
-8 -36 0
-8 -31 0
-8 -18 0
-8 -15 0
-8 -9 0
-7 -36 0
-7 -35 0
-7 -30 0
-7 -27 0
-7 -23 0
-7 -22 0
-7 -21 0
-7 -16 0
-7 -13 0
-6 -42 0
-6 -41 0
-6 -32 0
-6 -30 0
-6 -29 0
-6 -24 0
-6 -19 0
-6 -17 0
-6 -15 0
-5 -35 0
-5 -27 0
-5 -18 0
-5 -16 0
-5 -15 0
-5 -13 0
-5 -9 0
-5 -8 0
-5 -7 0
-4 -42 0
-4 -41 0
-4 -37 0
-4 -33 0
-4 -28 0
-4 -22 0
-4 -19 0
-4 -18 0
-4 -10 0
-4 -6 0
-3 -43 0
-3 -41 0
-3 -40 0
-3 -36 0
-3 -32 0
-3 -31 0
-3 -25 0
-3 -16 0
-3 -12 0
-3 -10 0
-3 -8 0
-2 -34 0
-2 -26 0
-2 -21 0
-2 -19 0
-2 -18 0
-2 -15 0
-2 -12 0
-2 -11 0
-2 -9 0
-2 -8 0
-2 -5 0
-1 -42 0
-1 -41 0
-1 -35 0
-1 -27 0
-1 -19 0
-1 -16 0
-1 -13 0
-1 -7 0
-1 -6 0
-1 -5 0
-1 -4 0
1 4 6 19 41 42 0
2 5 8 9 15 18 0
3 10 12 16 25 32 0
11 17 28 35 38 43 0
13 14 29 34 37 40 0
24 26 27 31 33 39 0
7 20 21 22 23 30 36 0
