p cnf 73 549
-70 -73 0
-69 -73 0
-69 -70 0
-68 -70 0
-66 -70 0
-66 -68 0
-66 -67 0
-65 -69 0
-63 -67 0
-63 -66 0
-62 -73 0
-62 -72 0
-62 -70 0
-62 -69 0
-61 -71 0
-61 -64 0
-60 -73 0
-60 -65 0
-59 -65 0
-59 -60 0
-58 -67 0
-58 -65 0
-58 -60 0
-58 -59 0
-57 -68 0
-57 -64 0
-56 -69 0
-56 -65 0
-54 -72 0
-54 -68 0
-54 -62 0
-54 -57 0
-53 -72 0
-53 -62 0
-53 -56 0
-53 -54 0
-52 -73 0
-52 -64 0
-52 -61 0
-52 -60 0
-51 -73 0
-51 -68 0
-51 -60 0
-51 -57 0
-51 -54 0
-51 -52 0
-50 -71 0
-50 -63 0
-49 -71 0
-49 -65 0
-49 -61 0
-49 -60 0
-49 -59 0
-49 -58 0
-48 -72 0
-48 -67 0
-48 -58 0
-47 -72 0
-47 -63 0
-47 -50 0
-47 -48 0
-46 -72 0
-46 -64 0
-46 -62 0
-46 -61 0
-46 -54 0
-46 -53 0
-46 -52 0
-45 -64 0
-45 -57 0
-45 -56 0
-45 -53 0
-44 -73 0
-44 -70 0
-44 -69 0
-44 -67 0
-44 -62 0
-44 -58 0
-44 -48 0
-43 -71 0
-43 -69 0
-43 -65 0
-43 -56 0
-43 -50 0
-42 -68 0
-42 -63 0
-42 -57 0
-42 -54 0
-42 -51 0
-42 -50 0
-42 -47 0
-41 -71 0
-41 -70 0
-41 -68 0
-41 -66 0
-41 -50 0
-41 -43 0
-40 -70 0
-40 -68 0
-40 -66 0
-40 -56 0
-40 -53 0
-40 -45 0
-40 -41 0
-39 -73 0
-39 -70 0
-39 -69 0
-39 -63 0
-39 -62 0
-39 -50 0
-39 -47 0
-39 -44 0
-39 -42 0
-38 -73 0
-38 -71 0
-38 -70 0
-38 -69 0
-38 -62 0
-38 -61 0
-38 -49 0
-38 -44 0
-38 -39 0
-37 -73 0
-37 -70 0
-37 -69 0
-37 -64 0
-37 -62 0
-37 -57 0
-37 -45 0
-37 -44 0
-37 -39 0
-37 -38 0
-36 -69 0
-36 -65 0
-36 -64 0
-36 -61 0
-36 -56 0
-36 -52 0
-36 -46 0
-36 -43 0
-35 -72 0
-35 -71 0
-35 -62 0
-35 -54 0
-35 -53 0
-35 -50 0
-35 -46 0
-35 -43 0
-35 -41 0
-34 -63 0
-34 -56 0
-34 -53 0
-34 -50 0
-34 -47 0
-34 -45 0
-34 -42 0
-34 -40 0
-34 -39 0
-33 -73 0
-33 -71 0
-33 -60 0
-33 -52 0
-33 -51 0
-33 -50 0
-33 -43 0
-33 -41 0
-33 -35 0
-32 -71 0
-32 -68 0
-32 -61 0
-32 -57 0
-32 -54 0
-32 -51 0
-32 -49 0
-32 -42 0
-32 -38 0
-31 -73 0
-31 -70 0
-31 -69 0
-31 -62 0
-31 -59 0
-31 -44 0
-31 -39 0
-31 -38 0
-31 -37 0
-30 -67 0
-30 -66 0
-30 -64 0
-30 -63 0
-30 -57 0
-30 -45 0
-30 -37 0
-29 -71 0
-29 -64 0
-29 -57 0
-29 -50 0
-29 -45 0
-29 -43 0
-29 -41 0
-29 -37 0
-29 -35 0
-29 -33 0
-29 -30 0
-28 -71 0
-28 -67 0
-28 -58 0
-28 -50 0
-28 -48 0
-28 -44 0
-28 -43 0
-28 -41 0
-28 -35 0
-28 -33 0
-28 -29 0
-27 -69 0
-27 -67 0
-27 -66 0
-27 -65 0
-27 -63 0
-27 -56 0
-27 -43 0
-27 -36 0
-27 -30 0
-26 -72 0
-26 -59 0
-26 -48 0
-26 -47 0
-26 -31 0
-25 -67 0
-25 -58 0
-25 -56 0
-25 -53 0
-25 -48 0
-25 -45 0
-25 -44 0
-25 -40 0
-25 -34 0
-25 -28 0
-24 -72 0
-24 -64 0
-24 -57 0
-24 -48 0
-24 -47 0
-24 -45 0
-24 -37 0
-24 -30 0
-24 -29 0
-24 -26 0
-23 -68 0
-23 -59 0
-23 -57 0
-23 -54 0
-23 -51 0
-23 -42 0
-23 -32 0
-23 -31 0
-23 -26 0
-22 -72 0
-22 -65 0
-22 -62 0
-22 -60 0
-22 -59 0
-22 -58 0
-22 -54 0
-22 -53 0
-22 -49 0
-22 -46 0
-22 -35 0
-21 -72 0
-21 -67 0
-21 -66 0
-21 -63 0
-21 -62 0
-21 -54 0
-21 -53 0
-21 -46 0
-21 -35 0
-21 -30 0
-21 -27 0
-21 -22 0
-20 -71 0
-20 -61 0
-20 -56 0
-20 -53 0
-20 -49 0
-20 -45 0
-20 -40 0
-20 -38 0
-20 -34 0
-20 -32 0
-20 -25 0
-19 -59 0
-19 -56 0
-19 -53 0
-19 -45 0
-19 -40 0
-19 -34 0
-19 -31 0
-19 -26 0
-19 -25 0
-19 -23 0
-19 -20 0
-18 -64 0
-18 -63 0
-18 -61 0
-18 -52 0
-18 -50 0
-18 -47 0
-18 -46 0
-18 -42 0
-18 -39 0
-18 -36 0
-18 -34 0
-17 -67 0
-17 -64 0
-17 -61 0
-17 -58 0
-17 -52 0
-17 -48 0
-17 -46 0
-17 -44 0
-17 -36 0
-17 -28 0
-17 -25 0
-17 -18 0
-16 -68 0
-16 -67 0
-16 -58 0
-16 -57 0
-16 -54 0
-16 -51 0
-16 -48 0
-16 -44 0
-16 -42 0
-16 -32 0
-16 -28 0
-16 -25 0
-16 -23 0
-16 -17 0
-15 -73 0
-15 -72 0
-15 -60 0
-15 -52 0
-15 -51 0
-15 -48 0
-15 -47 0
-15 -33 0
-15 -26 0
-15 -24 0
-14 -72 0
-14 -71 0
-14 -61 0
-14 -49 0
-14 -48 0
-14 -47 0
-14 -38 0
-14 -32 0
-14 -26 0
-14 -24 0
-14 -20 0
-14 -15 0
-13 -70 0
-13 -68 0
-13 -66 0
-13 -64 0
-13 -61 0
-13 -52 0
-13 -46 0
-13 -41 0
-13 -40 0
-13 -36 0
-13 -18 0
-13 -17 0
-12 -69 0
-12 -68 0
-12 -65 0
-12 -57 0
-12 -56 0
-12 -54 0
-12 -51 0
-12 -43 0
-12 -42 0
-12 -36 0
-12 -32 0
-12 -27 0
-12 -23 0
-12 -16 0
-11 -72 0
-11 -69 0
-11 -65 0
-11 -56 0
-11 -48 0
-11 -47 0
-11 -43 0
-11 -36 0
-11 -27 0
-11 -26 0
-11 -24 0
-11 -15 0
-11 -14 0
-11 -12 0
-10 -65 0
-10 -64 0
-10 -60 0
-10 -59 0
-10 -58 0
-10 -57 0
-10 -49 0
-10 -45 0
-10 -37 0
-10 -30 0
-10 -29 0
-10 -24 0
-10 -22 0
-9 -71 0
-9 -67 0
-9 -66 0
-9 -63 0
-9 -61 0
-9 -49 0
-9 -38 0
-9 -32 0
-9 -30 0
-9 -27 0
-9 -21 0
-9 -20 0
-9 -14 0
-8 -73 0
-8 -67 0
-8 -66 0
-8 -63 0
-8 -60 0
-8 -52 0
-8 -51 0
-8 -33 0
-8 -30 0
-8 -27 0
-8 -21 0
-8 -15 0
-8 -9 0
-7 -73 0
-7 -60 0
-7 -56 0
-7 -53 0
-7 -52 0
-7 -51 0
-7 -45 0
-7 -40 0
-7 -34 0
-7 -33 0
-7 -25 0
-7 -20 0
-7 -19 0
-7 -15 0
-7 -8 0
-6 -67 0
-6 -66 0
-6 -63 0
-6 -59 0
-6 -31 0
-6 -30 0
-6 -27 0
-6 -26 0
-6 -23 0
-6 -21 0
-6 -19 0
-6 -9 0
-6 -8 0
-5 -65 0
-5 -63 0
-5 -60 0
-5 -59 0
-5 -58 0
-5 -50 0
-5 -49 0
-5 -47 0
-5 -42 0
-5 -39 0
-5 -34 0
-5 -22 0
-5 -18 0
-5 -10 0
-4 -71 0
-4 -59 0
-4 -50 0
-4 -43 0
-4 -41 0
-4 -35 0
-4 -33 0
-4 -31 0
-4 -29 0
-4 -28 0
-4 -26 0
-4 -23 0
-4 -19 0
-4 -6 0
-3 -72 0
-3 -70 0
-3 -68 0
-3 -66 0
-3 -48 0
-3 -47 0
-3 -41 0
-3 -40 0
-3 -26 0
-3 -24 0
-3 -15 0
-3 -14 0
-3 -13 0
-3 -11 0
-2 -64 0
-2 -61 0
-2 -59 0
-2 -52 0
-2 -46 0
-2 -36 0
-2 -31 0
-2 -26 0
-2 -23 0
-2 -19 0
-2 -18 0
-2 -17 0
-2 -13 0
-2 -6 0
-2 -4 0
-1 -70 0
-1 -68 0
-1 -66 0
-1 -65 0
-1 -60 0
-1 -59 0
-1 -58 0
-1 -49 0
-1 -41 0
-1 -40 0
-1 -22 0
-1 -13 0
-1 -10 0
-1 -5 0
-1 -3 0
1 3 13 40 41 66 68 70 0
2 4 6 19 23 26 31 59 0
5 18 34 39 42 47 50 63 0
7 8 15 33 51 52 60 73 0
9 14 20 32 38 49 61 71 0
10 24 29 30 37 45 57 64 0
16 17 25 28 44 48 58 67 0
21 22 35 46 53 54 62 72 0
11 12 27 36 43 55 56 65 69 0
