p cnf 57 372
-53 -56 0
-52 -56 0
-51 -55 0
-51 -54 0
-49 -56 0
-49 -53 0
-48 -57 0
-48 -56 0
-48 -52 0
-47 -54 0
-47 -50 0
-46 -50 0
-45 -57 0
-45 -54 0
-45 -47 0
-44 -55 0
-44 -50 0
-44 -46 0
-43 -56 0
-43 -52 0
-43 -48 0
-42 -52 0
-42 -46 0
-41 -52 0
-41 -50 0
-41 -47 0
-41 -42 0
-40 -46 0
-40 -43 0
-40 -42 0
-39 -54 0
-39 -52 0
-39 -51 0
-39 -42 0
-39 -41 0
-38 -50 0
-38 -47 0
-38 -43 0
-38 -41 0
-38 -40 0
-37 -57 0
-37 -55 0
-37 -48 0
-37 -44 0
-36 -57 0
-36 -50 0
-36 -46 0
-36 -45 0
-36 -44 0
-35 -54 0
-35 -53 0
-35 -47 0
-35 -45 0
-34 -57 0
-34 -50 0
-34 -48 0
-34 -47 0
-34 -41 0
-34 -38 0
-34 -37 0
-33 -57 0
-33 -55 0
-33 -51 0
-33 -45 0
-33 -36 0
-32 -56 0
-32 -53 0
-32 -50 0
-32 -49 0
-32 -47 0
-32 -41 0
-32 -38 0
-32 -34 0
-31 -57 0
-31 -54 0
-31 -51 0
-31 -48 0
-31 -39 0
-31 -37 0
-31 -34 0
-30 -56 0
-30 -52 0
-30 -50 0
-30 -48 0
-30 -46 0
-30 -44 0
-30 -43 0
-30 -36 0
-29 -54 0
-29 -51 0
-29 -43 0
-29 -40 0
-29 -39 0
-29 -38 0
-29 -31 0
-28 -55 0
-28 -51 0
-28 -49 0
-28 -33 0
-27 -55 0
-27 -51 0
-27 -46 0
-27 -42 0
-27 -40 0
-27 -33 0
-27 -28 0
-26 -55 0
-26 -53 0
-26 -51 0
-26 -35 0
-26 -33 0
-26 -28 0
-26 -27 0
-25 -54 0
-25 -47 0
-25 -46 0
-25 -45 0
-25 -42 0
-25 -40 0
-25 -35 0
-25 -27 0
-24 -56 0
-24 -53 0
-24 -49 0
-24 -46 0
-24 -42 0
-24 -40 0
-24 -32 0
-24 -27 0
-24 -25 0
-23 -54 0
-23 -49 0
-23 -47 0
-23 -45 0
-23 -35 0
-23 -28 0
-23 -25 0
-22 -53 0
-22 -52 0
-22 -42 0
-22 -41 0
-22 -39 0
-22 -35 0
-22 -26 0
-21 -56 0
-21 -55 0
-21 -52 0
-21 -51 0
-21 -48 0
-21 -43 0
-21 -33 0
-21 -30 0
-21 -28 0
-21 -27 0
-21 -26 0
-20 -57 0
-20 -53 0
-20 -48 0
-20 -37 0
-20 -35 0
-20 -34 0
-20 -31 0
-20 -26 0
-20 -22 0
-19 -55 0
-19 -44 0
-19 -43 0
-19 -40 0
-19 -38 0
-19 -37 0
-19 -29 0
-18 -57 0
-18 -45 0
-18 -43 0
-18 -40 0
-18 -38 0
-18 -36 0
-18 -33 0
-18 -29 0
-18 -19 0
-17 -55 0
-17 -51 0
-17 -50 0
-17 -47 0
-17 -41 0
-17 -38 0
-17 -34 0
-17 -33 0
-17 -32 0
-17 -28 0
-17 -27 0
-17 -26 0
-17 -21 0
-16 -50 0
-16 -49 0
-16 -46 0
-16 -44 0
-16 -36 0
-16 -30 0
-16 -28 0
-16 -23 0
-15 -55 0
-15 -54 0
-15 -47 0
-15 -45 0
-15 -44 0
-15 -37 0
-15 -35 0
-15 -25 0
-15 -23 0
-15 -19 0
-14 -55 0
-14 -52 0
-14 -44 0
-14 -42 0
-14 -41 0
-14 -39 0
-14 -37 0
-14 -22 0
-14 -19 0
-14 -15 0
-13 -57 0
-13 -56 0
-13 -53 0
-13 -49 0
-13 -45 0
-13 -36 0
-13 -33 0
-13 -32 0
-13 -24 0
-13 -18 0
-12 -57 0
-12 -52 0
-12 -45 0
-12 -42 0
-12 -41 0
-12 -39 0
-12 -36 0
-12 -33 0
-12 -22 0
-12 -18 0
-12 -14 0
-12 -13 0
-11 -53 0
-11 -50 0
-11 -46 0
-11 -44 0
-11 -36 0
-11 -35 0
-11 -30 0
-11 -26 0
-11 -22 0
-11 -20 0
-11 -16 0
-10 -49 0
-10 -43 0
-10 -40 0
-10 -38 0
-10 -29 0
-10 -28 0
-10 -23 0
-10 -19 0
-10 -18 0
-10 -16 0
-9 -56 0
-9 -55 0
-9 -53 0
-9 -49 0
-9 -44 0
-9 -37 0
-9 -32 0
-9 -24 0
-9 -19 0
-9 -15 0
-9 -14 0
-9 -13 0
-8 -52 0
-8 -49 0
-8 -42 0
-8 -41 0
-8 -39 0
-8 -28 0
-8 -23 0
-8 -22 0
-8 -16 0
-8 -14 0
-8 -12 0
-8 -10 0
-7 -56 0
-7 -54 0
-7 -52 0
-7 -48 0
-7 -47 0
-7 -45 0
-7 -43 0
-7 -35 0
-7 -30 0
-7 -25 0
-7 -23 0
-7 -21 0
-7 -15 0
-6 -57 0
-6 -49 0
-6 -48 0
-6 -37 0
-6 -34 0
-6 -31 0
-6 -28 0
-6 -23 0
-6 -20 0
-6 -16 0
-6 -10 0
-6 -8 0
-5 -53 0
-5 -43 0
-5 -40 0
-5 -38 0
-5 -35 0
-5 -29 0
-5 -26 0
-5 -22 0
-5 -20 0
-5 -19 0
-5 -18 0
-5 -11 0
-5 -10 0
-4 -57 0
-4 -48 0
-4 -46 0
-4 -42 0
-4 -40 0
-4 -37 0
-4 -34 0
-4 -31 0
-4 -27 0
-4 -25 0
-4 -24 0
-4 -20 0
-4 -6 0
-3 -54 0
-3 -51 0
-3 -50 0
-3 -46 0
-3 -44 0
-3 -39 0
-3 -36 0
-3 -31 0
-3 -30 0
-3 -29 0
-3 -16 0
-3 -11 0
-1 -56 0
-1 -54 0
-1 -53 0
-1 -51 0
-1 -49 0
-1 -39 0
-1 -32 0
-1 -31 0
-1 -29 0
-1 -24 0
-1 -13 0
-1 -9 0
-1 -3 0
1 3 29 31 39 51 54 0
4 24 25 27 40 42 46 0
5 11 20 22 26 35 53 0
7 21 30 43 48 52 56 0
9 14 15 19 37 44 55 0
12 13 18 33 36 45 57 0
17 32 34 38 41 47 50 0
2 6 8 10 16 23 28 49 0
