p cnf 73 549
-70 -73 0
-70 -72 0
-69 -73 0
-69 -72 0
-68 -73 0
-68 -69 0
-67 -73 0
-67 -71 0
-67 -70 0
-66 -72 0
-66 -70 0
-66 -68 0
-65 -71 0
-64 -71 0
-64 -65 0
-62 -72 0
-62 -71 0
-62 -70 0
-62 -66 0
-62 -65 0
-62 -64 0
-61 -71 0
-61 -65 0
-61 -64 0
-61 -62 0
-60 -61 0
-59 -65 0
-59 -63 0
-58 -63 0
-58 -61 0
-58 -60 0
-58 -59 0
-57 -63 0
-57 -60 0
-56 -73 0
-56 -70 0
-56 -67 0
-56 -63 0
-56 -57 0
-55 -73 0
-55 -70 0
-55 -67 0
-55 -56 0
-54 -72 0
-54 -70 0
-54 -66 0
-54 -62 0
-54 -60 0
-54 -57 0
-53 -65 0
-53 -59 0
-52 -68 0
-52 -66 0
-52 -64 0
-51 -55 0
-51 -53 0
-50 -71 0
-50 -65 0
-50 -64 0
-50 -62 0
-50 -61 0
-49 -71 0
-49 -68 0
-49 -67 0
-49 -66 0
-49 -52 0
-48 -61 0
-48 -60 0
-48 -58 0
-48 -53 0
-48 -51 0
-47 -71 0
-47 -67 0
-47 -49 0
-46 -72 0
-46 -69 0
-46 -65 0
-46 -59 0
-46 -53 0
-45 -63 0
-45 -57 0
-45 -56 0
-45 -47 0
-44 -72 0
-44 -69 0
-44 -55 0
-44 -51 0
-44 -46 0
-43 -68 0
-43 -66 0
-43 -63 0
-43 -57 0
-43 -56 0
-43 -52 0
-43 -49 0
-43 -45 0
-42 -72 0
-42 -70 0
-42 -66 0
-42 -62 0
-42 -54 0
-42 -53 0
-42 -51 0
-42 -48 0
-41 -71 0
-41 -67 0
-41 -60 0
-41 -57 0
-41 -54 0
-41 -49 0
-41 -47 0
-40 -64 0
-40 -63 0
-40 -59 0
-40 -58 0
-40 -52 0
-39 -73 0
-39 -69 0
-39 -68 0
-39 -60 0
-39 -57 0
-39 -54 0
-39 -41 0
-38 -63 0
-38 -59 0
-38 -58 0
-38 -50 0
-38 -40 0
-37 -68 0
-37 -66 0
-37 -55 0
-37 -52 0
-37 -51 0
-37 -49 0
-37 -44 0
-37 -43 0
-36 -72 0
-36 -69 0
-36 -61 0
-36 -60 0
-36 -58 0
-36 -48 0
-36 -46 0
-36 -44 0
-35 -50 0
-35 -47 0
-35 -45 0
-35 -38 0
-34 -73 0
-34 -70 0
-34 -67 0
-34 -56 0
-34 -55 0
-34 -50 0
-34 -38 0
-34 -35 0
-33 -64 0
-33 -60 0
-33 -57 0
-33 -54 0
-33 -52 0
-33 -41 0
-33 -40 0
-33 -39 0
-32 -71 0
-32 -67 0
-32 -63 0
-32 -59 0
-32 -58 0
-32 -49 0
-32 -47 0
-32 -41 0
-32 -40 0
-32 -38 0
-31 -71 0
-31 -65 0
-31 -64 0
-31 -62 0
-31 -61 0
-31 -55 0
-31 -51 0
-31 -50 0
-31 -44 0
-31 -37 0
-30 -61 0
-30 -60 0
-30 -58 0
-30 -48 0
-30 -47 0
-30 -45 0
-30 -36 0
-30 -35 0
-29 -72 0
-29 -69 0
-29 -63 0
-29 -57 0
-29 -56 0
-29 -46 0
-29 -45 0
-29 -44 0
-29 -43 0
-29 -36 0
-28 -60 0
-28 -57 0
-28 -55 0
-28 -54 0
-28 -51 0
-28 -44 0
-28 -41 0
-28 -39 0
-28 -37 0
-28 -33 0
-28 -31 0
-27 -72 0
-27 -69 0
-27 -50 0
-27 -46 0
-27 -44 0
-27 -38 0
-27 -36 0
-27 -35 0
-27 -34 0
-27 -29 0
-26 -64 0
-26 -53 0
-26 -52 0
-26 -51 0
-26 -48 0
-26 -42 0
-26 -40 0
-26 -33 0
-25 -65 0
-25 -60 0
-25 -59 0
-25 -57 0
-25 -54 0
-25 -53 0
-25 -46 0
-25 -41 0
-25 -39 0
-25 -33 0
-25 -28 0
-24 -53 0
-24 -51 0
-24 -50 0
-24 -48 0
-24 -42 0
-24 -38 0
-24 -35 0
-24 -34 0
-24 -27 0
-24 -26 0
-23 -73 0
-23 -71 0
-23 -69 0
-23 -68 0
-23 -65 0
-23 -64 0
-23 -62 0
-23 -61 0
-23 -50 0
-23 -39 0
-23 -31 0
-22 -73 0
-22 -70 0
-22 -67 0
-22 -65 0
-22 -59 0
-22 -56 0
-22 -55 0
-22 -53 0
-22 -46 0
-22 -34 0
-22 -25 0
-21 -55 0
-21 -51 0
-21 -47 0
-21 -45 0
-21 -44 0
-21 -37 0
-21 -35 0
-21 -31 0
-21 -30 0
-21 -28 0
-20 -71 0
-20 -65 0
-20 -64 0
-20 -63 0
-20 -62 0
-20 -61 0
-20 -57 0
-20 -56 0
-20 -50 0
-20 -45 0
-20 -43 0
-20 -31 0
-20 -29 0
-20 -23 0
-19 -63 0
-19 -59 0
-19 -58 0
-19 -55 0
-19 -51 0
-19 -44 0
-19 -40 0
-19 -38 0
-19 -37 0
-19 -32 0
-19 -31 0
-19 -28 0
-19 -21 0
-17 -63 0
-17 -57 0
-17 -56 0
-17 -53 0
-17 -51 0
-17 -48 0
-17 -45 0
-17 -43 0
-17 -42 0
-17 -29 0
-17 -26 0
-17 -24 0
-17 -20 0
-16 -73 0
-16 -70 0
-16 -67 0
-16 -61 0
-16 -60 0
-16 -58 0
-16 -56 0
-16 -55 0
-16 -48 0
-16 -36 0
-16 -34 0
-16 -30 0
-16 -22 0
-15 -68 0
-15 -66 0
-15 -65 0
-15 -59 0
-15 -53 0
-15 -52 0
-15 -49 0
-15 -46 0
-15 -43 0
-15 -37 0
-15 -25 0
-15 -22 0
-14 -60 0
-14 -57 0
-14 -54 0
-14 -50 0
-14 -41 0
-14 -39 0
-14 -38 0
-14 -35 0
-14 -34 0
-14 -33 0
-14 -28 0
-14 -27 0
-14 -25 0
-14 -24 0
-13 -73 0
-13 -70 0
-13 -67 0
-13 -64 0
-13 -56 0
-13 -55 0
-13 -52 0
-13 -40 0
-13 -34 0
-13 -33 0
-13 -26 0
-13 -22 0
-13 -16 0
-12 -71 0
-12 -67 0
-12 -53 0
-12 -51 0
-12 -49 0
-12 -48 0
-12 -47 0
-12 -42 0
-12 -41 0
-12 -32 0
-12 -26 0
-12 -24 0
-12 -17 0
-11 -72 0
-11 -69 0
-11 -64 0
-11 -52 0
-11 -46 0
-11 -44 0
-11 -40 0
-11 -36 0
-11 -33 0
-11 -29 0
-11 -27 0
-11 -26 0
-11 -13 0
-10 -68 0
-10 -66 0
-10 -61 0
-10 -60 0
-10 -58 0
-10 -52 0
-10 -49 0
-10 -48 0
-10 -43 0
-10 -37 0
-10 -36 0
-10 -30 0
-10 -16 0
-10 -15 0
-9 -64 0
-9 -52 0
-9 -47 0
-9 -45 0
-9 -40 0
-9 -35 0
-9 -33 0
-9 -30 0
-9 -26 0
-9 -21 0
-9 -13 0
-9 -11 0
-8 -72 0
-8 -70 0
-8 -66 0
-8 -62 0
-8 -54 0
-8 -47 0
-8 -45 0
-8 -42 0
-8 -35 0
-8 -30 0
-8 -21 0
-8 -9 0
-7 -73 0
-7 -69 0
-7 -68 0
-7 -63 0
-7 -59 0
-7 -58 0
-7 -40 0
-7 -39 0
-7 -38 0
-7 -32 0
-7 -23 0
-7 -19 0
-6 -73 0
-6 -69 0
-6 -68 0
-6 -53 0
-6 -51 0
-6 -48 0
-6 -42 0
-6 -39 0
-6 -26 0
-6 -24 0
-6 -23 0
-6 -17 0
-6 -12 0
-6 -7 0
-5 -72 0
-5 -70 0
-5 -66 0
-5 -63 0
-5 -62 0
-5 -59 0
-5 -58 0
-5 -54 0
-5 -42 0
-5 -40 0
-5 -38 0
-5 -32 0
-5 -19 0
-5 -8 0
-5 -7 0
-4 -65 0
-4 -59 0
-4 -53 0
-4 -47 0
-4 -46 0
-4 -45 0
-4 -35 0
-4 -30 0
-4 -25 0
-4 -22 0
-4 -21 0
-4 -15 0
-4 -9 0
-4 -8 0
-3 -73 0
-3 -69 0
-3 -68 0
-3 -47 0
-3 -45 0
-3 -39 0
-3 -35 0
-3 -30 0
-3 -23 0
-3 -21 0
-3 -9 0
-3 -8 0
-3 -7 0
-3 -6 0
-3 -4 0
-2 -68 0
-2 -66 0
-2 -52 0
-2 -50 0
-2 -49 0
-2 -43 0
-2 -38 0
-2 -37 0
-2 -35 0
-2 -34 0
-2 -27 0
-2 -24 0
-2 -15 0
-2 -14 0
-2 -10 0
-1 -72 0
-1 -71 0
-1 -69 0
-1 -67 0
-1 -49 0
-1 -47 0
-1 -46 0
-1 -44 0
-1 -41 0
-1 -36 0
-1 -32 0
-1 -29 0
-1 -27 0
-1 -12 0
-1 -11 0
1 12 32 41 47 49 67 71 0
2 14 24 27 34 35 38 50 0
3 6 7 23 39 68 69 73 0
4 15 22 25 46 53 59 65 0
5 8 42 54 62 66 70 72 0
9 11 13 26 33 40 52 64 0
17 20 29 43 45 56 57 63 0
19 21 28 31 37 44 51 55 0
10 16 18 30 36 48 58 60 61 0
