p cnf 133 1398
-132 -133 0
-130 -133 0
-129 -132 0
-128 -129 0
-127 -133 0
-127 -130 0
-126 -128 0
-126 -127 0
-124 -132 0
-124 -129 0
-122 -125 0
-120 -127 0
-120 -126 0
-119 -123 0
-118 -122 0
-117 -131 0
-117 -123 0
-117 -119 0
-116 -119 0
-115 -124 0
-115 -120 0
-114 -122 0
-114 -118 0
-113 -131 0
-113 -123 0
-112 -130 0
-112 -123 0
-112 -119 0
-112 -117 0
-111 -122 0
-111 -118 0
-111 -114 0
-110 -133 0
-110 -130 0
-110 -127 0
-110 -124 0
-110 -115 0
-109 -128 0
-109 -126 0
-109 -121 0
-108 -133 0
-108 -132 0
-108 -116 0
-107 -124 0
-107 -115 0
-107 -111 0
-107 -110 0
-106 -122 0
-106 -120 0
-106 -118 0
-106 -115 0
-106 -114 0
-106 -111 0
-105 -131 0
-105 -118 0
-105 -117 0
-104 -131 0
-104 -127 0
-104 -126 0
-104 -120 0
-104 -113 0
-103 -122 0
-103 -118 0
-103 -116 0
-103 -114 0
-103 -111 0
-103 -108 0
-103 -106 0
-102 -132 0
-102 -129 0
-102 -124 0
-102 -122 0
-102 -118 0
-102 -114 0
-102 -111 0
-102 -106 0
-102 -103 0
-101 -131 0
-101 -128 0
-101 -126 0
-101 -117 0
-101 -109 0
-101 -105 0
-100 -127 0
-100 -126 0
-100 -120 0
-100 -116 0
-100 -108 0
-100 -104 0
-100 -103 0
-99 -131 0
-99 -130 0
-99 -113 0
-99 -112 0
-99 -104 0
-98 -124 0
-98 -116 0
-98 -115 0
-98 -110 0
-98 -108 0
-98 -107 0
-98 -103 0
-98 -100 0
-97 -133 0
-97 -132 0
-97 -121 0
-97 -108 0
-96 -131 0
-96 -119 0
-96 -116 0
-96 -113 0
-96 -104 0
-96 -99 0
-95 -121 0
-95 -114 0
-95 -109 0
-94 -131 0
-94 -117 0
-94 -114 0
-94 -105 0
-94 -101 0
-94 -95 0
-93 -129 0
-93 -128 0
-93 -114 0
-93 -95 0
-93 -94 0
-92 -121 0
-92 -116 0
-92 -109 0
-92 -108 0
-92 -103 0
-92 -100 0
-92 -98 0
-92 -95 0
-91 -130 0
-91 -118 0
-91 -112 0
-91 -105 0
-91 -99 0
-90 -133 0
-90 -132 0
-90 -125 0
-90 -122 0
-90 -108 0
-90 -97 0
-89 -130 0
-89 -116 0
-89 -112 0
-89 -108 0
-89 -103 0
-89 -100 0
-89 -99 0
-89 -98 0
-89 -92 0
-89 -91 0
-88 -119 0
-88 -116 0
-88 -114 0
-88 -96 0
-88 -95 0
-88 -94 0
-88 -93 0
-87 -132 0
-87 -129 0
-87 -124 0
-87 -121 0
-87 -109 0
-87 -102 0
-87 -95 0
-87 -92 0
-86 -129 0
-86 -128 0
-86 -116 0
-86 -108 0
-86 -103 0
-86 -100 0
-86 -98 0
-86 -93 0
-86 -92 0
-86 -89 0
-85 -131 0
-85 -122 0
-85 -118 0
-85 -114 0
-85 -113 0
-85 -111 0
-85 -106 0
-85 -104 0
-85 -103 0
-85 -102 0
-85 -99 0
-85 -96 0
-84 -133 0
-84 -132 0
-84 -111 0
-84 -108 0
-84 -107 0
-84 -97 0
-84 -90 0
-83 -130 0
-83 -128 0
-83 -126 0
-83 -112 0
-83 -109 0
-83 -101 0
-83 -99 0
-83 -91 0
-83 -89 0
-82 -127 0
-82 -126 0
-82 -121 0
-82 -120 0
-82 -104 0
-82 -100 0
-82 -97 0
-81 -133 0
-81 -132 0
-81 -114 0
-81 -108 0
-81 -97 0
-81 -95 0
-81 -94 0
-81 -93 0
-81 -90 0
-81 -88 0
-81 -84 0
-80 -125 0
-80 -123 0
-80 -122 0
-80 -113 0
-80 -90 0
-79 -124 0
-79 -121 0
-79 -115 0
-79 -110 0
-79 -107 0
-79 -98 0
-79 -97 0
-79 -82 0
-78 -125 0
-78 -118 0
-78 -105 0
-78 -91 0
-77 -133 0
-77 -130 0
-77 -127 0
-77 -125 0
-77 -110 0
-77 -78 0
-76 -133 0
-76 -130 0
-76 -127 0
-76 -123 0
-76 -113 0
-76 -110 0
-76 -80 0
-76 -77 0
-75 -125 0
-75 -114 0
-75 -95 0
-75 -94 0
-75 -93 0
-75 -88 0
-75 -81 0
-75 -78 0
-75 -77 0
-74 -123 0
-74 -120 0
-74 -115 0
-74 -113 0
-74 -106 0
-74 -80 0
-74 -76 0
-73 -129 0
-73 -128 0
-73 -123 0
-73 -119 0
-73 -117 0
-73 -112 0
-73 -93 0
-73 -86 0
-72 -129 0
-72 -128 0
-72 -125 0
-72 -122 0
-72 -93 0
-72 -90 0
-72 -86 0
-72 -80 0
-72 -73 0
-71 -133 0
-71 -130 0
-71 -129 0
-71 -128 0
-71 -127 0
-71 -110 0
-71 -93 0
-71 -86 0
-71 -77 0
-71 -76 0
-71 -73 0
-71 -72 0
-70 -133 0
-70 -130 0
-70 -127 0
-70 -122 0
-70 -118 0
-70 -114 0
-70 -111 0
-70 -110 0
-70 -106 0
-70 -103 0
-70 -102 0
-70 -85 0
-70 -77 0
-70 -76 0
-70 -71 0
-69 -123 0
-69 -114 0
-69 -113 0
-69 -95 0
-69 -94 0
-69 -93 0
-69 -88 0
-69 -81 0
-69 -80 0
-69 -76 0
-69 -75 0
-69 -74 0
-68 -132 0
-68 -129 0
-68 -127 0
-68 -126 0
-68 -124 0
-68 -120 0
-68 -104 0
-68 -102 0
-68 -100 0
-68 -87 0
-68 -82 0
-67 -131 0
-67 -125 0
-67 -113 0
-67 -104 0
-67 -99 0
-67 -96 0
-67 -85 0
-67 -78 0
-67 -77 0
-67 -75 0
-66 -131 0
-66 -121 0
-66 -117 0
-66 -105 0
-66 -101 0
-66 -97 0
-66 -94 0
-66 -82 0
-66 -79 0
-65 -133 0
-65 -130 0
-65 -127 0
-65 -119 0
-65 -116 0
-65 -110 0
-65 -96 0
-65 -88 0
-65 -77 0
-65 -76 0
-65 -71 0
-65 -70 0
-64 -133 0
-64 -132 0
-64 -120 0
-64 -115 0
-64 -108 0
-64 -106 0
-64 -97 0
-64 -90 0
-64 -84 0
-64 -81 0
-64 -74 0
-63 -125 0
-63 -120 0
-63 -115 0
-63 -106 0
-63 -78 0
-63 -77 0
-63 -75 0
-63 -74 0
-63 -67 0
-63 -64 0
-62 -123 0
-62 -121 0
-62 -119 0
-62 -117 0
-62 -112 0
-62 -109 0
-62 -95 0
-62 -92 0
-62 -87 0
-62 -73 0
-61 -122 0
-61 -121 0
-61 -118 0
-61 -114 0
-61 -111 0
-61 -106 0
-61 -103 0
-61 -102 0
-61 -97 0
-61 -85 0
-61 -82 0
-61 -79 0
-61 -70 0
-61 -66 0
-60 -130 0
-60 -114 0
-60 -112 0
-60 -99 0
-60 -95 0
-60 -94 0
-60 -93 0
-60 -91 0
-60 -89 0
-60 -88 0
-60 -83 0
-60 -81 0
-60 -75 0
-60 -69 0
-59 -125 0
-59 -124 0
-59 -122 0
-59 -115 0
-59 -110 0
-59 -107 0
-59 -98 0
-59 -90 0
-59 -80 0
-59 -79 0
-59 -72 0
-58 -125 0
-58 -116 0
-58 -108 0
-58 -103 0
-58 -100 0
-58 -98 0
-58 -92 0
-58 -89 0
-58 -86 0
-58 -78 0
-58 -77 0
-58 -75 0
-58 -67 0
-58 -63 0
-57 -121 0
-57 -119 0
-57 -116 0
-57 -97 0
-57 -96 0
-57 -88 0
-57 -82 0
-57 -79 0
-57 -66 0
-57 -65 0
-57 -61 0
-56 -123 0
-56 -122 0
-56 -119 0
-56 -118 0
-56 -117 0
-56 -114 0
-56 -112 0
-56 -111 0
-56 -106 0
-56 -103 0
-56 -102 0
-56 -85 0
-56 -73 0
-56 -70 0
-56 -62 0
-56 -61 0
-55 -125 0
-55 -122 0
-55 -121 0
-55 -109 0
-55 -95 0
-55 -92 0
-55 -90 0
-55 -87 0
-55 -80 0
-55 -72 0
-55 -62 0
-55 -59 0
-54 -125 0
-54 -111 0
-54 -107 0
-54 -84 0
-54 -78 0
-54 -77 0
-54 -75 0
-54 -67 0
-54 -63 0
-54 -58 0
-53 -131 0
-53 -117 0
-53 -111 0
-53 -107 0
-53 -105 0
-53 -101 0
-53 -94 0
-53 -84 0
-53 -66 0
-53 -54 0
-52 -131 0
-52 -125 0
-52 -122 0
-52 -117 0
-52 -105 0
-52 -101 0
-52 -94 0
-52 -90 0
-52 -80 0
-52 -72 0
-52 -66 0
-52 -59 0
-52 -55 0
-52 -53 0
-51 -131 0
-51 -129 0
-51 -128 0
-51 -113 0
-51 -104 0
-51 -99 0
-51 -96 0
-51 -93 0
-51 -86 0
-51 -85 0
-51 -73 0
-51 -72 0
-51 -71 0
-51 -67 0
-50 -131 0
-50 -121 0
-50 -113 0
-50 -109 0
-50 -104 0
-50 -99 0
-50 -96 0
-50 -95 0
-50 -92 0
-50 -87 0
-50 -85 0
-50 -67 0
-50 -62 0
-50 -55 0
-50 -51 0
-49 -128 0
-49 -126 0
-49 -119 0
-49 -116 0
-49 -109 0
-49 -101 0
-49 -96 0
-49 -88 0
-49 -83 0
-49 -65 0
-49 -57 0
-48 -125 0
-48 -122 0
-48 -119 0
-48 -116 0
-48 -96 0
-48 -90 0
-48 -88 0
-48 -80 0
-48 -72 0
-48 -65 0
-48 -59 0
-48 -57 0
-48 -55 0
-48 -52 0
-48 -49 0
-47 -125 0
-47 -121 0
-47 -97 0
-47 -82 0
-47 -79 0
-47 -78 0
-47 -77 0
-47 -75 0
-47 -67 0
-47 -66 0
-47 -63 0
-47 -61 0
-47 -58 0
-47 -57 0
-47 -54 0
-46 -129 0
-46 -128 0
-46 -118 0
-46 -105 0
-46 -93 0
-46 -91 0
-46 -86 0
-46 -78 0
-46 -73 0
-46 -72 0
-46 -71 0
-46 -51 0
-45 -130 0
-45 -125 0
-45 -122 0
-45 -112 0
-45 -99 0
-45 -91 0
-45 -90 0
-45 -89 0
-45 -83 0
-45 -80 0
-45 -72 0
-45 -60 0
-45 -59 0
-45 -55 0
-45 -52 0
-45 -48 0
-44 -128 0
-44 -126 0
-44 -123 0
-44 -113 0
-44 -109 0
-44 -101 0
-44 -83 0
-44 -80 0
-44 -76 0
-44 -74 0
-44 -69 0
-44 -49 0
-43 -127 0
-43 -126 0
-43 -125 0
-43 -122 0
-43 -120 0
-43 -104 0
-43 -100 0
-43 -90 0
-43 -82 0
-43 -80 0
-43 -72 0
-43 -68 0
-43 -59 0
-43 -55 0
-43 -52 0
-43 -48 0
-43 -45 0
-42 -127 0
-42 -126 0
-42 -123 0
-42 -120 0
-42 -119 0
-42 -117 0
-42 -112 0
-42 -104 0
-42 -100 0
-42 -82 0
-42 -73 0
-42 -68 0
-42 -62 0
-42 -56 0
-42 -43 0
-41 -130 0
-41 -120 0
-41 -115 0
-41 -112 0
-41 -106 0
-41 -99 0
-41 -91 0
-41 -89 0
-41 -83 0
-41 -74 0
-41 -64 0
-41 -63 0
-41 -60 0
-41 -45 0
-40 -129 0
-40 -128 0
-40 -120 0
-40 -115 0
-40 -106 0
-40 -93 0
-40 -86 0
-40 -74 0
-40 -73 0
-40 -72 0
-40 -71 0
-40 -64 0
-40 -63 0
-40 -51 0
-40 -46 0
-40 -41 0
-39 -133 0
-39 -132 0
-39 -123 0
-39 -119 0
-39 -117 0
-39 -112 0
-39 -108 0
-39 -97 0
-39 -90 0
-39 -84 0
-39 -81 0
-39 -73 0
-39 -64 0
-39 -62 0
-39 -56 0
-39 -42 0
-38 -121 0
-38 -120 0
-38 -115 0
-38 -109 0
-38 -106 0
-38 -95 0
-38 -92 0
-38 -87 0
-38 -74 0
-38 -64 0
-38 -63 0
-38 -62 0
-38 -55 0
-38 -50 0
-38 -41 0
-38 -40 0
-37 -124 0
-37 -123 0
-37 -119 0
-37 -117 0
-37 -115 0
-37 -112 0
-37 -110 0
-37 -107 0
-37 -98 0
-37 -79 0
-37 -73 0
-37 -62 0
-37 -59 0
-37 -56 0
-37 -42 0
-37 -39 0
-35 -133 0
-35 -132 0
-35 -128 0
-35 -126 0
-35 -109 0
-35 -108 0
-35 -101 0
-35 -97 0
-35 -90 0
-35 -84 0
-35 -83 0
-35 -81 0
-35 -64 0
-35 -49 0
-35 -44 0
-35 -39 0
-34 -125 0
-34 -123 0
-34 -119 0
-34 -117 0
-34 -112 0
-34 -78 0
-34 -77 0
-34 -75 0
-34 -73 0
-34 -67 0
-34 -63 0
-34 -62 0
-34 -58 0
-34 -56 0
-34 -54 0
-34 -47 0
-34 -42 0
-34 -39 0
-34 -37 0
-33 -131 0
-33 -117 0
-33 -116 0
-33 -108 0
-33 -105 0
-33 -103 0
-33 -101 0
-33 -100 0
-33 -98 0
-33 -94 0
-33 -92 0
-33 -89 0
-33 -86 0
-33 -66 0
-33 -58 0
-33 -53 0
-33 -52 0
-32 -127 0
-32 -126 0
-32 -120 0
-32 -114 0
-32 -104 0
-32 -100 0
-32 -95 0
-32 -94 0
-32 -93 0
-32 -88 0
-32 -82 0
-32 -81 0
-32 -75 0
-32 -69 0
-32 -68 0
-32 -60 0
-32 -43 0
-32 -42 0
-31 -132 0
-31 -131 0
-31 -129 0
-31 -124 0
-31 -117 0
-31 -105 0
-31 -102 0
-31 -101 0
-31 -94 0
-31 -87 0
-31 -68 0
-31 -66 0
-31 -53 0
-31 -52 0
-31 -33 0
-30 -130 0
-30 -112 0
-30 -111 0
-30 -107 0
-30 -99 0
-30 -91 0
-30 -89 0
-30 -84 0
-30 -83 0
-30 -60 0
-30 -54 0
-30 -53 0
-30 -45 0
-30 -41 0
-29 -130 0
-29 -121 0
-29 -112 0
-29 -99 0
-29 -97 0
-29 -91 0
-29 -89 0
-29 -83 0
-29 -82 0
-29 -79 0
-29 -66 0
-29 -61 0
-29 -60 0
-29 -57 0
-29 -47 0
-29 -45 0
-29 -41 0
-29 -30 0
-28 -132 0
-28 -130 0
-28 -129 0
-28 -124 0
-28 -112 0
-28 -102 0
-28 -99 0
-28 -91 0
-28 -89 0
-28 -87 0
-28 -83 0
-28 -68 0
-28 -60 0
-28 -45 0
-28 -41 0
-28 -31 0
-28 -30 0
-28 -29 0
-27 -131 0
-27 -124 0
-27 -115 0
-27 -113 0
-27 -110 0
-27 -107 0
-27 -104 0
-27 -99 0
-27 -98 0
-27 -96 0
-27 -85 0
-27 -79 0
-27 -67 0
-27 -59 0
-27 -51 0
-27 -50 0
-27 -37 0
-26 -132 0
-26 -129 0
-26 -125 0
-26 -124 0
-26 -102 0
-26 -87 0
-26 -78 0
-26 -77 0
-26 -75 0
-26 -68 0
-26 -67 0
-26 -63 0
-26 -58 0
-26 -54 0
-26 -47 0
-26 -34 0
-26 -31 0
-26 -28 0
-25 -119 0
-25 -116 0
-25 -111 0
-25 -107 0
-25 -96 0
-25 -88 0
-25 -84 0
-25 -65 0
-25 -57 0
-25 -54 0
-25 -53 0
-25 -49 0
-25 -48 0
-25 -30 0
-24 -127 0
-24 -126 0
-24 -120 0
-24 -111 0
-24 -107 0
-24 -104 0
-24 -100 0
-24 -84 0
-24 -82 0
-24 -68 0
-24 -54 0
-24 -53 0
-24 -43 0
-24 -42 0
-24 -32 0
-24 -30 0
-24 -25 0
-23 -131 0
-23 -120 0
-23 -117 0
-23 -115 0
-23 -106 0
-23 -105 0
-23 -101 0
-23 -94 0
-23 -74 0
-23 -66 0
-23 -64 0
-23 -63 0
-23 -53 0
-23 -52 0
-23 -41 0
-23 -40 0
-23 -38 0
-23 -33 0
-23 -31 0
-22 -129 0
-22 -128 0
-22 -111 0
-22 -107 0
-22 -93 0
-22 -86 0
-22 -84 0
-22 -73 0
-22 -72 0
-22 -71 0
-22 -54 0
-22 -53 0
-22 -51 0
-22 -46 0
-22 -40 0
-22 -30 0
-22 -25 0
-22 -24 0
-21 -133 0
-21 -132 0
-21 -131 0
-21 -113 0
-21 -108 0
-21 -104 0
-21 -99 0
-21 -97 0
-21 -96 0
-21 -90 0
-21 -85 0
-21 -84 0
-21 -81 0
-21 -67 0
-21 -64 0
-21 -51 0
-21 -50 0
-21 -39 0
-21 -35 0
-21 -27 0
-20 -133 0
-20 -130 0
-20 -127 0
-20 -121 0
-20 -110 0
-20 -109 0
-20 -95 0
-20 -92 0
-20 -87 0
-20 -77 0
-20 -76 0
-20 -71 0
-20 -70 0
-20 -65 0
-20 -62 0
-20 -55 0
-20 -50 0
-20 -38 0
-19 -129 0
-19 -128 0
-19 -121 0
-19 -97 0
-19 -93 0
-19 -86 0
-19 -82 0
-19 -79 0
-19 -73 0
-19 -72 0
-19 -71 0
-19 -66 0
-19 -61 0
-19 -57 0
-19 -51 0
-19 -47 0
-19 -46 0
-19 -40 0
-19 -29 0
-19 -22 0
-18 -127 0
-18 -126 0
-18 -120 0
-18 -118 0
-18 -105 0
-18 -104 0
-18 -100 0
-18 -91 0
-18 -82 0
-18 -78 0
-18 -68 0
-18 -46 0
-18 -43 0
-18 -42 0
-18 -32 0
-18 -24 0
-17 -123 0
-17 -113 0
-17 -111 0
-17 -107 0
-17 -84 0
-17 -80 0
-17 -76 0
-17 -74 0
-17 -69 0
-17 -54 0
-17 -53 0
-17 -44 0
-17 -30 0
-17 -25 0
-17 -24 0
-17 -22 0
-16 -123 0
-16 -121 0
-16 -113 0
-16 -97 0
-16 -82 0
-16 -80 0
-16 -79 0
-16 -76 0
-16 -74 0
-16 -69 0
-16 -66 0
-16 -61 0
-16 -57 0
-16 -47 0
-16 -44 0
-16 -29 0
-16 -19 0
-16 -17 0
-15 -124 0
-15 -118 0
-15 -115 0
-15 -110 0
-15 -107 0
-15 -105 0
-15 -98 0
-15 -91 0
-15 -79 0
-15 -78 0
-15 -59 0
-15 -46 0
-15 -37 0
-15 -27 0
-15 -18 0
-14 -120 0
-14 -119 0
-14 -116 0
-14 -115 0
-14 -106 0
-14 -96 0
-14 -88 0
-14 -74 0
-14 -65 0
-14 -64 0
-14 -63 0
-14 -57 0
-14 -49 0
-14 -48 0
-14 -41 0
-14 -40 0
-14 -38 0
-14 -25 0
-14 -23 0
-13 -119 0
-13 -118 0
-13 -116 0
-13 -105 0
-13 -96 0
-13 -91 0
-13 -88 0
-13 -78 0
-13 -65 0
-13 -57 0
-13 -49 0
-13 -48 0
-13 -46 0
-13 -25 0
-13 -18 0
-13 -15 0
-13 -14 0
-12 -128 0
-12 -126 0
-12 -125 0
-12 -109 0
-12 -101 0
-12 -83 0
-12 -78 0
-12 -77 0
-12 -75 0
-12 -67 0
-12 -63 0
-12 -58 0
-12 -54 0
-12 -49 0
-12 -47 0
-12 -44 0
-12 -35 0
-12 -34 0
-12 -26 0
-11 -123 0
-11 -118 0
-11 -113 0
-11 -105 0
-11 -91 0
-11 -80 0
-11 -78 0
-11 -76 0
-11 -74 0
-11 -69 0
-11 -46 0
-11 -44 0
-11 -18 0
-11 -17 0
-11 -16 0
-11 -15 0
-11 -13 0
-10 -132 0
-10 -129 0
-10 -124 0
-10 -123 0
-10 -113 0
-10 -102 0
-10 -87 0
-10 -80 0
-10 -76 0
-10 -74 0
-10 -69 0
-10 -68 0
-10 -44 0
-10 -31 0
-10 -28 0
-10 -26 0
-10 -17 0
-10 -16 0
-10 -11 0
-9 -128 0
-9 -126 0
-9 -124 0
-9 -115 0
-9 -110 0
-9 -109 0
-9 -107 0
-9 -101 0
-9 -98 0
-9 -83 0
-9 -79 0
-9 -59 0
-9 -49 0
-9 -44 0
-9 -37 0
-9 -35 0
-9 -27 0
-9 -15 0
-9 -12 0
-8 -128 0
-8 -126 0
-8 -122 0
-8 -118 0
-8 -114 0
-8 -111 0
-8 -109 0
-8 -106 0
-8 -103 0
-8 -102 0
-8 -101 0
-8 -85 0
-8 -83 0
-8 -70 0
-8 -61 0
-8 -56 0
-8 -49 0
-8 -44 0
-8 -35 0
-8 -12 0
-8 -9 0
-7 -121 0
-7 -118 0
-7 -109 0
-7 -105 0
-7 -95 0
-7 -92 0
-7 -91 0
-7 -87 0
-7 -78 0
-7 -62 0
-7 -55 0
-7 -50 0
-7 -46 0
-7 -38 0
-7 -20 0
-7 -18 0
-7 -15 0
-7 -13 0
-7 -11 0
-6 -123 0
-6 -116 0
-6 -113 0
-6 -108 0
-6 -103 0
-6 -100 0
-6 -98 0
-6 -92 0
-6 -89 0
-6 -86 0
-6 -80 0
-6 -76 0
-6 -74 0
-6 -69 0
-6 -58 0
-6 -44 0
-6 -33 0
-6 -17 0
-6 -16 0
-6 -11 0
-6 -10 0
-5 -133 0
-5 -132 0
-5 -118 0
-5 -108 0
-5 -105 0
-5 -97 0
-5 -91 0
-5 -90 0
-5 -84 0
-5 -81 0
-5 -78 0
-5 -64 0
-5 -46 0
-5 -39 0
-5 -35 0
-5 -21 0
-5 -18 0
-5 -15 0
-5 -13 0
-5 -11 0
-5 -7 0
-4 -124 0
-4 -115 0
-4 -114 0
-4 -110 0
-4 -107 0
-4 -98 0
-4 -95 0
-4 -94 0
-4 -93 0
-4 -88 0
-4 -81 0
-4 -79 0
-4 -75 0
-4 -69 0
-4 -60 0
-4 -59 0
-4 -37 0
-4 -32 0
-4 -27 0
-4 -15 0
-4 -9 0
-3 -132 0
-3 -129 0
-3 -124 0
-3 -119 0
-3 -116 0
-3 -102 0
-3 -96 0
-3 -88 0
-3 -87 0
-3 -68 0
-3 -65 0
-3 -57 0
-3 -49 0
-3 -48 0
-3 -31 0
-3 -28 0
-3 -26 0
-3 -25 0
-3 -14 0
-3 -13 0
-3 -10 0
-2 -133 0
-2 -131 0
-2 -130 0
-2 -127 0
-2 -117 0
-2 -110 0
-2 -105 0
-2 -101 0
-2 -94 0
-2 -77 0
-2 -76 0
-2 -71 0
-2 -70 0
-2 -66 0
-2 -65 0
-2 -53 0
-2 -52 0
-2 -33 0
-2 -31 0
-2 -23 0
-2 -20 0
-1 -121 0
-1 -111 0
-1 -109 0
-1 -107 0
-1 -95 0
-1 -92 0
-1 -87 0
-1 -84 0
-1 -62 0
-1 -55 0
-1 -54 0
-1 -53 0
-1 -50 0
-1 -38 0
-1 -30 0
-1 -25 0
-1 -24 0
-1 -22 0
-1 -20 0
-1 -17 0
-1 -7 0
1 17 22 24 25 30 53 54 84 107 111 0
3 10 26 28 31 68 87 102 124 129 132 0
4 32 60 69 75 81 88 93 94 95 114 0
5 7 11 13 15 18 46 78 91 105 118 0
6 33 58 86 89 92 98 100 103 108 116 0
8 9 12 35 44 49 83 101 109 126 128 0
14 23 38 40 41 63 64 74 106 115 120 0
16 19 29 47 57 61 66 79 82 97 121 0
21 27 50 51 67 85 96 99 104 113 131 0
34 37 39 42 56 62 73 112 117 119 123 0
43 45 48 52 55 59 72 80 90 122 125 0
2 20 36 65 70 71 76 77 110 127 130 133 0
