p cnf 133 1398
-131 -132 0
-127 -132 0
-127 -129 0
-126 -128 0
-125 -131 0
-124 -125 0
-123 -131 0
-123 -129 0
-123 -127 0
-123 -125 0
-122 -131 0
-122 -130 0
-122 -125 0
-122 -123 0
-121 -130 0
-121 -128 0
-121 -122 0
-120 -132 0
-120 -131 0
-120 -129 0
-119 -131 0
-119 -125 0
-119 -123 0
-119 -122 0
-118 -128 0
-118 -121 0
-117 -129 0
-117 -127 0
-117 -124 0
-117 -123 0
-116 -133 0
-116 -124 0
-116 -117 0
-115 -128 0
-115 -126 0
-115 -124 0
-115 -117 0
-115 -116 0
-114 -131 0
-114 -125 0
-114 -123 0
-114 -122 0
-114 -119 0
-113 -132 0
-113 -127 0
-112 -113 0
-111 -129 0
-111 -120 0
-111 -119 0
-109 -133 0
-109 -130 0
-109 -122 0
-109 -121 0
-108 -124 0
-108 -118 0
-108 -117 0
-108 -116 0
-108 -115 0
-107 -133 0
-107 -116 0
-107 -112 0
-106 -130 0
-106 -118 0
-106 -108 0
-105 -126 0
-105 -113 0
-105 -112 0
-104 -129 0
-104 -120 0
-104 -111 0
-103 -128 0
-103 -126 0
-103 -115 0
-102 -133 0
-102 -130 0
-102 -116 0
-102 -107 0
-102 -106 0
-101 -130 0
-101 -129 0
-101 -122 0
-101 -121 0
-101 -120 0
-101 -111 0
-101 -109 0
-101 -104 0
-100 -130 0
-100 -122 0
-100 -121 0
-100 -109 0
-100 -103 0
-100 -101 0
-99 -126 0
-99 -119 0
-99 -111 0
-99 -105 0
-98 -133 0
-98 -114 0
-98 -109 0
-97 -133 0
-97 -129 0
-97 -127 0
-97 -123 0
-97 -117 0
-97 -109 0
-97 -98 0
-96 -129 0
-96 -125 0
-96 -124 0
-96 -120 0
-96 -111 0
-96 -104 0
-96 -101 0
-95 -133 0
-95 -116 0
-95 -110 0
-95 -107 0
-95 -102 0
-94 -133 0
-94 -118 0
-94 -109 0
-94 -108 0
-94 -106 0
-94 -98 0
-94 -97 0
-93 -119 0
-93 -111 0
-93 -103 0
-93 -100 0
-93 -99 0
-92 -133 0
-92 -110 0
-92 -109 0
-92 -98 0
-92 -97 0
-92 -94 0
-91 -131 0
-91 -125 0
-91 -123 0
-91 -122 0
-91 -119 0
-91 -118 0
-91 -114 0
-91 -108 0
-91 -106 0
-91 -94 0
-90 -125 0
-90 -124 0
-90 -103 0
-90 -100 0
-90 -96 0
-90 -93 0
-89 -133 0
-89 -131 0
-89 -125 0
-89 -123 0
-89 -122 0
-89 -119 0
-89 -116 0
-89 -114 0
-89 -107 0
-89 -102 0
-89 -95 0
-89 -91 0
-88 -112 0
-88 -110 0
-88 -107 0
-88 -92 0
-87 -129 0
-87 -127 0
-87 -123 0
-87 -117 0
-87 -110 0
-87 -97 0
-87 -95 0
-86 -130 0
-86 -126 0
-86 -122 0
-86 -121 0
-86 -109 0
-86 -105 0
-86 -101 0
-86 -100 0
-86 -99 0
-85 -128 0
-85 -121 0
-85 -118 0
-85 -104 0
-84 -130 0
-84 -114 0
-84 -106 0
-84 -102 0
-84 -98 0
-83 -114 0
-83 -110 0
-83 -98 0
-83 -95 0
-83 -87 0
-83 -84 0
-82 -118 0
-82 -108 0
-82 -106 0
-82 -103 0
-82 -100 0
-82 -94 0
-82 -93 0
-82 -91 0
-82 -90 0
-81 -113 0
-81 -112 0
-81 -110 0
-81 -105 0
-81 -95 0
-81 -87 0
-81 -83 0
-79 -129 0
-79 -120 0
-79 -114 0
-79 -111 0
-79 -104 0
-79 -101 0
-79 -98 0
-79 -96 0
-79 -84 0
-79 -83 0
-78 -124 0
-78 -119 0
-78 -117 0
-78 -116 0
-78 -115 0
-78 -111 0
-78 -108 0
-78 -99 0
-78 -93 0
-77 -124 0
-77 -117 0
-77 -116 0
-77 -115 0
-77 -108 0
-77 -104 0
-77 -85 0
-77 -78 0
-76 -128 0
-76 -121 0
-76 -118 0
-76 -114 0
-76 -98 0
-76 -85 0
-76 -84 0
-76 -83 0
-76 -79 0
-75 -133 0
-75 -113 0
-75 -112 0
-75 -109 0
-75 -105 0
-75 -98 0
-75 -97 0
-75 -94 0
-75 -92 0
-75 -81 0
-74 -132 0
-74 -131 0
-74 -120 0
-74 -112 0
-74 -107 0
-74 -88 0
-73 -129 0
-73 -128 0
-73 -126 0
-73 -120 0
-73 -115 0
-73 -111 0
-73 -104 0
-73 -103 0
-73 -101 0
-73 -96 0
-73 -79 0
-72 -131 0
-72 -125 0
-72 -123 0
-72 -122 0
-72 -119 0
-72 -114 0
-72 -113 0
-72 -112 0
-72 -105 0
-72 -91 0
-72 -89 0
-72 -81 0
-72 -75 0
-71 -128 0
-71 -126 0
-71 -115 0
-71 -110 0
-71 -103 0
-71 -95 0
-71 -87 0
-71 -83 0
-71 -81 0
-71 -73 0
-70 -118 0
-70 -112 0
-70 -108 0
-70 -107 0
-70 -106 0
-70 -94 0
-70 -91 0
-70 -88 0
-70 -82 0
-70 -74 0
-69 -128 0
-69 -121 0
-69 -118 0
-69 -113 0
-69 -112 0
-69 -105 0
-69 -85 0
-69 -81 0
-69 -76 0
-69 -75 0
-69 -72 0
-68 -132 0
-68 -127 0
-68 -119 0
-68 -113 0
-68 -111 0
-68 -99 0
-68 -93 0
-68 -78 0
-67 -130 0
-67 -124 0
-67 -122 0
-67 -121 0
-67 -117 0
-67 -116 0
-67 -115 0
-67 -109 0
-67 -108 0
-67 -101 0
-67 -100 0
-67 -86 0
-67 -78 0
-67 -77 0
-66 -128 0
-66 -121 0
-66 -118 0
-66 -110 0
-66 -92 0
-66 -88 0
-66 -85 0
-66 -76 0
-66 -69 0
-65 -114 0
-65 -112 0
-65 -107 0
-65 -98 0
-65 -88 0
-65 -84 0
-65 -83 0
-65 -79 0
-65 -76 0
-65 -74 0
-65 -70 0
-64 -129 0
-64 -120 0
-64 -111 0
-64 -110 0
-64 -104 0
-64 -101 0
-64 -96 0
-64 -92 0
-64 -88 0
-64 -79 0
-64 -73 0
-64 -66 0
-63 -129 0
-63 -127 0
-63 -123 0
-63 -117 0
-63 -112 0
-63 -107 0
-63 -97 0
-63 -88 0
-63 -87 0
-63 -74 0
-63 -70 0
-63 -65 0
-62 -133 0
-62 -119 0
-62 -111 0
-62 -109 0
-62 -99 0
-62 -98 0
-62 -97 0
-62 -94 0
-62 -93 0
-62 -92 0
-62 -78 0
-62 -75 0
-62 -68 0
-61 -133 0
-61 -128 0
-61 -121 0
-61 -118 0
-61 -116 0
-61 -107 0
-61 -102 0
-61 -95 0
-61 -89 0
-61 -85 0
-61 -76 0
-61 -69 0
-61 -66 0
-60 -112 0
-60 -107 0
-60 -104 0
-60 -88 0
-60 -85 0
-60 -77 0
-60 -74 0
-60 -70 0
-60 -65 0
-60 -63 0
-59 -118 0
-59 -110 0
-59 -108 0
-59 -106 0
-59 -95 0
-59 -94 0
-59 -91 0
-59 -87 0
-59 -83 0
-59 -82 0
-59 -81 0
-59 -71 0
-59 -70 0
-58 -130 0
-58 -129 0
-58 -127 0
-58 -123 0
-58 -117 0
-58 -106 0
-58 -102 0
-58 -97 0
-58 -87 0
-58 -84 0
-58 -63 0
-57 -128 0
-57 -125 0
-57 -124 0
-57 -121 0
-57 -118 0
-57 -96 0
-57 -90 0
-57 -85 0
-57 -76 0
-57 -69 0
-57 -66 0
-57 -61 0
-56 -132 0
-56 -127 0
-56 -125 0
-56 -124 0
-56 -113 0
-56 -96 0
-56 -90 0
-56 -68 0
-56 -57 0
-55 -132 0
-55 -127 0
-55 -114 0
-55 -113 0
-55 -98 0
-55 -84 0
-55 -83 0
-55 -79 0
-55 -76 0
-55 -68 0
-55 -65 0
-55 -56 0
-54 -132 0
-54 -131 0
-54 -120 0
-54 -103 0
-54 -100 0
-54 -93 0
-54 -90 0
-54 -82 0
-54 -74 0
-53 -133 0
-53 -116 0
-53 -107 0
-53 -103 0
-53 -102 0
-53 -100 0
-53 -95 0
-53 -93 0
-53 -90 0
-53 -89 0
-53 -82 0
-53 -61 0
-53 -54 0
-52 -131 0
-52 -125 0
-52 -123 0
-52 -122 0
-52 -119 0
-52 -114 0
-52 -104 0
-52 -91 0
-52 -89 0
-52 -85 0
-52 -77 0
-52 -72 0
-52 -60 0
-51 -114 0
-51 -103 0
-51 -100 0
-51 -98 0
-51 -93 0
-51 -90 0
-51 -84 0
-51 -83 0
-51 -82 0
-51 -79 0
-51 -76 0
-51 -65 0
-51 -55 0
-51 -54 0
-51 -53 0
-50 -110 0
-50 -104 0
-50 -95 0
-50 -87 0
-50 -85 0
-50 -83 0
-50 -81 0
-50 -77 0
-50 -71 0
-50 -60 0
-50 -59 0
-50 -52 0
-49 -129 0
-49 -120 0
-49 -118 0
-49 -111 0
-49 -108 0
-49 -106 0
-49 -104 0
-49 -101 0
-49 -96 0
-49 -94 0
-49 -91 0
-49 -82 0
-49 -79 0
-49 -73 0
-49 -70 0
-49 -64 0
-49 -59 0
-48 -128 0
-48 -121 0
-48 -119 0
-48 -118 0
-48 -111 0
-48 -99 0
-48 -93 0
-48 -85 0
-48 -78 0
-48 -76 0
-48 -69 0
-48 -68 0
-48 -66 0
-48 -62 0
-48 -61 0
-48 -57 0
-47 -129 0
-47 -127 0
-47 -123 0
-47 -117 0
-47 -103 0
-47 -100 0
-47 -97 0
-47 -93 0
-47 -90 0
-47 -87 0
-47 -82 0
-47 -63 0
-47 -58 0
-47 -54 0
-47 -53 0
-47 -51 0
-46 -128 0
-46 -126 0
-46 -115 0
-46 -112 0
-46 -107 0
-46 -103 0
-46 -88 0
-46 -74 0
-46 -73 0
-46 -71 0
-46 -70 0
-46 -65 0
-46 -63 0
-46 -60 0
-45 -133 0
-45 -126 0
-45 -116 0
-45 -107 0
-45 -105 0
-45 -102 0
-45 -99 0
-45 -95 0
-45 -89 0
-45 -86 0
-45 -61 0
-45 -53 0
-44 -132 0
-44 -130 0
-44 -127 0
-44 -122 0
-44 -121 0
-44 -113 0
-44 -109 0
-44 -101 0
-44 -100 0
-44 -86 0
-44 -68 0
-44 -67 0
-44 -56 0
-44 -55 0
-43 -130 0
-43 -106 0
-43 -104 0
-43 -102 0
-43 -85 0
-43 -84 0
-43 -77 0
-43 -60 0
-43 -58 0
-43 -52 0
-43 -50 0
-42 -133 0
-42 -128 0
-42 -126 0
-42 -115 0
-42 -109 0
-42 -103 0
-42 -98 0
-42 -97 0
-42 -94 0
-42 -92 0
-42 -75 0
-42 -73 0
-42 -71 0
-42 -62 0
-42 -46 0
-41 -132 0
-41 -127 0
-41 -113 0
-41 -104 0
-41 -85 0
-41 -77 0
-41 -68 0
-41 -60 0
-41 -56 0
-41 -55 0
-41 -52 0
-41 -50 0
-41 -44 0
-41 -43 0
-40 -119 0
-40 -112 0
-40 -111 0
-40 -107 0
-40 -99 0
-40 -93 0
-40 -88 0
-40 -78 0
-40 -74 0
-40 -70 0
-40 -68 0
-40 -65 0
-40 -63 0
-40 -62 0
-40 -60 0
-40 -48 0
-40 -46 0
-39 -133 0
-39 -132 0
-39 -127 0
-39 -116 0
-39 -113 0
-39 -107 0
-39 -102 0
-39 -95 0
-39 -89 0
-39 -68 0
-39 -61 0
-39 -56 0
-39 -55 0
-39 -53 0
-39 -45 0
-39 -44 0
-39 -41 0
-38 -130 0
-38 -119 0
-38 -111 0
-38 -106 0
-38 -102 0
-38 -99 0
-38 -93 0
-38 -84 0
-38 -78 0
-38 -68 0
-38 -62 0
-38 -58 0
-38 -48 0
-38 -43 0
-38 -40 0
-37 -132 0
-37 -131 0
-37 -120 0
-37 -110 0
-37 -95 0
-37 -87 0
-37 -83 0
-37 -81 0
-37 -74 0
-37 -71 0
-37 -59 0
-37 -54 0
-37 -50 0
-36 -130 0
-36 -125 0
-36 -124 0
-36 -106 0
-36 -102 0
-36 -96 0
-36 -90 0
-36 -84 0
-36 -58 0
-36 -57 0
-36 -56 0
-36 -43 0
-36 -38 0
-35 -132 0
-35 -131 0
-35 -124 0
-35 -120 0
-35 -117 0
-35 -116 0
-35 -115 0
-35 -108 0
-35 -78 0
-35 -77 0
-35 -74 0
-35 -67 0
-35 -54 0
-35 -37 0
-34 -132 0
-34 -128 0
-34 -127 0
-34 -126 0
-34 -115 0
-34 -113 0
-34 -103 0
-34 -73 0
-34 -71 0
-34 -68 0
-34 -56 0
-34 -55 0
-34 -46 0
-34 -44 0
-34 -42 0
-34 -41 0
-34 -39 0
-33 -130 0
-33 -122 0
-33 -121 0
-33 -110 0
-33 -109 0
-33 -101 0
-33 -100 0
-33 -95 0
-33 -87 0
-33 -86 0
-33 -83 0
-33 -81 0
-33 -71 0
-33 -67 0
-33 -59 0
-33 -50 0
-33 -44 0
-33 -37 0
-32 -124 0
-32 -117 0
-32 -116 0
-32 -115 0
-32 -110 0
-32 -108 0
-32 -92 0
-32 -88 0
-32 -78 0
-32 -77 0
-32 -67 0
-32 -66 0
-32 -64 0
-32 -35 0
-31 -133 0
-31 -129 0
-31 -120 0
-31 -116 0
-31 -111 0
-31 -107 0
-31 -104 0
-31 -102 0
-31 -101 0
-31 -96 0
-31 -95 0
-31 -89 0
-31 -79 0
-31 -73 0
-31 -64 0
-31 -61 0
-31 -53 0
-31 -49 0
-31 -45 0
-31 -39 0
-30 -130 0
-30 -128 0
-30 -126 0
-30 -115 0
-30 -106 0
-30 -103 0
-30 -102 0
-30 -84 0
-30 -73 0
-30 -71 0
-30 -58 0
-30 -46 0
-30 -43 0
-30 -42 0
-30 -38 0
-30 -36 0
-30 -34 0
-29 -133 0
-29 -125 0
-29 -124 0
-29 -109 0
-29 -98 0
-29 -97 0
-29 -96 0
-29 -94 0
-29 -92 0
-29 -90 0
-29 -75 0
-29 -62 0
-29 -57 0
-29 -56 0
-29 -42 0
-29 -36 0
-28 -113 0
-28 -112 0
-28 -105 0
-28 -103 0
-28 -100 0
-28 -93 0
-28 -90 0
-28 -82 0
-28 -81 0
-28 -75 0
-28 -72 0
-28 -69 0
-28 -54 0
-28 -53 0
-28 -51 0
-28 -47 0
-27 -133 0
-27 -132 0
-27 -131 0
-27 -120 0
-27 -109 0
-27 -98 0
-27 -97 0
-27 -94 0
-27 -92 0
-27 -75 0
-27 -74 0
-27 -62 0
-27 -54 0
-27 -42 0
-27 -37 0
-27 -35 0
-27 -29 0
-26 -124 0
-26 -117 0
-26 -116 0
-26 -115 0
-26 -113 0
-26 -112 0
-26 -108 0
-26 -105 0
-26 -81 0
-26 -78 0
-26 -77 0
-26 -75 0
-26 -72 0
-26 -69 0
-26 -67 0
-26 -35 0
-26 -32 0
-26 -28 0
-25 -124 0
-25 -117 0
-25 -116 0
-25 -115 0
-25 -114 0
-25 -108 0
-25 -98 0
-25 -84 0
-25 -83 0
-25 -79 0
-25 -78 0
-25 -77 0
-25 -76 0
-25 -67 0
-25 -65 0
-25 -55 0
-25 -51 0
-25 -35 0
-25 -32 0
-25 -26 0
-24 -126 0
-24 -118 0
-24 -108 0
-24 -106 0
-24 -105 0
-24 -99 0
-24 -94 0
-24 -91 0
-24 -86 0
-24 -82 0
-24 -70 0
-24 -59 0
-24 -49 0
-24 -45 0
-23 -129 0
-23 -120 0
-23 -113 0
-23 -112 0
-23 -111 0
-23 -105 0
-23 -104 0
-23 -101 0
-23 -96 0
-23 -81 0
-23 -79 0
-23 -75 0
-23 -73 0
-23 -72 0
-23 -69 0
-23 -64 0
-23 -49 0
-23 -31 0
-23 -28 0
-23 -26 0
-22 -126 0
-22 -114 0
-22 -105 0
-22 -99 0
-22 -98 0
-22 -86 0
-22 -84 0
-22 -83 0
-22 -79 0
-22 -76 0
-22 -65 0
-22 -55 0
-22 -51 0
-22 -45 0
-22 -25 0
-22 -24 0
-21 -129 0
-21 -127 0
-21 -126 0
-21 -123 0
-21 -117 0
-21 -105 0
-21 -99 0
-21 -97 0
-21 -87 0
-21 -86 0
-21 -63 0
-21 -58 0
-21 -47 0
-21 -45 0
-21 -24 0
-21 -22 0
-20 -129 0
-20 -128 0
-20 -127 0
-20 -123 0
-20 -121 0
-20 -118 0
-20 -117 0
-20 -97 0
-20 -87 0
-20 -85 0
-20 -76 0
-20 -69 0
-20 -66 0
-20 -63 0
-20 -61 0
-20 -58 0
-20 -57 0
-20 -48 0
-20 -47 0
-20 -21 0
-19 -132 0
-19 -127 0
-19 -118 0
-19 -113 0
-19 -108 0
-19 -106 0
-19 -94 0
-19 -91 0
-19 -82 0
-19 -70 0
-19 -68 0
-19 -59 0
-19 -56 0
-19 -55 0
-19 -49 0
-19 -44 0
-19 -41 0
-19 -39 0
-19 -34 0
-19 -24 0
-18 -132 0
-18 -131 0
-18 -126 0
-18 -120 0
-18 -105 0
-18 -99 0
-18 -86 0
-18 -74 0
-18 -54 0
-18 -45 0
-18 -37 0
-18 -35 0
-18 -27 0
-18 -24 0
-18 -22 0
-18 -21 0
-17 -104 0
-17 -103 0
-17 -100 0
-17 -93 0
-17 -90 0
-17 -85 0
-17 -82 0
-17 -77 0
-17 -60 0
-17 -54 0
-17 -53 0
-17 -52 0
-17 -51 0
-17 -50 0
-17 -47 0
-17 -43 0
-17 -41 0
-17 -28 0
-16 -130 0
-16 -113 0
-16 -112 0
-16 -106 0
-16 -105 0
-16 -102 0
-16 -84 0
-16 -81 0
-16 -75 0
-16 -72 0
-16 -69 0
-16 -58 0
-16 -43 0
-16 -38 0
-16 -36 0
-16 -30 0
-16 -28 0
-16 -26 0
-16 -23 0
-15 -126 0
-15 -125 0
-15 -124 0
-15 -105 0
-15 -99 0
-15 -96 0
-15 -90 0
-15 -86 0
-15 -57 0
-15 -56 0
-15 -45 0
-15 -36 0
-15 -29 0
-15 -24 0
-15 -22 0
-15 -21 0
-15 -18 0
-14 -131 0
-14 -125 0
-14 -123 0
-14 -122 0
-14 -119 0
-14 -114 0
-14 -110 0
-14 -92 0
-14 -91 0
-14 -89 0
-14 -88 0
-14 -72 0
-14 -66 0
-14 -64 0
-14 -52 0
-14 -32 0
-13 -131 0
-13 -128 0
-13 -126 0
-13 -125 0
-13 -123 0
-13 -122 0
-13 -119 0
-13 -115 0
-13 -114 0
-13 -103 0
-13 -91 0
-13 -89 0
-13 -73 0
-13 -72 0
-13 -71 0
-13 -52 0
-13 -46 0
-13 -42 0
-13 -34 0
-13 -30 0
-13 -14 0
-12 -132 0
-12 -131 0
-12 -130 0
-12 -120 0
-12 -106 0
-12 -102 0
-12 -84 0
-12 -74 0
-12 -58 0
-12 -54 0
-12 -43 0
-12 -38 0
-12 -37 0
-12 -36 0
-12 -35 0
-12 -30 0
-12 -27 0
-12 -18 0
-12 -16 0
-11 -119 0
-11 -111 0
-11 -110 0
-11 -99 0
-11 -95 0
-11 -93 0
-11 -87 0
-11 -83 0
-11 -81 0
-11 -78 0
-11 -71 0
-11 -68 0
-11 -62 0
-11 -59 0
-11 -50 0
-11 -48 0
-11 -40 0
-11 -38 0
-11 -37 0
-11 -33 0
-10 -125 0
-10 -124 0
-10 -112 0
-10 -107 0
-10 -96 0
-10 -90 0
-10 -88 0
-10 -74 0
-10 -70 0
-10 -65 0
-10 -63 0
-10 -60 0
-10 -57 0
-10 -56 0
-10 -46 0
-10 -40 0
-10 -36 0
-10 -29 0
-10 -15 0
-9 -132 0
-9 -127 0
-9 -113 0
-9 -110 0
-9 -92 0
-9 -88 0
-9 -68 0
-9 -66 0
-9 -64 0
-9 -56 0
-9 -55 0
-9 -44 0
-9 -41 0
-9 -39 0
-9 -34 0
-9 -32 0
-9 -19 0
-9 -14 0
-8 -110 0
-8 -103 0
-8 -100 0
-8 -93 0
-8 -92 0
-8 -90 0
-8 -88 0
-8 -82 0
-8 -66 0
-8 -64 0
-8 -54 0
-8 -53 0
-8 -51 0
-8 -47 0
-8 -32 0
-8 -28 0
-8 -17 0
-8 -14 0
-8 -9 0
-7 -130 0
-7 -110 0
-7 -106 0
-7 -102 0
-7 -92 0
-7 -88 0
-7 -84 0
-7 -66 0
-7 -64 0
-7 -58 0
-7 -43 0
-7 -38 0
-7 -36 0
-7 -32 0
-7 -30 0
-7 -16 0
-7 -14 0
-7 -12 0
-7 -9 0
-7 -8 0
-6 -130 0
-6 -122 0
-6 -121 0
-6 -112 0
-6 -109 0
-6 -107 0
-6 -101 0
-6 -100 0
-6 -88 0
-6 -86 0
-6 -74 0
-6 -70 0
-6 -67 0
-6 -65 0
-6 -63 0
-6 -60 0
-6 -46 0
-6 -44 0
-6 -40 0
-6 -33 0
-6 -10 0
-5 -126 0
-5 -110 0
-5 -105 0
-5 -99 0
-5 -92 0
-5 -88 0
-5 -86 0
-5 -66 0
-5 -64 0
-5 -45 0
-5 -32 0
-5 -24 0
-5 -22 0
-5 -21 0
-5 -18 0
-5 -15 0
-5 -14 0
-5 -9 0
-5 -8 0
-5 -7 0
-4 -126 0
-4 -105 0
-4 -104 0
-4 -99 0
-4 -86 0
-4 -85 0
-4 -77 0
-4 -60 0
-4 -52 0
-4 -50 0
-4 -45 0
-4 -43 0
-4 -41 0
-4 -24 0
-4 -22 0
-4 -21 0
-4 -18 0
-4 -17 0
-4 -15 0
-4 -5 0
-3 -133 0
-3 -109 0
-3 -104 0
-3 -98 0
-3 -97 0
-3 -94 0
-3 -92 0
-3 -85 0
-3 -77 0
-3 -75 0
-3 -62 0
-3 -60 0
-3 -52 0
-3 -50 0
-3 -43 0
-3 -42 0
-3 -41 0
-3 -29 0
-3 -27 0
-3 -17 0
-3 -4 0
-2 -125 0
-2 -124 0
-2 -110 0
-2 -96 0
-2 -95 0
-2 -90 0
-2 -87 0
-2 -83 0
-2 -81 0
-2 -71 0
-2 -59 0
-2 -57 0
-2 -56 0
-2 -50 0
-2 -37 0
-2 -36 0
-2 -33 0
-2 -29 0
-2 -15 0
-2 -11 0
-2 -10 0
-1 -132 0
-1 -131 0
-1 -128 0
-1 -121 0
-1 -120 0
-1 -118 0
-1 -85 0
-1 -76 0
-1 -74 0
-1 -69 0
-1 -66 0
-1 -61 0
-1 -57 0
-1 -54 0
-1 -48 0
-1 -37 0
-1 -35 0
-1 -27 0
-1 -20 0
-1 -18 0
-1 -12 0
1 12 18 27 35 37 54 74 120 131 132 0
2 10 15 29 36 56 57 90 96 124 125 0
3 4 17 41 43 50 52 60 77 85 104 0
5 7 8 9 14 32 64 66 88 92 110 0
6 33 44 67 86 100 101 109 121 122 130 0
11 38 40 48 62 68 78 93 99 111 119 0
13 30 34 42 46 71 73 103 115 126 128 0
16 23 26 28 69 72 75 81 105 112 113 0
19 24 49 59 70 82 91 94 106 108 118 0
22 25 51 55 65 76 79 83 84 98 114 0
31 39 45 53 61 89 95 102 107 116 133 0
20 21 47 58 63 80 87 97 117 123 127 129 0
