p cnf 91 775
-88 -89 0
-86 -87 0
-85 -91 0
-85 -87 0
-85 -86 0
-84 -87 0
-84 -86 0
-84 -85 0
-83 -87 0
-83 -86 0
-83 -85 0
-83 -84 0
-82 -91 0
-82 -85 0
-81 -86 0
-80 -81 0
-79 -87 0
-78 -90 0
-78 -88 0
-77 -90 0
-77 -87 0
-77 -79 0
-76 -87 0
-76 -86 0
-76 -85 0
-76 -84 0
-76 -83 0
-75 -86 0
-75 -81 0
-75 -79 0
-74 -87 0
-74 -86 0
-74 -85 0
-74 -84 0
-74 -83 0
-74 -80 0
-74 -76 0
-73 -90 0
-73 -78 0
-72 -76 0
-72 -73 0
-71 -87 0
-71 -81 0
-71 -80 0
-71 -79 0
-71 -77 0
-70 -88 0
-70 -87 0
-70 -79 0
-70 -78 0
-70 -77 0
-70 -71 0
-69 -91 0
-69 -76 0
-69 -72 0
-68 -87 0
-68 -79 0
-68 -77 0
-68 -73 0
-68 -72 0
-68 -71 0
-68 -70 0
-67 -91 0
-67 -90 0
-67 -85 0
-67 -82 0
-67 -77 0
-66 -84 0
-66 -79 0
-66 -75 0
-65 -89 0
-65 -88 0
-65 -82 0
-64 -91 0
-64 -85 0
-64 -82 0
-64 -73 0
-64 -72 0
-64 -68 0
-64 -67 0
-63 -91 0
-63 -84 0
-63 -69 0
-63 -66 0
-61 -91 0
-61 -69 0
-61 -63 0
-60 -91 0
-60 -90 0
-60 -78 0
-60 -73 0
-60 -69 0
-60 -63 0
-60 -61 0
-59 -89 0
-59 -88 0
-59 -87 0
-59 -86 0
-59 -85 0
-59 -84 0
-59 -83 0
-59 -76 0
-59 -74 0
-59 -65 0
-58 -88 0
-58 -80 0
-58 -78 0
-58 -74 0
-58 -70 0
-57 -91 0
-57 -86 0
-57 -81 0
-57 -75 0
-57 -69 0
-57 -63 0
-57 -61 0
-57 -60 0
-56 -83 0
-56 -81 0
-56 -80 0
-56 -71 0
-55 -88 0
-55 -84 0
-55 -78 0
-55 -70 0
-55 -66 0
-55 -63 0
-55 -58 0
-54 -83 0
-54 -73 0
-54 -72 0
-54 -68 0
-54 -64 0
-54 -56 0
-53 -87 0
-53 -82 0
-53 -79 0
-53 -77 0
-53 -71 0
-53 -70 0
-53 -68 0
-53 -65 0
-52 -90 0
-52 -79 0
-52 -78 0
-52 -75 0
-52 -73 0
-52 -66 0
-52 -60 0
-51 -87 0
-51 -86 0
-51 -85 0
-51 -84 0
-51 -83 0
-51 -76 0
-51 -74 0
-51 -61 0
-51 -59 0
-50 -90 0
-50 -77 0
-50 -76 0
-50 -72 0
-50 -69 0
-50 -67 0
-49 -89 0
-49 -83 0
-49 -56 0
-49 -54 0
-48 -91 0
-48 -80 0
-48 -74 0
-48 -69 0
-48 -63 0
-48 -61 0
-48 -60 0
-48 -58 0
-48 -57 0
-47 -88 0
-47 -78 0
-47 -70 0
-47 -61 0
-47 -58 0
-47 -55 0
-47 -51 0
-46 -89 0
-46 -88 0
-46 -73 0
-46 -72 0
-46 -68 0
-46 -65 0
-46 -64 0
-46 -59 0
-46 -54 0
-45 -91 0
-45 -87 0
-45 -79 0
-45 -77 0
-45 -71 0
-45 -70 0
-45 -69 0
-45 -68 0
-45 -63 0
-45 -61 0
-45 -60 0
-45 -57 0
-45 -53 0
-45 -48 0
-44 -89 0
-44 -76 0
-44 -72 0
-44 -69 0
-44 -50 0
-44 -49 0
-43 -91 0
-43 -89 0
-43 -88 0
-43 -69 0
-43 -65 0
-43 -63 0
-43 -61 0
-43 -60 0
-43 -59 0
-43 -57 0
-43 -48 0
-43 -46 0
-43 -45 0
-42 -88 0
-42 -86 0
-42 -81 0
-42 -78 0
-42 -75 0
-42 -70 0
-42 -58 0
-42 -57 0
-42 -55 0
-42 -47 0
-41 -86 0
-41 -81 0
-41 -75 0
-41 -73 0
-41 -72 0
-41 -68 0
-41 -64 0
-41 -57 0
-41 -54 0
-41 -46 0
-41 -42 0
-40 -83 0
-40 -82 0
-40 -65 0
-40 -56 0
-40 -54 0
-40 -53 0
-40 -49 0
-39 -89 0
-39 -61 0
-39 -51 0
-39 -49 0
-39 -47 0
-39 -44 0
-38 -80 0
-38 -74 0
-38 -73 0
-38 -72 0
-38 -68 0
-38 -64 0
-38 -58 0
-38 -54 0
-38 -48 0
-38 -46 0
-38 -41 0
-37 -91 0
-37 -88 0
-37 -85 0
-37 -82 0
-37 -78 0
-37 -70 0
-37 -67 0
-37 -64 0
-37 -58 0
-37 -55 0
-37 -47 0
-37 -42 0
-36 -82 0
-36 -76 0
-36 -72 0
-36 -69 0
-36 -65 0
-36 -53 0
-36 -50 0
-36 -44 0
-36 -40 0
-35 -81 0
-35 -80 0
-35 -71 0
-35 -61 0
-35 -56 0
-35 -51 0
-35 -47 0
-35 -39 0
-34 -89 0
-34 -86 0
-34 -81 0
-34 -75 0
-34 -57 0
-34 -49 0
-34 -44 0
-34 -42 0
-34 -41 0
-34 -39 0
-33 -90 0
-33 -77 0
-33 -67 0
-33 -61 0
-33 -51 0
-33 -50 0
-33 -47 0
-33 -39 0
-33 -35 0
-32 -89 0
-32 -88 0
-32 -81 0
-32 -80 0
-32 -71 0
-32 -65 0
-32 -59 0
-32 -56 0
-32 -46 0
-32 -43 0
-32 -35 0
-31 -90 0
-31 -83 0
-31 -77 0
-31 -67 0
-31 -56 0
-31 -54 0
-31 -50 0
-31 -49 0
-31 -40 0
-31 -33 0
-30 -88 0
-30 -83 0
-30 -78 0
-30 -70 0
-30 -58 0
-30 -56 0
-30 -55 0
-30 -54 0
-30 -49 0
-30 -47 0
-30 -42 0
-30 -40 0
-30 -37 0
-30 -31 0
-29 -91 0
-29 -85 0
-29 -82 0
-29 -81 0
-29 -80 0
-29 -71 0
-29 -67 0
-29 -64 0
-29 -56 0
-29 -37 0
-29 -35 0
-29 -32 0
-28 -90 0
-28 -81 0
-28 -80 0
-28 -78 0
-28 -73 0
-28 -71 0
-28 -60 0
-28 -56 0
-28 -52 0
-28 -35 0
-28 -32 0
-28 -29 0
-27 -90 0
-27 -84 0
-27 -77 0
-27 -67 0
-27 -66 0
-27 -63 0
-27 -55 0
-27 -50 0
-27 -33 0
-27 -31 0
-26 -90 0
-26 -80 0
-26 -77 0
-26 -74 0
-26 -67 0
-26 -58 0
-26 -50 0
-26 -48 0
-26 -38 0
-26 -33 0
-26 -31 0
-26 -27 0
-25 -90 0
-25 -82 0
-25 -78 0
-25 -73 0
-25 -65 0
-25 -60 0
-25 -53 0
-25 -52 0
-25 -40 0
-25 -36 0
-25 -28 0
-24 -82 0
-24 -65 0
-24 -61 0
-24 -53 0
-24 -51 0
-24 -47 0
-24 -40 0
-24 -39 0
-24 -36 0
-24 -35 0
-24 -33 0
-24 -25 0
-23 -89 0
-23 -84 0
-23 -66 0
-23 -63 0
-23 -55 0
-23 -49 0
-23 -44 0
-23 -39 0
-23 -34 0
-23 -27 0
-22 -91 0
-22 -85 0
-22 -82 0
-22 -79 0
-22 -75 0
-22 -67 0
-22 -66 0
-22 -64 0
-22 -52 0
-22 -37 0
-22 -29 0
-21 -82 0
-21 -80 0
-21 -74 0
-21 -65 0
-21 -58 0
-21 -53 0
-21 -48 0
-21 -40 0
-21 -38 0
-21 -36 0
-21 -26 0
-21 -25 0
-21 -24 0
-20 -80 0
-20 -79 0
-20 -75 0
-20 -74 0
-20 -66 0
-20 -58 0
-20 -52 0
-20 -48 0
-20 -38 0
-20 -26 0
-20 -22 0
-20 -21 0
-19 -89 0
-19 -87 0
-19 -79 0
-19 -77 0
-19 -71 0
-19 -70 0
-19 -68 0
-19 -53 0
-19 -49 0
-19 -45 0
-19 -44 0
-19 -39 0
-19 -34 0
-19 -23 0
-18 -81 0
-18 -80 0
-18 -76 0
-18 -72 0
-18 -71 0
-18 -69 0
-18 -56 0
-18 -50 0
-18 -44 0
-18 -36 0
-18 -35 0
-18 -32 0
-18 -29 0
-18 -28 0
-17 -88 0
-17 -78 0
-17 -76 0
-17 -72 0
-17 -70 0
-17 -69 0
-17 -58 0
-17 -55 0
-17 -50 0
-17 -47 0
-17 -44 0
-17 -42 0
-17 -37 0
-17 -36 0
-17 -30 0
-17 -18 0
-16 -73 0
-16 -72 0
-16 -68 0
-16 -64 0
-16 -61 0
-16 -54 0
-16 -51 0
-16 -47 0
-16 -46 0
-16 -41 0
-16 -39 0
-16 -38 0
-16 -35 0
-16 -33 0
-16 -24 0
-15 -90 0
-15 -87 0
-15 -86 0
-15 -85 0
-15 -84 0
-15 -83 0
-15 -78 0
-15 -76 0
-15 -74 0
-15 -73 0
-15 -60 0
-15 -59 0
-15 -52 0
-15 -51 0
-15 -28 0
-15 -25 0
-14 -89 0
-14 -88 0
-14 -79 0
-14 -75 0
-14 -66 0
-14 -65 0
-14 -59 0
-14 -52 0
-14 -46 0
-14 -43 0
-14 -32 0
-14 -22 0
-14 -20 0
-13 -83 0
-13 -79 0
-13 -75 0
-13 -66 0
-13 -56 0
-13 -54 0
-13 -52 0
-13 -49 0
-13 -40 0
-13 -31 0
-13 -30 0
-13 -22 0
-13 -20 0
-13 -14 0
-12 -90 0
-12 -89 0
-12 -88 0
-12 -77 0
-12 -67 0
-12 -65 0
-12 -59 0
-12 -50 0
-12 -46 0
-12 -43 0
-12 -33 0
-12 -32 0
-12 -31 0
-12 -27 0
-12 -26 0
-12 -14 0
-11 -86 0
-11 -82 0
-11 -81 0
-11 -75 0
-11 -65 0
-11 -57 0
-11 -53 0
-11 -42 0
-11 -41 0
-11 -40 0
-11 -36 0
-11 -34 0
-11 -25 0
-11 -24 0
-11 -21 0
-10 -91 0
-10 -83 0
-10 -69 0
-10 -63 0
-10 -61 0
-10 -60 0
-10 -57 0
-10 -56 0
-10 -54 0
-10 -49 0
-10 -48 0
-10 -45 0
-10 -43 0
-10 -40 0
-10 -31 0
-10 -30 0
-10 -13 0
-9 -89 0
-9 -80 0
-9 -74 0
-9 -58 0
-9 -49 0
-9 -48 0
-9 -44 0
-9 -39 0
-9 -38 0
-9 -34 0
-9 -26 0
-9 -23 0
-9 -21 0
-9 -20 0
-9 -19 0
-8 -90 0
-8 -89 0
-8 -78 0
-8 -73 0
-8 -60 0
-8 -52 0
-8 -49 0
-8 -44 0
-8 -39 0
-8 -34 0
-8 -28 0
-8 -25 0
-8 -23 0
-8 -19 0
-8 -15 0
-8 -9 0
-7 -90 0
-7 -86 0
-7 -81 0
-7 -77 0
-7 -75 0
-7 -67 0
-7 -57 0
-7 -50 0
-7 -42 0
-7 -41 0
-7 -34 0
-7 -33 0
-7 -31 0
-7 -27 0
-7 -26 0
-7 -12 0
-7 -11 0
-6 -84 0
-6 -81 0
-6 -80 0
-6 -71 0
-6 -66 0
-6 -63 0
-6 -56 0
-6 -55 0
-6 -35 0
-6 -32 0
-6 -29 0
-6 -28 0
-6 -27 0
-6 -23 0
-6 -18 0
-5 -79 0
-5 -75 0
-5 -66 0
-5 -61 0
-5 -52 0
-5 -51 0
-5 -47 0
-5 -39 0
-5 -35 0
-5 -33 0
-5 -24 0
-5 -22 0
-5 -20 0
-5 -16 0
-5 -14 0
-5 -13 0
-4 -84 0
-4 -73 0
-4 -72 0
-4 -68 0
-4 -66 0
-4 -64 0
-4 -63 0
-4 -55 0
-4 -54 0
-4 -46 0
-4 -41 0
-4 -38 0
-4 -27 0
-4 -23 0
-4 -16 0
-4 -6 0
-3 -91 0
-3 -89 0
-3 -85 0
-3 -82 0
-3 -67 0
-3 -64 0
-3 -49 0
-3 -44 0
-3 -39 0
-3 -37 0
-3 -34 0
-3 -29 0
-3 -23 0
-3 -22 0
-3 -19 0
-3 -9 0
-3 -8 0
-2 -84 0
-2 -82 0
-2 -66 0
-2 -65 0
-2 -63 0
-2 -55 0
-2 -53 0
-2 -40 0
-2 -36 0
-2 -27 0
-2 -25 0
-2 -24 0
-2 -23 0
-2 -21 0
-2 -11 0
-2 -6 0
-2 -4 0
-1 -79 0
-1 -76 0
-1 -75 0
-1 -72 0
-1 -69 0
-1 -66 0
-1 -52 0
-1 -50 0
-1 -44 0
-1 -36 0
-1 -22 0
-1 -20 0
-1 -18 0
-1 -17 0
-1 -14 0
-1 -13 0
-1 -5 0
1 17 18 36 44 50 69 72 76 0
2 4 6 23 27 55 63 66 84 0
3 22 29 37 64 67 82 85 91 0
5 16 24 33 35 39 47 51 61 0
7 11 34 41 42 57 75 81 86 0
8 15 25 28 52 60 73 78 90 0
9 20 21 26 38 48 58 74 80 0
12 14 32 43 46 59 65 88 89 0
19 45 53 68 70 71 77 79 87 0
10 13 30 31 40 49 54 56 62 83 0
