p cnf 43 238
-40 -42 0
-39 -43 0
-38 -39 0
-37 -43 0
-37 -41 0
-37 -39 0
-36 -42 0
-36 -40 0
-36 -39 0
-36 -38 0
-35 -42 0
-35 -40 0
-35 -36 0
-34 -41 0
-34 -38 0
-34 -37 0
-33 -40 0
-32 -41 0
-32 -39 0
-32 -38 0
-32 -36 0
-31 -42 0
-31 -38 0
-31 -34 0
-30 -42 0
-30 -41 0
-30 -32 0
-30 -31 0
-29 -43 0
-29 -33 0
-28 -42 0
-28 -40 0
-28 -36 0
-28 -35 0
-27 -43 0
-27 -39 0
-27 -37 0
-27 -35 0
-26 -43 0
-26 -41 0
-26 -32 0
-26 -30 0
-26 -29 0
-25 -43 0
-25 -39 0
-25 -37 0
-25 -28 0
-25 -27 0
-24 -33 0
-24 -29 0
-24 -28 0
-24 -25 0
-23 -41 0
-23 -37 0
-23 -34 0
-23 -33 0
-23 -29 0
-23 -24 0
-22 -40 0
-22 -38 0
-22 -34 0
-22 -33 0
-22 -31 0
-21 -38 0
-21 -35 0
-21 -34 0
-21 -31 0
-21 -27 0
-21 -22 0
-20 -43 0
-20 -42 0
-20 -40 0
-20 -36 0
-20 -35 0
-20 -29 0
-20 -28 0
-20 -26 0
-19 -43 0
-19 -29 0
-19 -26 0
-19 -20 0
-18 -43 0
-18 -42 0
-18 -39 0
-18 -37 0
-18 -31 0
-18 -30 0
-18 -27 0
-18 -25 0
-17 -41 0
-17 -35 0
-17 -32 0
-17 -30 0
-17 -27 0
-17 -26 0
-17 -21 0
-15 -42 0
-15 -41 0
-15 -40 0
-15 -37 0
-15 -36 0
-15 -35 0
-15 -34 0
-15 -28 0
-15 -23 0
-15 -20 0
-14 -43 0
-14 -40 0
-14 -39 0
-14 -37 0
-14 -33 0
-14 -27 0
-14 -25 0
-14 -22 0
-14 -18 0
-13 -42 0
-13 -33 0
-13 -31 0
-13 -30 0
-13 -29 0
-13 -24 0
-13 -23 0
-13 -18 0
-12 -41 0
-12 -37 0
-12 -34 0
-12 -23 0
-12 -19 0
-12 -15 0
-11 -40 0
-11 -33 0
-11 -22 0
-11 -19 0
-11 -14 0
-11 -12 0
-10 -42 0
-10 -31 0
-10 -30 0
-10 -19 0
-10 -18 0
-10 -13 0
-10 -12 0
-10 -11 0
-9 -35 0
-9 -27 0
-9 -21 0
-9 -19 0
-9 -17 0
-9 -12 0
-9 -11 0
-9 -10 0
-8 -43 0
-8 -38 0
-8 -34 0
-8 -31 0
-8 -29 0
-8 -26 0
-8 -22 0
-8 -21 0
-8 -20 0
-8 -19 0
-7 -39 0
-7 -38 0
-7 -36 0
-7 -32 0
-7 -19 0
-7 -12 0
-7 -11 0
-7 -10 0
-7 -9 0
-6 -35 0
-6 -33 0
-6 -29 0
-6 -27 0
-6 -24 0
-6 -23 0
-6 -21 0
-6 -17 0
-6 -13 0
-6 -9 0
-5 -28 0
-5 -25 0
-5 -24 0
-5 -19 0
-5 -12 0
-5 -11 0
-5 -10 0
-5 -9 0
-5 -7 0
-4 -38 0
-4 -34 0
-4 -31 0
-4 -28 0
-4 -25 0
-4 -24 0
-4 -22 0
-4 -21 0
-4 -8 0
-4 -5 0
-3 -41 0
-3 -40 0
-3 -33 0
-3 -32 0
-3 -30 0
-3 -26 0
-3 -22 0
-3 -17 0
-3 -14 0
-3 -11 0
-2 -41 0
-2 -32 0
-2 -30 0
-2 -28 0
-2 -26 0
-2 -25 0
-2 -24 0
-2 -17 0
-2 -5 0
-2 -4 0
-2 -3 0
-1 -39 0
-1 -38 0
-1 -36 0
-1 -33 0
-1 -32 0
-1 -29 0
-1 -24 0
-1 -23 0
-1 -13 0
-1 -7 0
-1 -6 0
1 7 32 36 38 39 0
2 4 5 24 25 28 0
6 9 17 21 27 35 0
8 19 20 26 29 43 0
10 13 18 30 31 42 0
12 15 23 34 37 41 0
3 11 14 16 22 33 40 0
