p cnf 73 549
-70 -73 0
-69 -72 0
-68 -73 0
-67 -71 0
-66 -70 0
-65 -72 0
-65 -69 0
-64 -67 0
-63 -72 0
-63 -67 0
-63 -64 0
-61 -70 0
-61 -69 0
-61 -66 0
-60 -73 0
-60 -72 0
-60 -68 0
-60 -63 0
-59 -71 0
-59 -67 0
-59 -62 0
-58 -72 0
-58 -69 0
-58 -65 0
-58 -62 0
-57 -70 0
-57 -66 0
-57 -65 0
-57 -61 0
-56 -68 0
-56 -67 0
-56 -64 0
-56 -63 0
-55 -73 0
-55 -72 0
-55 -70 0
-55 -69 0
-55 -65 0
-55 -58 0
-54 -65 0
-54 -57 0
-53 -70 0
-53 -66 0
-53 -62 0
-53 -61 0
-53 -58 0
-53 -57 0
-52 -72 0
-52 -69 0
-52 -66 0
-52 -65 0
-52 -58 0
-52 -55 0
-51 -69 0
-51 -62 0
-51 -61 0
-51 -59 0
-50 -69 0
-50 -61 0
-50 -51 0
-49 -67 0
-49 -65 0
-49 -64 0
-49 -63 0
-49 -57 0
-49 -56 0
-49 -54 0
-48 -64 0
-48 -54 0
-47 -73 0
-47 -70 0
-47 -55 0
-47 -50 0
-46 -68 0
-46 -56 0
-46 -50 0
-46 -47 0
-45 -72 0
-45 -63 0
-45 -62 0
-45 -60 0
-45 -59 0
-45 -51 0
-44 -72 0
-44 -71 0
-44 -63 0
-44 -60 0
-44 -45 0
-43 -71 0
-43 -66 0
-43 -52 0
-43 -44 0
-42 -72 0
-42 -63 0
-42 -60 0
-42 -54 0
-42 -48 0
-42 -45 0
-42 -44 0
-41 -73 0
-41 -68 0
-41 -66 0
-41 -60 0
-41 -52 0
-41 -43 0
-40 -73 0
-40 -70 0
-40 -62 0
-40 -59 0
-40 -55 0
-40 -51 0
-40 -47 0
-40 -45 0
-39 -73 0
-39 -68 0
-39 -65 0
-39 -60 0
-39 -57 0
-39 -54 0
-39 -49 0
-39 -41 0
-38 -62 0
-38 -58 0
-38 -54 0
-38 -53 0
-38 -48 0
-38 -42 0
-37 -71 0
-37 -67 0
-37 -59 0
-37 -50 0
-37 -47 0
-37 -46 0
-36 -67 0
-36 -64 0
-36 -63 0
-36 -62 0
-36 -58 0
-36 -56 0
-36 -53 0
-36 -49 0
-36 -38 0
-35 -73 0
-35 -68 0
-35 -64 0
-35 -60 0
-35 -48 0
-35 -41 0
-35 -39 0
-34 -73 0
-34 -70 0
-34 -55 0
-34 -54 0
-34 -48 0
-34 -47 0
-34 -42 0
-34 -40 0
-34 -38 0
-33 -73 0
-33 -71 0
-33 -68 0
-33 -67 0
-33 -60 0
-33 -59 0
-33 -41 0
-33 -39 0
-33 -37 0
-33 -35 0
-32 -64 0
-32 -62 0
-32 -59 0
-32 -51 0
-32 -48 0
-32 -45 0
-32 -40 0
-32 -35 0
-31 -71 0
-31 -62 0
-31 -58 0
-31 -53 0
-31 -44 0
-31 -43 0
-31 -38 0
-31 -36 0
-30 -73 0
-30 -69 0
-30 -68 0
-30 -61 0
-30 -60 0
-30 -51 0
-30 -50 0
-30 -41 0
-30 -39 0
-30 -35 0
-30 -33 0
-29 -72 0
-29 -69 0
-29 -68 0
-29 -65 0
-29 -58 0
-29 -56 0
-29 -55 0
-29 -52 0
-29 -46 0
-28 -71 0
-28 -70 0
-28 -67 0
-28 -66 0
-28 -61 0
-28 -59 0
-28 -57 0
-28 -53 0
-28 -37 0
-28 -33 0
-27 -72 0
-27 -69 0
-27 -65 0
-27 -64 0
-27 -58 0
-27 -55 0
-27 -52 0
-27 -48 0
-27 -35 0
-27 -32 0
-27 -29 0
-26 -71 0
-26 -64 0
-26 -48 0
-26 -44 0
-26 -43 0
-26 -35 0
-26 -32 0
-26 -31 0
-26 -27 0
-24 -66 0
-24 -54 0
-24 -52 0
-24 -48 0
-24 -43 0
-24 -42 0
-24 -41 0
-24 -38 0
-24 -34 0
-23 -69 0
-23 -61 0
-23 -54 0
-23 -51 0
-23 -50 0
-23 -48 0
-23 -42 0
-23 -38 0
-23 -34 0
-23 -30 0
-23 -24 0
-22 -73 0
-22 -71 0
-22 -70 0
-22 -55 0
-22 -47 0
-22 -44 0
-22 -43 0
-22 -40 0
-22 -34 0
-22 -31 0
-22 -26 0
-21 -66 0
-21 -52 0
-21 -50 0
-21 -47 0
-21 -46 0
-21 -43 0
-21 -41 0
-21 -37 0
-21 -24 0
-20 -70 0
-20 -68 0
-20 -66 0
-20 -61 0
-20 -57 0
-20 -56 0
-20 -53 0
-20 -46 0
-20 -29 0
-20 -28 0
-19 -70 0
-19 -66 0
-19 -64 0
-19 -61 0
-19 -57 0
-19 -53 0
-19 -48 0
-19 -35 0
-19 -32 0
-19 -28 0
-19 -27 0
-19 -26 0
-19 -20 0
-18 -64 0
-18 -50 0
-18 -48 0
-18 -47 0
-18 -46 0
-18 -37 0
-18 -35 0
-18 -32 0
-18 -27 0
-18 -26 0
-18 -21 0
-18 -19 0
-17 -71 0
-17 -65 0
-17 -57 0
-17 -54 0
-17 -49 0
-17 -44 0
-17 -43 0
-17 -39 0
-17 -31 0
-17 -26 0
-17 -22 0
-16 -73 0
-16 -68 0
-16 -62 0
-16 -60 0
-16 -58 0
-16 -53 0
-16 -41 0
-16 -39 0
-16 -38 0
-16 -36 0
-16 -35 0
-16 -33 0
-16 -31 0
-16 -30 0
-15 -71 0
-15 -67 0
-15 -59 0
-15 -54 0
-15 -48 0
-15 -42 0
-15 -38 0
-15 -37 0
-15 -34 0
-15 -33 0
-15 -28 0
-15 -24 0
-15 -23 0
-14 -67 0
-14 -66 0
-14 -64 0
-14 -63 0
-14 -56 0
-14 -52 0
-14 -49 0
-14 -43 0
-14 -41 0
-14 -36 0
-14 -24 0
-14 -21 0
-13 -72 0
-13 -71 0
-13 -69 0
-13 -67 0
-13 -65 0
-13 -59 0
-13 -58 0
-13 -55 0
-13 -52 0
-13 -37 0
-13 -33 0
-13 -29 0
-13 -28 0
-13 -27 0
-13 -15 0
-12 -65 0
-12 -57 0
-12 -54 0
-12 -50 0
-12 -49 0
-12 -47 0
-12 -46 0
-12 -39 0
-12 -37 0
-12 -21 0
-12 -18 0
-12 -17 0
-11 -73 0
-11 -70 0
-11 -67 0
-11 -64 0
-11 -63 0
-11 -56 0
-11 -55 0
-11 -49 0
-11 -47 0
-11 -40 0
-11 -36 0
-11 -34 0
-11 -22 0
-11 -14 0
-10 -72 0
-10 -63 0
-10 -60 0
-10 -50 0
-10 -47 0
-10 -46 0
-10 -45 0
-10 -44 0
-10 -42 0
-10 -37 0
-10 -21 0
-10 -18 0
-10 -12 0
-9 -66 0
-9 -62 0
-9 -59 0
-9 -52 0
-9 -51 0
-9 -45 0
-9 -43 0
-9 -41 0
-9 -40 0
-9 -32 0
-9 -24 0
-9 -21 0
-9 -14 0
-8 -69 0
-8 -67 0
-8 -64 0
-8 -63 0
-8 -61 0
-8 -56 0
-8 -51 0
-8 -50 0
-8 -49 0
-8 -36 0
-8 -30 0
-8 -23 0
-8 -14 0
-8 -11 0
-7 -62 0
-7 -58 0
-7 -53 0
-7 -50 0
-7 -47 0
-7 -46 0
-7 -38 0
-7 -37 0
-7 -36 0
-7 -31 0
-7 -21 0
-7 -18 0
-7 -16 0
-7 -12 0
-7 -10 0
-6 -68 0
-6 -56 0
-6 -54 0
-6 -48 0
-6 -46 0
-6 -42 0
-6 -38 0
-6 -34 0
-6 -29 0
-6 -24 0
-6 -23 0
-6 -20 0
-6 -15 0
-5 -71 0
-5 -68 0
-5 -56 0
-5 -46 0
-5 -44 0
-5 -43 0
-5 -31 0
-5 -29 0
-5 -26 0
-5 -22 0
-5 -20 0
-5 -17 0
-5 -6 0
-4 -68 0
-4 -62 0
-4 -59 0
-4 -56 0
-4 -51 0
-4 -46 0
-4 -45 0
-4 -40 0
-4 -32 0
-4 -29 0
-4 -20 0
-4 -9 0
-4 -6 0
-4 -5 0
-3 -65 0
-3 -62 0
-3 -59 0
-3 -57 0
-3 -54 0
-3 -51 0
-3 -49 0
-3 -45 0
-3 -40 0
-3 -39 0
-3 -32 0
-3 -17 0
-3 -12 0
-3 -9 0
-3 -4 0
-2 -72 0
-2 -70 0
-2 -66 0
-2 -63 0
-2 -61 0
-2 -60 0
-2 -57 0
-2 -53 0
-2 -45 0
-2 -44 0
-2 -42 0
-2 -28 0
-2 -20 0
-2 -19 0
-2 -10 0
-1 -71 0
-1 -69 0
-1 -61 0
-1 -51 0
-1 -50 0
-1 -44 0
-1 -43 0
-1 -31 0
-1 -30 0
-1 -26 0
-1 -23 0
-1 -22 0
-1 -17 0
-1 -8 0
-1 -5 0
1 8 23 30 50 51 61 69 0
2 10 42 44 45 60 63 72 0
3 12 17 39 49 54 57 65 0
4 5 6 20 29 46 56 68 0
7 16 31 36 38 53 58 62 0
9 14 21 24 41 43 52 66 0
11 22 34 40 47 55 70 73 0
18 19 26 27 32 35 48 64 0
13 15 25 28 33 37 59 67 71 0
