p cnf 31 141
-30 -31 0
-29 -31 0
-29 -30 0
-27 -29 0
-26 -31 0
-25 -31 0
-25 -26 0
-24 -31 0
-24 -27 0
-24 -26 0
-24 -25 0
-23 -30 0
-22 -29 0
-22 -27 0
-22 -25 0
-21 -31 0
-21 -30 0
-21 -29 0
-21 -28 0
-20 -29 0
-20 -27 0
-20 -23 0
-20 -22 0
-19 -27 0
-19 -24 0
-18 -28 0
-18 -26 0
-18 -21 0
-17 -28 0
-17 -25 0
-17 -22 0
-17 -21 0
-17 -18 0
-16 -30 0
-16 -27 0
-16 -24 0
-16 -23 0
-16 -19 0
-15 -23 0
-15 -20 0
-15 -19 0
-14 -31 0
-14 -28 0
-14 -26 0
-14 -25 0
-14 -24 0
-13 -28 0
-13 -23 0
-13 -21 0
-13 -20 0
-13 -18 0
-13 -17 0
-13 -15 0
-12 -28 0
-12 -27 0
-12 -24 0
-12 -21 0
-12 -19 0
-12 -18 0
-12 -17 0
-12 -16 0
-12 -13 0
-11 -29 0
-11 -27 0
-11 -26 0
-11 -22 0
-11 -20 0
-11 -18 0
-10 -26 0
-10 -19 0
-10 -18 0
-10 -15 0
-10 -11 0
-9 -25 0
-9 -22 0
-9 -19 0
-9 -17 0
-9 -15 0
-9 -10 0
-7 -30 0
-7 -28 0
-7 -23 0
-7 -16 0
-7 -14 0
-6 -30 0
-6 -25 0
-6 -23 0
-6 -22 0
-6 -17 0
-6 -16 0
-6 -9 0
-6 -7 0
-5 -31 0
-5 -26 0
-5 -25 0
-5 -24 0
-5 -23 0
-5 -20 0
-5 -15 0
-5 -14 0
-5 -13 0
-4 -30 0
-4 -26 0
-4 -23 0
-4 -18 0
-4 -16 0
-4 -11 0
-4 -10 0
-4 -7 0
-4 -6 0
-3 -31 0
-3 -30 0
-3 -29 0
-3 -21 0
-3 -19 0
-3 -15 0
-3 -10 0
-3 -9 0
-2 -29 0
-2 -28 0
-2 -27 0
-2 -22 0
-2 -20 0
-2 -14 0
-2 -11 0
-2 -7 0
-1 -28 0
-1 -19 0
-1 -15 0
-1 -14 0
-1 -10 0
-1 -9 0
-1 -7 0
-1 -3 0
-1 -2 0
1 2 7 14 28 0
3 21 29 30 31 0
4 10 11 18 26 0
5 13 15 20 23 0
12 16 19 24 27 0
6 8 9 17 22 25 0
