p cnf 43 238
-41 -42 0
-39 -43 0
-38 -39 0
-37 -38 0
-36 -43 0
-36 -42 0
-36 -41 0
-36 -39 0
-35 -43 0
-35 -40 0
-34 -43 0
-34 -39 0
-34 -36 0
-33 -40 0
-33 -35 0
-32 -43 0
-32 -38 0
-32 -37 0
-32 -35 0
-31 -38 0
-31 -37 0
-31 -34 0
-31 -32 0
-30 -40 0
-30 -39 0
-30 -38 0
-30 -35 0
-30 -33 0
-29 -40 0
-29 -37 0
-29 -35 0
-29 -33 0
-29 -30 0
-28 -42 0
-28 -41 0
-28 -36 0
-27 -42 0
-27 -40 0
-26 -42 0
-26 -33 0
-26 -27 0
-25 -42 0
-25 -39 0
-25 -38 0
-25 -30 0
-25 -27 0
-25 -26 0
-24 -40 0
-24 -38 0
-24 -37 0
-24 -32 0
-24 -31 0
-24 -27 0
-23 -41 0
-23 -34 0
-23 -31 0
-22 -40 0
-22 -35 0
-22 -34 0
-22 -33 0
-22 -31 0
-22 -30 0
-22 -29 0
-22 -23 0
-21 -43 0
-21 -39 0
-21 -36 0
-21 -34 0
-21 -33 0
-21 -26 0
-20 -43 0
-20 -42 0
-20 -35 0
-20 -32 0
-20 -27 0
-20 -26 0
-20 -25 0
-19 -43 0
-19 -41 0
-19 -35 0
-19 -32 0
-19 -23 0
-19 -20 0
-18 -42 0
-18 -41 0
-18 -40 0
-18 -36 0
-18 -35 0
-18 -33 0
-18 -30 0
-18 -29 0
-18 -28 0
-18 -22 0
-17 -43 0
-17 -35 0
-17 -32 0
-17 -28 0
-17 -20 0
-17 -19 0
-16 -41 0
-16 -37 0
-16 -29 0
-16 -23 0
-16 -19 0
-15 -42 0
-15 -34 0
-15 -31 0
-15 -27 0
-15 -26 0
-15 -25 0
-15 -23 0
-15 -22 0
-15 -20 0
-14 -42 0
-14 -41 0
-14 -38 0
-14 -37 0
-14 -36 0
-14 -32 0
-14 -31 0
-14 -28 0
-14 -24 0
-14 -18 0
-12 -33 0
-12 -28 0
-12 -26 0
-12 -21 0
-12 -17 0
-11 -34 0
-11 -31 0
-11 -28 0
-11 -23 0
-11 -22 0
-11 -17 0
-11 -15 0
-11 -12 0
-10 -40 0
-10 -28 0
-10 -27 0
-10 -24 0
-10 -17 0
-10 -12 0
-10 -11 0
-9 -43 0
-9 -39 0
-9 -37 0
-9 -36 0
-9 -34 0
-9 -29 0
-9 -21 0
-9 -16 0
-8 -42 0
-8 -37 0
-8 -29 0
-8 -27 0
-8 -26 0
-8 -25 0
-8 -20 0
-8 -16 0
-8 -15 0
-8 -9 0
-7 -41 0
-7 -33 0
-7 -26 0
-7 -23 0
-7 -21 0
-7 -19 0
-7 -16 0
-7 -12 0
-6 -37 0
-6 -29 0
-6 -28 0
-6 -17 0
-6 -16 0
-6 -12 0
-6 -11 0
-6 -10 0
-6 -9 0
-6 -8 0
-5 -38 0
-5 -37 0
-5 -33 0
-5 -32 0
-5 -31 0
-5 -26 0
-5 -24 0
-5 -21 0
-5 -14 0
-5 -12 0
-5 -7 0
-4 -39 0
-4 -38 0
-4 -30 0
-4 -28 0
-4 -25 0
-4 -17 0
-4 -12 0
-4 -11 0
-4 -10 0
-4 -6 0
-3 -43 0
-3 -40 0
-3 -39 0
-3 -36 0
-3 -34 0
-3 -27 0
-3 -24 0
-3 -21 0
-3 -10 0
-3 -9 0
-2 -41 0
-2 -40 0
-2 -27 0
-2 -24 0
-2 -23 0
-2 -19 0
-2 -16 0
-2 -10 0
-2 -7 0
-2 -3 0
-1 -41 0
-1 -39 0
-1 -38 0
-1 -30 0
-1 -25 0
-1 -23 0
-1 -19 0
-1 -16 0
-1 -7 0
-1 -4 0
-1 -2 0
1 4 25 30 38 39 0
2 3 10 24 27 40 0
5 7 12 21 26 33 0
6 8 9 16 29 37 0
11 15 22 23 31 34 0
17 19 20 32 35 43 0
13 14 18 28 36 41 42 0
