p cnf 57 372
-54 -57 0
-54 -56 0
-53 -56 0
-53 -54 0
-51 -52 0
-49 -55 0
-48 -52 0
-48 -51 0
-48 -50 0
-47 -57 0
-47 -50 0
-47 -48 0
-46 -57 0
-46 -54 0
-46 -50 0
-45 -51 0
-44 -50 0
-44 -48 0
-44 -47 0
-43 -57 0
-43 -52 0
-43 -47 0
-42 -57 0
-42 -55 0
-42 -47 0
-42 -43 0
-41 -56 0
-41 -55 0
-41 -49 0
-40 -57 0
-40 -51 0
-40 -47 0
-40 -45 0
-40 -43 0
-40 -42 0
-39 -52 0
-39 -44 0
-39 -43 0
-38 -53 0
-38 -50 0
-38 -46 0
-37 -49 0
-37 -44 0
-37 -39 0
-36 -56 0
-36 -54 0
-36 -53 0
-36 -51 0
-36 -45 0
-36 -40 0
-35 -56 0
-35 -44 0
-35 -41 0
-35 -39 0
-35 -37 0
-34 -55 0
-34 -53 0
-34 -49 0
-34 -41 0
-34 -38 0
-33 -52 0
-33 -51 0
-33 -49 0
-33 -48 0
-33 -37 0
-32 -49 0
-32 -45 0
-32 -37 0
-32 -33 0
-31 -56 0
-31 -50 0
-31 -46 0
-31 -41 0
-31 -38 0
-31 -35 0
-30 -52 0
-30 -50 0
-30 -46 0
-30 -43 0
-30 -39 0
-30 -38 0
-30 -31 0
-29 -51 0
-29 -45 0
-29 -44 0
-29 -40 0
-29 -39 0
-29 -37 0
-29 -36 0
-29 -35 0
-28 -55 0
-28 -50 0
-28 -46 0
-28 -42 0
-28 -38 0
-28 -31 0
-28 -30 0
-27 -56 0
-27 -52 0
-27 -51 0
-27 -48 0
-27 -41 0
-27 -35 0
-27 -33 0
-27 -31 0
-26 -57 0
-26 -54 0
-26 -46 0
-26 -44 0
-26 -39 0
-26 -37 0
-26 -35 0
-26 -29 0
-25 -57 0
-25 -53 0
-25 -47 0
-25 -43 0
-25 -42 0
-25 -40 0
-25 -38 0
-25 -34 0
-24 -57 0
-24 -54 0
-24 -52 0
-24 -51 0
-24 -48 0
-24 -46 0
-24 -33 0
-24 -27 0
-24 -26 0
-23 -53 0
-23 -44 0
-23 -39 0
-23 -38 0
-23 -37 0
-23 -35 0
-23 -34 0
-23 -29 0
-23 -26 0
-23 -25 0
-22 -53 0
-22 -52 0
-22 -51 0
-22 -48 0
-22 -38 0
-22 -34 0
-22 -33 0
-22 -27 0
-22 -25 0
-22 -24 0
-22 -23 0
-21 -56 0
-21 -54 0
-21 -53 0
-21 -49 0
-21 -37 0
-21 -36 0
-21 -33 0
-21 -32 0
-20 -57 0
-20 -54 0
-20 -46 0
-20 -45 0
-20 -32 0
-20 -26 0
-20 -24 0
-19 -57 0
-19 -55 0
-19 -54 0
-19 -49 0
-19 -46 0
-19 -41 0
-19 -34 0
-19 -26 0
-19 -24 0
-19 -20 0
-18 -55 0
-18 -52 0
-18 -49 0
-18 -43 0
-18 -41 0
-18 -39 0
-18 -34 0
-18 -30 0
-18 -19 0
-17 -56 0
-17 -45 0
-17 -41 0
-17 -35 0
-17 -32 0
-17 -31 0
-17 -27 0
-17 -20 0
-15 -57 0
-15 -49 0
-15 -47 0
-15 -43 0
-15 -42 0
-15 -40 0
-15 -37 0
-15 -33 0
-15 -32 0
-15 -25 0
-15 -21 0
-14 -55 0
-14 -52 0
-14 -51 0
-14 -48 0
-14 -42 0
-14 -33 0
-14 -28 0
-14 -27 0
-14 -24 0
-14 -22 0
-13 -52 0
-13 -45 0
-13 -43 0
-13 -39 0
-13 -32 0
-13 -30 0
-13 -20 0
-13 -18 0
-13 -17 0
-12 -50 0
-12 -48 0
-12 -47 0
-12 -45 0
-12 -44 0
-12 -32 0
-12 -20 0
-12 -17 0
-12 -13 0
-11 -51 0
-11 -50 0
-11 -46 0
-11 -45 0
-11 -40 0
-11 -38 0
-11 -36 0
-11 -31 0
-11 -30 0
-11 -29 0
-11 -28 0
-10 -56 0
-10 -54 0
-10 -53 0
-10 -52 0
-10 -43 0
-10 -39 0
-10 -36 0
-10 -30 0
-10 -21 0
-10 -18 0
-10 -13 0
-9 -57 0
-9 -56 0
-9 -47 0
-9 -43 0
-9 -42 0
-9 -41 0
-9 -40 0
-9 -35 0
-9 -31 0
-9 -27 0
-9 -25 0
-9 -17 0
-9 -15 0
-8 -56 0
-8 -54 0
-8 -53 0
-8 -50 0
-8 -48 0
-8 -47 0
-8 -44 0
-8 -36 0
-8 -21 0
-8 -12 0
-8 -10 0
-7 -56 0
-7 -55 0
-7 -54 0
-7 -53 0
-7 -42 0
-7 -36 0
-7 -28 0
-7 -21 0
-7 -14 0
-7 -10 0
-7 -8 0
-6 -50 0
-6 -49 0
-6 -46 0
-6 -38 0
-6 -37 0
-6 -33 0
-6 -32 0
-6 -31 0
-6 -30 0
-6 -28 0
-6 -21 0
-6 -15 0
-6 -11 0
-5 -53 0
-5 -45 0
-5 -38 0
-5 -34 0
-5 -32 0
-5 -25 0
-5 -23 0
-5 -22 0
-5 -20 0
-5 -17 0
-5 -13 0
-5 -12 0
-4 -55 0
-4 -44 0
-4 -42 0
-4 -39 0
-4 -37 0
-4 -35 0
-4 -29 0
-4 -28 0
-4 -26 0
-4 -23 0
-4 -14 0
-4 -7 0
-3 -55 0
-3 -50 0
-3 -49 0
-3 -48 0
-3 -47 0
-3 -44 0
-3 -41 0
-3 -34 0
-3 -19 0
-3 -18 0
-3 -12 0
-3 -8 0
-2 -55 0
-2 -51 0
-2 -49 0
-2 -45 0
-2 -41 0
-2 -40 0
-2 -36 0
-2 -34 0
-2 -29 0
-2 -19 0
-2 -18 0
-2 -11 0
-2 -3 0
-1 -55 0
-1 -45 0
-1 -42 0
-1 -32 0
-1 -28 0
-1 -20 0
-1 -17 0
-1 -14 0
-1 -13 0
-1 -12 0
-1 -7 0
-1 -5 0
-1 -4 0
1 4 7 14 28 42 55 0
2 11 29 36 40 45 51 0
3 8 12 44 47 48 50 0
6 15 21 32 33 37 49 0
9 17 27 31 35 41 56 0
10 13 18 30 39 43 52 0
19 20 24 26 46 54 57 0
5 16 22 23 25 34 38 53 0
