p cnf 133 1398
-129 -132 0
-128 -131 0
-126 -127 0
-125 -131 0
-125 -129 0
-124 -131 0
-124 -125 0
-123 -129 0
-123 -126 0
-123 -125 0
-122 -130 0
-122 -128 0
-121 -132 0
-121 -129 0
-119 -126 0
-119 -123 0
-118 -131 0
-118 -128 0
-117 -132 0
-116 -126 0
-116 -123 0
-116 -119 0
-115 -129 0
-115 -125 0
-115 -123 0
-114 -130 0
-113 -115 0
-112 -126 0
-112 -123 0
-112 -119 0
-112 -116 0
-112 -113 0
-111 -132 0
-111 -120 0
-111 -117 0
-110 -129 0
-110 -125 0
-110 -123 0
-110 -115 0
-109 -119 0
-109 -115 0
-109 -113 0
-108 -132 0
-108 -131 0
-108 -125 0
-108 -124 0
-108 -117 0
-108 -111 0
-107 -116 0
-107 -115 0
-107 -113 0
-107 -109 0
-106 -132 0
-106 -131 0
-106 -129 0
-106 -128 0
-106 -121 0
-106 -118 0
-105 -118 0
-105 -116 0
-105 -107 0
-104 -130 0
-104 -127 0
-104 -122 0
-103 -127 0
-103 -126 0
-103 -115 0
-103 -113 0
-103 -109 0
-103 -107 0
-102 -124 0
-102 -115 0
-102 -113 0
-102 -109 0
-102 -107 0
-102 -103 0
-101 -130 0
-101 -121 0
-101 -114 0
-100 -128 0
-100 -122 0
-100 -114 0
-99 -132 0
-99 -129 0
-99 -121 0
-99 -120 0
-99 -106 0
-98 -113 0
-98 -112 0
-98 -110 0
-97 -128 0
-97 -122 0
-97 -119 0
-97 -109 0
-97 -100 0
-96 -129 0
-96 -125 0
-96 -123 0
-96 -118 0
-96 -115 0
-96 -110 0
-96 -105 0
-95 -130 0
-95 -129 0
-95 -125 0
-95 -123 0
-95 -115 0
-95 -114 0
-95 -110 0
-95 -101 0
-95 -96 0
-94 -121 0
-94 -120 0
-94 -111 0
-94 -101 0
-93 -132 0
-93 -130 0
-93 -117 0
-93 -114 0
-93 -111 0
-93 -108 0
-93 -101 0
-93 -95 0
-92 -119 0
-92 -110 0
-92 -109 0
-92 -98 0
-92 -97 0
-91 -130 0
-91 -114 0
-91 -113 0
-91 -112 0
-91 -101 0
-91 -98 0
-91 -95 0
-91 -93 0
-90 -129 0
-90 -128 0
-90 -125 0
-90 -123 0
-90 -122 0
-90 -115 0
-90 -110 0
-90 -100 0
-90 -97 0
-90 -96 0
-90 -95 0
-89 -131 0
-89 -128 0
-89 -118 0
-89 -115 0
-89 -113 0
-89 -109 0
-89 -107 0
-89 -106 0
-89 -103 0
-89 -102 0
-88 -121 0
-88 -117 0
-88 -101 0
-88 -94 0
-87 -132 0
-87 -129 0
-87 -121 0
-87 -116 0
-87 -107 0
-87 -106 0
-87 -105 0
-87 -99 0
-86 -132 0
-86 -126 0
-86 -123 0
-86 -119 0
-86 -117 0
-86 -116 0
-86 -112 0
-86 -111 0
-86 -108 0
-86 -93 0
-85 -120 0
-85 -117 0
-85 -99 0
-85 -88 0
-84 -128 0
-84 -124 0
-84 -122 0
-84 -102 0
-84 -100 0
-84 -97 0
-84 -90 0
-83 -131 0
-83 -128 0
-83 -127 0
-83 -118 0
-83 -106 0
-83 -104 0
-83 -89 0
-82 -116 0
-82 -110 0
-82 -107 0
-82 -105 0
-82 -98 0
-82 -92 0
-82 -87 0
-81 -120 0
-81 -116 0
-81 -111 0
-81 -107 0
-81 -105 0
-81 -94 0
-81 -87 0
-81 -82 0
-80 -130 0
-80 -127 0
-80 -126 0
-80 -114 0
-80 -103 0
-80 -101 0
-80 -95 0
-80 -93 0
-80 -91 0
-79 -130 0
-79 -122 0
-79 -115 0
-79 -113 0
-79 -109 0
-79 -107 0
-79 -104 0
-79 -103 0
-79 -102 0
-79 -89 0
-78 -127 0
-78 -126 0
-78 -117 0
-78 -103 0
-78 -88 0
-78 -85 0
-78 -80 0
-77 -120 0
-77 -110 0
-77 -99 0
-77 -98 0
-77 -92 0
-77 -85 0
-77 -82 0
-76 -120 0
-76 -119 0
-76 -111 0
-76 -109 0
-76 -97 0
-76 -94 0
-76 -92 0
-76 -81 0
-75 -120 0
-75 -115 0
-75 -113 0
-75 -109 0
-75 -107 0
-75 -103 0
-75 -102 0
-75 -99 0
-75 -89 0
-75 -85 0
-75 -79 0
-75 -77 0
-74 -124 0
-74 -120 0
-74 -111 0
-74 -102 0
-74 -94 0
-74 -84 0
-74 -81 0
-74 -76 0
-73 -126 0
-73 -124 0
-73 -123 0
-73 -119 0
-73 -116 0
-73 -112 0
-73 -102 0
-73 -86 0
-73 -84 0
-73 -74 0
-72 -124 0
-72 -117 0
-72 -102 0
-72 -88 0
-72 -85 0
-72 -84 0
-72 -78 0
-72 -74 0
-72 -73 0
-71 -119 0
-71 -117 0
-71 -109 0
-71 -97 0
-71 -92 0
-71 -88 0
-71 -85 0
-71 -78 0
-71 -76 0
-71 -72 0
-70 -117 0
-70 -114 0
-70 -100 0
-70 -88 0
-70 -85 0
-70 -78 0
-70 -72 0
-70 -71 0
-69 -132 0
-69 -127 0
-69 -117 0
-69 -111 0
-69 -108 0
-69 -104 0
-69 -93 0
-69 -86 0
-69 -83 0
-68 -118 0
-68 -114 0
-68 -105 0
-68 -100 0
-68 -96 0
-68 -70 0
-67 -121 0
-67 -110 0
-67 -101 0
-67 -98 0
-67 -94 0
-67 -92 0
-67 -88 0
-67 -82 0
-67 -77 0
-66 -131 0
-66 -130 0
-66 -128 0
-66 -118 0
-66 -114 0
-66 -106 0
-66 -101 0
-66 -95 0
-66 -93 0
-66 -91 0
-66 -89 0
-66 -83 0
-66 -80 0
-65 -131 0
-65 -130 0
-65 -125 0
-65 -124 0
-65 -122 0
-65 -108 0
-65 -104 0
-65 -79 0
-64 -127 0
-64 -126 0
-64 -110 0
-64 -103 0
-64 -98 0
-64 -92 0
-64 -82 0
-64 -80 0
-64 -78 0
-64 -77 0
-64 -67 0
-63 -132 0
-63 -129 0
-63 -121 0
-63 -113 0
-63 -112 0
-63 -106 0
-63 -99 0
-63 -98 0
-63 -91 0
-63 -87 0
-62 -127 0
-62 -121 0
-62 -104 0
-62 -101 0
-62 -94 0
-62 -88 0
-62 -83 0
-62 -69 0
-62 -67 0
-61 -124 0
-61 -110 0
-61 -102 0
-61 -98 0
-61 -92 0
-61 -84 0
-61 -82 0
-61 -77 0
-61 -74 0
-61 -73 0
-61 -72 0
-61 -67 0
-61 -64 0
-60 -127 0
-60 -124 0
-60 -104 0
-60 -102 0
-60 -84 0
-60 -83 0
-60 -74 0
-60 -73 0
-60 -72 0
-60 -69 0
-60 -62 0
-60 -61 0
-59 -127 0
-59 -116 0
-59 -107 0
-59 -105 0
-59 -104 0
-59 -87 0
-59 -83 0
-59 -82 0
-59 -81 0
-59 -69 0
-59 -62 0
-59 -60 0
-58 -132 0
-58 -117 0
-58 -111 0
-58 -110 0
-58 -108 0
-58 -98 0
-58 -93 0
-58 -92 0
-58 -86 0
-58 -82 0
-58 -77 0
-58 -69 0
-58 -67 0
-58 -64 0
-58 -61 0
-57 -127 0
-57 -120 0
-57 -104 0
-57 -99 0
-57 -85 0
-57 -83 0
-57 -77 0
-57 -75 0
-57 -69 0
-57 -62 0
-57 -60 0
-57 -59 0
-56 -127 0
-56 -113 0
-56 -112 0
-56 -104 0
-56 -98 0
-56 -91 0
-56 -83 0
-56 -69 0
-56 -63 0
-56 -62 0
-56 -60 0
-56 -59 0
-56 -57 0
-55 -119 0
-55 -118 0
-55 -109 0
-55 -105 0
-55 -97 0
-55 -96 0
-55 -92 0
-55 -76 0
-55 -71 0
-55 -68 0
-54 -130 0
-54 -120 0
-54 -114 0
-54 -101 0
-54 -99 0
-54 -95 0
-54 -93 0
-54 -91 0
-54 -85 0
-54 -80 0
-54 -77 0
-54 -75 0
-54 -66 0
-54 -57 0
-53 -114 0
-53 -110 0
-53 -100 0
-53 -98 0
-53 -92 0
-53 -82 0
-53 -77 0
-53 -70 0
-53 -68 0
-53 -67 0
-53 -64 0
-53 -61 0
-53 -58 0
-52 -130 0
-52 -122 0
-52 -118 0
-52 -105 0
-52 -104 0
-52 -96 0
-52 -79 0
-52 -68 0
-52 -65 0
-52 -55 0
-51 -132 0
-51 -129 0
-51 -124 0
-51 -121 0
-51 -106 0
-51 -102 0
-51 -99 0
-51 -87 0
-51 -84 0
-51 -74 0
-51 -73 0
-51 -72 0
-51 -63 0
-51 -61 0
-51 -60 0
-50 -128 0
-50 -122 0
-50 -113 0
-50 -112 0
-50 -100 0
-50 -98 0
-50 -97 0
-50 -91 0
-50 -90 0
-50 -84 0
-50 -63 0
-50 -56 0
-49 -131 0
-49 -125 0
-49 -124 0
-49 -116 0
-49 -108 0
-49 -107 0
-49 -105 0
-49 -87 0
-49 -82 0
-49 -81 0
-49 -65 0
-49 -59 0
-48 -130 0
-48 -119 0
-48 -114 0
-48 -109 0
-48 -101 0
-48 -97 0
-48 -95 0
-48 -93 0
-48 -92 0
-48 -91 0
-48 -80 0
-48 -76 0
-48 -71 0
-48 -66 0
-48 -55 0
-48 -54 0
-47 -118 0
-47 -113 0
-47 -112 0
-47 -105 0
-47 -98 0
-47 -96 0
-47 -91 0
-47 -68 0
-47 -63 0
-47 -56 0
-47 -55 0
-47 -52 0
-47 -50 0
-46 -124 0
-46 -118 0
-46 -105 0
-46 -102 0
-46 -96 0
-46 -84 0
-46 -74 0
-46 -73 0
-46 -72 0
-46 -68 0
-46 -61 0
-46 -60 0
-46 -55 0
-46 -52 0
-46 -51 0
-46 -47 0
-45 -117 0
-45 -113 0
-45 -112 0
-45 -98 0
-45 -91 0
-45 -88 0
-45 -85 0
-45 -78 0
-45 -72 0
-45 -71 0
-45 -70 0
-45 -63 0
-45 -56 0
-45 -50 0
-45 -47 0
-44 -130 0
-44 -124 0
-44 -114 0
-44 -102 0
-44 -101 0
-44 -95 0
-44 -93 0
-44 -91 0
-44 -84 0
-44 -80 0
-44 -74 0
-44 -73 0
-44 -72 0
-44 -66 0
-44 -61 0
-44 -60 0
-44 -54 0
-44 -51 0
-44 -48 0
-44 -46 0
-43 -129 0
-43 -125 0
-43 -123 0
-43 -120 0
-43 -115 0
-43 -111 0
-43 -110 0
-43 -96 0
-43 -95 0
-43 -94 0
-43 -90 0
-43 -81 0
-43 -76 0
-43 -74 0
-42 -130 0
-42 -122 0
-42 -120 0
-42 -111 0
-42 -104 0
-42 -94 0
-42 -81 0
-42 -79 0
-42 -76 0
-42 -74 0
-42 -65 0
-42 -52 0
-42 -43 0
-41 -131 0
-41 -125 0
-41 -124 0
-41 -121 0
-41 -108 0
-41 -101 0
-41 -94 0
-41 -88 0
-41 -67 0
-41 -65 0
-41 -62 0
-41 -49 0
-40 -121 0
-40 -118 0
-40 -105 0
-40 -101 0
-40 -96 0
-40 -94 0
-40 -88 0
-40 -68 0
-40 -67 0
-40 -62 0
-40 -55 0
-40 -52 0
-40 -47 0
-40 -46 0
-40 -41 0
-39 -131 0
-39 -128 0
-39 -126 0
-39 -123 0
-39 -119 0
-39 -118 0
-39 -116 0
-39 -112 0
-39 -106 0
-39 -89 0
-39 -86 0
-39 -83 0
-39 -73 0
-39 -66 0
-38 -130 0
-38 -126 0
-38 -123 0
-38 -122 0
-38 -119 0
-38 -116 0
-38 -112 0
-38 -104 0
-38 -86 0
-38 -79 0
-38 -73 0
-38 -65 0
-38 -52 0
-38 -42 0
-38 -39 0
-37 -131 0
-37 -128 0
-37 -118 0
-37 -110 0
-37 -106 0
-37 -98 0
-37 -92 0
-37 -89 0
-37 -83 0
-37 -82 0
-37 -77 0
-37 -67 0
-37 -66 0
-37 -64 0
-37 -61 0
-37 -58 0
-37 -53 0
-37 -39 0
-36 -121 0
-36 -115 0
-36 -113 0
-36 -109 0
-36 -107 0
-36 -103 0
-36 -102 0
-36 -101 0
-36 -94 0
-36 -89 0
-36 -88 0
-36 -79 0
-36 -75 0
-36 -67 0
-36 -62 0
-36 -41 0
-36 -40 0
-35 -130 0
-35 -116 0
-35 -114 0
-35 -107 0
-35 -105 0
-35 -101 0
-35 -95 0
-35 -93 0
-35 -91 0
-35 -87 0
-35 -82 0
-35 -81 0
-35 -80 0
-35 -66 0
-35 -59 0
-35 -54 0
-35 -49 0
-35 -48 0
-35 -44 0
-34 -127 0
-34 -119 0
-34 -109 0
-34 -104 0
-34 -97 0
-34 -92 0
-34 -83 0
-34 -76 0
-34 -71 0
-34 -69 0
-34 -62 0
-34 -60 0
-34 -59 0
-34 -57 0
-34 -56 0
-34 -55 0
-34 -48 0
-33 -126 0
-33 -123 0
-33 -121 0
-33 -119 0
-33 -116 0
-33 -112 0
-33 -101 0
-33 -94 0
-33 -88 0
-33 -86 0
-33 -73 0
-33 -67 0
-33 -62 0
-33 -41 0
-33 -40 0
-33 -39 0
-33 -38 0
-33 -36 0
-32 -117 0
-32 -116 0
-32 -107 0
-32 -105 0
-32 -88 0
-32 -87 0
-32 -85 0
-32 -82 0
-32 -81 0
-32 -78 0
-32 -72 0
-32 -71 0
-32 -70 0
-32 -59 0
-32 -49 0
-32 -45 0
-32 -35 0
-31 -131 0
-31 -125 0
-31 -124 0
-31 -114 0
-31 -108 0
-31 -100 0
-31 -70 0
-31 -68 0
-31 -65 0
-31 -53 0
-31 -49 0
-31 -41 0
-30 -132 0
-30 -129 0
-30 -121 0
-30 -114 0
-30 -106 0
-30 -100 0
-30 -99 0
-30 -87 0
-30 -70 0
-30 -68 0
-30 -63 0
-30 -53 0
-30 -51 0
-30 -31 0
-29 -131 0
-29 -125 0
-29 -124 0
-29 -113 0
-29 -112 0
-29 -108 0
-29 -98 0
-29 -91 0
-29 -65 0
-29 -63 0
-29 -56 0
-29 -50 0
-29 -49 0
-29 -47 0
-29 -45 0
-29 -41 0
-29 -31 0
-28 -132 0
-28 -129 0
-28 -127 0
-28 -126 0
-28 -121 0
-28 -106 0
-28 -103 0
-28 -99 0
-28 -87 0
-28 -80 0
-28 -78 0
-28 -64 0
-28 -63 0
-28 -51 0
-28 -30 0
-27 -129 0
-27 -125 0
-27 -123 0
-27 -117 0
-27 -115 0
-27 -110 0
-27 -96 0
-27 -95 0
-27 -90 0
-27 -88 0
-27 -85 0
-27 -78 0
-27 -72 0
-27 -71 0
-27 -70 0
-27 -45 0
-27 -43 0
-27 -32 0
-26 -127 0
-26 -126 0
-26 -118 0
-26 -105 0
-26 -103 0
-26 -96 0
-26 -80 0
-26 -78 0
-26 -68 0
-26 -64 0
-26 -55 0
-26 -52 0
-26 -47 0
-26 -46 0
-26 -40 0
-26 -28 0
-25 -131 0
-25 -125 0
-25 -124 0
-25 -120 0
-25 -108 0
-25 -99 0
-25 -85 0
-25 -77 0
-25 -75 0
-25 -65 0
-25 -57 0
-25 -54 0
-25 -49 0
-25 -41 0
-25 -31 0
-25 -29 0
-24 -120 0
-24 -114 0
-24 -111 0
-24 -100 0
-24 -94 0
-24 -81 0
-24 -76 0
-24 -74 0
-24 -70 0
-24 -68 0
-24 -53 0
-24 -43 0
-24 -42 0
-24 -31 0
-24 -30 0
-23 -128 0
-23 -122 0
-23 -120 0
-23 -100 0
-23 -99 0
-23 -97 0
-23 -90 0
-23 -85 0
-23 -84 0
-23 -77 0
-23 -75 0
-23 -57 0
-23 -54 0
-23 -50 0
-23 -25 0
-22 -131 0
-22 -128 0
-22 -118 0
-22 -117 0
-22 -106 0
-22 -89 0
-22 -88 0
-22 -85 0
-22 -83 0
-22 -78 0
-22 -72 0
-22 -71 0
-22 -70 0
-22 -66 0
-22 -45 0
-22 -39 0
-22 -37 0
-22 -32 0
-22 -27 0
-21 -129 0
-21 -127 0
-21 -125 0
-21 -123 0
-21 -115 0
-21 -110 0
-21 -104 0
-21 -96 0
-21 -95 0
-21 -90 0
-21 -83 0
-21 -69 0
-21 -62 0
-21 -60 0
-21 -59 0
-21 -57 0
-21 -56 0
-21 -43 0
-21 -34 0
-21 -27 0
-20 -130 0
-20 -122 0
-20 -110 0
-20 -104 0
-20 -98 0
-20 -92 0
-20 -82 0
-20 -79 0
-20 -77 0
-20 -67 0
-20 -65 0
-20 -64 0
-20 -61 0
-20 -58 0
-20 -53 0
-20 -52 0
-20 -42 0
-20 -38 0
-20 -37 0
-19 -127 0
-19 -126 0
-19 -120 0
-19 -111 0
-19 -103 0
-19 -94 0
-19 -81 0
-19 -80 0
-19 -78 0
-19 -76 0
-19 -74 0
-19 -64 0
-19 -43 0
-19 -42 0
-19 -28 0
-19 -26 0
-19 -24 0
-18 -131 0
-18 -128 0
-18 -120 0
-18 -118 0
-18 -111 0
-18 -106 0
-18 -94 0
-18 -89 0
-18 -83 0
-18 -81 0
-18 -76 0
-18 -74 0
-18 -66 0
-18 -43 0
-18 -42 0
-18 -39 0
-18 -37 0
-18 -24 0
-18 -22 0
-18 -19 0
-17 -132 0
-17 -129 0
-17 -121 0
-17 -119 0
-17 -109 0
-17 -106 0
-17 -99 0
-17 -97 0
-17 -92 0
-17 -87 0
-17 -76 0
-17 -71 0
-17 -63 0
-17 -55 0
-17 -51 0
-17 -48 0
-17 -34 0
-17 -30 0
-17 -28 0
-16 -126 0
-16 -123 0
-16 -119 0
-16 -116 0
-16 -114 0
-16 -112 0
-16 -100 0
-16 -86 0
-16 -73 0
-16 -70 0
-16 -68 0
-16 -53 0
-16 -39 0
-16 -38 0
-16 -33 0
-16 -31 0
-16 -30 0
-16 -24 0
-15 -131 0
-15 -125 0
-15 -124 0
-15 -119 0
-15 -109 0
-15 -108 0
-15 -97 0
-15 -92 0
-15 -76 0
-15 -71 0
-15 -65 0
-15 -55 0
-15 -49 0
-15 -48 0
-15 -41 0
-15 -34 0
-15 -31 0
-15 -29 0
-15 -25 0
-15 -17 0
-14 -128 0
-14 -122 0
-14 -121 0
-14 -101 0
-14 -100 0
-14 -97 0
-14 -94 0
-14 -90 0
-14 -88 0
-14 -84 0
-14 -67 0
-14 -62 0
-14 -50 0
-14 -41 0
-14 -40 0
-14 -36 0
-14 -33 0
-14 -23 0
-13 -120 0
-13 -118 0
-13 -105 0
-13 -99 0
-13 -96 0
-13 -85 0
-13 -77 0
-13 -75 0
-13 -68 0
-13 -57 0
-13 -55 0
-13 -54 0
-13 -52 0
-13 -47 0
-13 -46 0
-13 -40 0
-13 -26 0
-13 -25 0
-13 -23 0
-12 -127 0
-12 -114 0
-12 -104 0
-12 -100 0
-12 -83 0
-12 -70 0
-12 -69 0
-12 -68 0
-12 -62 0
-12 -60 0
-12 -59 0
-12 -57 0
-12 -56 0
-12 -53 0
-12 -34 0
-12 -31 0
-12 -30 0
-12 -24 0
-12 -21 0
-12 -16 0
-11 -128 0
-11 -122 0
-11 -116 0
-11 -107 0
-11 -105 0
-11 -100 0
-11 -97 0
-11 -90 0
-11 -87 0
-11 -84 0
-11 -82 0
-11 -81 0
-11 -59 0
-11 -50 0
-11 -49 0
-11 -35 0
-11 -32 0
-11 -23 0
-11 -14 0
-10 -120 0
-10 -113 0
-10 -112 0
-10 -111 0
-10 -98 0
-10 -94 0
-10 -91 0
-10 -81 0
-10 -76 0
-10 -74 0
-10 -63 0
-10 -56 0
-10 -50 0
-10 -47 0
-10 -45 0
-10 -43 0
-10 -42 0
-10 -29 0
-10 -24 0
-10 -19 0
-10 -18 0
-9 -131 0
-9 -127 0
-9 -126 0
-9 -125 0
-9 -124 0
-9 -108 0
-9 -103 0
-9 -80 0
-9 -78 0
-9 -65 0
-9 -64 0
-9 -49 0
-9 -41 0
-9 -31 0
-9 -29 0
-9 -28 0
-9 -26 0
-9 -25 0
-9 -19 0
-9 -15 0
-8 -132 0
-8 -117 0
-8 -115 0
-8 -113 0
-8 -111 0
-8 -109 0
-8 -108 0
-8 -107 0
-8 -103 0
-8 -102 0
-8 -93 0
-8 -89 0
-8 -86 0
-8 -79 0
-8 -75 0
-8 -69 0
-8 -58 0
-8 -36 0
-7 -132 0
-7 -130 0
-7 -129 0
-7 -122 0
-7 -121 0
-7 -106 0
-7 -104 0
-7 -99 0
-7 -87 0
-7 -79 0
-7 -65 0
-7 -63 0
-7 -52 0
-7 -51 0
-7 -42 0
-7 -38 0
-7 -30 0
-7 -28 0
-7 -20 0
-7 -17 0
-6 -132 0
-6 -118 0
-6 -117 0
-6 -111 0
-6 -108 0
-6 -105 0
-6 -96 0
-6 -93 0
-6 -86 0
-6 -69 0
-6 -68 0
-6 -58 0
-6 -55 0
-6 -52 0
-6 -47 0
-6 -46 0
-6 -40 0
-6 -26 0
-6 -13 0
-6 -8 0
-5 -132 0
-5 -128 0
-5 -122 0
-5 -117 0
-5 -111 0
-5 -108 0
-5 -100 0
-5 -97 0
-5 -93 0
-5 -90 0
-5 -86 0
-5 -84 0
-5 -69 0
-5 -58 0
-5 -50 0
-5 -23 0
-5 -14 0
-5 -11 0
-5 -8 0
-5 -6 0
-4 -126 0
-4 -123 0
-4 -120 0
-4 -119 0
-4 -116 0
-4 -112 0
-4 -99 0
-4 -86 0
-4 -85 0
-4 -77 0
-4 -75 0
-4 -73 0
-4 -57 0
-4 -54 0
-4 -39 0
-4 -38 0
-4 -33 0
-4 -25 0
-4 -23 0
-4 -16 0
-4 -13 0
-3 -115 0
-3 -114 0
-3 -113 0
-3 -109 0
-3 -107 0
-3 -103 0
-3 -102 0
-3 -100 0
-3 -89 0
-3 -79 0
-3 -75 0
-3 -70 0
-3 -68 0
-3 -53 0
-3 -36 0
-3 -31 0
-3 -30 0
-3 -24 0
-3 -16 0
-3 -12 0
-3 -8 0
-2 -130 0
-2 -122 0
-2 -117 0
-2 -104 0
-2 -88 0
-2 -85 0
-2 -79 0
-2 -78 0
-2 -72 0
-2 -71 0
-2 -70 0
-2 -65 0
-2 -52 0
-2 -45 0
-2 -42 0
-2 -38 0
-2 -32 0
-2 -27 0
-2 -22 0
-2 -20 0
-2 -7 0
-1 -128 0
-1 -127 0
-1 -126 0
-1 -122 0
-1 -103 0
-1 -100 0
-1 -97 0
-1 -90 0
-1 -84 0
-1 -80 0
-1 -78 0
-1 -64 0
-1 -50 0
-1 -28 0
-1 -26 0
-1 -23 0
-1 -19 0
-1 -14 0
-1 -11 0
-1 -9 0
-1 -5 0
1 9 19 26 28 64 78 80 103 126 127 0
2 7 20 38 42 52 65 79 104 122 130 0
3 12 16 24 30 31 53 68 70 100 114 0
4 13 23 25 54 57 75 77 85 99 120 0
5 6 8 58 69 86 93 108 111 117 132 0
10 29 45 47 50 56 63 91 98 112 113 0
11 32 35 49 59 81 82 87 105 107 116 0
14 33 36 40 41 62 67 88 94 101 121 0
18 22 37 39 66 83 89 106 118 128 131 0
21 27 43 90 95 96 110 115 123 125 129 0
44 46 51 60 61 72 73 74 84 102 124 0
15 17 34 48 55 71 76 92 97 109 119 133 0
