p cnf 31 141
-30 -31 0
-27 -29 0
-26 -29 0
-26 -28 0
-25 -31 0
-25 -30 0
-25 -29 0
-25 -27 0
-23 -29 0
-23 -26 0
-22 -28 0
-22 -27 0
-22 -26 0
-21 -28 0
-21 -23 0
-20 -27 0
-20 -22 0
-19 -28 0
-19 -26 0
-19 -22 0
-18 -20 0
-18 -19 0
-17 -31 0
-17 -30 0
-17 -28 0
-17 -26 0
-17 -25 0
-17 -22 0
-17 -19 0
-16 -31 0
-16 -28 0
-16 -21 0
-15 -30 0
-15 -27 0
-15 -22 0
-15 -20 0
-14 -29 0
-14 -26 0
-14 -23 0
-14 -20 0
-14 -18 0
-13 -28 0
-13 -21 0
-13 -20 0
-13 -18 0
-13 -16 0
-13 -14 0
-12 -31 0
-12 -29 0
-12 -26 0
-12 -23 0
-12 -16 0
-12 -14 0
-11 -31 0
-11 -27 0
-11 -22 0
-11 -20 0
-11 -16 0
-11 -15 0
-11 -12 0
-10 -29 0
-10 -27 0
-10 -25 0
-10 -19 0
-10 -18 0
-9 -30 0
-9 -29 0
-9 -26 0
-9 -23 0
-9 -15 0
-9 -14 0
-9 -12 0
-8 -23 0
-8 -21 0
-8 -19 0
-8 -18 0
-8 -10 0
-7 -31 0
-7 -19 0
-7 -18 0
-7 -16 0
-7 -12 0
-7 -11 0
-7 -10 0
-7 -8 0
-6 -31 0
-6 -30 0
-6 -25 0
-6 -23 0
-6 -21 0
-6 -17 0
-6 -8 0
-5 -30 0
-5 -19 0
-5 -18 0
-5 -15 0
-5 -10 0
-5 -9 0
-5 -8 0
-5 -7 0
-4 -29 0
-4 -28 0
-4 -27 0
-4 -25 0
-4 -21 0
-4 -16 0
-4 -13 0
-4 -10 0
-3 -31 0
-3 -30 0
-3 -25 0
-3 -20 0
-3 -18 0
-3 -17 0
-3 -14 0
-3 -13 0
-3 -6 0
-2 -27 0
-2 -23 0
-2 -22 0
-2 -21 0
-2 -20 0
-2 -15 0
-2 -11 0
-2 -8 0
-2 -6 0
-1 -30 0
-1 -28 0
-1 -21 0
-1 -16 0
-1 -15 0
-1 -13 0
-1 -9 0
-1 -5 0
-1 -4 0
2 6 8 21 23 0
3 13 14 18 20 0
4 10 25 27 29 0
7 11 12 16 31 0
17 19 22 26 28 0
1 5 9 15 24 30 0
