p cnf 91 775
-85 -88 0
-84 -86 0
-83 -87 0
-83 -84 0
-82 -89 0
-82 -84 0
-82 -83 0
-81 -87 0
-81 -85 0
-81 -83 0
-80 -84 0
-80 -83 0
-80 -82 0
-79 -91 0
-78 -86 0
-77 -86 0
-77 -84 0
-77 -79 0
-76 -87 0
-76 -83 0
-76 -81 0
-76 -79 0
-76 -77 0
-75 -91 0
-75 -89 0
-75 -82 0
-74 -89 0
-73 -91 0
-73 -89 0
-73 -79 0
-73 -74 0
-72 -90 0
-72 -86 0
-72 -84 0
-72 -77 0
-71 -85 0
-71 -81 0
-71 -80 0
-70 -90 0
-70 -89 0
-70 -82 0
-70 -75 0
-70 -72 0
-69 -79 0
-69 -77 0
-69 -76 0
-68 -91 0
-68 -84 0
-68 -83 0
-68 -82 0
-68 -80 0
-68 -79 0
-68 -73 0
-67 -89 0
-67 -88 0
-67 -85 0
-67 -74 0
-67 -73 0
-66 -90 0
-66 -78 0
-66 -72 0
-66 -70 0
-65 -91 0
-65 -80 0
-65 -75 0
-65 -71 0
-64 -88 0
-64 -74 0
-63 -79 0
-63 -77 0
-63 -76 0
-63 -74 0
-63 -69 0
-63 -64 0
-62 -87 0
-62 -86 0
-62 -83 0
-62 -81 0
-62 -78 0
-62 -76 0
-61 -90 0
-61 -88 0
-61 -85 0
-61 -72 0
-61 -70 0
-61 -67 0
-61 -66 0
-60 -84 0
-60 -83 0
-60 -82 0
-60 -80 0
-60 -74 0
-60 -68 0
-60 -64 0
-60 -63 0
-59 -89 0
-59 -80 0
-59 -74 0
-59 -73 0
-59 -71 0
-59 -67 0
-59 -65 0
-58 -86 0
-58 -80 0
-58 -78 0
-58 -71 0
-58 -65 0
-58 -62 0
-58 -59 0
-57 -91 0
-57 -88 0
-57 -79 0
-57 -73 0
-57 -68 0
-57 -64 0
-56 -90 0
-56 -88 0
-56 -64 0
-56 -57 0
-55 -88 0
-55 -87 0
-55 -85 0
-55 -67 0
-55 -61 0
-54 -91 0
-54 -86 0
-54 -84 0
-54 -77 0
-54 -75 0
-54 -72 0
-54 -65 0
-53 -85 0
-53 -81 0
-53 -78 0
-53 -71 0
-53 -66 0
-52 -86 0
-52 -78 0
-52 -69 0
-52 -62 0
-52 -58 0
-51 -88 0
-51 -85 0
-51 -79 0
-51 -77 0
-51 -76 0
-51 -69 0
-51 -67 0
-51 -63 0
-51 -61 0
-51 -55 0
-50 -87 0
-50 -74 0
-50 -64 0
-50 -63 0
-50 -60 0
-50 -55 0
-49 -89 0
-49 -86 0
-49 -84 0
-49 -77 0
-49 -74 0
-49 -73 0
-49 -72 0
-49 -67 0
-49 -59 0
-49 -54 0
-48 -89 0
-48 -87 0
-48 -83 0
-48 -81 0
-48 -76 0
-48 -74 0
-48 -73 0
-48 -67 0
-48 -62 0
-48 -59 0
-48 -49 0
-47 -90 0
-47 -74 0
-47 -72 0
-47 -70 0
-47 -66 0
-47 -64 0
-47 -63 0
-47 -61 0
-47 -60 0
-47 -50 0
-46 -91 0
-46 -78 0
-46 -75 0
-46 -66 0
-46 -65 0
-46 -54 0
-46 -53 0
-45 -84 0
-45 -83 0
-45 -82 0
-45 -80 0
-45 -69 0
-45 -68 0
-45 -60 0
-45 -52 0
-44 -89 0
-44 -85 0
-44 -82 0
-44 -81 0
-44 -75 0
-44 -71 0
-44 -70 0
-44 -53 0
-43 -88 0
-43 -86 0
-43 -84 0
-43 -77 0
-43 -72 0
-43 -64 0
-43 -57 0
-43 -56 0
-43 -54 0
-43 -49 0
-42 -89 0
-42 -78 0
-42 -74 0
-42 -73 0
-42 -67 0
-42 -66 0
-42 -59 0
-42 -53 0
-42 -49 0
-42 -48 0
-42 -46 0
-41 -88 0
-41 -86 0
-41 -85 0
-41 -78 0
-41 -67 0
-41 -62 0
-41 -61 0
-41 -58 0
-41 -55 0
-41 -52 0
-41 -51 0
-39 -89 0
-39 -87 0
-39 -82 0
-39 -75 0
-39 -70 0
-39 -55 0
-39 -50 0
-39 -44 0
-38 -91 0
-38 -87 0
-38 -83 0
-38 -81 0
-38 -76 0
-38 -75 0
-38 -65 0
-38 -62 0
-38 -54 0
-38 -48 0
-38 -46 0
-37 -87 0
-37 -78 0
-37 -66 0
-37 -55 0
-37 -53 0
-37 -50 0
-37 -46 0
-37 -42 0
-37 -39 0
-36 -90 0
-36 -86 0
-36 -78 0
-36 -62 0
-36 -58 0
-36 -56 0
-36 -52 0
-36 -41 0
-35 -89 0
-35 -86 0
-35 -82 0
-35 -78 0
-35 -75 0
-35 -70 0
-35 -62 0
-35 -58 0
-35 -52 0
-35 -44 0
-35 -41 0
-35 -39 0
-35 -36 0
-34 -90 0
-34 -85 0
-34 -81 0
-34 -71 0
-34 -56 0
-34 -53 0
-34 -44 0
-34 -36 0
-33 -91 0
-33 -86 0
-33 -79 0
-33 -78 0
-33 -73 0
-33 -68 0
-33 -62 0
-33 -58 0
-33 -57 0
-33 -52 0
-33 -41 0
-33 -36 0
-33 -35 0
-32 -91 0
-32 -75 0
-32 -69 0
-32 -65 0
-32 -54 0
-32 -52 0
-32 -46 0
-32 -45 0
-32 -38 0
-31 -90 0
-31 -80 0
-31 -72 0
-31 -71 0
-31 -70 0
-31 -66 0
-31 -65 0
-31 -61 0
-31 -59 0
-31 -58 0
-31 -47 0
-30 -89 0
-30 -88 0
-30 -82 0
-30 -75 0
-30 -70 0
-30 -64 0
-30 -57 0
-30 -56 0
-30 -44 0
-30 -43 0
-30 -39 0
-30 -35 0
-29 -90 0
-29 -89 0
-29 -74 0
-29 -73 0
-29 -67 0
-29 -59 0
-29 -56 0
-29 -49 0
-29 -48 0
-29 -42 0
-29 -36 0
-29 -34 0
-28 -91 0
-28 -87 0
-28 -79 0
-28 -73 0
-28 -68 0
-28 -57 0
-28 -55 0
-28 -50 0
-28 -39 0
-28 -37 0
-28 -33 0
-27 -91 0
-27 -88 0
-27 -85 0
-27 -75 0
-27 -67 0
-27 -65 0
-27 -61 0
-27 -55 0
-27 -54 0
-27 -51 0
-27 -46 0
-27 -41 0
-27 -38 0
-27 -32 0
-26 -91 0
-26 -90 0
-26 -79 0
-26 -73 0
-26 -72 0
-26 -70 0
-26 -68 0
-26 -66 0
-26 -61 0
-26 -57 0
-26 -47 0
-26 -33 0
-26 -31 0
-26 -28 0
-25 -91 0
-25 -85 0
-25 -81 0
-25 -79 0
-25 -73 0
-25 -71 0
-25 -68 0
-25 -57 0
-25 -53 0
-25 -44 0
-25 -34 0
-25 -33 0
-25 -28 0
-25 -26 0
-24 -85 0
-24 -81 0
-24 -74 0
-24 -71 0
-24 -64 0
-24 -63 0
-24 -60 0
-24 -53 0
-24 -50 0
-24 -47 0
-24 -44 0
-24 -34 0
-24 -25 0
-23 -79 0
-23 -78 0
-23 -77 0
-23 -76 0
-23 -69 0
-23 -66 0
-23 -63 0
-23 -53 0
-23 -51 0
-23 -46 0
-23 -42 0
-23 -37 0
-22 -88 0
-22 -87 0
-22 -83 0
-22 -81 0
-22 -76 0
-22 -64 0
-22 -62 0
-22 -57 0
-22 -56 0
-22 -48 0
-22 -43 0
-22 -38 0
-22 -30 0
-21 -88 0
-21 -69 0
-21 -64 0
-21 -57 0
-21 -56 0
-21 -52 0
-21 -45 0
-21 -43 0
-21 -32 0
-21 -30 0
-21 -22 0
-20 -91 0
-20 -75 0
-20 -74 0
-20 -65 0
-20 -64 0
-20 -63 0
-20 -60 0
-20 -54 0
-20 -50 0
-20 -47 0
-20 -46 0
-20 -38 0
-20 -32 0
-20 -27 0
-20 -24 0
-19 -87 0
-19 -80 0
-19 -71 0
-19 -65 0
-19 -59 0
-19 -58 0
-19 -55 0
-19 -50 0
-19 -39 0
-19 -37 0
-19 -31 0
-19 -28 0
-18 -88 0
-18 -85 0
-18 -84 0
-18 -83 0
-18 -82 0
-18 -80 0
-18 -68 0
-18 -67 0
-18 -61 0
-18 -60 0
-18 -55 0
-18 -51 0
-18 -45 0
-18 -41 0
-18 -27 0
-17 -80 0
-17 -79 0
-17 -77 0
-17 -76 0
-17 -71 0
-17 -69 0
-17 -65 0
-17 -63 0
-17 -59 0
-17 -58 0
-17 -51 0
-17 -31 0
-17 -23 0
-17 -19 0
-16 -85 0
-16 -81 0
-16 -71 0
-16 -69 0
-16 -53 0
-16 -52 0
-16 -45 0
-16 -44 0
-16 -34 0
-16 -32 0
-16 -25 0
-16 -24 0
-16 -21 0
-15 -90 0
-15 -84 0
-15 -83 0
-15 -82 0
-15 -80 0
-15 -68 0
-15 -60 0
-15 -56 0
-15 -45 0
-15 -36 0
-15 -34 0
-15 -29 0
-15 -18 0
-14 -88 0
-14 -80 0
-14 -71 0
-14 -65 0
-14 -64 0
-14 -59 0
-14 -58 0
-14 -57 0
-14 -56 0
-14 -43 0
-14 -31 0
-14 -30 0
-14 -22 0
-14 -21 0
-14 -19 0
-14 -17 0
-13 -91 0
-13 -90 0
-13 -75 0
-13 -65 0
-13 -56 0
-13 -54 0
-13 -46 0
-13 -38 0
-13 -36 0
-13 -34 0
-13 -32 0
-13 -29 0
-13 -27 0
-13 -20 0
-13 -15 0
-12 -86 0
-12 -78 0
-12 -74 0
-12 -64 0
-12 -63 0
-12 -62 0
-12 -60 0
-12 -58 0
-12 -52 0
-12 -50 0
-12 -47 0
-12 -41 0
-12 -36 0
-12 -35 0
-12 -33 0
-12 -24 0
-12 -20 0
-11 -90 0
-11 -87 0
-11 -83 0
-11 -81 0
-11 -76 0
-11 -72 0
-11 -70 0
-11 -66 0
-11 -62 0
-11 -61 0
-11 -48 0
-11 -47 0
-11 -38 0
-11 -31 0
-11 -26 0
-11 -22 0
-10 -90 0
-10 -79 0
-10 -77 0
-10 -76 0
-10 -69 0
-10 -63 0
-10 -56 0
-10 -51 0
-10 -36 0
-10 -34 0
-10 -29 0
-10 -23 0
-10 -17 0
-10 -15 0
-10 -13 0
-9 -86 0
-9 -85 0
-9 -84 0
-9 -81 0
-9 -77 0
-9 -72 0
-9 -71 0
-9 -54 0
-9 -53 0
-9 -49 0
-9 -44 0
-9 -43 0
-9 -34 0
-9 -25 0
-9 -24 0
-9 -16 0
-8 -88 0
-8 -78 0
-8 -66 0
-8 -64 0
-8 -57 0
-8 -56 0
-8 -53 0
-8 -46 0
-8 -43 0
-8 -42 0
-8 -37 0
-8 -30 0
-8 -23 0
-8 -22 0
-8 -21 0
-8 -14 0
-7 -87 0
-7 -69 0
-7 -55 0
-7 -52 0
-7 -50 0
-7 -45 0
-7 -39 0
-7 -37 0
-7 -32 0
-7 -28 0
-7 -21 0
-7 -19 0
-7 -16 0
-6 -84 0
-6 -83 0
-6 -82 0
-6 -80 0
-6 -78 0
-6 -68 0
-6 -66 0
-6 -60 0
-6 -53 0
-6 -46 0
-6 -45 0
-6 -42 0
-6 -37 0
-6 -23 0
-6 -18 0
-6 -15 0
-6 -8 0
-5 -90 0
-5 -72 0
-5 -70 0
-5 -69 0
-5 -66 0
-5 -61 0
-5 -52 0
-5 -47 0
-5 -45 0
-5 -32 0
-5 -31 0
-5 -26 0
-5 -21 0
-5 -16 0
-5 -11 0
-5 -7 0
-4 -89 0
-4 -74 0
-4 -73 0
-4 -69 0
-4 -67 0
-4 -59 0
-4 -52 0
-4 -49 0
-4 -48 0
-4 -45 0
-4 -42 0
-4 -32 0
-4 -29 0
-4 -21 0
-4 -16 0
-4 -7 0
-4 -5 0
-3 -87 0
-3 -86 0
-3 -84 0
-3 -77 0
-3 -72 0
-3 -55 0
-3 -54 0
-3 -50 0
-3 -49 0
-3 -43 0
-3 -39 0
-3 -37 0
-3 -28 0
-3 -19 0
-3 -9 0
-3 -7 0
-2 -90 0
-2 -87 0
-2 -56 0
-2 -55 0
-2 -50 0
-2 -39 0
-2 -37 0
-2 -36 0
-2 -34 0
-2 -29 0
-2 -28 0
-2 -19 0
-2 -15 0
-2 -13 0
-2 -10 0
-2 -7 0
-2 -3 0
-1 -89 0
-1 -82 0
-1 -79 0
-1 -77 0
-1 -76 0
-1 -75 0
-1 -70 0
-1 -69 0
-1 -63 0
-1 -51 0
-1 -44 0
-1 -39 0
-1 -35 0
-1 -30 0
-1 -23 0
-1 -17 0
-1 -10 0
1 30 35 39 44 70 75 82 89 0
2 10 13 15 29 34 36 56 90 0
3 9 43 49 54 72 77 84 86 0
4 5 7 16 21 32 45 52 69 0
6 8 23 37 42 46 53 66 78 0
11 22 38 48 62 76 81 83 87 0
12 20 24 47 50 60 63 64 74 0
18 27 41 51 55 61 67 85 88 0
25 26 28 33 57 68 73 79 91 0
14 17 19 31 40 58 59 65 71 80 0
