p cnf 57 372
-54 -56 0
-53 -54 0
-52 -56 0
-52 -54 0
-51 -56 0
-51 -55 0
-50 -57 0
-50 -54 0
-50 -53 0
-49 -57 0
-49 -52 0
-49 -50 0
-48 -52 0
-48 -49 0
-47 -57 0
-47 -50 0
-47 -49 0
-46 -52 0
-46 -49 0
-46 -48 0
-45 -54 0
-45 -53 0
-45 -50 0
-45 -48 0
-44 -56 0
-44 -53 0
-44 -51 0
-43 -57 0
-42 -57 0
-42 -55 0
-42 -51 0
-42 -43 0
-41 -56 0
-41 -51 0
-41 -44 0
-41 -43 0
-40 -57 0
-40 -56 0
-40 -54 0
-40 -52 0
-40 -43 0
-40 -42 0
-39 -55 0
-39 -48 0
-39 -45 0
-38 -55 0
-38 -43 0
-38 -41 0
-38 -39 0
-37 -43 0
-37 -41 0
-37 -38 0
-36 -53 0
-36 -47 0
-36 -44 0
-35 -56 0
-35 -54 0
-35 -52 0
-35 -40 0
-35 -37 0
-34 -47 0
-34 -46 0
-34 -36 0
-33 -55 0
-33 -51 0
-33 -47 0
-33 -42 0
-33 -36 0
-33 -34 0
-32 -57 0
-32 -55 0
-32 -50 0
-32 -49 0
-32 -47 0
-32 -39 0
-32 -38 0
-31 -52 0
-31 -49 0
-31 -48 0
-31 -46 0
-31 -43 0
-31 -41 0
-31 -38 0
-31 -37 0
-30 -47 0
-30 -43 0
-30 -41 0
-30 -38 0
-30 -37 0
-30 -36 0
-30 -34 0
-30 -33 0
-30 -31 0
-29 -57 0
-29 -43 0
-29 -42 0
-29 -40 0
-28 -57 0
-28 -53 0
-28 -44 0
-28 -43 0
-28 -42 0
-28 -40 0
-28 -36 0
-28 -29 0
-27 -55 0
-27 -53 0
-27 -44 0
-27 -39 0
-27 -38 0
-27 -36 0
-27 -32 0
-27 -28 0
-26 -55 0
-26 -54 0
-26 -53 0
-26 -51 0
-26 -50 0
-26 -45 0
-26 -42 0
-26 -33 0
-25 -48 0
-25 -47 0
-25 -45 0
-25 -39 0
-25 -36 0
-25 -34 0
-25 -33 0
-25 -30 0
-24 -53 0
-24 -52 0
-24 -49 0
-24 -48 0
-24 -46 0
-24 -44 0
-24 -36 0
-24 -31 0
-24 -28 0
-24 -27 0
-23 -55 0
-23 -39 0
-23 -38 0
-23 -32 0
-23 -29 0
-23 -27 0
-22 -54 0
-22 -53 0
-22 -50 0
-22 -46 0
-22 -45 0
-22 -34 0
-22 -26 0
-21 -55 0
-21 -51 0
-21 -42 0
-21 -37 0
-21 -35 0
-21 -33 0
-21 -26 0
-20 -54 0
-20 -53 0
-20 -50 0
-20 -45 0
-20 -29 0
-20 -26 0
-20 -23 0
-20 -22 0
-19 -54 0
-19 -53 0
-19 -50 0
-19 -45 0
-19 -43 0
-19 -41 0
-19 -38 0
-19 -37 0
-19 -31 0
-19 -30 0
-19 -26 0
-19 -22 0
-19 -20 0
-18 -57 0
-18 -50 0
-18 -49 0
-18 -47 0
-18 -37 0
-18 -35 0
-18 -32 0
-18 -21 0
-17 -56 0
-17 -51 0
-17 -48 0
-17 -45 0
-17 -44 0
-17 -41 0
-17 -39 0
-17 -25 0
-16 -57 0
-16 -56 0
-16 -51 0
-16 -50 0
-16 -49 0
-16 -47 0
-16 -44 0
-16 -41 0
-16 -32 0
-16 -18 0
-16 -17 0
-15 -57 0
-15 -46 0
-15 -43 0
-15 -42 0
-15 -40 0
-15 -34 0
-15 -29 0
-15 -28 0
-15 -22 0
-14 -47 0
-14 -36 0
-14 -34 0
-14 -33 0
-14 -30 0
-14 -29 0
-14 -25 0
-14 -23 0
-14 -20 0
-12 -55 0
-12 -52 0
-12 -51 0
-12 -49 0
-12 -48 0
-12 -46 0
-12 -42 0
-12 -33 0
-12 -31 0
-12 -26 0
-12 -24 0
-12 -21 0
-11 -56 0
-11 -51 0
-11 -46 0
-11 -44 0
-11 -41 0
-11 -34 0
-11 -22 0
-11 -17 0
-11 -16 0
-11 -15 0
-10 -56 0
-10 -55 0
-10 -54 0
-10 -52 0
-10 -40 0
-10 -39 0
-10 -38 0
-10 -35 0
-10 -32 0
-10 -27 0
-10 -23 0
-9 -56 0
-9 -54 0
-9 -52 0
-9 -47 0
-9 -40 0
-9 -36 0
-9 -35 0
-9 -34 0
-9 -33 0
-9 -30 0
-9 -25 0
-9 -14 0
-9 -10 0
-8 -37 0
-8 -35 0
-8 -29 0
-8 -23 0
-8 -21 0
-8 -20 0
-8 -18 0
-8 -14 0
-7 -55 0
-7 -46 0
-7 -39 0
-7 -38 0
-7 -34 0
-7 -32 0
-7 -27 0
-7 -23 0
-7 -22 0
-7 -15 0
-7 -11 0
-7 -10 0
-6 -56 0
-6 -51 0
-6 -44 0
-6 -41 0
-6 -29 0
-6 -23 0
-6 -20 0
-6 -17 0
-6 -16 0
-6 -14 0
-6 -11 0
-6 -8 0
-5 -46 0
-5 -37 0
-5 -35 0
-5 -34 0
-5 -22 0
-5 -21 0
-5 -18 0
-5 -15 0
-5 -11 0
-5 -8 0
-5 -7 0
-4 -48 0
-4 -45 0
-4 -39 0
-4 -37 0
-4 -35 0
-4 -25 0
-4 -21 0
-4 -18 0
-4 -17 0
-4 -8 0
-4 -5 0
-3 -57 0
-3 -48 0
-3 -45 0
-3 -43 0
-3 -42 0
-3 -40 0
-3 -39 0
-3 -29 0
-3 -28 0
-3 -25 0
-3 -17 0
-3 -15 0
-3 -4 0
-2 -53 0
-2 -44 0
-2 -37 0
-2 -36 0
-2 -35 0
-2 -28 0
-2 -27 0
-2 -24 0
-2 -21 0
-2 -18 0
-2 -8 0
-2 -5 0
-2 -4 0
-1 -52 0
-1 -49 0
-1 -48 0
-1 -46 0
-1 -31 0
-1 -29 0
-1 -24 0
-1 -23 0
-1 -20 0
-1 -14 0
-1 -12 0
-1 -8 0
-1 -6 0
1 6 8 14 20 23 29 0
3 4 17 25 39 45 48 0
5 7 11 15 22 34 46 0
9 10 35 40 52 54 56 0
12 21 26 33 42 51 55 0
16 18 32 47 49 50 57 0
19 30 31 37 38 41 43 0
2 13 24 27 28 36 44 53 0
