p cnf 33 76
18 20 28 0
18 20 9 0
18 20 10 0
18 28 9 0
18 28 10 0
18 9 10 0
20 28 9 0
20 28 10 0
20 9 10 0
28 9 10 0
24 27 7 0
24 27 14 0
24 7 14 0
27 7 14 0
16 15 19 0
16 15 5 0
16 19 5 0
15 19 5 0
2 22 1 0
2 22 25 0
2 1 25 0
22 1 25 0
12 8 11 0
12 8 31 0
12 11 31 0
8 11 31 0
30 23 3 0
30 23 4 0
30 3 4 0
23 3 4 0
32 33 26 0
32 33 17 0
32 26 17 0
33 26 17 0
29 6 21 0
29 6 13 0
29 21 13 0
6 21 13 0
-18 -16 -12 0
-18 -16 -32 0
-18 -12 -32 0
-16 -12 -32 0
-24 -2 -30 0
-24 -2 -29 0
-24 -30 -29 0
-2 -30 -29 0
-20 -15 -8 0
-20 -15 -33 0
-20 -8 -33 0
-15 -8 -33 0
-27 -22 -23 0
-27 -22 -6 0
-27 -23 -6 0
-22 -23 -6 0
-28 -19 -11 0
-28 -19 -26 0
-28 -11 -26 0
-19 -11 -26 0
-7 -1 -3 0
-7 -1 -21 0
-7 -3 -21 0
-1 -3 -21 0
-9 -5 -31 0
-9 -5 -17 0
-9 -31 -17 0
-5 -31 -17 0
-10 -14 -25 0
-10 -14 -4 0
-10 -14 -13 0
-10 -25 -4 0
-10 -25 -13 0
-10 -4 -13 0
-14 -25 -4 0
-14 -25 -13 0
-14 -4 -13 0
-25 -4 -13 0
