p cnf 10 40
-3 -6 -8 10 0
-3 -6 8 -10 0
-3 -4 -5 9 0
-3 -4 5 -9 0
-3 4 -5 -9 0
-3 4 5 9 0
-3 6 -8 -10 0
-3 6 8 10 0
-2 -4 -7 10 0
-2 -4 7 -10 0
-2 4 -7 -10 0
-2 4 7 10 0
-1 -5 -6 7 0
-1 -5 6 -7 0
-1 -2 -8 9 0
-1 -2 8 -9 0
-1 2 -8 -9 0
-1 2 8 9 0
-1 5 -6 -7 0
-1 5 6 7 0
1 -5 -6 -7 0
1 -5 6 7 0
1 -2 -8 -9 0
1 -2 8 9 0
1 2 -8 9 0
1 2 8 -9 0
1 5 -6 7 0
1 5 6 -7 0
2 -4 -7 -10 0
2 -4 7 10 0
2 4 -7 10 0
2 4 7 -10 0
3 -6 -8 -10 0
3 -6 8 10 0
3 -4 -5 -9 0
3 -4 5 9 0
3 4 -5 9 0
3 4 5 -9 0
3 6 -8 10 0
3 6 8 -10 0
