p cnf 28 512
-9 -10 -15 -16 -17 -20 -25 0
-9 -10 -15 -16 -17 20 25 0
-9 -10 -15 -16 17 -20 25 0
-9 -10 -15 -16 17 20 -25 0
-9 -10 -15 16 -17 -20 25 0
-9 -10 -15 16 -17 20 -25 0
-9 -10 -15 16 17 -20 -25 0
-9 -10 -15 16 17 20 25 0
-9 -10 15 -16 -17 -20 25 0
-9 -10 15 -16 -17 20 -25 0
-9 -10 15 -16 17 -20 -25 0
-9 -10 15 -16 17 20 25 0
-9 -10 15 16 -17 -20 -25 0
-9 -10 15 16 -17 20 25 0
-9 -10 15 16 17 -20 25 0
-9 -10 15 16 17 20 -25 0
-9 10 -15 -16 -17 -20 25 0
-9 10 -15 -16 -17 20 -25 0
-9 10 -15 -16 17 -20 -25 0
-9 10 -15 -16 17 20 25 0
-9 10 -15 16 -17 -20 -25 0
-9 10 -15 16 -17 20 25 0
-9 10 -15 16 17 -20 25 0
-9 10 -15 16 17 20 -25 0
-9 10 15 -16 -17 -20 -25 0
-9 10 15 -16 -17 20 25 0
-9 10 15 -16 17 -20 25 0
-9 10 15 -16 17 20 -25 0
-9 10 15 16 -17 -20 25 0
-9 10 15 16 -17 20 -25 0
-9 10 15 16 17 -20 -25 0
-9 10 15 16 17 20 25 0
-6 -7 -8 -15 -19 -21 -23 0
-6 -7 -8 -15 -19 21 23 0
-6 -7 -8 -15 19 -21 23 0
-6 -7 -8 -15 19 21 -23 0
-6 -7 -8 15 -19 -21 23 0
-6 -7 -8 15 -19 21 -23 0
-6 -7 -8 15 19 -21 -23 0
-6 -7 -8 15 19 21 23 0
-6 -7 8 -15 -19 -21 23 0
-6 -7 8 -15 -19 21 -23 0
-6 -7 8 -15 19 -21 -23 0
-6 -7 8 -15 19 21 23 0
-6 -7 8 15 -19 -21 -23 0
-6 -7 8 15 -19 21 23 0
-6 -7 8 15 19 -21 23 0
-6 -7 8 15 19 21 -23 0
-6 7 -8 -15 -19 -21 23 0
-6 7 -8 -15 -19 21 -23 0
-6 7 -8 -15 19 -21 -23 0
-6 7 -8 -15 19 21 23 0
-6 7 -8 15 -19 -21 -23 0
-6 7 -8 15 -19 21 23 0
-6 7 -8 15 19 -21 23 0
-6 7 -8 15 19 21 -23 0
-6 7 8 -15 -19 -21 -23 0
-6 7 8 -15 -19 21 23 0
-6 7 8 -15 19 -21 23 0
-6 7 8 -15 19 21 -23 0
-6 7 8 15 -19 -21 23 0
-6 7 8 15 -19 21 -23 0
-6 7 8 15 19 -21 -23 0
-6 7 8 15 19 21 23 0
-5 -8 -9 -13 -14 -18 -22 0
-5 -8 -9 -13 -14 18 22 0
-5 -8 -9 -13 14 -18 22 0
-5 -8 -9 -13 14 18 -22 0
-5 -8 -9 13 -14 -18 22 0
-5 -8 -9 13 -14 18 -22 0
-5 -8 -9 13 14 -18 -22 0
-5 -8 -9 13 14 18 22 0
-5 -8 9 -13 -14 -18 22 0
-5 -8 9 -13 -14 18 -22 0
-5 -8 9 -13 14 -18 -22 0
-5 -8 9 -13 14 18 22 0
-5 -8 9 13 -14 -18 -22 0
-5 -8 9 13 -14 18 22 0
-5 -8 9 13 14 -18 22 0
-5 -8 9 13 14 18 -22 0
-5 -7 -11 -20 -26 -27 -28 0
-5 -7 -11 -20 -26 27 28 0
-5 -7 -11 -20 26 -27 28 0
-5 -7 -11 -20 26 27 -28 0
-5 -7 -11 20 -26 -27 28 0
-5 -7 -11 20 -26 27 -28 0
-5 -7 -11 20 26 -27 -28 0
-5 -7 -11 20 26 27 28 0
-5 -7 11 -20 -26 -27 28 0
-5 -7 11 -20 -26 27 -28 0
-5 -7 11 -20 26 -27 -28 0
-5 -7 11 -20 26 27 28 0
-5 -7 11 20 -26 -27 -28 0
-5 -7 11 20 -26 27 28 0
-5 -7 11 20 26 -27 28 0
-5 -7 11 20 26 27 -28 0
-5 7 -11 -20 -26 -27 28 0
-5 7 -11 -20 -26 27 -28 0
-5 7 -11 -20 26 -27 -28 0
-5 7 -11 -20 26 27 28 0
-5 7 -11 20 -26 -27 -28 0
-5 7 -11 20 -26 27 28 0
-5 7 -11 20 26 -27 28 0
-5 7 -11 20 26 27 -28 0
-5 7 11 -20 -26 -27 -28 0
-5 7 11 -20 -26 27 28 0
-5 7 11 -20 26 -27 28 0
-5 7 11 -20 26 27 -28 0
-5 7 11 20 -26 -27 28 0
-5 7 11 20 -26 27 -28 0
-5 7 11 20 26 -27 -28 0
-5 7 11 20 26 27 28 0
-5 8 -9 -13 -14 -18 22 0
-5 8 -9 -13 -14 18 -22 0
-5 8 -9 -13 14 -18 -22 0
-5 8 -9 -13 14 18 22 0
-5 8 -9 13 -14 -18 -22 0
-5 8 -9 13 -14 18 22 0
-5 8 -9 13 14 -18 22 0
-5 8 -9 13 14 18 -22 0
-5 8 9 -13 -14 -18 -22 0
-5 8 9 -13 -14 18 22 0
-5 8 9 -13 14 -18 22 0
-5 8 9 -13 14 18 -22 0
-5 8 9 13 -14 -18 22 0
-5 8 9 13 -14 18 -22 0
-5 8 9 13 14 -18 -22 0
-5 8 9 13 14 18 22 0
-3 -10 -12 -18 -23 -24 -26 0
-3 -10 -12 -18 -23 24 26 0
-3 -10 -12 -18 23 -24 26 0
-3 -10 -12 -18 23 24 -26 0
-3 -10 -12 18 -23 -24 26 0
-3 -10 -12 18 -23 24 -26 0
-3 -10 -12 18 23 -24 -26 0
-3 -10 -12 18 23 24 26 0
-3 -10 12 -18 -23 -24 26 0
-3 -10 12 -18 -23 24 -26 0
-3 -10 12 -18 23 -24 -26 0
-3 -10 12 -18 23 24 26 0
-3 -10 12 18 -23 -24 -26 0
-3 -10 12 18 -23 24 26 0
-3 -10 12 18 23 -24 26 0
-3 -10 12 18 23 24 -26 0
-3 10 -12 -18 -23 -24 26 0
-3 10 -12 -18 -23 24 -26 0
-3 10 -12 -18 23 -24 -26 0
-3 10 -12 -18 23 24 26 0
-3 10 -12 18 -23 -24 -26 0
-3 10 -12 18 -23 24 26 0
-3 10 -12 18 23 -24 26 0
-3 10 -12 18 23 24 -26 0
-3 10 12 -18 -23 -24 -26 0
-3 10 12 -18 -23 24 26 0
-3 10 12 -18 23 -24 26 0
-3 10 12 -18 23 24 -26 0
-3 10 12 18 -23 -24 26 0
-3 10 12 18 -23 24 -26 0
-3 10 12 18 23 -24 -26 0
-3 10 12 18 23 24 26 0
-2 -4 -16 -21 -22 -24 -27 0
-2 -4 -16 -21 -22 24 27 0
-2 -4 -16 -21 22 -24 27 0
-2 -4 -16 -21 22 24 -27 0
-2 -4 -16 21 -22 -24 27 0
-2 -4 -16 21 -22 24 -27 0
-2 -4 -16 21 22 -24 -27 0
-2 -4 -16 21 22 24 27 0
-2 -4 16 -21 -22 -24 27 0
-2 -4 16 -21 -22 24 -27 0
-2 -4 16 -21 22 -24 -27 0
-2 -4 16 -21 22 24 27 0
-2 -4 16 21 -22 -24 -27 0
-2 -4 16 21 -22 24 27 0
-2 -4 16 21 22 -24 27 0
-2 -4 16 21 22 24 -27 0
-2 4 -16 -21 -22 -24 27 0
-2 4 -16 -21 -22 24 -27 0
-2 4 -16 -21 22 -24 -27 0
-2 4 -16 -21 22 24 27 0
-2 4 -16 21 -22 -24 -27 0
-2 4 -16 21 -22 24 27 0
-2 4 -16 21 22 -24 27 0
-2 4 -16 21 22 24 -27 0
-2 4 16 -21 -22 -24 -27 0
-2 4 16 -21 -22 24 27 0
-2 4 16 -21 22 -24 27 0
-2 4 16 -21 22 24 -27 0
-2 4 16 21 -22 -24 27 0
-2 4 16 21 -22 24 -27 0
-2 4 16 21 22 -24 -27 0
-2 4 16 21 22 24 27 0
-1 -3 -4 -6 -13 -17 -28 0
-1 -3 -4 -6 -13 17 28 0
-1 -3 -4 -6 13 -17 28 0
-1 -3 -4 -6 13 17 -28 0
-1 -3 -4 6 -13 -17 28 0
-1 -3 -4 6 -13 17 -28 0
-1 -3 -4 6 13 -17 -28 0
-1 -3 -4 6 13 17 28 0
-1 -3 4 -6 -13 -17 28 0
-1 -3 4 -6 -13 17 -28 0
-1 -3 4 -6 13 -17 -28 0
-1 -3 4 -6 13 17 28 0
-1 -3 4 6 -13 -17 -28 0
-1 -3 4 6 -13 17 28 0
-1 -3 4 6 13 -17 28 0
-1 -3 4 6 13 17 -28 0
-1 -2 -11 -12 -14 -19 -25 0
-1 -2 -11 -12 -14 19 25 0
-1 -2 -11 -12 14 -19 25 0
-1 -2 -11 -12 14 19 -25 0
-1 -2 -11 12 -14 -19 25 0
-1 -2 -11 12 -14 19 -25 0
-1 -2 -11 12 14 -19 -25 0
-1 -2 -11 12 14 19 25 0
-1 -2 11 -12 -14 -19 25 0
-1 -2 11 -12 -14 19 -25 0
-1 -2 11 -12 14 -19 -25 0
-1 -2 11 -12 14 19 25 0
-1 -2 11 12 -14 -19 -25 0
-1 -2 11 12 -14 19 25 0
-1 -2 11 12 14 -19 25 0
-1 -2 11 12 14 19 -25 0
-1 2 -11 -12 -14 -19 25 0
-1 2 -11 -12 -14 19 -25 0
-1 2 -11 -12 14 -19 -25 0
-1 2 -11 -12 14 19 25 0
-1 2 -11 12 -14 -19 -25 0
-1 2 -11 12 -14 19 25 0
-1 2 -11 12 14 -19 25 0
-1 2 -11 12 14 19 -25 0
-1 2 11 -12 -14 -19 -25 0
-1 2 11 -12 -14 19 25 0
-1 2 11 -12 14 -19 25 0
-1 2 11 -12 14 19 -25 0
-1 2 11 12 -14 -19 25 0
-1 2 11 12 -14 19 -25 0
-1 2 11 12 14 -19 -25 0
-1 2 11 12 14 19 25 0
-1 3 -4 -6 -13 -17 28 0
-1 3 -4 -6 -13 17 -28 0
-1 3 -4 -6 13 -17 -28 0
-1 3 -4 -6 13 17 28 0
-1 3 -4 6 -13 -17 -28 0
-1 3 -4 6 -13 17 28 0
-1 3 -4 6 13 -17 28 0
-1 3 -4 6 13 17 -28 0
-1 3 4 -6 -13 -17 -28 0
-1 3 4 -6 -13 17 28 0
-1 3 4 -6 13 -17 28 0
-1 3 4 -6 13 17 -28 0
-1 3 4 6 -13 -17 28 0
-1 3 4 6 -13 17 -28 0
-1 3 4 6 13 -17 -28 0
-1 3 4 6 13 17 28 0
1 -3 -4 -6 -13 -17 28 0
1 -3 -4 -6 -13 17 -28 0
1 -3 -4 -6 13 -17 -28 0
1 -3 -4 -6 13 17 28 0
1 -3 -4 6 -13 -17 -28 0
1 -3 -4 6 -13 17 28 0
1 -3 -4 6 13 -17 28 0
1 -3 -4 6 13 17 -28 0
1 -3 4 -6 -13 -17 -28 0
1 -3 4 -6 -13 17 28 0
1 -3 4 -6 13 -17 28 0
1 -3 4 -6 13 17 -28 0
1 -3 4 6 -13 -17 28 0
1 -3 4 6 -13 17 -28 0
1 -3 4 6 13 -17 -28 0
1 -3 4 6 13 17 28 0
1 -2 -11 -12 -14 -19 25 0
1 -2 -11 -12 -14 19 -25 0
1 -2 -11 -12 14 -19 -25 0
1 -2 -11 -12 14 19 25 0
1 -2 -11 12 -14 -19 -25 0
1 -2 -11 12 -14 19 25 0
1 -2 -11 12 14 -19 25 0
1 -2 -11 12 14 19 -25 0
1 -2 11 -12 -14 -19 -25 0
1 -2 11 -12 -14 19 25 0
1 -2 11 -12 14 -19 25 0
1 -2 11 -12 14 19 -25 0
1 -2 11 12 -14 -19 25 0
1 -2 11 12 -14 19 -25 0
1 -2 11 12 14 -19 -25 0
1 -2 11 12 14 19 25 0
1 2 -11 -12 -14 -19 -25 0
1 2 -11 -12 -14 19 25 0
1 2 -11 -12 14 -19 25 0
1 2 -11 -12 14 19 -25 0
1 2 -11 12 -14 -19 25 0
1 2 -11 12 -14 19 -25 0
1 2 -11 12 14 -19 -25 0
1 2 -11 12 14 19 25 0
1 2 11 -12 -14 -19 25 0
1 2 11 -12 -14 19 -25 0
1 2 11 -12 14 -19 -25 0
1 2 11 -12 14 19 25 0
1 2 11 12 -14 -19 -25 0
1 2 11 12 -14 19 25 0
1 2 11 12 14 -19 25 0
1 2 11 12 14 19 -25 0
1 3 -4 -6 -13 -17 -28 0
1 3 -4 -6 -13 17 28 0
1 3 -4 -6 13 -17 28 0
1 3 -4 -6 13 17 -28 0
1 3 -4 6 -13 -17 28 0
1 3 -4 6 -13 17 -28 0
1 3 -4 6 13 -17 -28 0
1 3 -4 6 13 17 28 0
1 3 4 -6 -13 -17 28 0
1 3 4 -6 -13 17 -28 0
1 3 4 -6 13 -17 -28 0
1 3 4 -6 13 17 28 0
1 3 4 6 -13 -17 -28 0
1 3 4 6 -13 17 28 0
1 3 4 6 13 -17 28 0
1 3 4 6 13 17 -28 0
2 -4 -16 -21 -22 -24 27 0
2 -4 -16 -21 -22 24 -27 0
2 -4 -16 -21 22 -24 -27 0
2 -4 -16 -21 22 24 27 0
2 -4 -16 21 -22 -24 -27 0
2 -4 -16 21 -22 24 27 0
2 -4 -16 21 22 -24 27 0
2 -4 -16 21 22 24 -27 0
2 -4 16 -21 -22 -24 -27 0
2 -4 16 -21 -22 24 27 0
2 -4 16 -21 22 -24 27 0
2 -4 16 -21 22 24 -27 0
2 -4 16 21 -22 -24 27 0
2 -4 16 21 -22 24 -27 0
2 -4 16 21 22 -24 -27 0
2 -4 16 21 22 24 27 0
2 4 -16 -21 -22 -24 -27 0
2 4 -16 -21 -22 24 27 0
2 4 -16 -21 22 -24 27 0
2 4 -16 -21 22 24 -27 0
2 4 -16 21 -22 -24 27 0
2 4 -16 21 -22 24 -27 0
2 4 -16 21 22 -24 -27 0
2 4 -16 21 22 24 27 0
2 4 16 -21 -22 -24 27 0
2 4 16 -21 -22 24 -27 0
2 4 16 -21 22 -24 -27 0
2 4 16 -21 22 24 27 0
2 4 16 21 -22 -24 -27 0
2 4 16 21 -22 24 27 0
2 4 16 21 22 -24 27 0
2 4 16 21 22 24 -27 0
3 -10 -12 -18 -23 -24 26 0
3 -10 -12 -18 -23 24 -26 0
3 -10 -12 -18 23 -24 -26 0
3 -10 -12 -18 23 24 26 0
3 -10 -12 18 -23 -24 -26 0
3 -10 -12 18 -23 24 26 0
3 -10 -12 18 23 -24 26 0
3 -10 -12 18 23 24 -26 0
3 -10 12 -18 -23 -24 -26 0
3 -10 12 -18 -23 24 26 0
3 -10 12 -18 23 -24 26 0
3 -10 12 -18 23 24 -26 0
3 -10 12 18 -23 -24 26 0
3 -10 12 18 -23 24 -26 0
3 -10 12 18 23 -24 -26 0
3 -10 12 18 23 24 26 0
3 10 -12 -18 -23 -24 -26 0
3 10 -12 -18 -23 24 26 0
3 10 -12 -18 23 -24 26 0
3 10 -12 -18 23 24 -26 0
3 10 -12 18 -23 -24 26 0
3 10 -12 18 -23 24 -26 0
3 10 -12 18 23 -24 -26 0
3 10 -12 18 23 24 26 0
3 10 12 -18 -23 -24 26 0
3 10 12 -18 -23 24 -26 0
3 10 12 -18 23 -24 -26 0
3 10 12 -18 23 24 26 0
3 10 12 18 -23 -24 -26 0
3 10 12 18 -23 24 26 0
3 10 12 18 23 -24 26 0
3 10 12 18 23 24 -26 0
5 -8 -9 -13 -14 -18 22 0
5 -8 -9 -13 -14 18 -22 0
5 -8 -9 -13 14 -18 -22 0
5 -8 -9 -13 14 18 22 0
5 -8 -9 13 -14 -18 -22 0
5 -8 -9 13 -14 18 22 0
5 -8 -9 13 14 -18 22 0
5 -8 -9 13 14 18 -22 0
5 -8 9 -13 -14 -18 -22 0
5 -8 9 -13 -14 18 22 0
5 -8 9 -13 14 -18 22 0
5 -8 9 -13 14 18 -22 0
5 -8 9 13 -14 -18 22 0
5 -8 9 13 -14 18 -22 0
5 -8 9 13 14 -18 -22 0
5 -8 9 13 14 18 22 0
5 -7 -11 -20 -26 -27 28 0
5 -7 -11 -20 -26 27 -28 0
5 -7 -11 -20 26 -27 -28 0
5 -7 -11 -20 26 27 28 0
5 -7 -11 20 -26 -27 -28 0
5 -7 -11 20 -26 27 28 0
5 -7 -11 20 26 -27 28 0
5 -7 -11 20 26 27 -28 0
5 -7 11 -20 -26 -27 -28 0
5 -7 11 -20 -26 27 28 0
5 -7 11 -20 26 -27 28 0
5 -7 11 -20 26 27 -28 0
5 -7 11 20 -26 -27 28 0
5 -7 11 20 -26 27 -28 0
5 -7 11 20 26 -27 -28 0
5 -7 11 20 26 27 28 0
5 7 -11 -20 -26 -27 -28 0
5 7 -11 -20 -26 27 28 0
5 7 -11 -20 26 -27 28 0
5 7 -11 -20 26 27 -28 0
5 7 -11 20 -26 -27 28 0
5 7 -11 20 -26 27 -28 0
5 7 -11 20 26 -27 -28 0
5 7 -11 20 26 27 28 0
5 7 11 -20 -26 -27 28 0
5 7 11 -20 -26 27 -28 0
5 7 11 -20 26 -27 -28 0
5 7 11 -20 26 27 28 0
5 7 11 20 -26 -27 -28 0
5 7 11 20 -26 27 28 0
5 7 11 20 26 -27 28 0
5 7 11 20 26 27 -28 0
5 8 -9 -13 -14 -18 -22 0
5 8 -9 -13 -14 18 22 0
5 8 -9 -13 14 -18 22 0
5 8 -9 -13 14 18 -22 0
5 8 -9 13 -14 -18 22 0
5 8 -9 13 -14 18 -22 0
5 8 -9 13 14 -18 -22 0
5 8 -9 13 14 18 22 0
5 8 9 -13 -14 -18 22 0
5 8 9 -13 -14 18 -22 0
5 8 9 -13 14 -18 -22 0
5 8 9 -13 14 18 22 0
5 8 9 13 -14 -18 -22 0
5 8 9 13 -14 18 22 0
5 8 9 13 14 -18 22 0
5 8 9 13 14 18 -22 0
6 -7 -8 -15 -19 -21 23 0
6 -7 -8 -15 -19 21 -23 0
6 -7 -8 -15 19 -21 -23 0
6 -7 -8 -15 19 21 23 0
6 -7 -8 15 -19 -21 -23 0
6 -7 -8 15 -19 21 23 0
6 -7 -8 15 19 -21 23 0
6 -7 -8 15 19 21 -23 0
6 -7 8 -15 -19 -21 -23 0
6 -7 8 -15 -19 21 23 0
6 -7 8 -15 19 -21 23 0
6 -7 8 -15 19 21 -23 0
6 -7 8 15 -19 -21 23 0
6 -7 8 15 -19 21 -23 0
6 -7 8 15 19 -21 -23 0
6 -7 8 15 19 21 23 0
6 7 -8 -15 -19 -21 -23 0
6 7 -8 -15 -19 21 23 0
6 7 -8 -15 19 -21 23 0
6 7 -8 -15 19 21 -23 0
6 7 -8 15 -19 -21 23 0
6 7 -8 15 -19 21 -23 0
6 7 -8 15 19 -21 -23 0
6 7 -8 15 19 21 23 0
6 7 8 -15 -19 -21 23 0
6 7 8 -15 -19 21 -23 0
6 7 8 -15 19 -21 -23 0
6 7 8 -15 19 21 23 0
6 7 8 15 -19 -21 -23 0
6 7 8 15 -19 21 23 0
6 7 8 15 19 -21 23 0
6 7 8 15 19 21 -23 0
9 -10 -15 -16 -17 -20 25 0
9 -10 -15 -16 -17 20 -25 0
9 -10 -15 -16 17 -20 -25 0
9 -10 -15 -16 17 20 25 0
9 -10 -15 16 -17 -20 -25 0
9 -10 -15 16 -17 20 25 0
9 -10 -15 16 17 -20 25 0
9 -10 -15 16 17 20 -25 0
9 -10 15 -16 -17 -20 -25 0
9 -10 15 -16 -17 20 25 0
9 -10 15 -16 17 -20 25 0
9 -10 15 -16 17 20 -25 0
9 -10 15 16 -17 -20 25 0
9 -10 15 16 -17 20 -25 0
9 -10 15 16 17 -20 -25 0
9 -10 15 16 17 20 25 0
9 10 -15 -16 -17 -20 -25 0
9 10 -15 -16 -17 20 25 0
9 10 -15 -16 17 -20 25 0
9 10 -15 -16 17 20 -25 0
9 10 -15 16 -17 -20 25 0
9 10 -15 16 -17 20 -25 0
9 10 -15 16 17 -20 -25 0
9 10 -15 16 17 20 25 0
9 10 15 -16 -17 -20 25 0
9 10 15 -16 -17 20 -25 0
9 10 15 -16 17 -20 -25 0
9 10 15 -16 17 20 25 0
9 10 15 16 -17 -20 -25 0
9 10 15 16 -17 20 25 0
9 10 15 16 17 -20 25 0
9 10 15 16 17 20 -25 0
