p cnf 36 1152
-11 -18 -20 -24 -27 -29 -31 32 0
-11 -18 -20 -24 -27 -29 31 -32 0
-11 -18 -20 -24 -27 29 -31 -32 0
-11 -18 -20 -24 -27 29 31 32 0
-11 -18 -20 -24 27 -29 -31 -32 0
-11 -18 -20 -24 27 -29 31 32 0
-11 -18 -20 -24 27 29 -31 32 0
-11 -18 -20 -24 27 29 31 -32 0
-11 -18 -20 24 -27 -29 -31 -32 0
-11 -18 -20 24 -27 -29 31 32 0
-11 -18 -20 24 -27 29 -31 32 0
-11 -18 -20 24 -27 29 31 -32 0
-11 -18 -20 24 27 -29 -31 32 0
-11 -18 -20 24 27 -29 31 -32 0
-11 -18 -20 24 27 29 -31 -32 0
-11 -18 -20 24 27 29 31 32 0
-11 -18 20 -24 -27 -29 -31 -32 0
-11 -18 20 -24 -27 -29 31 32 0
-11 -18 20 -24 -27 29 -31 32 0
-11 -18 20 -24 -27 29 31 -32 0
-11 -18 20 -24 27 -29 -31 32 0
-11 -18 20 -24 27 -29 31 -32 0
-11 -18 20 -24 27 29 -31 -32 0
-11 -18 20 -24 27 29 31 32 0
-11 -18 20 24 -27 -29 -31 32 0
-11 -18 20 24 -27 -29 31 -32 0
-11 -18 20 24 -27 29 -31 -32 0
-11 -18 20 24 -27 29 31 32 0
-11 -18 20 24 27 -29 -31 -32 0
-11 -18 20 24 27 -29 31 32 0
-11 -18 20 24 27 29 -31 32 0
-11 -18 20 24 27 29 31 -32 0
-11 18 -20 -24 -27 -29 -31 -32 0
-11 18 -20 -24 -27 -29 31 32 0
-11 18 -20 -24 -27 29 -31 32 0
-11 18 -20 -24 -27 29 31 -32 0
-11 18 -20 -24 27 -29 -31 32 0
-11 18 -20 -24 27 -29 31 -32 0
-11 18 -20 -24 27 29 -31 -32 0
-11 18 -20 -24 27 29 31 32 0
-11 18 -20 24 -27 -29 -31 32 0
-11 18 -20 24 -27 -29 31 -32 0
-11 18 -20 24 -27 29 -31 -32 0
-11 18 -20 24 -27 29 31 32 0
-11 18 -20 24 27 -29 -31 -32 0
-11 18 -20 24 27 -29 31 32 0
-11 18 -20 24 27 29 -31 32 0
-11 18 -20 24 27 29 31 -32 0
-11 18 20 -24 -27 -29 -31 32 0
-11 18 20 -24 -27 -29 31 -32 0
-11 18 20 -24 -27 29 -31 -32 0
-11 18 20 -24 -27 29 31 32 0
-11 18 20 -24 27 -29 -31 -32 0
-11 18 20 -24 27 -29 31 32 0
-11 18 20 -24 27 29 -31 32 0
-11 18 20 -24 27 29 31 -32 0
-11 18 20 24 -27 -29 -31 -32 0
-11 18 20 24 -27 -29 31 32 0
-11 18 20 24 -27 29 -31 32 0
-11 18 20 24 -27 29 31 -32 0
-11 18 20 24 27 -29 -31 32 0
-11 18 20 24 27 -29 31 -32 0
-11 18 20 24 27 29 -31 -32 0
-11 18 20 24 27 29 31 32 0
-8 -13 -15 -23 -24 -33 -35 36 0
-8 -13 -15 -23 -24 -33 35 -36 0
-8 -13 -15 -23 -24 33 -35 -36 0
-8 -13 -15 -23 -24 33 35 36 0
-8 -13 -15 -23 24 -33 -35 -36 0
-8 -13 -15 -23 24 -33 35 36 0
-8 -13 -15 -23 24 33 -35 36 0
-8 -13 -15 -23 24 33 35 -36 0
-8 -13 -15 23 -24 -33 -35 -36 0
-8 -13 -15 23 -24 -33 35 36 0
-8 -13 -15 23 -24 33 -35 36 0
-8 -13 -15 23 -24 33 35 -36 0
-8 -13 -15 23 24 -33 -35 36 0
-8 -13 -15 23 24 -33 35 -36 0
-8 -13 -15 23 24 33 -35 -36 0
-8 -13 -15 23 24 33 35 36 0
-8 -13 15 -23 -24 -33 -35 -36 0
-8 -13 15 -23 -24 -33 35 36 0
-8 -13 15 -23 -24 33 -35 36 0
-8 -13 15 -23 -24 33 35 -36 0
-8 -13 15 -23 24 -33 -35 36 0
-8 -13 15 -23 24 -33 35 -36 0
-8 -13 15 -23 24 33 -35 -36 0
-8 -13 15 -23 24 33 35 36 0
-8 -13 15 23 -24 -33 -35 36 0
-8 -13 15 23 -24 -33 35 -36 0
-8 -13 15 23 -24 33 -35 -36 0
-8 -13 15 23 -24 33 35 36 0
-8 -13 15 23 24 -33 -35 -36 0
-8 -13 15 23 24 -33 35 36 0
-8 -13 15 23 24 33 -35 36 0
-8 -13 15 23 24 33 35 -36 0
-8 13 -15 -23 -24 -33 -35 -36 0
-8 13 -15 -23 -24 -33 35 36 0
-8 13 -15 -23 -24 33 -35 36 0
-8 13 -15 -23 -24 33 35 -36 0
-8 13 -15 -23 24 -33 -35 36 0
-8 13 -15 -23 24 -33 35 -36 0
-8 13 -15 -23 24 33 -35 -36 0
-8 13 -15 -23 24 33 35 36 0
-8 13 -15 23 -24 -33 -35 36 0
-8 13 -15 23 -24 -33 35 -36 0
-8 13 -15 23 -24 33 -35 -36 0
-8 13 -15 23 -24 33 35 36 0
-8 13 -15 23 24 -33 -35 -36 0
-8 13 -15 23 24 -33 35 36 0
-8 13 -15 23 24 33 -35 36 0
-8 13 -15 23 24 33 35 -36 0
-8 13 15 -23 -24 -33 -35 36 0
-8 13 15 -23 -24 -33 35 -36 0
-8 13 15 -23 -24 33 -35 -36 0
-8 13 15 -23 -24 33 35 36 0
-8 13 15 -23 24 -33 -35 -36 0
-8 13 15 -23 24 -33 35 36 0
-8 13 15 -23 24 33 -35 36 0
-8 13 15 -23 24 33 35 -36 0
-8 13 15 23 -24 -33 -35 -36 0
-8 13 15 23 -24 -33 35 36 0
-8 13 15 23 -24 33 -35 36 0
-8 13 15 23 -24 33 35 -36 0
-8 13 15 23 24 -33 -35 36 0
-8 13 15 23 24 -33 35 -36 0
-8 13 15 23 24 33 -35 -36 0
-8 13 15 23 24 33 35 36 0
-7 -12 -15 -17 -18 -25 -28 -30 0
-7 -12 -15 -17 -18 -25 28 30 0
-7 -12 -15 -17 -18 25 -28 30 0
-7 -12 -15 -17 -18 25 28 -30 0
-7 -12 -15 -17 18 -25 -28 30 0
-7 -12 -15 -17 18 -25 28 -30 0
-7 -12 -15 -17 18 25 -28 -30 0
-7 -12 -15 -17 18 25 28 30 0
-7 -12 -15 17 -18 -25 -28 30 0
-7 -12 -15 17 -18 -25 28 -30 0
-7 -12 -15 17 -18 25 -28 -30 0
-7 -12 -15 17 -18 25 28 30 0
-7 -12 -15 17 18 -25 -28 -30 0
-7 -12 -15 17 18 -25 28 30 0
-7 -12 -15 17 18 25 -28 30 0
-7 -12 -15 17 18 25 28 -30 0
-7 -12 15 -17 -18 -25 -28 30 0
-7 -12 15 -17 -18 -25 28 -30 0
-7 -12 15 -17 -18 25 -28 -30 0
-7 -12 15 -17 -18 25 28 30 0
-7 -12 15 -17 18 -25 -28 -30 0
-7 -12 15 -17 18 -25 28 30 0
-7 -12 15 -17 18 25 -28 30 0
-7 -12 15 -17 18 25 28 -30 0
-7 -12 15 17 -18 -25 -28 -30 0
-7 -12 15 17 -18 -25 28 30 0
-7 -12 15 17 -18 25 -28 30 0
-7 -12 15 17 -18 25 28 -30 0
-7 -12 15 17 18 -25 -28 30 0
-7 -12 15 17 18 -25 28 -30 0
-7 -12 15 17 18 25 -28 -30 0
-7 -12 15 17 18 25 28 30 0
-7 12 -15 -17 -18 -25 -28 30 0
-7 12 -15 -17 -18 -25 28 -30 0
-7 12 -15 -17 -18 25 -28 -30 0
-7 12 -15 -17 -18 25 28 30 0
-7 12 -15 -17 18 -25 -28 -30 0
-7 12 -15 -17 18 -25 28 30 0
-7 12 -15 -17 18 25 -28 30 0
-7 12 -15 -17 18 25 28 -30 0
-7 12 -15 17 -18 -25 -28 -30 0
-7 12 -15 17 -18 -25 28 30 0
-7 12 -15 17 -18 25 -28 30 0
-7 12 -15 17 -18 25 28 -30 0
-7 12 -15 17 18 -25 -28 30 0
-7 12 -15 17 18 -25 28 -30 0
-7 12 -15 17 18 25 -28 -30 0
-7 12 -15 17 18 25 28 30 0
-7 12 15 -17 -18 -25 -28 -30 0
-7 12 15 -17 -18 -25 28 30 0
-7 12 15 -17 -18 25 -28 30 0
-7 12 15 -17 -18 25 28 -30 0
-7 12 15 -17 18 -25 -28 30 0
-7 12 15 -17 18 -25 28 -30 0
-7 12 15 -17 18 25 -28 -30 0
-7 12 15 -17 18 25 28 30 0
-7 12 15 17 -18 -25 -28 30 0
-7 12 15 17 -18 -25 28 -30 0
-7 12 15 17 -18 25 -28 -30 0
-7 12 15 17 -18 25 28 30 0
-7 12 15 17 18 -25 -28 -30 0
-7 12 15 17 18 -25 28 30 0
-7 12 15 17 18 25 -28 30 0
-7 12 15 17 18 25 28 -30 0
-5 -6 -7 -10 -13 -19 -21 29 0
-5 -6 -7 -10 -13 -19 21 -29 0
-5 -6 -7 -10 -13 19 -21 -29 0
-5 -6 -7 -10 -13 19 21 29 0
-5 -6 -7 -10 13 -19 -21 -29 0
-5 -6 -7 -10 13 -19 21 29 0
-5 -6 -7 -10 13 19 -21 29 0
-5 -6 -7 -10 13 19 21 -29 0
-5 -6 -7 10 -13 -19 -21 -29 0
-5 -6 -7 10 -13 -19 21 29 0
-5 -6 -7 10 -13 19 -21 29 0
-5 -6 -7 10 -13 19 21 -29 0
-5 -6 -7 10 13 -19 -21 29 0
-5 -6 -7 10 13 -19 21 -29 0
-5 -6 -7 10 13 19 -21 -29 0
-5 -6 -7 10 13 19 21 29 0
-5 -6 7 -10 -13 -19 -21 -29 0
-5 -6 7 -10 -13 -19 21 29 0
-5 -6 7 -10 -13 19 -21 29 0
-5 -6 7 -10 -13 19 21 -29 0
-5 -6 7 -10 13 -19 -21 29 0
-5 -6 7 -10 13 -19 21 -29 0
-5 -6 7 -10 13 19 -21 -29 0
-5 -6 7 -10 13 19 21 29 0
-5 -6 7 10 -13 -19 -21 29 0
-5 -6 7 10 -13 -19 21 -29 0
-5 -6 7 10 -13 19 -21 -29 0
-5 -6 7 10 -13 19 21 29 0
-5 -6 7 10 13 -19 -21 -29 0
-5 -6 7 10 13 -19 21 29 0
-5 -6 7 10 13 19 -21 29 0
-5 -6 7 10 13 19 21 -29 0
-5 6 -7 -10 -13 -19 -21 -29 0
-5 6 -7 -10 -13 -19 21 29 0
-5 6 -7 -10 -13 19 -21 29 0
-5 6 -7 -10 -13 19 21 -29 0
-5 6 -7 -10 13 -19 -21 29 0
-5 6 -7 -10 13 -19 21 -29 0
-5 6 -7 -10 13 19 -21 -29 0
-5 6 -7 -10 13 19 21 29 0
-5 6 -7 10 -13 -19 -21 29 0
-5 6 -7 10 -13 -19 21 -29 0
-5 6 -7 10 -13 19 -21 -29 0
-5 6 -7 10 -13 19 21 29 0
-5 6 -7 10 13 -19 -21 -29 0
-5 6 -7 10 13 -19 21 29 0
-5 6 -7 10 13 19 -21 29 0
-5 6 -7 10 13 19 21 -29 0
-5 6 7 -10 -13 -19 -21 29 0
-5 6 7 -10 -13 -19 21 -29 0
-5 6 7 -10 -13 19 -21 -29 0
-5 6 7 -10 -13 19 21 29 0
-5 6 7 -10 13 -19 -21 -29 0
-5 6 7 -10 13 -19 21 29 0
-5 6 7 -10 13 19 -21 29 0
-5 6 7 -10 13 19 21 -29 0
-5 6 7 10 -13 -19 -21 -29 0
-5 6 7 10 -13 -19 21 29 0
-5 6 7 10 -13 19 -21 29 0
-5 6 7 10 -13 19 21 -29 0
-5 6 7 10 13 -19 -21 29 0
-5 6 7 10 13 -19 21 -29 0
-5 6 7 10 13 19 -21 -29 0
-5 6 7 10 13 19 21 29 0
-4 -6 -9 -11 -22 -25 -33 34 0
-4 -6 -9 -11 -22 -25 33 -34 0
-4 -6 -9 -11 -22 25 -33 -34 0
-4 -6 -9 -11 -22 25 33 34 0
-4 -6 -9 -11 22 -25 -33 -34 0
-4 -6 -9 -11 22 -25 33 34 0
-4 -6 -9 -11 22 25 -33 34 0
-4 -6 -9 -11 22 25 33 -34 0
-4 -6 -9 11 -22 -25 -33 -34 0
-4 -6 -9 11 -22 -25 33 34 0
-4 -6 -9 11 -22 25 -33 34 0
-4 -6 -9 11 -22 25 33 -34 0
-4 -6 -9 11 22 -25 -33 34 0
-4 -6 -9 11 22 -25 33 -34 0
-4 -6 -9 11 22 25 -33 -34 0
-4 -6 -9 11 22 25 33 34 0
-4 -6 9 -11 -22 -25 -33 -34 0
-4 -6 9 -11 -22 -25 33 34 0
-4 -6 9 -11 -22 25 -33 34 0
-4 -6 9 -11 -22 25 33 -34 0
-4 -6 9 -11 22 -25 -33 34 0
-4 -6 9 -11 22 -25 33 -34 0
-4 -6 9 -11 22 25 -33 -34 0
-4 -6 9 -11 22 25 33 34 0
-4 -6 9 11 -22 -25 -33 34 0
-4 -6 9 11 -22 -25 33 -34 0
-4 -6 9 11 -22 25 -33 -34 0
-4 -6 9 11 -22 25 33 34 0
-4 -6 9 11 22 -25 -33 -34 0
-4 -6 9 11 22 -25 33 34 0
-4 -6 9 11 22 25 -33 34 0
-4 -6 9 11 22 25 33 -34 0
-4 6 -9 -11 -22 -25 -33 -34 0
-4 6 -9 -11 -22 -25 33 34 0
-4 6 -9 -11 -22 25 -33 34 0
-4 6 -9 -11 -22 25 33 -34 0
-4 6 -9 -11 22 -25 -33 34 0
-4 6 -9 -11 22 -25 33 -34 0
-4 6 -9 -11 22 25 -33 -34 0
-4 6 -9 -11 22 25 33 34 0
-4 6 -9 11 -22 -25 -33 34 0
-4 6 -9 11 -22 -25 33 -34 0
-4 6 -9 11 -22 25 -33 -34 0
-4 6 -9 11 -22 25 33 34 0
-4 6 -9 11 22 -25 -33 -34 0
-4 6 -9 11 22 -25 33 34 0
-4 6 -9 11 22 25 -33 34 0
-4 6 -9 11 22 25 33 -34 0
-4 6 9 -11 -22 -25 -33 34 0
-4 6 9 -11 -22 -25 33 -34 0
-4 6 9 -11 -22 25 -33 -34 0
-4 6 9 -11 -22 25 33 34 0
-4 6 9 -11 22 -25 -33 -34 0
-4 6 9 -11 22 -25 33 34 0
-4 6 9 -11 22 25 -33 34 0
-4 6 9 -11 22 25 33 -34 0
-4 6 9 11 -22 -25 -33 -34 0
-4 6 9 11 -22 -25 33 34 0
-4 6 9 11 -22 25 -33 34 0
-4 6 9 11 -22 25 33 -34 0
-4 6 9 11 22 -25 -33 34 0
-4 6 9 11 22 -25 33 -34 0
-4 6 9 11 22 25 -33 -34 0
-4 6 9 11 22 25 33 34 0
-2 -10 -16 -26 -28 -32 -34 35 0
-2 -10 -16 -26 -28 -32 34 -35 0
-2 -10 -16 -26 -28 32 -34 -35 0
-2 -10 -16 -26 -28 32 34 35 0
-2 -10 -16 -26 28 -32 -34 -35 0
-2 -10 -16 -26 28 -32 34 35 0
-2 -10 -16 -26 28 32 -34 35 0
-2 -10 -16 -26 28 32 34 -35 0
-2 -10 -16 26 -28 -32 -34 -35 0
-2 -10 -16 26 -28 -32 34 35 0
-2 -10 -16 26 -28 32 -34 35 0
-2 -10 -16 26 -28 32 34 -35 0
-2 -10 -16 26 28 -32 -34 35 0
-2 -10 -16 26 28 -32 34 -35 0
-2 -10 -16 26 28 32 -34 -35 0
-2 -10 -16 26 28 32 34 35 0
-2 -10 16 -26 -28 -32 -34 -35 0
-2 -10 16 -26 -28 -32 34 35 0
-2 -10 16 -26 -28 32 -34 35 0
-2 -10 16 -26 -28 32 34 -35 0
-2 -10 16 -26 28 -32 -34 35 0
-2 -10 16 -26 28 -32 34 -35 0
-2 -10 16 -26 28 32 -34 -35 0
-2 -10 16 -26 28 32 34 35 0
-2 -10 16 26 -28 -32 -34 35 0
-2 -10 16 26 -28 -32 34 -35 0
-2 -10 16 26 -28 32 -34 -35 0
-2 -10 16 26 -28 32 34 35 0
-2 -10 16 26 28 -32 -34 -35 0
-2 -10 16 26 28 -32 34 35 0
-2 -10 16 26 28 32 -34 35 0
-2 -10 16 26 28 32 34 -35 0
-2 -3 -9 -14 -17 -19 -20 23 0
-2 -3 -9 -14 -17 -19 20 -23 0
-2 -3 -9 -14 -17 19 -20 -23 0
-2 -3 -9 -14 -17 19 20 23 0
-2 -3 -9 -14 17 -19 -20 -23 0
-2 -3 -9 -14 17 -19 20 23 0
-2 -3 -9 -14 17 19 -20 23 0
-2 -3 -9 -14 17 19 20 -23 0
-2 -3 -9 14 -17 -19 -20 -23 0
-2 -3 -9 14 -17 -19 20 23 0
-2 -3 -9 14 -17 19 -20 23 0
-2 -3 -9 14 -17 19 20 -23 0
-2 -3 -9 14 17 -19 -20 23 0
-2 -3 -9 14 17 -19 20 -23 0
-2 -3 -9 14 17 19 -20 -23 0
-2 -3 -9 14 17 19 20 23 0
-2 -3 9 -14 -17 -19 -20 -23 0
-2 -3 9 -14 -17 -19 20 23 0
-2 -3 9 -14 -17 19 -20 23 0
-2 -3 9 -14 -17 19 20 -23 0
-2 -3 9 -14 17 -19 -20 23 0
-2 -3 9 -14 17 -19 20 -23 0
-2 -3 9 -14 17 19 -20 -23 0
-2 -3 9 -14 17 19 20 23 0
-2 -3 9 14 -17 -19 -20 23 0
-2 -3 9 14 -17 -19 20 -23 0
-2 -3 9 14 -17 19 -20 -23 0
-2 -3 9 14 -17 19 20 23 0
-2 -3 9 14 17 -19 -20 -23 0
-2 -3 9 14 17 -19 20 23 0
-2 -3 9 14 17 19 -20 23 0
-2 -3 9 14 17 19 20 -23 0
-2 3 -9 -14 -17 -19 -20 -23 0
-2 3 -9 -14 -17 -19 20 23 0
-2 3 -9 -14 -17 19 -20 23 0
-2 3 -9 -14 -17 19 20 -23 0
-2 3 -9 -14 17 -19 -20 23 0
-2 3 -9 -14 17 -19 20 -23 0
-2 3 -9 -14 17 19 -20 -23 0
-2 3 -9 -14 17 19 20 23 0
-2 3 -9 14 -17 -19 -20 23 0
-2 3 -9 14 -17 -19 20 -23 0
-2 3 -9 14 -17 19 -20 -23 0
-2 3 -9 14 -17 19 20 23 0
-2 3 -9 14 17 -19 -20 -23 0
-2 3 -9 14 17 -19 20 23 0
-2 3 -9 14 17 19 -20 23 0
-2 3 -9 14 17 19 20 -23 0
-2 3 9 -14 -17 -19 -20 23 0
-2 3 9 -14 -17 -19 20 -23 0
-2 3 9 -14 -17 19 -20 -23 0
-2 3 9 -14 -17 19 20 23 0
-2 3 9 -14 17 -19 -20 -23 0
-2 3 9 -14 17 -19 20 23 0
-2 3 9 -14 17 19 -20 23 0
-2 3 9 -14 17 19 20 -23 0
-2 3 9 14 -17 -19 -20 -23 0
-2 3 9 14 -17 -19 20 23 0
-2 3 9 14 -17 19 -20 23 0
-2 3 9 14 -17 19 20 -23 0
-2 3 9 14 17 -19 -20 23 0
-2 3 9 14 17 -19 20 -23 0
-2 3 9 14 17 19 -20 -23 0
-2 3 9 14 17 19 20 23 0
-2 10 -16 -26 -28 -32 -34 -35 0
-2 10 -16 -26 -28 -32 34 35 0
-2 10 -16 -26 -28 32 -34 35 0
-2 10 -16 -26 -28 32 34 -35 0
-2 10 -16 -26 28 -32 -34 35 0
-2 10 -16 -26 28 -32 34 -35 0
-2 10 -16 -26 28 32 -34 -35 0
-2 10 -16 -26 28 32 34 35 0
-2 10 -16 26 -28 -32 -34 35 0
-2 10 -16 26 -28 -32 34 -35 0
-2 10 -16 26 -28 32 -34 -35 0
-2 10 -16 26 -28 32 34 35 0
-2 10 -16 26 28 -32 -34 -35 0
-2 10 -16 26 28 -32 34 35 0
-2 10 -16 26 28 32 -34 35 0
-2 10 -16 26 28 32 34 -35 0
-2 10 16 -26 -28 -32 -34 35 0
-2 10 16 -26 -28 -32 34 -35 0
-2 10 16 -26 -28 32 -34 -35 0
-2 10 16 -26 -28 32 34 35 0
-2 10 16 -26 28 -32 -34 -35 0
-2 10 16 -26 28 -32 34 35 0
-2 10 16 -26 28 32 -34 35 0
-2 10 16 -26 28 32 34 -35 0
-2 10 16 26 -28 -32 -34 -35 0
-2 10 16 26 -28 -32 34 35 0
-2 10 16 26 -28 32 -34 35 0
-2 10 16 26 -28 32 34 -35 0
-2 10 16 26 28 -32 -34 35 0
-2 10 16 26 28 -32 34 -35 0
-2 10 16 26 28 32 -34 -35 0
-2 10 16 26 28 32 34 35 0
-1 -8 -12 -14 -16 -21 -22 27 0
-1 -8 -12 -14 -16 -21 22 -27 0
-1 -8 -12 -14 -16 21 -22 -27 0
-1 -8 -12 -14 -16 21 22 27 0
-1 -8 -12 -14 16 -21 -22 -27 0
-1 -8 -12 -14 16 -21 22 27 0
-1 -8 -12 -14 16 21 -22 27 0
-1 -8 -12 -14 16 21 22 -27 0
-1 -8 -12 14 -16 -21 -22 -27 0
-1 -8 -12 14 -16 -21 22 27 0
-1 -8 -12 14 -16 21 -22 27 0
-1 -8 -12 14 -16 21 22 -27 0
-1 -8 -12 14 16 -21 -22 27 0
-1 -8 -12 14 16 -21 22 -27 0
-1 -8 -12 14 16 21 -22 -27 0
-1 -8 -12 14 16 21 22 27 0
-1 -8 12 -14 -16 -21 -22 -27 0
-1 -8 12 -14 -16 -21 22 27 0
-1 -8 12 -14 -16 21 -22 27 0
-1 -8 12 -14 -16 21 22 -27 0
-1 -8 12 -14 16 -21 -22 27 0
-1 -8 12 -14 16 -21 22 -27 0
-1 -8 12 -14 16 21 -22 -27 0
-1 -8 12 -14 16 21 22 27 0
-1 -8 12 14 -16 -21 -22 27 0
-1 -8 12 14 -16 -21 22 -27 0
-1 -8 12 14 -16 21 -22 -27 0
-1 -8 12 14 -16 21 22 27 0
-1 -8 12 14 16 -21 -22 -27 0
-1 -8 12 14 16 -21 22 27 0
-1 -8 12 14 16 21 -22 27 0
-1 -8 12 14 16 21 22 -27 0
-1 -3 -4 -5 -26 -30 -31 36 0
-1 -3 -4 -5 -26 -30 31 -36 0
-1 -3 -4 -5 -26 30 -31 -36 0
-1 -3 -4 -5 -26 30 31 36 0
-1 -3 -4 -5 26 -30 -31 -36 0
-1 -3 -4 -5 26 -30 31 36 0
-1 -3 -4 -5 26 30 -31 36 0
-1 -3 -4 -5 26 30 31 -36 0
-1 -3 -4 5 -26 -30 -31 -36 0
-1 -3 -4 5 -26 -30 31 36 0
-1 -3 -4 5 -26 30 -31 36 0
-1 -3 -4 5 -26 30 31 -36 0
-1 -3 -4 5 26 -30 -31 36 0
-1 -3 -4 5 26 -30 31 -36 0
-1 -3 -4 5 26 30 -31 -36 0
-1 -3 -4 5 26 30 31 36 0
-1 -3 4 -5 -26 -30 -31 -36 0
-1 -3 4 -5 -26 -30 31 36 0
-1 -3 4 -5 -26 30 -31 36 0
-1 -3 4 -5 -26 30 31 -36 0
-1 -3 4 -5 26 -30 -31 36 0
-1 -3 4 -5 26 -30 31 -36 0
-1 -3 4 -5 26 30 -31 -36 0
-1 -3 4 -5 26 30 31 36 0
-1 -3 4 5 -26 -30 -31 36 0
-1 -3 4 5 -26 -30 31 -36 0
-1 -3 4 5 -26 30 -31 -36 0
-1 -3 4 5 -26 30 31 36 0
-1 -3 4 5 26 -30 -31 -36 0
-1 -3 4 5 26 -30 31 36 0
-1 -3 4 5 26 30 -31 36 0
-1 -3 4 5 26 30 31 -36 0
-1 3 -4 -5 -26 -30 -31 -36 0
-1 3 -4 -5 -26 -30 31 36 0
-1 3 -4 -5 -26 30 -31 36 0
-1 3 -4 -5 -26 30 31 -36 0
-1 3 -4 -5 26 -30 -31 36 0
-1 3 -4 -5 26 -30 31 -36 0
-1 3 -4 -5 26 30 -31 -36 0
-1 3 -4 -5 26 30 31 36 0
-1 3 -4 5 -26 -30 -31 36 0
-1 3 -4 5 -26 -30 31 -36 0
-1 3 -4 5 -26 30 -31 -36 0
-1 3 -4 5 -26 30 31 36 0
-1 3 -4 5 26 -30 -31 -36 0
-1 3 -4 5 26 -30 31 36 0
-1 3 -4 5 26 30 -31 36 0
-1 3 -4 5 26 30 31 -36 0
-1 3 4 -5 -26 -30 -31 36 0
-1 3 4 -5 -26 -30 31 -36 0
-1 3 4 -5 -26 30 -31 -36 0
-1 3 4 -5 -26 30 31 36 0
-1 3 4 -5 26 -30 -31 -36 0
-1 3 4 -5 26 -30 31 36 0
-1 3 4 -5 26 30 -31 36 0
-1 3 4 -5 26 30 31 -36 0
-1 3 4 5 -26 -30 -31 -36 0
-1 3 4 5 -26 -30 31 36 0
-1 3 4 5 -26 30 -31 36 0
-1 3 4 5 -26 30 31 -36 0
-1 3 4 5 26 -30 -31 36 0
-1 3 4 5 26 -30 31 -36 0
-1 3 4 5 26 30 -31 -36 0
-1 3 4 5 26 30 31 36 0
-1 8 -12 -14 -16 -21 -22 -27 0
-1 8 -12 -14 -16 -21 22 27 0
-1 8 -12 -14 -16 21 -22 27 0
-1 8 -12 -14 -16 21 22 -27 0
-1 8 -12 -14 16 -21 -22 27 0
-1 8 -12 -14 16 -21 22 -27 0
-1 8 -12 -14 16 21 -22 -27 0
-1 8 -12 -14 16 21 22 27 0
-1 8 -12 14 -16 -21 -22 27 0
-1 8 -12 14 -16 -21 22 -27 0
-1 8 -12 14 -16 21 -22 -27 0
-1 8 -12 14 -16 21 22 27 0
-1 8 -12 14 16 -21 -22 -27 0
-1 8 -12 14 16 -21 22 27 0
-1 8 -12 14 16 21 -22 27 0
-1 8 -12 14 16 21 22 -27 0
-1 8 12 -14 -16 -21 -22 27 0
-1 8 12 -14 -16 -21 22 -27 0
-1 8 12 -14 -16 21 -22 -27 0
-1 8 12 -14 -16 21 22 27 0
-1 8 12 -14 16 -21 -22 -27 0
-1 8 12 -14 16 -21 22 27 0
-1 8 12 -14 16 21 -22 27 0
-1 8 12 -14 16 21 22 -27 0
-1 8 12 14 -16 -21 -22 -27 0
-1 8 12 14 -16 -21 22 27 0
-1 8 12 14 -16 21 -22 27 0
-1 8 12 14 -16 21 22 -27 0
-1 8 12 14 16 -21 -22 27 0
-1 8 12 14 16 -21 22 -27 0
-1 8 12 14 16 21 -22 -27 0
-1 8 12 14 16 21 22 27 0
1 -8 -12 -14 -16 -21 -22 -27 0
1 -8 -12 -14 -16 -21 22 27 0
1 -8 -12 -14 -16 21 -22 27 0
1 -8 -12 -14 -16 21 22 -27 0
1 -8 -12 -14 16 -21 -22 27 0
1 -8 -12 -14 16 -21 22 -27 0
1 -8 -12 -14 16 21 -22 -27 0
1 -8 -12 -14 16 21 22 27 0
1 -8 -12 14 -16 -21 -22 27 0
1 -8 -12 14 -16 -21 22 -27 0
1 -8 -12 14 -16 21 -22 -27 0
1 -8 -12 14 -16 21 22 27 0
1 -8 -12 14 16 -21 -22 -27 0
1 -8 -12 14 16 -21 22 27 0
1 -8 -12 14 16 21 -22 27 0
1 -8 -12 14 16 21 22 -27 0
1 -8 12 -14 -16 -21 -22 27 0
1 -8 12 -14 -16 -21 22 -27 0
1 -8 12 -14 -16 21 -22 -27 0
1 -8 12 -14 -16 21 22 27 0
1 -8 12 -14 16 -21 -22 -27 0
1 -8 12 -14 16 -21 22 27 0
1 -8 12 -14 16 21 -22 27 0
1 -8 12 -14 16 21 22 -27 0
1 -8 12 14 -16 -21 -22 -27 0
1 -8 12 14 -16 -21 22 27 0
1 -8 12 14 -16 21 -22 27 0
1 -8 12 14 -16 21 22 -27 0
1 -8 12 14 16 -21 -22 27 0
1 -8 12 14 16 -21 22 -27 0
1 -8 12 14 16 21 -22 -27 0
1 -8 12 14 16 21 22 27 0
1 -3 -4 -5 -26 -30 -31 -36 0
1 -3 -4 -5 -26 -30 31 36 0
1 -3 -4 -5 -26 30 -31 36 0
1 -3 -4 -5 -26 30 31 -36 0
1 -3 -4 -5 26 -30 -31 36 0
1 -3 -4 -5 26 -30 31 -36 0
1 -3 -4 -5 26 30 -31 -36 0
1 -3 -4 -5 26 30 31 36 0
1 -3 -4 5 -26 -30 -31 36 0
1 -3 -4 5 -26 -30 31 -36 0
1 -3 -4 5 -26 30 -31 -36 0
1 -3 -4 5 -26 30 31 36 0
1 -3 -4 5 26 -30 -31 -36 0
1 -3 -4 5 26 -30 31 36 0
1 -3 -4 5 26 30 -31 36 0
1 -3 -4 5 26 30 31 -36 0
1 -3 4 -5 -26 -30 -31 36 0
1 -3 4 -5 -26 -30 31 -36 0
1 -3 4 -5 -26 30 -31 -36 0
1 -3 4 -5 -26 30 31 36 0
1 -3 4 -5 26 -30 -31 -36 0
1 -3 4 -5 26 -30 31 36 0
1 -3 4 -5 26 30 -31 36 0
1 -3 4 -5 26 30 31 -36 0
1 -3 4 5 -26 -30 -31 -36 0
1 -3 4 5 -26 -30 31 36 0
1 -3 4 5 -26 30 -31 36 0
1 -3 4 5 -26 30 31 -36 0
1 -3 4 5 26 -30 -31 36 0
1 -3 4 5 26 -30 31 -36 0
1 -3 4 5 26 30 -31 -36 0
1 -3 4 5 26 30 31 36 0
1 3 -4 -5 -26 -30 -31 36 0
1 3 -4 -5 -26 -30 31 -36 0
1 3 -4 -5 -26 30 -31 -36 0
1 3 -4 -5 -26 30 31 36 0
1 3 -4 -5 26 -30 -31 -36 0
1 3 -4 -5 26 -30 31 36 0
1 3 -4 -5 26 30 -31 36 0
1 3 -4 -5 26 30 31 -36 0
1 3 -4 5 -26 -30 -31 -36 0
1 3 -4 5 -26 -30 31 36 0
1 3 -4 5 -26 30 -31 36 0
1 3 -4 5 -26 30 31 -36 0
1 3 -4 5 26 -30 -31 36 0
1 3 -4 5 26 -30 31 -36 0
1 3 -4 5 26 30 -31 -36 0
1 3 -4 5 26 30 31 36 0
1 3 4 -5 -26 -30 -31 -36 0
1 3 4 -5 -26 -30 31 36 0
1 3 4 -5 -26 30 -31 36 0
1 3 4 -5 -26 30 31 -36 0
1 3 4 -5 26 -30 -31 36 0
1 3 4 -5 26 -30 31 -36 0
1 3 4 -5 26 30 -31 -36 0
1 3 4 -5 26 30 31 36 0
1 3 4 5 -26 -30 -31 36 0
1 3 4 5 -26 -30 31 -36 0
1 3 4 5 -26 30 -31 -36 0
1 3 4 5 -26 30 31 36 0
1 3 4 5 26 -30 -31 -36 0
1 3 4 5 26 -30 31 36 0
1 3 4 5 26 30 -31 36 0
1 3 4 5 26 30 31 -36 0
1 8 -12 -14 -16 -21 -22 27 0
1 8 -12 -14 -16 -21 22 -27 0
1 8 -12 -14 -16 21 -22 -27 0
1 8 -12 -14 -16 21 22 27 0
1 8 -12 -14 16 -21 -22 -27 0
1 8 -12 -14 16 -21 22 27 0
1 8 -12 -14 16 21 -22 27 0
1 8 -12 -14 16 21 22 -27 0
1 8 -12 14 -16 -21 -22 -27 0
1 8 -12 14 -16 -21 22 27 0
1 8 -12 14 -16 21 -22 27 0
1 8 -12 14 -16 21 22 -27 0
1 8 -12 14 16 -21 -22 27 0
1 8 -12 14 16 -21 22 -27 0
1 8 -12 14 16 21 -22 -27 0
1 8 -12 14 16 21 22 27 0
1 8 12 -14 -16 -21 -22 -27 0
1 8 12 -14 -16 -21 22 27 0
1 8 12 -14 -16 21 -22 27 0
1 8 12 -14 -16 21 22 -27 0
1 8 12 -14 16 -21 -22 27 0
1 8 12 -14 16 -21 22 -27 0
1 8 12 -14 16 21 -22 -27 0
1 8 12 -14 16 21 22 27 0
1 8 12 14 -16 -21 -22 27 0
1 8 12 14 -16 -21 22 -27 0
1 8 12 14 -16 21 -22 -27 0
1 8 12 14 -16 21 22 27 0
1 8 12 14 16 -21 -22 -27 0
1 8 12 14 16 -21 22 27 0
1 8 12 14 16 21 -22 27 0
1 8 12 14 16 21 22 -27 0
2 -10 -16 -26 -28 -32 -34 -35 0
2 -10 -16 -26 -28 -32 34 35 0
2 -10 -16 -26 -28 32 -34 35 0
2 -10 -16 -26 -28 32 34 -35 0
2 -10 -16 -26 28 -32 -34 35 0
2 -10 -16 -26 28 -32 34 -35 0
2 -10 -16 -26 28 32 -34 -35 0
2 -10 -16 -26 28 32 34 35 0
2 -10 -16 26 -28 -32 -34 35 0
2 -10 -16 26 -28 -32 34 -35 0
2 -10 -16 26 -28 32 -34 -35 0
2 -10 -16 26 -28 32 34 35 0
2 -10 -16 26 28 -32 -34 -35 0
2 -10 -16 26 28 -32 34 35 0
2 -10 -16 26 28 32 -34 35 0
2 -10 -16 26 28 32 34 -35 0
2 -10 16 -26 -28 -32 -34 35 0
2 -10 16 -26 -28 -32 34 -35 0
2 -10 16 -26 -28 32 -34 -35 0
2 -10 16 -26 -28 32 34 35 0
2 -10 16 -26 28 -32 -34 -35 0
2 -10 16 -26 28 -32 34 35 0
2 -10 16 -26 28 32 -34 35 0
2 -10 16 -26 28 32 34 -35 0
2 -10 16 26 -28 -32 -34 -35 0
2 -10 16 26 -28 -32 34 35 0
2 -10 16 26 -28 32 -34 35 0
2 -10 16 26 -28 32 34 -35 0
2 -10 16 26 28 -32 -34 35 0
2 -10 16 26 28 -32 34 -35 0
2 -10 16 26 28 32 -34 -35 0
2 -10 16 26 28 32 34 35 0
2 -3 -9 -14 -17 -19 -20 -23 0
2 -3 -9 -14 -17 -19 20 23 0
2 -3 -9 -14 -17 19 -20 23 0
2 -3 -9 -14 -17 19 20 -23 0
2 -3 -9 -14 17 -19 -20 23 0
2 -3 -9 -14 17 -19 20 -23 0
2 -3 -9 -14 17 19 -20 -23 0
2 -3 -9 -14 17 19 20 23 0
2 -3 -9 14 -17 -19 -20 23 0
2 -3 -9 14 -17 -19 20 -23 0
2 -3 -9 14 -17 19 -20 -23 0
2 -3 -9 14 -17 19 20 23 0
2 -3 -9 14 17 -19 -20 -23 0
2 -3 -9 14 17 -19 20 23 0
2 -3 -9 14 17 19 -20 23 0
2 -3 -9 14 17 19 20 -23 0
2 -3 9 -14 -17 -19 -20 23 0
2 -3 9 -14 -17 -19 20 -23 0
2 -3 9 -14 -17 19 -20 -23 0
2 -3 9 -14 -17 19 20 23 0
2 -3 9 -14 17 -19 -20 -23 0
2 -3 9 -14 17 -19 20 23 0
2 -3 9 -14 17 19 -20 23 0
2 -3 9 -14 17 19 20 -23 0
2 -3 9 14 -17 -19 -20 -23 0
2 -3 9 14 -17 -19 20 23 0
2 -3 9 14 -17 19 -20 23 0
2 -3 9 14 -17 19 20 -23 0
2 -3 9 14 17 -19 -20 23 0
2 -3 9 14 17 -19 20 -23 0
2 -3 9 14 17 19 -20 -23 0
2 -3 9 14 17 19 20 23 0
2 3 -9 -14 -17 -19 -20 23 0
2 3 -9 -14 -17 -19 20 -23 0
2 3 -9 -14 -17 19 -20 -23 0
2 3 -9 -14 -17 19 20 23 0
2 3 -9 -14 17 -19 -20 -23 0
2 3 -9 -14 17 -19 20 23 0
2 3 -9 -14 17 19 -20 23 0
2 3 -9 -14 17 19 20 -23 0
2 3 -9 14 -17 -19 -20 -23 0
2 3 -9 14 -17 -19 20 23 0
2 3 -9 14 -17 19 -20 23 0
2 3 -9 14 -17 19 20 -23 0
2 3 -9 14 17 -19 -20 23 0
2 3 -9 14 17 -19 20 -23 0
2 3 -9 14 17 19 -20 -23 0
2 3 -9 14 17 19 20 23 0
2 3 9 -14 -17 -19 -20 -23 0
2 3 9 -14 -17 -19 20 23 0
2 3 9 -14 -17 19 -20 23 0
2 3 9 -14 -17 19 20 -23 0
2 3 9 -14 17 -19 -20 23 0
2 3 9 -14 17 -19 20 -23 0
2 3 9 -14 17 19 -20 -23 0
2 3 9 -14 17 19 20 23 0
2 3 9 14 -17 -19 -20 23 0
2 3 9 14 -17 -19 20 -23 0
2 3 9 14 -17 19 -20 -23 0
2 3 9 14 -17 19 20 23 0
2 3 9 14 17 -19 -20 -23 0
2 3 9 14 17 -19 20 23 0
2 3 9 14 17 19 -20 23 0
2 3 9 14 17 19 20 -23 0
2 10 -16 -26 -28 -32 -34 35 0
2 10 -16 -26 -28 -32 34 -35 0
2 10 -16 -26 -28 32 -34 -35 0
2 10 -16 -26 -28 32 34 35 0
2 10 -16 -26 28 -32 -34 -35 0
2 10 -16 -26 28 -32 34 35 0
2 10 -16 -26 28 32 -34 35 0
2 10 -16 -26 28 32 34 -35 0
2 10 -16 26 -28 -32 -34 -35 0
2 10 -16 26 -28 -32 34 35 0
2 10 -16 26 -28 32 -34 35 0
2 10 -16 26 -28 32 34 -35 0
2 10 -16 26 28 -32 -34 35 0
2 10 -16 26 28 -32 34 -35 0
2 10 -16 26 28 32 -34 -35 0
2 10 -16 26 28 32 34 35 0
2 10 16 -26 -28 -32 -34 -35 0
2 10 16 -26 -28 -32 34 35 0
2 10 16 -26 -28 32 -34 35 0
2 10 16 -26 -28 32 34 -35 0
2 10 16 -26 28 -32 -34 35 0
2 10 16 -26 28 -32 34 -35 0
2 10 16 -26 28 32 -34 -35 0
2 10 16 -26 28 32 34 35 0
2 10 16 26 -28 -32 -34 35 0
2 10 16 26 -28 -32 34 -35 0
2 10 16 26 -28 32 -34 -35 0
2 10 16 26 -28 32 34 35 0
2 10 16 26 28 -32 -34 -35 0
2 10 16 26 28 -32 34 35 0
2 10 16 26 28 32 -34 35 0
2 10 16 26 28 32 34 -35 0
4 -6 -9 -11 -22 -25 -33 -34 0
4 -6 -9 -11 -22 -25 33 34 0
4 -6 -9 -11 -22 25 -33 34 0
4 -6 -9 -11 -22 25 33 -34 0
4 -6 -9 -11 22 -25 -33 34 0
4 -6 -9 -11 22 -25 33 -34 0
4 -6 -9 -11 22 25 -33 -34 0
4 -6 -9 -11 22 25 33 34 0
4 -6 -9 11 -22 -25 -33 34 0
4 -6 -9 11 -22 -25 33 -34 0
4 -6 -9 11 -22 25 -33 -34 0
4 -6 -9 11 -22 25 33 34 0
4 -6 -9 11 22 -25 -33 -34 0
4 -6 -9 11 22 -25 33 34 0
4 -6 -9 11 22 25 -33 34 0
4 -6 -9 11 22 25 33 -34 0
4 -6 9 -11 -22 -25 -33 34 0
4 -6 9 -11 -22 -25 33 -34 0
4 -6 9 -11 -22 25 -33 -34 0
4 -6 9 -11 -22 25 33 34 0
4 -6 9 -11 22 -25 -33 -34 0
4 -6 9 -11 22 -25 33 34 0
4 -6 9 -11 22 25 -33 34 0
4 -6 9 -11 22 25 33 -34 0
4 -6 9 11 -22 -25 -33 -34 0
4 -6 9 11 -22 -25 33 34 0
4 -6 9 11 -22 25 -33 34 0
4 -6 9 11 -22 25 33 -34 0
4 -6 9 11 22 -25 -33 34 0
4 -6 9 11 22 -25 33 -34 0
4 -6 9 11 22 25 -33 -34 0
4 -6 9 11 22 25 33 34 0
4 6 -9 -11 -22 -25 -33 34 0
4 6 -9 -11 -22 -25 33 -34 0
4 6 -9 -11 -22 25 -33 -34 0
4 6 -9 -11 -22 25 33 34 0
4 6 -9 -11 22 -25 -33 -34 0
4 6 -9 -11 22 -25 33 34 0
4 6 -9 -11 22 25 -33 34 0
4 6 -9 -11 22 25 33 -34 0
4 6 -9 11 -22 -25 -33 -34 0
4 6 -9 11 -22 -25 33 34 0
4 6 -9 11 -22 25 -33 34 0
4 6 -9 11 -22 25 33 -34 0
4 6 -9 11 22 -25 -33 34 0
4 6 -9 11 22 -25 33 -34 0
4 6 -9 11 22 25 -33 -34 0
4 6 -9 11 22 25 33 34 0
4 6 9 -11 -22 -25 -33 -34 0
4 6 9 -11 -22 -25 33 34 0
4 6 9 -11 -22 25 -33 34 0
4 6 9 -11 -22 25 33 -34 0
4 6 9 -11 22 -25 -33 34 0
4 6 9 -11 22 -25 33 -34 0
4 6 9 -11 22 25 -33 -34 0
4 6 9 -11 22 25 33 34 0
4 6 9 11 -22 -25 -33 34 0
4 6 9 11 -22 -25 33 -34 0
4 6 9 11 -22 25 -33 -34 0
4 6 9 11 -22 25 33 34 0
4 6 9 11 22 -25 -33 -34 0
4 6 9 11 22 -25 33 34 0
4 6 9 11 22 25 -33 34 0
4 6 9 11 22 25 33 -34 0
5 -6 -7 -10 -13 -19 -21 -29 0
5 -6 -7 -10 -13 -19 21 29 0
5 -6 -7 -10 -13 19 -21 29 0
5 -6 -7 -10 -13 19 21 -29 0
5 -6 -7 -10 13 -19 -21 29 0
5 -6 -7 -10 13 -19 21 -29 0
5 -6 -7 -10 13 19 -21 -29 0
5 -6 -7 -10 13 19 21 29 0
5 -6 -7 10 -13 -19 -21 29 0
5 -6 -7 10 -13 -19 21 -29 0
5 -6 -7 10 -13 19 -21 -29 0
5 -6 -7 10 -13 19 21 29 0
5 -6 -7 10 13 -19 -21 -29 0
5 -6 -7 10 13 -19 21 29 0
5 -6 -7 10 13 19 -21 29 0
5 -6 -7 10 13 19 21 -29 0
5 -6 7 -10 -13 -19 -21 29 0
5 -6 7 -10 -13 -19 21 -29 0
5 -6 7 -10 -13 19 -21 -29 0
5 -6 7 -10 -13 19 21 29 0
5 -6 7 -10 13 -19 -21 -29 0
5 -6 7 -10 13 -19 21 29 0
5 -6 7 -10 13 19 -21 29 0
5 -6 7 -10 13 19 21 -29 0
5 -6 7 10 -13 -19 -21 -29 0
5 -6 7 10 -13 -19 21 29 0
5 -6 7 10 -13 19 -21 29 0
5 -6 7 10 -13 19 21 -29 0
5 -6 7 10 13 -19 -21 29 0
5 -6 7 10 13 -19 21 -29 0
5 -6 7 10 13 19 -21 -29 0
5 -6 7 10 13 19 21 29 0
5 6 -7 -10 -13 -19 -21 29 0
5 6 -7 -10 -13 -19 21 -29 0
5 6 -7 -10 -13 19 -21 -29 0
5 6 -7 -10 -13 19 21 29 0
5 6 -7 -10 13 -19 -21 -29 0
5 6 -7 -10 13 -19 21 29 0
5 6 -7 -10 13 19 -21 29 0
5 6 -7 -10 13 19 21 -29 0
5 6 -7 10 -13 -19 -21 -29 0
5 6 -7 10 -13 -19 21 29 0
5 6 -7 10 -13 19 -21 29 0
5 6 -7 10 -13 19 21 -29 0
5 6 -7 10 13 -19 -21 29 0
5 6 -7 10 13 -19 21 -29 0
5 6 -7 10 13 19 -21 -29 0
5 6 -7 10 13 19 21 29 0
5 6 7 -10 -13 -19 -21 -29 0
5 6 7 -10 -13 -19 21 29 0
5 6 7 -10 -13 19 -21 29 0
5 6 7 -10 -13 19 21 -29 0
5 6 7 -10 13 -19 -21 29 0
5 6 7 -10 13 -19 21 -29 0
5 6 7 -10 13 19 -21 -29 0
5 6 7 -10 13 19 21 29 0
5 6 7 10 -13 -19 -21 29 0
5 6 7 10 -13 -19 21 -29 0
5 6 7 10 -13 19 -21 -29 0
5 6 7 10 -13 19 21 29 0
5 6 7 10 13 -19 -21 -29 0
5 6 7 10 13 -19 21 29 0
5 6 7 10 13 19 -21 29 0
5 6 7 10 13 19 21 -29 0
7 -12 -15 -17 -18 -25 -28 30 0
7 -12 -15 -17 -18 -25 28 -30 0
7 -12 -15 -17 -18 25 -28 -30 0
7 -12 -15 -17 -18 25 28 30 0
7 -12 -15 -17 18 -25 -28 -30 0
7 -12 -15 -17 18 -25 28 30 0
7 -12 -15 -17 18 25 -28 30 0
7 -12 -15 -17 18 25 28 -30 0
7 -12 -15 17 -18 -25 -28 -30 0
7 -12 -15 17 -18 -25 28 30 0
7 -12 -15 17 -18 25 -28 30 0
7 -12 -15 17 -18 25 28 -30 0
7 -12 -15 17 18 -25 -28 30 0
7 -12 -15 17 18 -25 28 -30 0
7 -12 -15 17 18 25 -28 -30 0
7 -12 -15 17 18 25 28 30 0
7 -12 15 -17 -18 -25 -28 -30 0
7 -12 15 -17 -18 -25 28 30 0
7 -12 15 -17 -18 25 -28 30 0
7 -12 15 -17 -18 25 28 -30 0
7 -12 15 -17 18 -25 -28 30 0
7 -12 15 -17 18 -25 28 -30 0
7 -12 15 -17 18 25 -28 -30 0
7 -12 15 -17 18 25 28 30 0
7 -12 15 17 -18 -25 -28 30 0
7 -12 15 17 -18 -25 28 -30 0
7 -12 15 17 -18 25 -28 -30 0
7 -12 15 17 -18 25 28 30 0
7 -12 15 17 18 -25 -28 -30 0
7 -12 15 17 18 -25 28 30 0
7 -12 15 17 18 25 -28 30 0
7 -12 15 17 18 25 28 -30 0
7 12 -15 -17 -18 -25 -28 -30 0
7 12 -15 -17 -18 -25 28 30 0
7 12 -15 -17 -18 25 -28 30 0
7 12 -15 -17 -18 25 28 -30 0
7 12 -15 -17 18 -25 -28 30 0
7 12 -15 -17 18 -25 28 -30 0
7 12 -15 -17 18 25 -28 -30 0
7 12 -15 -17 18 25 28 30 0
7 12 -15 17 -18 -25 -28 30 0
7 12 -15 17 -18 -25 28 -30 0
7 12 -15 17 -18 25 -28 -30 0
7 12 -15 17 -18 25 28 30 0
7 12 -15 17 18 -25 -28 -30 0
7 12 -15 17 18 -25 28 30 0
7 12 -15 17 18 25 -28 30 0
7 12 -15 17 18 25 28 -30 0
7 12 15 -17 -18 -25 -28 30 0
7 12 15 -17 -18 -25 28 -30 0
7 12 15 -17 -18 25 -28 -30 0
7 12 15 -17 -18 25 28 30 0
7 12 15 -17 18 -25 -28 -30 0
7 12 15 -17 18 -25 28 30 0
7 12 15 -17 18 25 -28 30 0
7 12 15 -17 18 25 28 -30 0
7 12 15 17 -18 -25 -28 -30 0
7 12 15 17 -18 -25 28 30 0
7 12 15 17 -18 25 -28 30 0
7 12 15 17 -18 25 28 -30 0
7 12 15 17 18 -25 -28 30 0
7 12 15 17 18 -25 28 -30 0
7 12 15 17 18 25 -28 -30 0
7 12 15 17 18 25 28 30 0
8 -13 -15 -23 -24 -33 -35 -36 0
8 -13 -15 -23 -24 -33 35 36 0
8 -13 -15 -23 -24 33 -35 36 0
8 -13 -15 -23 -24 33 35 -36 0
8 -13 -15 -23 24 -33 -35 36 0
8 -13 -15 -23 24 -33 35 -36 0
8 -13 -15 -23 24 33 -35 -36 0
8 -13 -15 -23 24 33 35 36 0
8 -13 -15 23 -24 -33 -35 36 0
8 -13 -15 23 -24 -33 35 -36 0
8 -13 -15 23 -24 33 -35 -36 0
8 -13 -15 23 -24 33 35 36 0
8 -13 -15 23 24 -33 -35 -36 0
8 -13 -15 23 24 -33 35 36 0
8 -13 -15 23 24 33 -35 36 0
8 -13 -15 23 24 33 35 -36 0
8 -13 15 -23 -24 -33 -35 36 0
8 -13 15 -23 -24 -33 35 -36 0
8 -13 15 -23 -24 33 -35 -36 0
8 -13 15 -23 -24 33 35 36 0
8 -13 15 -23 24 -33 -35 -36 0
8 -13 15 -23 24 -33 35 36 0
8 -13 15 -23 24 33 -35 36 0
8 -13 15 -23 24 33 35 -36 0
8 -13 15 23 -24 -33 -35 -36 0
8 -13 15 23 -24 -33 35 36 0
8 -13 15 23 -24 33 -35 36 0
8 -13 15 23 -24 33 35 -36 0
8 -13 15 23 24 -33 -35 36 0
8 -13 15 23 24 -33 35 -36 0
8 -13 15 23 24 33 -35 -36 0
8 -13 15 23 24 33 35 36 0
8 13 -15 -23 -24 -33 -35 36 0
8 13 -15 -23 -24 -33 35 -36 0
8 13 -15 -23 -24 33 -35 -36 0
8 13 -15 -23 -24 33 35 36 0
8 13 -15 -23 24 -33 -35 -36 0
8 13 -15 -23 24 -33 35 36 0
8 13 -15 -23 24 33 -35 36 0
8 13 -15 -23 24 33 35 -36 0
8 13 -15 23 -24 -33 -35 -36 0
8 13 -15 23 -24 -33 35 36 0
8 13 -15 23 -24 33 -35 36 0
8 13 -15 23 -24 33 35 -36 0
8 13 -15 23 24 -33 -35 36 0
8 13 -15 23 24 -33 35 -36 0
8 13 -15 23 24 33 -35 -36 0
8 13 -15 23 24 33 35 36 0
8 13 15 -23 -24 -33 -35 -36 0
8 13 15 -23 -24 -33 35 36 0
8 13 15 -23 -24 33 -35 36 0
8 13 15 -23 -24 33 35 -36 0
8 13 15 -23 24 -33 -35 36 0
8 13 15 -23 24 -33 35 -36 0
8 13 15 -23 24 33 -35 -36 0
8 13 15 -23 24 33 35 36 0
8 13 15 23 -24 -33 -35 36 0
8 13 15 23 -24 -33 35 -36 0
8 13 15 23 -24 33 -35 -36 0
8 13 15 23 -24 33 35 36 0
8 13 15 23 24 -33 -35 -36 0
8 13 15 23 24 -33 35 36 0
8 13 15 23 24 33 -35 36 0
8 13 15 23 24 33 35 -36 0
11 -18 -20 -24 -27 -29 -31 -32 0
11 -18 -20 -24 -27 -29 31 32 0
11 -18 -20 -24 -27 29 -31 32 0
11 -18 -20 -24 -27 29 31 -32 0
11 -18 -20 -24 27 -29 -31 32 0
11 -18 -20 -24 27 -29 31 -32 0
11 -18 -20 -24 27 29 -31 -32 0
11 -18 -20 -24 27 29 31 32 0
11 -18 -20 24 -27 -29 -31 32 0
11 -18 -20 24 -27 -29 31 -32 0
11 -18 -20 24 -27 29 -31 -32 0
11 -18 -20 24 -27 29 31 32 0
11 -18 -20 24 27 -29 -31 -32 0
11 -18 -20 24 27 -29 31 32 0
11 -18 -20 24 27 29 -31 32 0
11 -18 -20 24 27 29 31 -32 0
11 -18 20 -24 -27 -29 -31 32 0
11 -18 20 -24 -27 -29 31 -32 0
11 -18 20 -24 -27 29 -31 -32 0
11 -18 20 -24 -27 29 31 32 0
11 -18 20 -24 27 -29 -31 -32 0
11 -18 20 -24 27 -29 31 32 0
11 -18 20 -24 27 29 -31 32 0
11 -18 20 -24 27 29 31 -32 0
11 -18 20 24 -27 -29 -31 -32 0
11 -18 20 24 -27 -29 31 32 0
11 -18 20 24 -27 29 -31 32 0
11 -18 20 24 -27 29 31 -32 0
11 -18 20 24 27 -29 -31 32 0
11 -18 20 24 27 -29 31 -32 0
11 -18 20 24 27 29 -31 -32 0
11 -18 20 24 27 29 31 32 0
11 18 -20 -24 -27 -29 -31 32 0
11 18 -20 -24 -27 -29 31 -32 0
11 18 -20 -24 -27 29 -31 -32 0
11 18 -20 -24 -27 29 31 32 0
11 18 -20 -24 27 -29 -31 -32 0
11 18 -20 -24 27 -29 31 32 0
11 18 -20 -24 27 29 -31 32 0
11 18 -20 -24 27 29 31 -32 0
11 18 -20 24 -27 -29 -31 -32 0
11 18 -20 24 -27 -29 31 32 0
11 18 -20 24 -27 29 -31 32 0
11 18 -20 24 -27 29 31 -32 0
11 18 -20 24 27 -29 -31 32 0
11 18 -20 24 27 -29 31 -32 0
11 18 -20 24 27 29 -31 -32 0
11 18 -20 24 27 29 31 32 0
11 18 20 -24 -27 -29 -31 -32 0
11 18 20 -24 -27 -29 31 32 0
11 18 20 -24 -27 29 -31 32 0
11 18 20 -24 -27 29 31 -32 0
11 18 20 -24 27 -29 -31 32 0
11 18 20 -24 27 -29 31 -32 0
11 18 20 -24 27 29 -31 -32 0
11 18 20 -24 27 29 31 32 0
11 18 20 24 -27 -29 -31 32 0
11 18 20 24 -27 -29 31 -32 0
11 18 20 24 -27 29 -31 -32 0
11 18 20 24 -27 29 31 32 0
11 18 20 24 27 -29 -31 -32 0
11 18 20 24 27 -29 31 32 0
11 18 20 24 27 29 -31 32 0
11 18 20 24 27 29 31 -32 0
