p cnf 28 512
-7 -13 -18 -22 -25 -27 -28 0
-7 -13 -18 -22 -25 27 28 0
-7 -13 -18 -22 25 -27 28 0
-7 -13 -18 -22 25 27 -28 0
-7 -13 -18 22 -25 -27 28 0
-7 -13 -18 22 -25 27 -28 0
-7 -13 -18 22 25 -27 -28 0
-7 -13 -18 22 25 27 28 0
-7 -13 18 -22 -25 -27 28 0
-7 -13 18 -22 -25 27 -28 0
-7 -13 18 -22 25 -27 -28 0
-7 -13 18 -22 25 27 28 0
-7 -13 18 22 -25 -27 -28 0
-7 -13 18 22 -25 27 28 0
-7 -13 18 22 25 -27 28 0
-7 -13 18 22 25 27 -28 0
-7 13 -18 -22 -25 -27 28 0
-7 13 -18 -22 -25 27 -28 0
-7 13 -18 -22 25 -27 -28 0
-7 13 -18 -22 25 27 28 0
-7 13 -18 22 -25 -27 -28 0
-7 13 -18 22 -25 27 28 0
-7 13 -18 22 25 -27 28 0
-7 13 -18 22 25 27 -28 0
-7 13 18 -22 -25 -27 -28 0
-7 13 18 -22 -25 27 28 0
-7 13 18 -22 25 -27 28 0
-7 13 18 -22 25 27 -28 0
-7 13 18 22 -25 -27 28 0
-7 13 18 22 -25 27 -28 0
-7 13 18 22 25 -27 -28 0
-7 13 18 22 25 27 28 0
-6 -12 -17 -21 -24 -26 -28 0
-6 -12 -17 -21 -24 26 28 0
-6 -12 -17 -21 24 -26 28 0
-6 -12 -17 -21 24 26 -28 0
-6 -12 -17 21 -24 -26 28 0
-6 -12 -17 21 -24 26 -28 0
-6 -12 -17 21 24 -26 -28 0
-6 -12 -17 21 24 26 28 0
-6 -12 17 -21 -24 -26 28 0
-6 -12 17 -21 -24 26 -28 0
-6 -12 17 -21 24 -26 -28 0
-6 -12 17 -21 24 26 28 0
-6 -12 17 21 -24 -26 -28 0
-6 -12 17 21 -24 26 28 0
-6 -12 17 21 24 -26 28 0
-6 -12 17 21 24 26 -28 0
-6 12 -17 -21 -24 -26 28 0
-6 12 -17 -21 -24 26 -28 0
-6 12 -17 -21 24 -26 -28 0
-6 12 -17 -21 24 26 28 0
-6 12 -17 21 -24 -26 -28 0
-6 12 -17 21 -24 26 28 0
-6 12 -17 21 24 -26 28 0
-6 12 -17 21 24 26 -28 0
-6 12 17 -21 -24 -26 -28 0
-6 12 17 -21 -24 26 28 0
-6 12 17 -21 24 -26 28 0
-6 12 17 -21 24 26 -28 0
-6 12 17 21 -24 -26 28 0
-6 12 17 21 -24 26 -28 0
-6 12 17 21 24 -26 -28 0
-6 12 17 21 24 26 28 0
-5 -11 -16 -20 -23 -26 -27 0
-5 -11 -16 -20 -23 26 27 0
-5 -11 -16 -20 23 -26 27 0
-5 -11 -16 -20 23 26 -27 0
-5 -11 -16 20 -23 -26 27 0
-5 -11 -16 20 -23 26 -27 0
-5 -11 -16 20 23 -26 -27 0
-5 -11 -16 20 23 26 27 0
-5 -11 16 -20 -23 -26 27 0
-5 -11 16 -20 -23 26 -27 0
-5 -11 16 -20 23 -26 -27 0
-5 -11 16 -20 23 26 27 0
-5 -11 16 20 -23 -26 -27 0
-5 -11 16 20 -23 26 27 0
-5 -11 16 20 23 -26 27 0
-5 -11 16 20 23 26 -27 0
-5 11 -16 -20 -23 -26 27 0
-5 11 -16 -20 -23 26 -27 0
-5 11 -16 -20 23 -26 -27 0
-5 11 -16 -20 23 26 27 0
-5 11 -16 20 -23 -26 -27 0
-5 11 -16 20 -23 26 27 0
-5 11 -16 20 23 -26 27 0
-5 11 -16 20 23 26 -27 0
-5 11 16 -20 -23 -26 -27 0
-5 11 16 -20 -23 26 27 0
-5 11 16 -20 23 -26 27 0
-5 11 16 -20 23 26 -27 0
-5 11 16 20 -23 -26 27 0
-5 11 16 20 -23 26 -27 0
-5 11 16 20 23 -26 -27 0
-5 11 16 20 23 26 27 0
-4 -10 -15 -19 -23 -24 -25 0
-4 -10 -15 -19 -23 24 25 0
-4 -10 -15 -19 23 -24 25 0
-4 -10 -15 -19 23 24 -25 0
-4 -10 -15 19 -23 -24 25 0
-4 -10 -15 19 -23 24 -25 0
-4 -10 -15 19 23 -24 -25 0
-4 -10 -15 19 23 24 25 0
-4 -10 15 -19 -23 -24 25 0
-4 -10 15 -19 -23 24 -25 0
-4 -10 15 -19 23 -24 -25 0
-4 -10 15 -19 23 24 25 0
-4 -10 15 19 -23 -24 -25 0
-4 -10 15 19 -23 24 25 0
-4 -10 15 19 23 -24 25 0
-4 -10 15 19 23 24 -25 0
-4 10 -15 -19 -23 -24 25 0
-4 10 -15 -19 -23 24 -25 0
-4 10 -15 -19 23 -24 -25 0
-4 10 -15 -19 23 24 25 0
-4 10 -15 19 -23 -24 -25 0
-4 10 -15 19 -23 24 25 0
-4 10 -15 19 23 -24 25 0
-4 10 -15 19 23 24 -25 0
-4 10 15 -19 -23 -24 -25 0
-4 10 15 -19 -23 24 25 0
-4 10 15 -19 23 -24 25 0
-4 10 15 -19 23 24 -25 0
-4 10 15 19 -23 -24 25 0
-4 10 15 19 -23 24 -25 0
-4 10 15 19 23 -24 -25 0
-4 10 15 19 23 24 25 0
-3 -9 -14 -19 -20 -21 -22 0
-3 -9 -14 -19 -20 21 22 0
-3 -9 -14 -19 20 -21 22 0
-3 -9 -14 -19 20 21 -22 0
-3 -9 -14 19 -20 -21 22 0
-3 -9 -14 19 -20 21 -22 0
-3 -9 -14 19 20 -21 -22 0
-3 -9 -14 19 20 21 22 0
-3 -9 14 -19 -20 -21 22 0
-3 -9 14 -19 -20 21 -22 0
-3 -9 14 -19 20 -21 -22 0
-3 -9 14 -19 20 21 22 0
-3 -9 14 19 -20 -21 -22 0
-3 -9 14 19 -20 21 22 0
-3 -9 14 19 20 -21 22 0
-3 -9 14 19 20 21 -22 0
-3 9 -14 -19 -20 -21 22 0
-3 9 -14 -19 -20 21 -22 0
-3 9 -14 -19 20 -21 -22 0
-3 9 -14 -19 20 21 22 0
-3 9 -14 19 -20 -21 -22 0
-3 9 -14 19 -20 21 22 0
-3 9 -14 19 20 -21 22 0
-3 9 -14 19 20 21 -22 0
-3 9 14 -19 -20 -21 -22 0
-3 9 14 -19 -20 21 22 0
-3 9 14 -19 20 -21 22 0
-3 9 14 -19 20 21 -22 0
-3 9 14 19 -20 -21 22 0
-3 9 14 19 -20 21 -22 0
-3 9 14 19 20 -21 -22 0
-3 9 14 19 20 21 22 0
-2 -8 -14 -15 -16 -17 -18 0
-2 -8 -14 -15 -16 17 18 0
-2 -8 -14 -15 16 -17 18 0
-2 -8 -14 -15 16 17 -18 0
-2 -8 -14 15 -16 -17 18 0
-2 -8 -14 15 -16 17 -18 0
-2 -8 -14 15 16 -17 -18 0
-2 -8 -14 15 16 17 18 0
-2 -8 14 -15 -16 -17 18 0
-2 -8 14 -15 -16 17 -18 0
-2 -8 14 -15 16 -17 -18 0
-2 -8 14 -15 16 17 18 0
-2 -8 14 15 -16 -17 -18 0
-2 -8 14 15 -16 17 18 0
-2 -8 14 15 16 -17 18 0
-2 -8 14 15 16 17 -18 0
-2 8 -14 -15 -16 -17 18 0
-2 8 -14 -15 -16 17 -18 0
-2 8 -14 -15 16 -17 -18 0
-2 8 -14 -15 16 17 18 0
-2 8 -14 15 -16 -17 -18 0
-2 8 -14 15 -16 17 18 0
-2 8 -14 15 16 -17 18 0
-2 8 -14 15 16 17 -18 0
-2 8 14 -15 -16 -17 -18 0
-2 8 14 -15 -16 17 18 0
-2 8 14 -15 16 -17 18 0
-2 8 14 -15 16 17 -18 0
-2 8 14 15 -16 -17 18 0
-2 8 14 15 -16 17 -18 0
-2 8 14 15 16 -17 -18 0
-2 8 14 15 16 17 18 0
-1 -8 -9 -10 -11 -12 -13 0
-1 -8 -9 -10 -11 12 13 0
-1 -8 -9 -10 11 -12 13 0
-1 -8 -9 -10 11 12 -13 0
-1 -8 -9 10 -11 -12 13 0
-1 -8 -9 10 -11 12 -13 0
-1 -8 -9 10 11 -12 -13 0
-1 -8 -9 10 11 12 13 0
-1 -8 9 -10 -11 -12 13 0
-1 -8 9 -10 -11 12 -13 0
-1 -8 9 -10 11 -12 -13 0
-1 -8 9 -10 11 12 13 0
-1 -8 9 10 -11 -12 -13 0
-1 -8 9 10 -11 12 13 0
-1 -8 9 10 11 -12 13 0
-1 -8 9 10 11 12 -13 0
-1 -2 -3 -4 -5 -6 7 0
-1 -2 -3 -4 -5 6 -7 0
-1 -2 -3 -4 5 -6 -7 0
-1 -2 -3 -4 5 6 7 0
-1 -2 -3 4 -5 -6 -7 0
-1 -2 -3 4 -5 6 7 0
-1 -2 -3 4 5 -6 7 0
-1 -2 -3 4 5 6 -7 0
-1 -2 3 -4 -5 -6 -7 0
-1 -2 3 -4 -5 6 7 0
-1 -2 3 -4 5 -6 7 0
-1 -2 3 -4 5 6 -7 0
-1 -2 3 4 -5 -6 7 0
-1 -2 3 4 -5 6 -7 0
-1 -2 3 4 5 -6 -7 0
-1 -2 3 4 5 6 7 0
-1 2 -3 -4 -5 -6 -7 0
-1 2 -3 -4 -5 6 7 0
-1 2 -3 -4 5 -6 7 0
-1 2 -3 -4 5 6 -7 0
-1 2 -3 4 -5 -6 7 0
-1 2 -3 4 -5 6 -7 0
-1 2 -3 4 5 -6 -7 0
-1 2 -3 4 5 6 7 0
-1 2 3 -4 -5 -6 7 0
-1 2 3 -4 -5 6 -7 0
-1 2 3 -4 5 -6 -7 0
-1 2 3 -4 5 6 7 0
-1 2 3 4 -5 -6 -7 0
-1 2 3 4 -5 6 7 0
-1 2 3 4 5 -6 7 0
-1 2 3 4 5 6 -7 0
-1 8 -9 -10 -11 -12 13 0
-1 8 -9 -10 -11 12 -13 0
-1 8 -9 -10 11 -12 -13 0
-1 8 -9 -10 11 12 13 0
-1 8 -9 10 -11 -12 -13 0
-1 8 -9 10 -11 12 13 0
-1 8 -9 10 11 -12 13 0
-1 8 -9 10 11 12 -13 0
-1 8 9 -10 -11 -12 -13 0
-1 8 9 -10 -11 12 13 0
-1 8 9 -10 11 -12 13 0
-1 8 9 -10 11 12 -13 0
-1 8 9 10 -11 -12 13 0
-1 8 9 10 -11 12 -13 0
-1 8 9 10 11 -12 -13 0
-1 8 9 10 11 12 13 0
1 -8 -9 -10 -11 -12 13 0
1 -8 -9 -10 -11 12 -13 0
1 -8 -9 -10 11 -12 -13 0
1 -8 -9 -10 11 12 13 0
1 -8 -9 10 -11 -12 -13 0
1 -8 -9 10 -11 12 13 0
1 -8 -9 10 11 -12 13 0
1 -8 -9 10 11 12 -13 0
1 -8 9 -10 -11 -12 -13 0
1 -8 9 -10 -11 12 13 0
1 -8 9 -10 11 -12 13 0
1 -8 9 -10 11 12 -13 0
1 -8 9 10 -11 -12 13 0
1 -8 9 10 -11 12 -13 0
1 -8 9 10 11 -12 -13 0
1 -8 9 10 11 12 13 0
1 -2 -3 -4 -5 -6 -7 0
1 -2 -3 -4 -5 6 7 0
1 -2 -3 -4 5 -6 7 0
1 -2 -3 -4 5 6 -7 0
1 -2 -3 4 -5 -6 7 0
1 -2 -3 4 -5 6 -7 0
1 -2 -3 4 5 -6 -7 0
1 -2 -3 4 5 6 7 0
1 -2 3 -4 -5 -6 7 0
1 -2 3 -4 -5 6 -7 0
1 -2 3 -4 5 -6 -7 0
1 -2 3 -4 5 6 7 0
1 -2 3 4 -5 -6 -7 0
1 -2 3 4 -5 6 7 0
1 -2 3 4 5 -6 7 0
1 -2 3 4 5 6 -7 0
1 2 -3 -4 -5 -6 7 0
1 2 -3 -4 -5 6 -7 0
1 2 -3 -4 5 -6 -7 0
1 2 -3 -4 5 6 7 0
1 2 -3 4 -5 -6 -7 0
1 2 -3 4 -5 6 7 0
1 2 -3 4 5 -6 7 0
1 2 -3 4 5 6 -7 0
1 2 3 -4 -5 -6 -7 0
1 2 3 -4 -5 6 7 0
1 2 3 -4 5 -6 7 0
1 2 3 -4 5 6 -7 0
1 2 3 4 -5 -6 7 0
1 2 3 4 -5 6 -7 0
1 2 3 4 5 -6 -7 0
1 2 3 4 5 6 7 0
1 8 -9 -10 -11 -12 -13 0
1 8 -9 -10 -11 12 13 0
1 8 -9 -10 11 -12 13 0
1 8 -9 -10 11 12 -13 0
1 8 -9 10 -11 -12 13 0
1 8 -9 10 -11 12 -13 0
1 8 -9 10 11 -12 -13 0
1 8 -9 10 11 12 13 0
1 8 9 -10 -11 -12 13 0
1 8 9 -10 -11 12 -13 0
1 8 9 -10 11 -12 -13 0
1 8 9 -10 11 12 13 0
1 8 9 10 -11 -12 -13 0
1 8 9 10 -11 12 13 0
1 8 9 10 11 -12 13 0
1 8 9 10 11 12 -13 0
2 -8 -14 -15 -16 -17 18 0
2 -8 -14 -15 -16 17 -18 0
2 -8 -14 -15 16 -17 -18 0
2 -8 -14 -15 16 17 18 0
2 -8 -14 15 -16 -17 -18 0
2 -8 -14 15 -16 17 18 0
2 -8 -14 15 16 -17 18 0
2 -8 -14 15 16 17 -18 0
2 -8 14 -15 -16 -17 -18 0
2 -8 14 -15 -16 17 18 0
2 -8 14 -15 16 -17 18 0
2 -8 14 -15 16 17 -18 0
2 -8 14 15 -16 -17 18 0
2 -8 14 15 -16 17 -18 0
2 -8 14 15 16 -17 -18 0
2 -8 14 15 16 17 18 0
2 8 -14 -15 -16 -17 -18 0
2 8 -14 -15 -16 17 18 0
2 8 -14 -15 16 -17 18 0
2 8 -14 -15 16 17 -18 0
2 8 -14 15 -16 -17 18 0
2 8 -14 15 -16 17 -18 0
2 8 -14 15 16 -17 -18 0
2 8 -14 15 16 17 18 0
2 8 14 -15 -16 -17 18 0
2 8 14 -15 -16 17 -18 0
2 8 14 -15 16 -17 -18 0
2 8 14 -15 16 17 18 0
2 8 14 15 -16 -17 -18 0
2 8 14 15 -16 17 18 0
2 8 14 15 16 -17 18 0
2 8 14 15 16 17 -18 0
3 -9 -14 -19 -20 -21 22 0
3 -9 -14 -19 -20 21 -22 0
3 -9 -14 -19 20 -21 -22 0
3 -9 -14 -19 20 21 22 0
3 -9 -14 19 -20 -21 -22 0
3 -9 -14 19 -20 21 22 0
3 -9 -14 19 20 -21 22 0
3 -9 -14 19 20 21 -22 0
3 -9 14 -19 -20 -21 -22 0
3 -9 14 -19 -20 21 22 0
3 -9 14 -19 20 -21 22 0
3 -9 14 -19 20 21 -22 0
3 -9 14 19 -20 -21 22 0
3 -9 14 19 -20 21 -22 0
3 -9 14 19 20 -21 -22 0
3 -9 14 19 20 21 22 0
3 9 -14 -19 -20 -21 -22 0
3 9 -14 -19 -20 21 22 0
3 9 -14 -19 20 -21 22 0
3 9 -14 -19 20 21 -22 0
3 9 -14 19 -20 -21 22 0
3 9 -14 19 -20 21 -22 0
3 9 -14 19 20 -21 -22 0
3 9 -14 19 20 21 22 0
3 9 14 -19 -20 -21 22 0
3 9 14 -19 -20 21 -22 0
3 9 14 -19 20 -21 -22 0
3 9 14 -19 20 21 22 0
3 9 14 19 -20 -21 -22 0
3 9 14 19 -20 21 22 0
3 9 14 19 20 -21 22 0
3 9 14 19 20 21 -22 0
4 -10 -15 -19 -23 -24 25 0
4 -10 -15 -19 -23 24 -25 0
4 -10 -15 -19 23 -24 -25 0
4 -10 -15 -19 23 24 25 0
4 -10 -15 19 -23 -24 -25 0
4 -10 -15 19 -23 24 25 0
4 -10 -15 19 23 -24 25 0
4 -10 -15 19 23 24 -25 0
4 -10 15 -19 -23 -24 -25 0
4 -10 15 -19 -23 24 25 0
4 -10 15 -19 23 -24 25 0
4 -10 15 -19 23 24 -25 0
4 -10 15 19 -23 -24 25 0
4 -10 15 19 -23 24 -25 0
4 -10 15 19 23 -24 -25 0
4 -10 15 19 23 24 25 0
4 10 -15 -19 -23 -24 -25 0
4 10 -15 -19 -23 24 25 0
4 10 -15 -19 23 -24 25 0
4 10 -15 -19 23 24 -25 0
4 10 -15 19 -23 -24 25 0
4 10 -15 19 -23 24 -25 0
4 10 -15 19 23 -24 -25 0
4 10 -15 19 23 24 25 0
4 10 15 -19 -23 -24 25 0
4 10 15 -19 -23 24 -25 0
4 10 15 -19 23 -24 -25 0
4 10 15 -19 23 24 25 0
4 10 15 19 -23 -24 -25 0
4 10 15 19 -23 24 25 0
4 10 15 19 23 -24 25 0
4 10 15 19 23 24 -25 0
5 -11 -16 -20 -23 -26 27 0
5 -11 -16 -20 -23 26 -27 0
5 -11 -16 -20 23 -26 -27 0
5 -11 -16 -20 23 26 27 0
5 -11 -16 20 -23 -26 -27 0
5 -11 -16 20 -23 26 27 0
5 -11 -16 20 23 -26 27 0
5 -11 -16 20 23 26 -27 0
5 -11 16 -20 -23 -26 -27 0
5 -11 16 -20 -23 26 27 0
5 -11 16 -20 23 -26 27 0
5 -11 16 -20 23 26 -27 0
5 -11 16 20 -23 -26 27 0
5 -11 16 20 -23 26 -27 0
5 -11 16 20 23 -26 -27 0
5 -11 16 20 23 26 27 0
5 11 -16 -20 -23 -26 -27 0
5 11 -16 -20 -23 26 27 0
5 11 -16 -20 23 -26 27 0
5 11 -16 -20 23 26 -27 0
5 11 -16 20 -23 -26 27 0
5 11 -16 20 -23 26 -27 0
5 11 -16 20 23 -26 -27 0
5 11 -16 20 23 26 27 0
5 11 16 -20 -23 -26 27 0
5 11 16 -20 -23 26 -27 0
5 11 16 -20 23 -26 -27 0
5 11 16 -20 23 26 27 0
5 11 16 20 -23 -26 -27 0
5 11 16 20 -23 26 27 0
5 11 16 20 23 -26 27 0
5 11 16 20 23 26 -27 0
6 -12 -17 -21 -24 -26 28 0
6 -12 -17 -21 -24 26 -28 0
6 -12 -17 -21 24 -26 -28 0
6 -12 -17 -21 24 26 28 0
6 -12 -17 21 -24 -26 -28 0
6 -12 -17 21 -24 26 28 0
6 -12 -17 21 24 -26 28 0
6 -12 -17 21 24 26 -28 0
6 -12 17 -21 -24 -26 -28 0
6 -12 17 -21 -24 26 28 0
6 -12 17 -21 24 -26 28 0
6 -12 17 -21 24 26 -28 0
6 -12 17 21 -24 -26 28 0
6 -12 17 21 -24 26 -28 0
6 -12 17 21 24 -26 -28 0
6 -12 17 21 24 26 28 0
6 12 -17 -21 -24 -26 -28 0
6 12 -17 -21 -24 26 28 0
6 12 -17 -21 24 -26 28 0
6 12 -17 -21 24 26 -28 0
6 12 -17 21 -24 -26 28 0
6 12 -17 21 -24 26 -28 0
6 12 -17 21 24 -26 -28 0
6 12 -17 21 24 26 28 0
6 12 17 -21 -24 -26 28 0
6 12 17 -21 -24 26 -28 0
6 12 17 -21 24 -26 -28 0
6 12 17 -21 24 26 28 0
6 12 17 21 -24 -26 -28 0
6 12 17 21 -24 26 28 0
6 12 17 21 24 -26 28 0
6 12 17 21 24 26 -28 0
7 -13 -18 -22 -25 -27 28 0
7 -13 -18 -22 -25 27 -28 0
7 -13 -18 -22 25 -27 -28 0
7 -13 -18 -22 25 27 28 0
7 -13 -18 22 -25 -27 -28 0
7 -13 -18 22 -25 27 28 0
7 -13 -18 22 25 -27 28 0
7 -13 -18 22 25 27 -28 0
7 -13 18 -22 -25 -27 -28 0
7 -13 18 -22 -25 27 28 0
7 -13 18 -22 25 -27 28 0
7 -13 18 -22 25 27 -28 0
7 -13 18 22 -25 -27 28 0
7 -13 18 22 -25 27 -28 0
7 -13 18 22 25 -27 -28 0
7 -13 18 22 25 27 28 0
7 13 -18 -22 -25 -27 -28 0
7 13 -18 -22 -25 27 28 0
7 13 -18 -22 25 -27 28 0
7 13 -18 -22 25 27 -28 0
7 13 -18 22 -25 -27 28 0
7 13 -18 22 -25 27 -28 0
7 13 -18 22 25 -27 -28 0
7 13 -18 22 25 27 28 0
7 13 18 -22 -25 -27 28 0
7 13 18 -22 -25 27 -28 0
7 13 18 -22 25 -27 -28 0
7 13 18 -22 25 27 28 0
7 13 18 22 -25 -27 -28 0
7 13 18 22 -25 27 28 0
7 13 18 22 25 -27 28 0
7 13 18 22 25 27 -28 0
