p cnf 15 96
-5 -7 -9 -10 13 0
-5 -7 -9 10 -13 0
-5 -7 9 -10 -13 0
-5 -7 9 10 13 0
-5 7 -9 -10 -13 0
-5 7 -9 10 13 0
-5 7 9 -10 13 0
-5 7 9 10 -13 0
-3 -4 -11 -12 -13 0
-3 -4 -11 12 13 0
-3 -4 11 -12 13 0
-3 -4 11 12 -13 0
-3 4 -11 -12 13 0
-3 4 -11 12 -13 0
-3 4 11 -12 -13 0
-3 4 11 12 13 0
-2 -6 -8 -10 -12 0
-2 -6 -8 10 12 0
-2 -6 8 -10 12 0
-2 -6 8 10 -12 0
-2 -5 -11 -14 -15 0
-2 -5 -11 14 15 0
-2 -5 11 -14 15 0
-2 -5 11 14 -15 0
-2 5 -11 -14 15 0
-2 5 -11 14 -15 0
-2 5 11 -14 -15 0
-2 5 11 14 15 0
-2 6 -8 -10 12 0
-2 6 -8 10 -12 0
-2 6 8 -10 -12 0
-2 6 8 10 12 0
-1 -4 -6 -9 -15 0
-1 -4 -6 9 15 0
-1 -4 6 -9 15 0
-1 -4 6 9 -15 0
-1 -3 -7 -8 -14 0
-1 -3 -7 8 14 0
-1 -3 7 -8 14 0
-1 -3 7 8 -14 0
-1 3 -7 -8 14 0
-1 3 -7 8 -14 0
-1 3 7 -8 -14 0
-1 3 7 8 14 0
-1 4 -6 -9 15 0
-1 4 -6 9 -15 0
-1 4 6 -9 -15 0
-1 4 6 9 15 0
1 -4 -6 -9 15 0
1 -4 -6 9 -15 0
1 -4 6 -9 -15 0
1 -4 6 9 15 0
1 -3 -7 -8 14 0
1 -3 -7 8 -14 0
1 -3 7 -8 -14 0
1 -3 7 8 14 0
1 3 -7 -8 -14 0
1 3 -7 8 14 0
1 3 7 -8 14 0
1 3 7 8 -14 0
1 4 -6 -9 -15 0
1 4 -6 9 15 0
1 4 6 -9 15 0
1 4 6 9 -15 0
2 -6 -8 -10 12 0
2 -6 -8 10 -12 0
2 -6 8 -10 -12 0
2 -6 8 10 12 0
2 -5 -11 -14 15 0
2 -5 -11 14 -15 0
2 -5 11 -14 -15 0
2 -5 11 14 15 0
2 5 -11 -14 -15 0
2 5 -11 14 15 0
2 5 11 -14 15 0
2 5 11 14 -15 0
2 6 -8 -10 -12 0
2 6 -8 10 12 0
2 6 8 -10 12 0
2 6 8 10 -12 0
3 -4 -11 -12 13 0
3 -4 -11 12 -13 0
3 -4 11 -12 -13 0
3 -4 11 12 13 0
3 4 -11 -12 -13 0
3 4 -11 12 13 0
3 4 11 -12 13 0
3 4 11 12 -13 0
5 -7 -9 -10 -13 0
5 -7 -9 10 13 0
5 -7 9 -10 13 0
5 -7 9 10 -13 0
5 7 -9 -10 13 0
5 7 -9 10 -13 0
5 7 9 -10 -13 0
5 7 9 10 13 0
