p cnf 21 224
-5 -10 -12 -14 -17 21 0
-5 -10 -12 -14 17 -21 0
-5 -10 -12 14 -17 -21 0
-5 -10 -12 14 17 21 0
-5 -10 12 -14 -17 -21 0
-5 -10 12 -14 17 21 0
-5 -10 12 14 -17 21 0
-5 -10 12 14 17 -21 0
-5 10 -12 -14 -17 -21 0
-5 10 -12 -14 17 21 0
-5 10 -12 14 -17 21 0
-5 10 -12 14 17 -21 0
-5 10 12 -14 -17 21 0
-5 10 12 -14 17 -21 0
-5 10 12 14 -17 -21 0
-5 10 12 14 17 21 0
-4 -6 -7 -8 -15 21 0
-4 -6 -7 -8 15 -21 0
-4 -6 -7 8 -15 -21 0
-4 -6 -7 8 15 21 0
-4 -6 7 -8 -15 -21 0
-4 -6 7 -8 15 21 0
-4 -6 7 8 -15 21 0
-4 -6 7 8 15 -21 0
-4 6 -7 -8 -15 -21 0
-4 6 -7 -8 15 21 0
-4 6 -7 8 -15 21 0
-4 6 -7 8 15 -21 0
-4 6 7 -8 -15 21 0
-4 6 7 -8 15 -21 0
-4 6 7 8 -15 -21 0
-4 6 7 8 15 21 0
-3 -11 -12 -15 -16 20 0
-3 -11 -12 -15 16 -20 0
-3 -11 -12 15 -16 -20 0
-3 -11 -12 15 16 20 0
-3 -11 12 -15 -16 -20 0
-3 -11 12 -15 16 20 0
-3 -11 12 15 -16 20 0
-3 -11 12 15 16 -20 0
-3 -6 -9 -13 -14 -18 0
-3 -6 -9 -13 14 18 0
-3 -6 -9 13 -14 18 0
-3 -6 -9 13 14 -18 0
-3 -6 9 -13 -14 18 0
-3 -6 9 -13 14 -18 0
-3 -6 9 13 -14 -18 0
-3 -6 9 13 14 18 0
-3 6 -9 -13 -14 18 0
-3 6 -9 -13 14 -18 0
-3 6 -9 13 -14 -18 0
-3 6 -9 13 14 18 0
-3 6 9 -13 -14 -18 0
-3 6 9 -13 14 18 0
-3 6 9 13 -14 18 0
-3 6 9 13 14 -18 0
-3 11 -12 -15 -16 -20 0
-3 11 -12 -15 16 20 0
-3 11 -12 15 -16 20 0
-3 11 -12 15 16 -20 0
-3 11 12 -15 -16 20 0
-3 11 12 -15 16 -20 0
-3 11 12 15 -16 -20 0
-3 11 12 15 16 20 0
-2 -4 -10 -16 -18 19 0
-2 -4 -10 -16 18 -19 0
-2 -4 -10 16 -18 -19 0
-2 -4 -10 16 18 19 0
-2 -4 10 -16 -18 -19 0
-2 -4 10 -16 18 19 0
-2 -4 10 16 -18 19 0
-2 -4 10 16 18 -19 0
-2 4 -10 -16 -18 -19 0
-2 4 -10 -16 18 19 0
-2 4 -10 16 -18 19 0
-2 4 -10 16 18 -19 0
-2 4 10 -16 -18 19 0
-2 4 10 -16 18 -19 0
-2 4 10 16 -18 -19 0
-2 4 10 16 18 19 0
-1 -5 -8 -9 -11 19 0
-1 -5 -8 -9 11 -19 0
-1 -5 -8 9 -11 -19 0
-1 -5 -8 9 11 19 0
-1 -5 8 -9 -11 -19 0
-1 -5 8 -9 11 19 0
-1 -5 8 9 -11 19 0
-1 -5 8 9 11 -19 0
-1 -2 -7 -13 -17 20 0
-1 -2 -7 -13 17 -20 0
-1 -2 -7 13 -17 -20 0
-1 -2 -7 13 17 20 0
-1 -2 7 -13 -17 -20 0
-1 -2 7 -13 17 20 0
-1 -2 7 13 -17 20 0
-1 -2 7 13 17 -20 0
-1 2 -7 -13 -17 -20 0
-1 2 -7 -13 17 20 0
-1 2 -7 13 -17 20 0
-1 2 -7 13 17 -20 0
-1 2 7 -13 -17 20 0
-1 2 7 -13 17 -20 0
-1 2 7 13 -17 -20 0
-1 2 7 13 17 20 0
-1 5 -8 -9 -11 -19 0
-1 5 -8 -9 11 19 0
-1 5 -8 9 -11 19 0
-1 5 -8 9 11 -19 0
-1 5 8 -9 -11 19 0
-1 5 8 -9 11 -19 0
-1 5 8 9 -11 -19 0
-1 5 8 9 11 19 0
1 -5 -8 -9 -11 -19 0
1 -5 -8 -9 11 19 0
1 -5 -8 9 -11 19 0
1 -5 -8 9 11 -19 0
1 -5 8 -9 -11 19 0
1 -5 8 -9 11 -19 0
1 -5 8 9 -11 -19 0
1 -5 8 9 11 19 0
1 -2 -7 -13 -17 -20 0
1 -2 -7 -13 17 20 0
1 -2 -7 13 -17 20 0
1 -2 -7 13 17 -20 0
1 -2 7 -13 -17 20 0
1 -2 7 -13 17 -20 0
1 -2 7 13 -17 -20 0
1 -2 7 13 17 20 0
1 2 -7 -13 -17 20 0
1 2 -7 -13 17 -20 0
1 2 -7 13 -17 -20 0
1 2 -7 13 17 20 0
1 2 7 -13 -17 -20 0
1 2 7 -13 17 20 0
1 2 7 13 -17 20 0
1 2 7 13 17 -20 0
1 5 -8 -9 -11 19 0
1 5 -8 -9 11 -19 0
1 5 -8 9 -11 -19 0
1 5 -8 9 11 19 0
1 5 8 -9 -11 -19 0
1 5 8 -9 11 19 0
1 5 8 9 -11 19 0
1 5 8 9 11 -19 0
2 -4 -10 -16 -18 -19 0
2 -4 -10 -16 18 19 0
2 -4 -10 16 -18 19 0
2 -4 -10 16 18 -19 0
2 -4 10 -16 -18 19 0
2 -4 10 -16 18 -19 0
2 -4 10 16 -18 -19 0
2 -4 10 16 18 19 0
2 4 -10 -16 -18 19 0
2 4 -10 -16 18 -19 0
2 4 -10 16 -18 -19 0
2 4 -10 16 18 19 0
2 4 10 -16 -18 -19 0
2 4 10 -16 18 19 0
2 4 10 16 -18 19 0
2 4 10 16 18 -19 0
3 -11 -12 -15 -16 -20 0
3 -11 -12 -15 16 20 0
3 -11 -12 15 -16 20 0
3 -11 -12 15 16 -20 0
3 -11 12 -15 -16 20 0
3 -11 12 -15 16 -20 0
3 -11 12 15 -16 -20 0
3 -11 12 15 16 20 0
3 -6 -9 -13 -14 18 0
3 -6 -9 -13 14 -18 0
3 -6 -9 13 -14 -18 0
3 -6 -9 13 14 18 0
3 -6 9 -13 -14 -18 0
3 -6 9 -13 14 18 0
3 -6 9 13 -14 18 0
3 -6 9 13 14 -18 0
3 6 -9 -13 -14 -18 0
3 6 -9 -13 14 18 0
3 6 -9 13 -14 18 0
3 6 -9 13 14 -18 0
3 6 9 -13 -14 18 0
3 6 9 -13 14 -18 0
3 6 9 13 -14 -18 0
3 6 9 13 14 18 0
3 11 -12 -15 -16 20 0
3 11 -12 -15 16 -20 0
3 11 -12 15 -16 -20 0
3 11 -12 15 16 20 0
3 11 12 -15 -16 -20 0
3 11 12 -15 16 20 0
3 11 12 15 -16 20 0
3 11 12 15 16 -20 0
4 -6 -7 -8 -15 -21 0
4 -6 -7 -8 15 21 0
4 -6 -7 8 -15 21 0
4 -6 -7 8 15 -21 0
4 -6 7 -8 -15 21 0
4 -6 7 -8 15 -21 0
4 -6 7 8 -15 -21 0
4 -6 7 8 15 21 0
4 6 -7 -8 -15 21 0
4 6 -7 -8 15 -21 0
4 6 -7 8 -15 -21 0
4 6 -7 8 15 21 0
4 6 7 -8 -15 -21 0
4 6 7 -8 15 21 0
4 6 7 8 -15 21 0
4 6 7 8 15 -21 0
5 -10 -12 -14 -17 -21 0
5 -10 -12 -14 17 21 0
5 -10 -12 14 -17 21 0
5 -10 -12 14 17 -21 0
5 -10 12 -14 -17 21 0
5 -10 12 -14 17 -21 0
5 -10 12 14 -17 -21 0
5 -10 12 14 17 21 0
5 10 -12 -14 -17 21 0
5 10 -12 -14 17 -21 0
5 10 -12 14 -17 -21 0
5 10 -12 14 17 21 0
5 10 12 -14 -17 -21 0
5 10 12 -14 17 21 0
5 10 12 14 -17 21 0
5 10 12 14 17 -21 0
