p cnf 28 512
-13 -14 -17 -18 -21 -24 -26 0
-13 -14 -17 -18 -21 24 26 0
-13 -14 -17 -18 21 -24 26 0
-13 -14 -17 -18 21 24 -26 0
-13 -14 -17 18 -21 -24 26 0
-13 -14 -17 18 -21 24 -26 0
-13 -14 -17 18 21 -24 -26 0
-13 -14 -17 18 21 24 26 0
-13 -14 17 -18 -21 -24 26 0
-13 -14 17 -18 -21 24 -26 0
-13 -14 17 -18 21 -24 -26 0
-13 -14 17 -18 21 24 26 0
-13 -14 17 18 -21 -24 -26 0
-13 -14 17 18 -21 24 26 0
-13 -14 17 18 21 -24 26 0
-13 -14 17 18 21 24 -26 0
-13 14 -17 -18 -21 -24 26 0
-13 14 -17 -18 -21 24 -26 0
-13 14 -17 -18 21 -24 -26 0
-13 14 -17 -18 21 24 26 0
-13 14 -17 18 -21 -24 -26 0
-13 14 -17 18 -21 24 26 0
-13 14 -17 18 21 -24 26 0
-13 14 -17 18 21 24 -26 0
-13 14 17 -18 -21 -24 -26 0
-13 14 17 -18 -21 24 26 0
-13 14 17 -18 21 -24 26 0
-13 14 17 -18 21 24 -26 0
-13 14 17 18 -21 -24 26 0
-13 14 17 18 -21 24 -26 0
-13 14 17 18 21 -24 -26 0
-13 14 17 18 21 24 26 0
-9 -10 -16 -18 -19 -23 28 0
-9 -10 -16 -18 -19 23 -28 0
-9 -10 -16 -18 19 -23 -28 0
-9 -10 -16 -18 19 23 28 0
-9 -10 -16 18 -19 -23 -28 0
-9 -10 -16 18 -19 23 28 0
-9 -10 -16 18 19 -23 28 0
-9 -10 -16 18 19 23 -28 0
-9 -10 16 -18 -19 -23 -28 0
-9 -10 16 -18 -19 23 28 0
-9 -10 16 -18 19 -23 28 0
-9 -10 16 -18 19 23 -28 0
-9 -10 16 18 -19 -23 28 0
-9 -10 16 18 -19 23 -28 0
-9 -10 16 18 19 -23 -28 0
-9 -10 16 18 19 23 28 0
-9 10 -16 -18 -19 -23 -28 0
-9 10 -16 -18 -19 23 28 0
-9 10 -16 -18 19 -23 28 0
-9 10 -16 -18 19 23 -28 0
-9 10 -16 18 -19 -23 28 0
-9 10 -16 18 -19 23 -28 0
-9 10 -16 18 19 -23 -28 0
-9 10 -16 18 19 23 28 0
-9 10 16 -18 -19 -23 28 0
-9 10 16 -18 -19 23 -28 0
-9 10 16 -18 19 -23 -28 0
-9 10 16 -18 19 23 28 0
-9 10 16 18 -19 -23 -28 0
-9 10 16 18 -19 23 28 0
-9 10 16 18 19 -23 28 0
-9 10 16 18 19 23 -28 0
-6 -11 -12 -19 -21 -22 -25 0
-6 -11 -12 -19 -21 22 25 0
-6 -11 -12 -19 21 -22 25 0
-6 -11 -12 -19 21 22 -25 0
-6 -11 -12 19 -21 -22 25 0
-6 -11 -12 19 -21 22 -25 0
-6 -11 -12 19 21 -22 -25 0
-6 -11 -12 19 21 22 25 0
-6 -11 12 -19 -21 -22 25 0
-6 -11 12 -19 -21 22 -25 0
-6 -11 12 -19 21 -22 -25 0
-6 -11 12 -19 21 22 25 0
-6 -11 12 19 -21 -22 -25 0
-6 -11 12 19 -21 22 25 0
-6 -11 12 19 21 -22 25 0
-6 -11 12 19 21 22 -25 0
-6 11 -12 -19 -21 -22 25 0
-6 11 -12 -19 -21 22 -25 0
-6 11 -12 -19 21 -22 -25 0
-6 11 -12 -19 21 22 25 0
-6 11 -12 19 -21 -22 -25 0
-6 11 -12 19 -21 22 25 0
-6 11 -12 19 21 -22 25 0
-6 11 -12 19 21 22 -25 0
-6 11 12 -19 -21 -22 -25 0
-6 11 12 -19 -21 22 25 0
-6 11 12 -19 21 -22 25 0
-6 11 12 -19 21 22 -25 0
-6 11 12 19 -21 -22 25 0
-6 11 12 19 -21 22 -25 0
-6 11 12 19 21 -22 -25 0
-6 11 12 19 21 22 25 0
-4 -7 -10 -11 -15 -17 -27 0
-4 -7 -10 -11 -15 17 27 0
-4 -7 -10 -11 15 -17 27 0
-4 -7 -10 -11 15 17 -27 0
-4 -7 -10 11 -15 -17 27 0
-4 -7 -10 11 -15 17 -27 0
-4 -7 -10 11 15 -17 -27 0
-4 -7 -10 11 15 17 27 0
-4 -7 10 -11 -15 -17 27 0
-4 -7 10 -11 -15 17 -27 0
-4 -7 10 -11 15 -17 -27 0
-4 -7 10 -11 15 17 27 0
-4 -7 10 11 -15 -17 -27 0
-4 -7 10 11 -15 17 27 0
-4 -7 10 11 15 -17 27 0
-4 -7 10 11 15 17 -27 0
-4 7 -10 -11 -15 -17 27 0
-4 7 -10 -11 -15 17 -27 0
-4 7 -10 -11 15 -17 -27 0
-4 7 -10 -11 15 17 27 0
-4 7 -10 11 -15 -17 -27 0
-4 7 -10 11 -15 17 27 0
-4 7 -10 11 15 -17 27 0
-4 7 -10 11 15 17 -27 0
-4 7 10 -11 -15 -17 -27 0
-4 7 10 -11 -15 17 27 0
-4 7 10 -11 15 -17 27 0
-4 7 10 -11 15 17 -27 0
-4 7 10 11 -15 -17 27 0
-4 7 10 11 -15 17 -27 0
-4 7 10 11 15 -17 -27 0
-4 7 10 11 15 17 27 0
-2 -8 -12 -20 -24 -27 -28 0
-2 -8 -12 -20 -24 27 28 0
-2 -8 -12 -20 24 -27 28 0
-2 -8 -12 -20 24 27 -28 0
-2 -8 -12 20 -24 -27 28 0
-2 -8 -12 20 -24 27 -28 0
-2 -8 -12 20 24 -27 -28 0
-2 -8 -12 20 24 27 28 0
-2 -8 12 -20 -24 -27 28 0
-2 -8 12 -20 -24 27 -28 0
-2 -8 12 -20 24 -27 -28 0
-2 -8 12 -20 24 27 28 0
-2 -8 12 20 -24 -27 -28 0
-2 -8 12 20 -24 27 28 0
-2 -8 12 20 24 -27 28 0
-2 -8 12 20 24 27 -28 0
-2 -3 -4 -5 -23 -25 -26 0
-2 -3 -4 -5 -23 25 26 0
-2 -3 -4 -5 23 -25 26 0
-2 -3 -4 -5 23 25 -26 0
-2 -3 -4 5 -23 -25 26 0
-2 -3 -4 5 -23 25 -26 0
-2 -3 -4 5 23 -25 -26 0
-2 -3 -4 5 23 25 26 0
-2 -3 4 -5 -23 -25 26 0
-2 -3 4 -5 -23 25 -26 0
-2 -3 4 -5 23 -25 -26 0
-2 -3 4 -5 23 25 26 0
-2 -3 4 5 -23 -25 -26 0
-2 -3 4 5 -23 25 26 0
-2 -3 4 5 23 -25 26 0
-2 -3 4 5 23 25 -26 0
-2 3 -4 -5 -23 -25 26 0
-2 3 -4 -5 -23 25 -26 0
-2 3 -4 -5 23 -25 -26 0
-2 3 -4 -5 23 25 26 0
-2 3 -4 5 -23 -25 -26 0
-2 3 -4 5 -23 25 26 0
-2 3 -4 5 23 -25 26 0
-2 3 -4 5 23 25 -26 0
-2 3 4 -5 -23 -25 -26 0
-2 3 4 -5 -23 25 26 0
-2 3 4 -5 23 -25 26 0
-2 3 4 -5 23 25 -26 0
-2 3 4 5 -23 -25 26 0
-2 3 4 5 -23 25 -26 0
-2 3 4 5 23 -25 -26 0
-2 3 4 5 23 25 26 0
-2 8 -12 -20 -24 -27 28 0
-2 8 -12 -20 -24 27 -28 0
-2 8 -12 -20 24 -27 -28 0
-2 8 -12 -20 24 27 28 0
-2 8 -12 20 -24 -27 -28 0
-2 8 -12 20 -24 27 28 0
-2 8 -12 20 24 -27 28 0
-2 8 -12 20 24 27 -28 0
-2 8 12 -20 -24 -27 -28 0
-2 8 12 -20 -24 27 28 0
-2 8 12 -20 24 -27 28 0
-2 8 12 -20 24 27 -28 0
-2 8 12 20 -24 -27 28 0
-2 8 12 20 -24 27 -28 0
-2 8 12 20 24 -27 -28 0
-2 8 12 20 24 27 28 0
-1 -5 -9 -14 -15 -20 -22 0
-1 -5 -9 -14 -15 20 22 0
-1 -5 -9 -14 15 -20 22 0
-1 -5 -9 -14 15 20 -22 0
-1 -5 -9 14 -15 -20 22 0
-1 -5 -9 14 -15 20 -22 0
-1 -5 -9 14 15 -20 -22 0
-1 -5 -9 14 15 20 22 0
-1 -5 9 -14 -15 -20 22 0
-1 -5 9 -14 -15 20 -22 0
-1 -5 9 -14 15 -20 -22 0
-1 -5 9 -14 15 20 22 0
-1 -5 9 14 -15 -20 -22 0
-1 -5 9 14 -15 20 22 0
-1 -5 9 14 15 -20 22 0
-1 -5 9 14 15 20 -22 0
-1 -3 -6 -7 -8 -13 -16 0
-1 -3 -6 -7 -8 13 16 0
-1 -3 -6 -7 8 -13 16 0
-1 -3 -6 -7 8 13 -16 0
-1 -3 -6 7 -8 -13 16 0
-1 -3 -6 7 -8 13 -16 0
-1 -3 -6 7 8 -13 -16 0
-1 -3 -6 7 8 13 16 0
-1 -3 6 -7 -8 -13 16 0
-1 -3 6 -7 -8 13 -16 0
-1 -3 6 -7 8 -13 -16 0
-1 -3 6 -7 8 13 16 0
-1 -3 6 7 -8 -13 -16 0
-1 -3 6 7 -8 13 16 0
-1 -3 6 7 8 -13 16 0
-1 -3 6 7 8 13 -16 0
-1 3 -6 -7 -8 -13 16 0
-1 3 -6 -7 -8 13 -16 0
-1 3 -6 -7 8 -13 -16 0
-1 3 -6 -7 8 13 16 0
-1 3 -6 7 -8 -13 -16 0
-1 3 -6 7 -8 13 16 0
-1 3 -6 7 8 -13 16 0
-1 3 -6 7 8 13 -16 0
-1 3 6 -7 -8 -13 -16 0
-1 3 6 -7 -8 13 16 0
-1 3 6 -7 8 -13 16 0
-1 3 6 -7 8 13 -16 0
-1 3 6 7 -8 -13 16 0
-1 3 6 7 -8 13 -16 0
-1 3 6 7 8 -13 -16 0
-1 3 6 7 8 13 16 0
-1 5 -9 -14 -15 -20 22 0
-1 5 -9 -14 -15 20 -22 0
-1 5 -9 -14 15 -20 -22 0
-1 5 -9 -14 15 20 22 0
-1 5 -9 14 -15 -20 -22 0
-1 5 -9 14 -15 20 22 0
-1 5 -9 14 15 -20 22 0
-1 5 -9 14 15 20 -22 0
-1 5 9 -14 -15 -20 -22 0
-1 5 9 -14 -15 20 22 0
-1 5 9 -14 15 -20 22 0
-1 5 9 -14 15 20 -22 0
-1 5 9 14 -15 -20 22 0
-1 5 9 14 -15 20 -22 0
-1 5 9 14 15 -20 -22 0
-1 5 9 14 15 20 22 0
1 -5 -9 -14 -15 -20 22 0
1 -5 -9 -14 -15 20 -22 0
1 -5 -9 -14 15 -20 -22 0
1 -5 -9 -14 15 20 22 0
1 -5 -9 14 -15 -20 -22 0
1 -5 -9 14 -15 20 22 0
1 -5 -9 14 15 -20 22 0
1 -5 -9 14 15 20 -22 0
1 -5 9 -14 -15 -20 -22 0
1 -5 9 -14 -15 20 22 0
1 -5 9 -14 15 -20 22 0
1 -5 9 -14 15 20 -22 0
1 -5 9 14 -15 -20 22 0
1 -5 9 14 -15 20 -22 0
1 -5 9 14 15 -20 -22 0
1 -5 9 14 15 20 22 0
1 -3 -6 -7 -8 -13 16 0
1 -3 -6 -7 -8 13 -16 0
1 -3 -6 -7 8 -13 -16 0
1 -3 -6 -7 8 13 16 0
1 -3 -6 7 -8 -13 -16 0
1 -3 -6 7 -8 13 16 0
1 -3 -6 7 8 -13 16 0
1 -3 -6 7 8 13 -16 0
1 -3 6 -7 -8 -13 -16 0
1 -3 6 -7 -8 13 16 0
1 -3 6 -7 8 -13 16 0
1 -3 6 -7 8 13 -16 0
1 -3 6 7 -8 -13 16 0
1 -3 6 7 -8 13 -16 0
1 -3 6 7 8 -13 -16 0
1 -3 6 7 8 13 16 0
1 3 -6 -7 -8 -13 -16 0
1 3 -6 -7 -8 13 16 0
1 3 -6 -7 8 -13 16 0
1 3 -6 -7 8 13 -16 0
1 3 -6 7 -8 -13 16 0
1 3 -6 7 -8 13 -16 0
1 3 -6 7 8 -13 -16 0
1 3 -6 7 8 13 16 0
1 3 6 -7 -8 -13 16 0
1 3 6 -7 -8 13 -16 0
1 3 6 -7 8 -13 -16 0
1 3 6 -7 8 13 16 0
1 3 6 7 -8 -13 -16 0
1 3 6 7 -8 13 16 0
1 3 6 7 8 -13 16 0
1 3 6 7 8 13 -16 0
1 5 -9 -14 -15 -20 -22 0
1 5 -9 -14 -15 20 22 0
1 5 -9 -14 15 -20 22 0
1 5 -9 -14 15 20 -22 0
1 5 -9 14 -15 -20 22 0
1 5 -9 14 -15 20 -22 0
1 5 -9 14 15 -20 -22 0
1 5 -9 14 15 20 22 0
1 5 9 -14 -15 -20 22 0
1 5 9 -14 -15 20 -22 0
1 5 9 -14 15 -20 -22 0
1 5 9 -14 15 20 22 0
1 5 9 14 -15 -20 -22 0
1 5 9 14 -15 20 22 0
1 5 9 14 15 -20 22 0
1 5 9 14 15 20 -22 0
2 -8 -12 -20 -24 -27 28 0
2 -8 -12 -20 -24 27 -28 0
2 -8 -12 -20 24 -27 -28 0
2 -8 -12 -20 24 27 28 0
2 -8 -12 20 -24 -27 -28 0
2 -8 -12 20 -24 27 28 0
2 -8 -12 20 24 -27 28 0
2 -8 -12 20 24 27 -28 0
2 -8 12 -20 -24 -27 -28 0
2 -8 12 -20 -24 27 28 0
2 -8 12 -20 24 -27 28 0
2 -8 12 -20 24 27 -28 0
2 -8 12 20 -24 -27 28 0
2 -8 12 20 -24 27 -28 0
2 -8 12 20 24 -27 -28 0
2 -8 12 20 24 27 28 0
2 -3 -4 -5 -23 -25 26 0
2 -3 -4 -5 -23 25 -26 0
2 -3 -4 -5 23 -25 -26 0
2 -3 -4 -5 23 25 26 0
2 -3 -4 5 -23 -25 -26 0
2 -3 -4 5 -23 25 26 0
2 -3 -4 5 23 -25 26 0
2 -3 -4 5 23 25 -26 0
2 -3 4 -5 -23 -25 -26 0
2 -3 4 -5 -23 25 26 0
2 -3 4 -5 23 -25 26 0
2 -3 4 -5 23 25 -26 0
2 -3 4 5 -23 -25 26 0
2 -3 4 5 -23 25 -26 0
2 -3 4 5 23 -25 -26 0
2 -3 4 5 23 25 26 0
2 3 -4 -5 -23 -25 -26 0
2 3 -4 -5 -23 25 26 0
2 3 -4 -5 23 -25 26 0
2 3 -4 -5 23 25 -26 0
2 3 -4 5 -23 -25 26 0
2 3 -4 5 -23 25 -26 0
2 3 -4 5 23 -25 -26 0
2 3 -4 5 23 25 26 0
2 3 4 -5 -23 -25 26 0
2 3 4 -5 -23 25 -26 0
2 3 4 -5 23 -25 -26 0
2 3 4 -5 23 25 26 0
2 3 4 5 -23 -25 -26 0
2 3 4 5 -23 25 26 0
2 3 4 5 23 -25 26 0
2 3 4 5 23 25 -26 0
2 8 -12 -20 -24 -27 -28 0
2 8 -12 -20 -24 27 28 0
2 8 -12 -20 24 -27 28 0
2 8 -12 -20 24 27 -28 0
2 8 -12 20 -24 -27 28 0
2 8 -12 20 -24 27 -28 0
2 8 -12 20 24 -27 -28 0
2 8 -12 20 24 27 28 0
2 8 12 -20 -24 -27 28 0
2 8 12 -20 -24 27 -28 0
2 8 12 -20 24 -27 -28 0
2 8 12 -20 24 27 28 0
2 8 12 20 -24 -27 -28 0
2 8 12 20 -24 27 28 0
2 8 12 20 24 -27 28 0
2 8 12 20 24 27 -28 0
4 -7 -10 -11 -15 -17 27 0
4 -7 -10 -11 -15 17 -27 0
4 -7 -10 -11 15 -17 -27 0
4 -7 -10 -11 15 17 27 0
4 -7 -10 11 -15 -17 -27 0
4 -7 -10 11 -15 17 27 0
4 -7 -10 11 15 -17 27 0
4 -7 -10 11 15 17 -27 0
4 -7 10 -11 -15 -17 -27 0
4 -7 10 -11 -15 17 27 0
4 -7 10 -11 15 -17 27 0
4 -7 10 -11 15 17 -27 0
4 -7 10 11 -15 -17 27 0
4 -7 10 11 -15 17 -27 0
4 -7 10 11 15 -17 -27 0
4 -7 10 11 15 17 27 0
4 7 -10 -11 -15 -17 -27 0
4 7 -10 -11 -15 17 27 0
4 7 -10 -11 15 -17 27 0
4 7 -10 -11 15 17 -27 0
4 7 -10 11 -15 -17 27 0
4 7 -10 11 -15 17 -27 0
4 7 -10 11 15 -17 -27 0
4 7 -10 11 15 17 27 0
4 7 10 -11 -15 -17 27 0
4 7 10 -11 -15 17 -27 0
4 7 10 -11 15 -17 -27 0
4 7 10 -11 15 17 27 0
4 7 10 11 -15 -17 -27 0
4 7 10 11 -15 17 27 0
4 7 10 11 15 -17 27 0
4 7 10 11 15 17 -27 0
6 -11 -12 -19 -21 -22 25 0
6 -11 -12 -19 -21 22 -25 0
6 -11 -12 -19 21 -22 -25 0
6 -11 -12 -19 21 22 25 0
6 -11 -12 19 -21 -22 -25 0
6 -11 -12 19 -21 22 25 0
6 -11 -12 19 21 -22 25 0
6 -11 -12 19 21 22 -25 0
6 -11 12 -19 -21 -22 -25 0
6 -11 12 -19 -21 22 25 0
6 -11 12 -19 21 -22 25 0
6 -11 12 -19 21 22 -25 0
6 -11 12 19 -21 -22 25 0
6 -11 12 19 -21 22 -25 0
6 -11 12 19 21 -22 -25 0
6 -11 12 19 21 22 25 0
6 11 -12 -19 -21 -22 -25 0
6 11 -12 -19 -21 22 25 0
6 11 -12 -19 21 -22 25 0
6 11 -12 -19 21 22 -25 0
6 11 -12 19 -21 -22 25 0
6 11 -12 19 -21 22 -25 0
6 11 -12 19 21 -22 -25 0
6 11 -12 19 21 22 25 0
6 11 12 -19 -21 -22 25 0
6 11 12 -19 -21 22 -25 0
6 11 12 -19 21 -22 -25 0
6 11 12 -19 21 22 25 0
6 11 12 19 -21 -22 -25 0
6 11 12 19 -21 22 25 0
6 11 12 19 21 -22 25 0
6 11 12 19 21 22 -25 0
9 -10 -16 -18 -19 -23 -28 0
9 -10 -16 -18 -19 23 28 0
9 -10 -16 -18 19 -23 28 0
9 -10 -16 -18 19 23 -28 0
9 -10 -16 18 -19 -23 28 0
9 -10 -16 18 -19 23 -28 0
9 -10 -16 18 19 -23 -28 0
9 -10 -16 18 19 23 28 0
9 -10 16 -18 -19 -23 28 0
9 -10 16 -18 -19 23 -28 0
9 -10 16 -18 19 -23 -28 0
9 -10 16 -18 19 23 28 0
9 -10 16 18 -19 -23 -28 0
9 -10 16 18 -19 23 28 0
9 -10 16 18 19 -23 28 0
9 -10 16 18 19 23 -28 0
9 10 -16 -18 -19 -23 28 0
9 10 -16 -18 -19 23 -28 0
9 10 -16 -18 19 -23 -28 0
9 10 -16 -18 19 23 28 0
9 10 -16 18 -19 -23 -28 0
9 10 -16 18 -19 23 28 0
9 10 -16 18 19 -23 28 0
9 10 -16 18 19 23 -28 0
9 10 16 -18 -19 -23 -28 0
9 10 16 -18 -19 23 28 0
9 10 16 -18 19 -23 28 0
9 10 16 -18 19 23 -28 0
9 10 16 18 -19 -23 28 0
9 10 16 18 -19 23 -28 0
9 10 16 18 19 -23 -28 0
9 10 16 18 19 23 28 0
13 -14 -17 -18 -21 -24 26 0
13 -14 -17 -18 -21 24 -26 0
13 -14 -17 -18 21 -24 -26 0
13 -14 -17 -18 21 24 26 0
13 -14 -17 18 -21 -24 -26 0
13 -14 -17 18 -21 24 26 0
13 -14 -17 18 21 -24 26 0
13 -14 -17 18 21 24 -26 0
13 -14 17 -18 -21 -24 -26 0
13 -14 17 -18 -21 24 26 0
13 -14 17 -18 21 -24 26 0
13 -14 17 -18 21 24 -26 0
13 -14 17 18 -21 -24 26 0
13 -14 17 18 -21 24 -26 0
13 -14 17 18 21 -24 -26 0
13 -14 17 18 21 24 26 0
13 14 -17 -18 -21 -24 -26 0
13 14 -17 -18 -21 24 26 0
13 14 -17 -18 21 -24 26 0
13 14 -17 -18 21 24 -26 0
13 14 -17 18 -21 -24 26 0
13 14 -17 18 -21 24 -26 0
13 14 -17 18 21 -24 -26 0
13 14 -17 18 21 24 26 0
13 14 17 -18 -21 -24 26 0
13 14 17 -18 -21 24 -26 0
13 14 17 -18 21 -24 -26 0
13 14 17 -18 21 24 26 0
13 14 17 18 -21 -24 -26 0
13 14 17 18 -21 24 26 0
13 14 17 18 21 -24 26 0
13 14 17 18 21 24 -26 0
