p cnf 21 224
-6 -8 -12 -15 -18 19 0
-6 -8 -12 -15 18 -19 0
-6 -8 -12 15 -18 -19 0
-6 -8 -12 15 18 19 0
-6 -8 12 -15 -18 -19 0
-6 -8 12 -15 18 19 0
-6 -8 12 15 -18 19 0
-6 -8 12 15 18 -19 0
-6 8 -12 -15 -18 -19 0
-6 8 -12 -15 18 19 0
-6 8 -12 15 -18 19 0
-6 8 -12 15 18 -19 0
-6 8 12 -15 -18 19 0
-6 8 12 -15 18 -19 0
-6 8 12 15 -18 -19 0
-6 8 12 15 18 19 0
-5 -7 -9 -11 -13 18 0
-5 -7 -9 -11 13 -18 0
-5 -7 -9 11 -13 -18 0
-5 -7 -9 11 13 18 0
-5 -7 9 -11 -13 -18 0
-5 -7 9 -11 13 18 0
-5 -7 9 11 -13 18 0
-5 -7 9 11 13 -18 0
-5 7 -9 -11 -13 -18 0
-5 7 -9 -11 13 18 0
-5 7 -9 11 -13 18 0
-5 7 -9 11 13 -18 0
-5 7 9 -11 -13 18 0
-5 7 9 -11 13 -18 0
-5 7 9 11 -13 -18 0
-5 7 9 11 13 18 0
-3 -4 -5 -15 -16 20 0
-3 -4 -5 -15 16 -20 0
-3 -4 -5 15 -16 -20 0
-3 -4 -5 15 16 20 0
-3 -4 5 -15 -16 -20 0
-3 -4 5 -15 16 20 0
-3 -4 5 15 -16 20 0
-3 -4 5 15 16 -20 0
-3 4 -5 -15 -16 -20 0
-3 4 -5 -15 16 20 0
-3 4 -5 15 -16 20 0
-3 4 -5 15 16 -20 0
-3 4 5 -15 -16 20 0
-3 4 5 -15 16 -20 0
-3 4 5 15 -16 -20 0
-3 4 5 15 16 20 0
-2 -4 -6 -10 -11 14 0
-2 -4 -6 -10 11 -14 0
-2 -4 -6 10 -11 -14 0
-2 -4 -6 10 11 14 0
-2 -4 6 -10 -11 -14 0
-2 -4 6 -10 11 14 0
-2 -4 6 10 -11 14 0
-2 -4 6 10 11 -14 0
-2 -3 -8 -13 -17 21 0
-2 -3 -8 -13 17 -21 0
-2 -3 -8 13 -17 -21 0
-2 -3 -8 13 17 21 0
-2 -3 8 -13 -17 -21 0
-2 -3 8 -13 17 21 0
-2 -3 8 13 -17 21 0
-2 -3 8 13 17 -21 0
-2 3 -8 -13 -17 -21 0
-2 3 -8 -13 17 21 0
-2 3 -8 13 -17 21 0
-2 3 -8 13 17 -21 0
-2 3 8 -13 -17 21 0
-2 3 8 -13 17 -21 0
-2 3 8 13 -17 -21 0
-2 3 8 13 17 21 0
-2 4 -6 -10 -11 -14 0
-2 4 -6 -10 11 14 0
-2 4 -6 10 -11 14 0
-2 4 -6 10 11 -14 0
-2 4 6 -10 -11 14 0
-2 4 6 -10 11 -14 0
-2 4 6 10 -11 -14 0
-2 4 6 10 11 14 0
-1 -9 -10 -16 -17 19 0
-1 -9 -10 -16 17 -19 0
-1 -9 -10 16 -17 -19 0
-1 -9 -10 16 17 19 0
-1 -9 10 -16 -17 -19 0
-1 -9 10 -16 17 19 0
-1 -9 10 16 -17 19 0
-1 -9 10 16 17 -19 0
-1 -7 -12 -14 -20 21 0
-1 -7 -12 -14 20 -21 0
-1 -7 -12 14 -20 -21 0
-1 -7 -12 14 20 21 0
-1 -7 12 -14 -20 -21 0
-1 -7 12 -14 20 21 0
-1 -7 12 14 -20 21 0
-1 -7 12 14 20 -21 0
-1 7 -12 -14 -20 -21 0
-1 7 -12 -14 20 21 0
-1 7 -12 14 -20 21 0
-1 7 -12 14 20 -21 0
-1 7 12 -14 -20 21 0
-1 7 12 -14 20 -21 0
-1 7 12 14 -20 -21 0
-1 7 12 14 20 21 0
-1 9 -10 -16 -17 -19 0
-1 9 -10 -16 17 19 0
-1 9 -10 16 -17 19 0
-1 9 -10 16 17 -19 0
-1 9 10 -16 -17 19 0
-1 9 10 -16 17 -19 0
-1 9 10 16 -17 -19 0
-1 9 10 16 17 19 0
1 -9 -10 -16 -17 -19 0
1 -9 -10 -16 17 19 0
1 -9 -10 16 -17 19 0
1 -9 -10 16 17 -19 0
1 -9 10 -16 -17 19 0
1 -9 10 -16 17 -19 0
1 -9 10 16 -17 -19 0
1 -9 10 16 17 19 0
1 -7 -12 -14 -20 -21 0
1 -7 -12 -14 20 21 0
1 -7 -12 14 -20 21 0
1 -7 -12 14 20 -21 0
1 -7 12 -14 -20 21 0
1 -7 12 -14 20 -21 0
1 -7 12 14 -20 -21 0
1 -7 12 14 20 21 0
1 7 -12 -14 -20 21 0
1 7 -12 -14 20 -21 0
1 7 -12 14 -20 -21 0
1 7 -12 14 20 21 0
1 7 12 -14 -20 -21 0
1 7 12 -14 20 21 0
1 7 12 14 -20 21 0
1 7 12 14 20 -21 0
1 9 -10 -16 -17 19 0
1 9 -10 -16 17 -19 0
1 9 -10 16 -17 -19 0
1 9 -10 16 17 19 0
1 9 10 -16 -17 -19 0
1 9 10 -16 17 19 0
1 9 10 16 -17 19 0
1 9 10 16 17 -19 0
2 -4 -6 -10 -11 -14 0
2 -4 -6 -10 11 14 0
2 -4 -6 10 -11 14 0
2 -4 -6 10 11 -14 0
2 -4 6 -10 -11 14 0
2 -4 6 -10 11 -14 0
2 -4 6 10 -11 -14 0
2 -4 6 10 11 14 0
2 -3 -8 -13 -17 -21 0
2 -3 -8 -13 17 21 0
2 -3 -8 13 -17 21 0
2 -3 -8 13 17 -21 0
2 -3 8 -13 -17 21 0
2 -3 8 -13 17 -21 0
2 -3 8 13 -17 -21 0
2 -3 8 13 17 21 0
2 3 -8 -13 -17 21 0
2 3 -8 -13 17 -21 0
2 3 -8 13 -17 -21 0
2 3 -8 13 17 21 0
2 3 8 -13 -17 -21 0
2 3 8 -13 17 21 0
2 3 8 13 -17 21 0
2 3 8 13 17 -21 0
2 4 -6 -10 -11 14 0
2 4 -6 -10 11 -14 0
2 4 -6 10 -11 -14 0
2 4 -6 10 11 14 0
2 4 6 -10 -11 -14 0
2 4 6 -10 11 14 0
2 4 6 10 -11 14 0
2 4 6 10 11 -14 0
3 -4 -5 -15 -16 -20 0
3 -4 -5 -15 16 20 0
3 -4 -5 15 -16 20 0
3 -4 -5 15 16 -20 0
3 -4 5 -15 -16 20 0
3 -4 5 -15 16 -20 0
3 -4 5 15 -16 -20 0
3 -4 5 15 16 20 0
3 4 -5 -15 -16 20 0
3 4 -5 -15 16 -20 0
3 4 -5 15 -16 -20 0
3 4 -5 15 16 20 0
3 4 5 -15 -16 -20 0
3 4 5 -15 16 20 0
3 4 5 15 -16 20 0
3 4 5 15 16 -20 0
5 -7 -9 -11 -13 -18 0
5 -7 -9 -11 13 18 0
5 -7 -9 11 -13 18 0
5 -7 -9 11 13 -18 0
5 -7 9 -11 -13 18 0
5 -7 9 -11 13 -18 0
5 -7 9 11 -13 -18 0
5 -7 9 11 13 18 0
5 7 -9 -11 -13 18 0
5 7 -9 -11 13 -18 0
5 7 -9 11 -13 -18 0
5 7 -9 11 13 18 0
5 7 9 -11 -13 -18 0
5 7 9 -11 13 18 0
5 7 9 11 -13 18 0
5 7 9 11 13 -18 0
6 -8 -12 -15 -18 -19 0
6 -8 -12 -15 18 19 0
6 -8 -12 15 -18 19 0
6 -8 -12 15 18 -19 0
6 -8 12 -15 -18 19 0
6 -8 12 -15 18 -19 0
6 -8 12 15 -18 -19 0
6 -8 12 15 18 19 0
6 8 -12 -15 -18 19 0
6 8 -12 -15 18 -19 0
6 8 -12 15 -18 -19 0
6 8 -12 15 18 19 0
6 8 12 -15 -18 -19 0
6 8 12 -15 18 19 0
6 8 12 15 -18 19 0
6 8 12 15 18 -19 0
