p cnf 21 224
-6 -11 -15 -18 -20 21 0
-6 -11 -15 -18 20 -21 0
-6 -11 -15 18 -20 -21 0
-6 -11 -15 18 20 21 0
-6 -11 15 -18 -20 -21 0
-6 -11 15 -18 20 21 0
-6 -11 15 18 -20 21 0
-6 -11 15 18 20 -21 0
-6 11 -15 -18 -20 -21 0
-6 11 -15 -18 20 21 0
-6 11 -15 18 -20 21 0
-6 11 -15 18 20 -21 0
-6 11 15 -18 -20 21 0
-6 11 15 -18 20 -21 0
-6 11 15 18 -20 -21 0
-6 11 15 18 20 21 0
-5 -10 -14 -17 -19 21 0
-5 -10 -14 -17 19 -21 0
-5 -10 -14 17 -19 -21 0
-5 -10 -14 17 19 21 0
-5 -10 14 -17 -19 -21 0
-5 -10 14 -17 19 21 0
-5 -10 14 17 -19 21 0
-5 -10 14 17 19 -21 0
-5 10 -14 -17 -19 -21 0
-5 10 -14 -17 19 21 0
-5 10 -14 17 -19 21 0
-5 10 -14 17 19 -21 0
-5 10 14 -17 -19 21 0
-5 10 14 -17 19 -21 0
-5 10 14 17 -19 -21 0
-5 10 14 17 19 21 0
-4 -9 -13 -16 -19 20 0
-4 -9 -13 -16 19 -20 0
-4 -9 -13 16 -19 -20 0
-4 -9 -13 16 19 20 0
-4 -9 13 -16 -19 -20 0
-4 -9 13 -16 19 20 0
-4 -9 13 16 -19 20 0
-4 -9 13 16 19 -20 0
-4 9 -13 -16 -19 -20 0
-4 9 -13 -16 19 20 0
-4 9 -13 16 -19 20 0
-4 9 -13 16 19 -20 0
-4 9 13 -16 -19 20 0
-4 9 13 -16 19 -20 0
-4 9 13 16 -19 -20 0
-4 9 13 16 19 20 0
-3 -8 -12 -16 -17 18 0
-3 -8 -12 -16 17 -18 0
-3 -8 -12 16 -17 -18 0
-3 -8 -12 16 17 18 0
-3 -8 12 -16 -17 -18 0
-3 -8 12 -16 17 18 0
-3 -8 12 16 -17 18 0
-3 -8 12 16 17 -18 0
-3 8 -12 -16 -17 -18 0
-3 8 -12 -16 17 18 0
-3 8 -12 16 -17 18 0
-3 8 -12 16 17 -18 0
-3 8 12 -16 -17 18 0
-3 8 12 -16 17 -18 0
-3 8 12 16 -17 -18 0
-3 8 12 16 17 18 0
-2 -7 -12 -13 -14 15 0
-2 -7 -12 -13 14 -15 0
-2 -7 -12 13 -14 -15 0
-2 -7 -12 13 14 15 0
-2 -7 12 -13 -14 -15 0
-2 -7 12 -13 14 15 0
-2 -7 12 13 -14 15 0
-2 -7 12 13 14 -15 0
-2 7 -12 -13 -14 -15 0
-2 7 -12 -13 14 15 0
-2 7 -12 13 -14 15 0
-2 7 -12 13 14 -15 0
-2 7 12 -13 -14 15 0
-2 7 12 -13 14 -15 0
-2 7 12 13 -14 -15 0
-2 7 12 13 14 15 0
-1 -7 -8 -9 -10 11 0
-1 -7 -8 -9 10 -11 0
-1 -7 -8 9 -10 -11 0
-1 -7 -8 9 10 11 0
-1 -7 8 -9 -10 -11 0
-1 -7 8 -9 10 11 0
-1 -7 8 9 -10 11 0
-1 -7 8 9 10 -11 0
-1 -2 -3 -4 -5 -6 0
-1 -2 -3 -4 5 6 0
-1 -2 -3 4 -5 6 0
-1 -2 -3 4 5 -6 0
-1 -2 3 -4 -5 6 0
-1 -2 3 -4 5 -6 0
-1 -2 3 4 -5 -6 0
-1 -2 3 4 5 6 0
-1 2 -3 -4 -5 6 0
-1 2 -3 -4 5 -6 0
-1 2 -3 4 -5 -6 0
-1 2 -3 4 5 6 0
-1 2 3 -4 -5 -6 0
-1 2 3 -4 5 6 0
-1 2 3 4 -5 6 0
-1 2 3 4 5 -6 0
-1 7 -8 -9 -10 -11 0
-1 7 -8 -9 10 11 0
-1 7 -8 9 -10 11 0
-1 7 -8 9 10 -11 0
-1 7 8 -9 -10 11 0
-1 7 8 -9 10 -11 0
-1 7 8 9 -10 -11 0
-1 7 8 9 10 11 0
1 -7 -8 -9 -10 -11 0
1 -7 -8 -9 10 11 0
1 -7 -8 9 -10 11 0
1 -7 -8 9 10 -11 0
1 -7 8 -9 -10 11 0
1 -7 8 -9 10 -11 0
1 -7 8 9 -10 -11 0
1 -7 8 9 10 11 0
1 -2 -3 -4 -5 6 0
1 -2 -3 -4 5 -6 0
1 -2 -3 4 -5 -6 0
1 -2 -3 4 5 6 0
1 -2 3 -4 -5 -6 0
1 -2 3 -4 5 6 0
1 -2 3 4 -5 6 0
1 -2 3 4 5 -6 0
1 2 -3 -4 -5 -6 0
1 2 -3 -4 5 6 0
1 2 -3 4 -5 6 0
1 2 -3 4 5 -6 0
1 2 3 -4 -5 6 0
1 2 3 -4 5 -6 0
1 2 3 4 -5 -6 0
1 2 3 4 5 6 0
1 7 -8 -9 -10 11 0
1 7 -8 -9 10 -11 0
1 7 -8 9 -10 -11 0
1 7 -8 9 10 11 0
1 7 8 -9 -10 -11 0
1 7 8 -9 10 11 0
1 7 8 9 -10 11 0
1 7 8 9 10 -11 0
2 -7 -12 -13 -14 -15 0
2 -7 -12 -13 14 15 0
2 -7 -12 13 -14 15 0
2 -7 -12 13 14 -15 0
2 -7 12 -13 -14 15 0
2 -7 12 -13 14 -15 0
2 -7 12 13 -14 -15 0
2 -7 12 13 14 15 0
2 7 -12 -13 -14 15 0
2 7 -12 -13 14 -15 0
2 7 -12 13 -14 -15 0
2 7 -12 13 14 15 0
2 7 12 -13 -14 -15 0
2 7 12 -13 14 15 0
2 7 12 13 -14 15 0
2 7 12 13 14 -15 0
3 -8 -12 -16 -17 -18 0
3 -8 -12 -16 17 18 0
3 -8 -12 16 -17 18 0
3 -8 -12 16 17 -18 0
3 -8 12 -16 -17 18 0
3 -8 12 -16 17 -18 0
3 -8 12 16 -17 -18 0
3 -8 12 16 17 18 0
3 8 -12 -16 -17 18 0
3 8 -12 -16 17 -18 0
3 8 -12 16 -17 -18 0
3 8 -12 16 17 18 0
3 8 12 -16 -17 -18 0
3 8 12 -16 17 18 0
3 8 12 16 -17 18 0
3 8 12 16 17 -18 0
4 -9 -13 -16 -19 -20 0
4 -9 -13 -16 19 20 0
4 -9 -13 16 -19 20 0
4 -9 -13 16 19 -20 0
4 -9 13 -16 -19 20 0
4 -9 13 -16 19 -20 0
4 -9 13 16 -19 -20 0
4 -9 13 16 19 20 0
4 9 -13 -16 -19 20 0
4 9 -13 -16 19 -20 0
4 9 -13 16 -19 -20 0
4 9 -13 16 19 20 0
4 9 13 -16 -19 -20 0
4 9 13 -16 19 20 0
4 9 13 16 -19 20 0
4 9 13 16 19 -20 0
5 -10 -14 -17 -19 -21 0
5 -10 -14 -17 19 21 0
5 -10 -14 17 -19 21 0
5 -10 -14 17 19 -21 0
5 -10 14 -17 -19 21 0
5 -10 14 -17 19 -21 0
5 -10 14 17 -19 -21 0
5 -10 14 17 19 21 0
5 10 -14 -17 -19 21 0
5 10 -14 -17 19 -21 0
5 10 -14 17 -19 -21 0
5 10 -14 17 19 21 0
5 10 14 -17 -19 -21 0
5 10 14 -17 19 21 0
5 10 14 17 -19 21 0
5 10 14 17 19 -21 0
6 -11 -15 -18 -20 -21 0
6 -11 -15 -18 20 21 0
6 -11 -15 18 -20 21 0
6 -11 -15 18 20 -21 0
6 -11 15 -18 -20 21 0
6 -11 15 -18 20 -21 0
6 -11 15 18 -20 -21 0
6 -11 15 18 20 21 0
6 11 -15 -18 -20 21 0
6 11 -15 -18 20 -21 0
6 11 -15 18 -20 -21 0
6 11 -15 18 20 21 0
6 11 15 -18 -20 -21 0
6 11 15 -18 20 21 0
6 11 15 18 -20 21 0
6 11 15 18 20 -21 0
