p cnf 15 96
-5 -8 -9 -11 -12 0
-5 -8 -9 11 12 0
-5 -8 9 -11 12 0
-5 -8 9 11 -12 0
-5 8 -9 -11 12 0
-5 8 -9 11 -12 0
-5 8 9 -11 -12 0
-5 8 9 11 12 0
-4 -6 -12 -13 -15 0
-4 -6 -12 13 15 0
-4 -6 12 -13 15 0
-4 -6 12 13 -15 0
-4 6 -12 -13 15 0
-4 6 -12 13 -15 0
-4 6 12 -13 -15 0
-4 6 12 13 15 0
-2 -5 -6 -7 -10 0
-2 -5 -6 7 10 0
-2 -5 6 -7 10 0
-2 -5 6 7 -10 0
-2 -3 -4 -11 -14 0
-2 -3 -4 11 14 0
-2 -3 4 -11 14 0
-2 -3 4 11 -14 0
-2 3 -4 -11 14 0
-2 3 -4 11 -14 0
-2 3 4 -11 -14 0
-2 3 4 11 14 0
-2 5 -6 -7 10 0
-2 5 -6 7 -10 0
-2 5 6 -7 -10 0
-2 5 6 7 10 0
-1 -9 -10 -13 -14 0
-1 -9 -10 13 14 0
-1 -9 10 -13 14 0
-1 -9 10 13 -14 0
-1 -3 -7 -8 -15 0
-1 -3 -7 8 15 0
-1 -3 7 -8 15 0
-1 -3 7 8 -15 0
-1 3 -7 -8 15 0
-1 3 -7 8 -15 0
-1 3 7 -8 -15 0
-1 3 7 8 15 0
-1 9 -10 -13 14 0
-1 9 -10 13 -14 0
-1 9 10 -13 -14 0
-1 9 10 13 14 0
1 -9 -10 -13 14 0
1 -9 -10 13 -14 0
1 -9 10 -13 -14 0
1 -9 10 13 14 0
1 -3 -7 -8 15 0
1 -3 -7 8 -15 0
1 -3 7 -8 -15 0
1 -3 7 8 15 0
1 3 -7 -8 -15 0
1 3 -7 8 15 0
1 3 7 -8 15 0
1 3 7 8 -15 0
1 9 -10 -13 -14 0
1 9 -10 13 14 0
1 9 10 -13 14 0
1 9 10 13 -14 0
2 -5 -6 -7 10 0
2 -5 -6 7 -10 0
2 -5 6 -7 -10 0
2 -5 6 7 10 0
2 -3 -4 -11 14 0
2 -3 -4 11 -14 0
2 -3 4 -11 -14 0
2 -3 4 11 14 0
2 3 -4 -11 -14 0
2 3 -4 11 14 0
2 3 4 -11 14 0
2 3 4 11 -14 0
2 5 -6 -7 -10 0
2 5 -6 7 10 0
2 5 6 -7 10 0
2 5 6 7 -10 0
4 -6 -12 -13 15 0
4 -6 -12 13 -15 0
4 -6 12 -13 -15 0
4 -6 12 13 15 0
4 6 -12 -13 -15 0
4 6 -12 13 15 0
4 6 12 -13 15 0
4 6 12 13 -15 0
5 -8 -9 -11 12 0
5 -8 -9 11 -12 0
5 -8 9 -11 -12 0
5 -8 9 11 12 0
5 8 -9 -11 -12 0
5 8 -9 11 12 0
5 8 9 -11 12 0
5 8 9 11 -12 0
