p cnf 10 40
-5 -6 -8 10 0
-5 -6 8 -10 0
-5 6 -8 -10 0
-5 6 8 10 0
-3 -4 -7 10 0
-3 -4 7 -10 0
-3 4 -7 -10 0
-3 4 7 10 0
-2 -4 -5 -9 0
-2 -4 5 9 0
-2 4 -5 9 0
-2 4 5 -9 0
-1 -6 -7 9 0
-1 -6 7 -9 0
-1 -2 -3 8 0
-1 -2 3 -8 0
-1 2 -3 -8 0
-1 2 3 8 0
-1 6 -7 -9 0
-1 6 7 9 0
1 -6 -7 -9 0
1 -6 7 9 0
1 -2 -3 -8 0
1 -2 3 8 0
1 2 -3 8 0
1 2 3 -8 0
1 6 -7 9 0
1 6 7 -9 0
2 -4 -5 9 0
2 -4 5 -9 0
2 4 -5 -9 0
2 4 5 9 0
3 -4 -7 -10 0
3 -4 7 10 0
3 4 -7 10 0
3 4 7 -10 0
5 -6 -8 -10 0
5 -6 8 10 0
5 6 -8 10 0
5 6 8 -10 0
