p cnf 10 40
-3 -4 -5 9 0
-3 -4 5 -9 0
-3 4 -5 -9 0
-3 4 5 9 0
-2 -7 -9 10 0
-2 -7 9 -10 0
-2 -5 -6 8 0
-2 -5 6 -8 0
-2 5 -6 -8 0
-2 5 6 8 0
-2 7 -9 -10 0
-2 7 9 10 0
-1 -4 -6 7 0
-1 -4 6 -7 0
-1 -3 -8 10 0
-1 -3 8 -10 0
-1 3 -8 -10 0
-1 3 8 10 0
-1 4 -6 -7 0
-1 4 6 7 0
1 -4 -6 -7 0
1 -4 6 7 0
1 -3 -8 -10 0
1 -3 8 10 0
1 3 -8 10 0
1 3 8 -10 0
1 4 -6 7 0
1 4 6 -7 0
2 -7 -9 -10 0
2 -7 9 10 0
2 -5 -6 -8 0
2 -5 6 8 0
2 5 -6 8 0
2 5 6 -8 0
2 7 -9 10 0
2 7 9 -10 0
3 -4 -5 -9 0
3 -4 5 9 0
3 4 -5 9 0
3 4 5 -9 0
