p cnf 28 512
-7 -10 -11 -15 -21 -23 -24 0
-7 -10 -11 -15 -21 23 24 0
-7 -10 -11 -15 21 -23 24 0
-7 -10 -11 -15 21 23 -24 0
-7 -10 -11 15 -21 -23 24 0
-7 -10 -11 15 -21 23 -24 0
-7 -10 -11 15 21 -23 -24 0
-7 -10 -11 15 21 23 24 0
-7 -10 11 -15 -21 -23 24 0
-7 -10 11 -15 -21 23 -24 0
-7 -10 11 -15 21 -23 -24 0
-7 -10 11 -15 21 23 24 0
-7 -10 11 15 -21 -23 -24 0
-7 -10 11 15 -21 23 24 0
-7 -10 11 15 21 -23 24 0
-7 -10 11 15 21 23 -24 0
-7 10 -11 -15 -21 -23 24 0
-7 10 -11 -15 -21 23 -24 0
-7 10 -11 -15 21 -23 -24 0
-7 10 -11 -15 21 23 24 0
-7 10 -11 15 -21 -23 -24 0
-7 10 -11 15 -21 23 24 0
-7 10 -11 15 21 -23 24 0
-7 10 -11 15 21 23 -24 0
-7 10 11 -15 -21 -23 -24 0
-7 10 11 -15 -21 23 24 0
-7 10 11 -15 21 -23 24 0
-7 10 11 -15 21 23 -24 0
-7 10 11 15 -21 -23 24 0
-7 10 11 15 -21 23 -24 0
-7 10 11 15 21 -23 -24 0
-7 10 11 15 21 23 24 0
-5 -11 -12 -13 -18 -25 -27 0
-5 -11 -12 -13 -18 25 27 0
-5 -11 -12 -13 18 -25 27 0
-5 -11 -12 -13 18 25 -27 0
-5 -11 -12 13 -18 -25 27 0
-5 -11 -12 13 -18 25 -27 0
-5 -11 -12 13 18 -25 -27 0
-5 -11 -12 13 18 25 27 0
-5 -11 12 -13 -18 -25 27 0
-5 -11 12 -13 -18 25 -27 0
-5 -11 12 -13 18 -25 -27 0
-5 -11 12 -13 18 25 27 0
-5 -11 12 13 -18 -25 -27 0
-5 -11 12 13 -18 25 27 0
-5 -11 12 13 18 -25 27 0
-5 -11 12 13 18 25 -27 0
-5 11 -12 -13 -18 -25 27 0
-5 11 -12 -13 -18 25 -27 0
-5 11 -12 -13 18 -25 -27 0
-5 11 -12 -13 18 25 27 0
-5 11 -12 13 -18 -25 -27 0
-5 11 -12 13 -18 25 27 0
-5 11 -12 13 18 -25 27 0
-5 11 -12 13 18 25 -27 0
-5 11 12 -13 -18 -25 -27 0
-5 11 12 -13 -18 25 27 0
-5 11 12 -13 18 -25 27 0
-5 11 12 -13 18 25 -27 0
-5 11 12 13 -18 -25 27 0
-5 11 12 13 -18 25 -27 0
-5 11 12 13 18 -25 -27 0
-5 11 12 13 18 25 27 0
-3 -13 -16 -17 -20 -24 -28 0
-3 -13 -16 -17 -20 24 28 0
-3 -13 -16 -17 20 -24 28 0
-3 -13 -16 -17 20 24 -28 0
-3 -13 -16 17 -20 -24 28 0
-3 -13 -16 17 -20 24 -28 0
-3 -13 -16 17 20 -24 -28 0
-3 -13 -16 17 20 24 28 0
-3 -13 16 -17 -20 -24 28 0
-3 -13 16 -17 -20 24 -28 0
-3 -13 16 -17 20 -24 -28 0
-3 -13 16 -17 20 24 28 0
-3 -13 16 17 -20 -24 -28 0
-3 -13 16 17 -20 24 28 0
-3 -13 16 17 20 -24 28 0
-3 -13 16 17 20 24 -28 0
-3 -6 -14 -18 -21 -22 -26 0
-3 -6 -14 -18 -21 22 26 0
-3 -6 -14 -18 21 -22 26 0
-3 -6 -14 -18 21 22 -26 0
-3 -6 -14 18 -21 -22 26 0
-3 -6 -14 18 -21 22 -26 0
-3 -6 -14 18 21 -22 -26 0
-3 -6 -14 18 21 22 26 0
-3 -6 14 -18 -21 -22 26 0
-3 -6 14 -18 -21 22 -26 0
-3 -6 14 -18 21 -22 -26 0
-3 -6 14 -18 21 22 26 0
-3 -6 14 18 -21 -22 -26 0
-3 -6 14 18 -21 22 26 0
-3 -6 14 18 21 -22 26 0
-3 -6 14 18 21 22 -26 0
-3 6 -14 -18 -21 -22 26 0
-3 6 -14 -18 -21 22 -26 0
-3 6 -14 -18 21 -22 -26 0
-3 6 -14 -18 21 22 26 0
-3 6 -14 18 -21 -22 -26 0
-3 6 -14 18 -21 22 26 0
-3 6 -14 18 21 -22 26 0
-3 6 -14 18 21 22 -26 0
-3 6 14 -18 -21 -22 -26 0
-3 6 14 -18 -21 22 26 0
-3 6 14 -18 21 -22 26 0
-3 6 14 -18 21 22 -26 0
-3 6 14 18 -21 -22 26 0
-3 6 14 18 -21 22 -26 0
-3 6 14 18 21 -22 -26 0
-3 6 14 18 21 22 26 0
-3 13 -16 -17 -20 -24 28 0
-3 13 -16 -17 -20 24 -28 0
-3 13 -16 -17 20 -24 -28 0
-3 13 -16 -17 20 24 28 0
-3 13 -16 17 -20 -24 -28 0
-3 13 -16 17 -20 24 28 0
-3 13 -16 17 20 -24 28 0
-3 13 -16 17 20 24 -28 0
-3 13 16 -17 -20 -24 -28 0
-3 13 16 -17 -20 24 28 0
-3 13 16 -17 20 -24 28 0
-3 13 16 -17 20 24 -28 0
-3 13 16 17 -20 -24 28 0
-3 13 16 17 -20 24 -28 0
-3 13 16 17 20 -24 -28 0
-3 13 16 17 20 24 28 0
-2 -5 -9 -10 -14 -19 28 0
-2 -5 -9 -10 -14 19 -28 0
-2 -5 -9 -10 14 -19 -28 0
-2 -5 -9 -10 14 19 28 0
-2 -5 -9 10 -14 -19 -28 0
-2 -5 -9 10 -14 19 28 0
-2 -5 -9 10 14 -19 28 0
-2 -5 -9 10 14 19 -28 0
-2 -5 9 -10 -14 -19 -28 0
-2 -5 9 -10 -14 19 28 0
-2 -5 9 -10 14 -19 28 0
-2 -5 9 -10 14 19 -28 0
-2 -5 9 10 -14 -19 28 0
-2 -5 9 10 -14 19 -28 0
-2 -5 9 10 14 -19 -28 0
-2 -5 9 10 14 19 28 0
-2 -4 -8 -12 -15 -16 -22 0
-2 -4 -8 -12 -15 16 22 0
-2 -4 -8 -12 15 -16 22 0
-2 -4 -8 -12 15 16 -22 0
-2 -4 -8 12 -15 -16 22 0
-2 -4 -8 12 -15 16 -22 0
-2 -4 -8 12 15 -16 -22 0
-2 -4 -8 12 15 16 22 0
-2 -4 8 -12 -15 -16 22 0
-2 -4 8 -12 -15 16 -22 0
-2 -4 8 -12 15 -16 -22 0
-2 -4 8 -12 15 16 22 0
-2 -4 8 12 -15 -16 -22 0
-2 -4 8 12 -15 16 22 0
-2 -4 8 12 15 -16 22 0
-2 -4 8 12 15 16 -22 0
-2 4 -8 -12 -15 -16 22 0
-2 4 -8 -12 -15 16 -22 0
-2 4 -8 -12 15 -16 -22 0
-2 4 -8 -12 15 16 22 0
-2 4 -8 12 -15 -16 -22 0
-2 4 -8 12 -15 16 22 0
-2 4 -8 12 15 -16 22 0
-2 4 -8 12 15 16 -22 0
-2 4 8 -12 -15 -16 -22 0
-2 4 8 -12 -15 16 22 0
-2 4 8 -12 15 -16 22 0
-2 4 8 -12 15 16 -22 0
-2 4 8 12 -15 -16 22 0
-2 4 8 12 -15 16 -22 0
-2 4 8 12 15 -16 -22 0
-2 4 8 12 15 16 22 0
-2 5 -9 -10 -14 -19 -28 0
-2 5 -9 -10 -14 19 28 0
-2 5 -9 -10 14 -19 28 0
-2 5 -9 -10 14 19 -28 0
-2 5 -9 10 -14 -19 28 0
-2 5 -9 10 -14 19 -28 0
-2 5 -9 10 14 -19 -28 0
-2 5 -9 10 14 19 28 0
-2 5 9 -10 -14 -19 28 0
-2 5 9 -10 -14 19 -28 0
-2 5 9 -10 14 -19 -28 0
-2 5 9 -10 14 19 28 0
-2 5 9 10 -14 -19 -28 0
-2 5 9 10 -14 19 28 0
-2 5 9 10 14 -19 28 0
-2 5 9 10 14 19 -28 0
-1 -7 -8 -9 -17 -25 -26 0
-1 -7 -8 -9 -17 25 26 0
-1 -7 -8 -9 17 -25 26 0
-1 -7 -8 -9 17 25 -26 0
-1 -7 -8 9 -17 -25 26 0
-1 -7 -8 9 -17 25 -26 0
-1 -7 -8 9 17 -25 -26 0
-1 -7 -8 9 17 25 26 0
-1 -7 8 -9 -17 -25 26 0
-1 -7 8 -9 -17 25 -26 0
-1 -7 8 -9 17 -25 -26 0
-1 -7 8 -9 17 25 26 0
-1 -7 8 9 -17 -25 -26 0
-1 -7 8 9 -17 25 26 0
-1 -7 8 9 17 -25 26 0
-1 -7 8 9 17 25 -26 0
-1 -4 -6 -19 -20 -23 -27 0
-1 -4 -6 -19 -20 23 27 0
-1 -4 -6 -19 20 -23 27 0
-1 -4 -6 -19 20 23 -27 0
-1 -4 -6 19 -20 -23 27 0
-1 -4 -6 19 -20 23 -27 0
-1 -4 -6 19 20 -23 -27 0
-1 -4 -6 19 20 23 27 0
-1 -4 6 -19 -20 -23 27 0
-1 -4 6 -19 -20 23 -27 0
-1 -4 6 -19 20 -23 -27 0
-1 -4 6 -19 20 23 27 0
-1 -4 6 19 -20 -23 -27 0
-1 -4 6 19 -20 23 27 0
-1 -4 6 19 20 -23 27 0
-1 -4 6 19 20 23 -27 0
-1 4 -6 -19 -20 -23 27 0
-1 4 -6 -19 -20 23 -27 0
-1 4 -6 -19 20 -23 -27 0
-1 4 -6 -19 20 23 27 0
-1 4 -6 19 -20 -23 -27 0
-1 4 -6 19 -20 23 27 0
-1 4 -6 19 20 -23 27 0
-1 4 -6 19 20 23 -27 0
-1 4 6 -19 -20 -23 -27 0
-1 4 6 -19 -20 23 27 0
-1 4 6 -19 20 -23 27 0
-1 4 6 -19 20 23 -27 0
-1 4 6 19 -20 -23 27 0
-1 4 6 19 -20 23 -27 0
-1 4 6 19 20 -23 -27 0
-1 4 6 19 20 23 27 0
-1 7 -8 -9 -17 -25 26 0
-1 7 -8 -9 -17 25 -26 0
-1 7 -8 -9 17 -25 -26 0
-1 7 -8 -9 17 25 26 0
-1 7 -8 9 -17 -25 -26 0
-1 7 -8 9 -17 25 26 0
-1 7 -8 9 17 -25 26 0
-1 7 -8 9 17 25 -26 0
-1 7 8 -9 -17 -25 -26 0
-1 7 8 -9 -17 25 26 0
-1 7 8 -9 17 -25 26 0
-1 7 8 -9 17 25 -26 0
-1 7 8 9 -17 -25 26 0
-1 7 8 9 -17 25 -26 0
-1 7 8 9 17 -25 -26 0
-1 7 8 9 17 25 26 0
1 -7 -8 -9 -17 -25 26 0
1 -7 -8 -9 -17 25 -26 0
1 -7 -8 -9 17 -25 -26 0
1 -7 -8 -9 17 25 26 0
1 -7 -8 9 -17 -25 -26 0
1 -7 -8 9 -17 25 26 0
1 -7 -8 9 17 -25 26 0
1 -7 -8 9 17 25 -26 0
1 -7 8 -9 -17 -25 -26 0
1 -7 8 -9 -17 25 26 0
1 -7 8 -9 17 -25 26 0
1 -7 8 -9 17 25 -26 0
1 -7 8 9 -17 -25 26 0
1 -7 8 9 -17 25 -26 0
1 -7 8 9 17 -25 -26 0
1 -7 8 9 17 25 26 0
1 -4 -6 -19 -20 -23 27 0
1 -4 -6 -19 -20 23 -27 0
1 -4 -6 -19 20 -23 -27 0
1 -4 -6 -19 20 23 27 0
1 -4 -6 19 -20 -23 -27 0
1 -4 -6 19 -20 23 27 0
1 -4 -6 19 20 -23 27 0
1 -4 -6 19 20 23 -27 0
1 -4 6 -19 -20 -23 -27 0
1 -4 6 -19 -20 23 27 0
1 -4 6 -19 20 -23 27 0
1 -4 6 -19 20 23 -27 0
1 -4 6 19 -20 -23 27 0
1 -4 6 19 -20 23 -27 0
1 -4 6 19 20 -23 -27 0
1 -4 6 19 20 23 27 0
1 4 -6 -19 -20 -23 -27 0
1 4 -6 -19 -20 23 27 0
1 4 -6 -19 20 -23 27 0
1 4 -6 -19 20 23 -27 0
1 4 -6 19 -20 -23 27 0
1 4 -6 19 -20 23 -27 0
1 4 -6 19 20 -23 -27 0
1 4 -6 19 20 23 27 0
1 4 6 -19 -20 -23 27 0
1 4 6 -19 -20 23 -27 0
1 4 6 -19 20 -23 -27 0
1 4 6 -19 20 23 27 0
1 4 6 19 -20 -23 -27 0
1 4 6 19 -20 23 27 0
1 4 6 19 20 -23 27 0
1 4 6 19 20 23 -27 0
1 7 -8 -9 -17 -25 -26 0
1 7 -8 -9 -17 25 26 0
1 7 -8 -9 17 -25 26 0
1 7 -8 -9 17 25 -26 0
1 7 -8 9 -17 -25 26 0
1 7 -8 9 -17 25 -26 0
1 7 -8 9 17 -25 -26 0
1 7 -8 9 17 25 26 0
1 7 8 -9 -17 -25 26 0
1 7 8 -9 -17 25 -26 0
1 7 8 -9 17 -25 -26 0
1 7 8 -9 17 25 26 0
1 7 8 9 -17 -25 -26 0
1 7 8 9 -17 25 26 0
1 7 8 9 17 -25 26 0
1 7 8 9 17 25 -26 0
2 -5 -9 -10 -14 -19 -28 0
2 -5 -9 -10 -14 19 28 0
2 -5 -9 -10 14 -19 28 0
2 -5 -9 -10 14 19 -28 0
2 -5 -9 10 -14 -19 28 0
2 -5 -9 10 -14 19 -28 0
2 -5 -9 10 14 -19 -28 0
2 -5 -9 10 14 19 28 0
2 -5 9 -10 -14 -19 28 0
2 -5 9 -10 -14 19 -28 0
2 -5 9 -10 14 -19 -28 0
2 -5 9 -10 14 19 28 0
2 -5 9 10 -14 -19 -28 0
2 -5 9 10 -14 19 28 0
2 -5 9 10 14 -19 28 0
2 -5 9 10 14 19 -28 0
2 -4 -8 -12 -15 -16 22 0
2 -4 -8 -12 -15 16 -22 0
2 -4 -8 -12 15 -16 -22 0
2 -4 -8 -12 15 16 22 0
2 -4 -8 12 -15 -16 -22 0
2 -4 -8 12 -15 16 22 0
2 -4 -8 12 15 -16 22 0
2 -4 -8 12 15 16 -22 0
2 -4 8 -12 -15 -16 -22 0
2 -4 8 -12 -15 16 22 0
2 -4 8 -12 15 -16 22 0
2 -4 8 -12 15 16 -22 0
2 -4 8 12 -15 -16 22 0
2 -4 8 12 -15 16 -22 0
2 -4 8 12 15 -16 -22 0
2 -4 8 12 15 16 22 0
2 4 -8 -12 -15 -16 -22 0
2 4 -8 -12 -15 16 22 0
2 4 -8 -12 15 -16 22 0
2 4 -8 -12 15 16 -22 0
2 4 -8 12 -15 -16 22 0
2 4 -8 12 -15 16 -22 0
2 4 -8 12 15 -16 -22 0
2 4 -8 12 15 16 22 0
2 4 8 -12 -15 -16 22 0
2 4 8 -12 -15 16 -22 0
2 4 8 -12 15 -16 -22 0
2 4 8 -12 15 16 22 0
2 4 8 12 -15 -16 -22 0
2 4 8 12 -15 16 22 0
2 4 8 12 15 -16 22 0
2 4 8 12 15 16 -22 0
2 5 -9 -10 -14 -19 28 0
2 5 -9 -10 -14 19 -28 0
2 5 -9 -10 14 -19 -28 0
2 5 -9 -10 14 19 28 0
2 5 -9 10 -14 -19 -28 0
2 5 -9 10 -14 19 28 0
2 5 -9 10 14 -19 28 0
2 5 -9 10 14 19 -28 0
2 5 9 -10 -14 -19 -28 0
2 5 9 -10 -14 19 28 0
2 5 9 -10 14 -19 28 0
2 5 9 -10 14 19 -28 0
2 5 9 10 -14 -19 28 0
2 5 9 10 -14 19 -28 0
2 5 9 10 14 -19 -28 0
2 5 9 10 14 19 28 0
3 -13 -16 -17 -20 -24 28 0
3 -13 -16 -17 -20 24 -28 0
3 -13 -16 -17 20 -24 -28 0
3 -13 -16 -17 20 24 28 0
3 -13 -16 17 -20 -24 -28 0
3 -13 -16 17 -20 24 28 0
3 -13 -16 17 20 -24 28 0
3 -13 -16 17 20 24 -28 0
3 -13 16 -17 -20 -24 -28 0
3 -13 16 -17 -20 24 28 0
3 -13 16 -17 20 -24 28 0
3 -13 16 -17 20 24 -28 0
3 -13 16 17 -20 -24 28 0
3 -13 16 17 -20 24 -28 0
3 -13 16 17 20 -24 -28 0
3 -13 16 17 20 24 28 0
3 -6 -14 -18 -21 -22 26 0
3 -6 -14 -18 -21 22 -26 0
3 -6 -14 -18 21 -22 -26 0
3 -6 -14 -18 21 22 26 0
3 -6 -14 18 -21 -22 -26 0
3 -6 -14 18 -21 22 26 0
3 -6 -14 18 21 -22 26 0
3 -6 -14 18 21 22 -26 0
3 -6 14 -18 -21 -22 -26 0
3 -6 14 -18 -21 22 26 0
3 -6 14 -18 21 -22 26 0
3 -6 14 -18 21 22 -26 0
3 -6 14 18 -21 -22 26 0
3 -6 14 18 -21 22 -26 0
3 -6 14 18 21 -22 -26 0
3 -6 14 18 21 22 26 0
3 6 -14 -18 -21 -22 -26 0
3 6 -14 -18 -21 22 26 0
3 6 -14 -18 21 -22 26 0
3 6 -14 -18 21 22 -26 0
3 6 -14 18 -21 -22 26 0
3 6 -14 18 -21 22 -26 0
3 6 -14 18 21 -22 -26 0
3 6 -14 18 21 22 26 0
3 6 14 -18 -21 -22 26 0
3 6 14 -18 -21 22 -26 0
3 6 14 -18 21 -22 -26 0
3 6 14 -18 21 22 26 0
3 6 14 18 -21 -22 -26 0
3 6 14 18 -21 22 26 0
3 6 14 18 21 -22 26 0
3 6 14 18 21 22 -26 0
3 13 -16 -17 -20 -24 -28 0
3 13 -16 -17 -20 24 28 0
3 13 -16 -17 20 -24 28 0
3 13 -16 -17 20 24 -28 0
3 13 -16 17 -20 -24 28 0
3 13 -16 17 -20 24 -28 0
3 13 -16 17 20 -24 -28 0
3 13 -16 17 20 24 28 0
3 13 16 -17 -20 -24 28 0
3 13 16 -17 -20 24 -28 0
3 13 16 -17 20 -24 -28 0
3 13 16 -17 20 24 28 0
3 13 16 17 -20 -24 -28 0
3 13 16 17 -20 24 28 0
3 13 16 17 20 -24 28 0
3 13 16 17 20 24 -28 0
5 -11 -12 -13 -18 -25 27 0
5 -11 -12 -13 -18 25 -27 0
5 -11 -12 -13 18 -25 -27 0
5 -11 -12 -13 18 25 27 0
5 -11 -12 13 -18 -25 -27 0
5 -11 -12 13 -18 25 27 0
5 -11 -12 13 18 -25 27 0
5 -11 -12 13 18 25 -27 0
5 -11 12 -13 -18 -25 -27 0
5 -11 12 -13 -18 25 27 0
5 -11 12 -13 18 -25 27 0
5 -11 12 -13 18 25 -27 0
5 -11 12 13 -18 -25 27 0
5 -11 12 13 -18 25 -27 0
5 -11 12 13 18 -25 -27 0
5 -11 12 13 18 25 27 0
5 11 -12 -13 -18 -25 -27 0
5 11 -12 -13 -18 25 27 0
5 11 -12 -13 18 -25 27 0
5 11 -12 -13 18 25 -27 0
5 11 -12 13 -18 -25 27 0
5 11 -12 13 -18 25 -27 0
5 11 -12 13 18 -25 -27 0
5 11 -12 13 18 25 27 0
5 11 12 -13 -18 -25 27 0
5 11 12 -13 -18 25 -27 0
5 11 12 -13 18 -25 -27 0
5 11 12 -13 18 25 27 0
5 11 12 13 -18 -25 -27 0
5 11 12 13 -18 25 27 0
5 11 12 13 18 -25 27 0
5 11 12 13 18 25 -27 0
7 -10 -11 -15 -21 -23 24 0
7 -10 -11 -15 -21 23 -24 0
7 -10 -11 -15 21 -23 -24 0
7 -10 -11 -15 21 23 24 0
7 -10 -11 15 -21 -23 -24 0
7 -10 -11 15 -21 23 24 0
7 -10 -11 15 21 -23 24 0
7 -10 -11 15 21 23 -24 0
7 -10 11 -15 -21 -23 -24 0
7 -10 11 -15 -21 23 24 0
7 -10 11 -15 21 -23 24 0
7 -10 11 -15 21 23 -24 0
7 -10 11 15 -21 -23 24 0
7 -10 11 15 -21 23 -24 0
7 -10 11 15 21 -23 -24 0
7 -10 11 15 21 23 24 0
7 10 -11 -15 -21 -23 -24 0
7 10 -11 -15 -21 23 24 0
7 10 -11 -15 21 -23 24 0
7 10 -11 -15 21 23 -24 0
7 10 -11 15 -21 -23 24 0
7 10 -11 15 -21 23 -24 0
7 10 -11 15 21 -23 -24 0
7 10 -11 15 21 23 24 0
7 10 11 -15 -21 -23 24 0
7 10 11 -15 -21 23 -24 0
7 10 11 -15 21 -23 -24 0
7 10 11 -15 21 23 24 0
7 10 11 15 -21 -23 -24 0
7 10 11 15 -21 23 24 0
7 10 11 15 21 -23 24 0
7 10 11 15 21 23 -24 0
