p cnf 28 512
-5 -11 -18 -20 -21 -23 24 0
-5 -11 -18 -20 -21 23 -24 0
-5 -11 -18 -20 21 -23 -24 0
-5 -11 -18 -20 21 23 24 0
-5 -11 -18 20 -21 -23 -24 0
-5 -11 -18 20 -21 23 24 0
-5 -11 -18 20 21 -23 24 0
-5 -11 -18 20 21 23 -24 0
-5 -11 18 -20 -21 -23 -24 0
-5 -11 18 -20 -21 23 24 0
-5 -11 18 -20 21 -23 24 0
-5 -11 18 -20 21 23 -24 0
-5 -11 18 20 -21 -23 24 0
-5 -11 18 20 -21 23 -24 0
-5 -11 18 20 21 -23 -24 0
-5 -11 18 20 21 23 24 0
-5 -7 -8 -12 -17 -19 -28 0
-5 -7 -8 -12 -17 19 28 0
-5 -7 -8 -12 17 -19 28 0
-5 -7 -8 -12 17 19 -28 0
-5 -7 -8 12 -17 -19 28 0
-5 -7 -8 12 -17 19 -28 0
-5 -7 -8 12 17 -19 -28 0
-5 -7 -8 12 17 19 28 0
-5 -7 8 -12 -17 -19 28 0
-5 -7 8 -12 -17 19 -28 0
-5 -7 8 -12 17 -19 -28 0
-5 -7 8 -12 17 19 28 0
-5 -7 8 12 -17 -19 -28 0
-5 -7 8 12 -17 19 28 0
-5 -7 8 12 17 -19 28 0
-5 -7 8 12 17 19 -28 0
-5 7 -8 -12 -17 -19 28 0
-5 7 -8 -12 -17 19 -28 0
-5 7 -8 -12 17 -19 -28 0
-5 7 -8 -12 17 19 28 0
-5 7 -8 12 -17 -19 -28 0
-5 7 -8 12 -17 19 28 0
-5 7 -8 12 17 -19 28 0
-5 7 -8 12 17 19 -28 0
-5 7 8 -12 -17 -19 -28 0
-5 7 8 -12 -17 19 28 0
-5 7 8 -12 17 -19 28 0
-5 7 8 -12 17 19 -28 0
-5 7 8 12 -17 -19 28 0
-5 7 8 12 -17 19 -28 0
-5 7 8 12 17 -19 -28 0
-5 7 8 12 17 19 28 0
-5 11 -18 -20 -21 -23 -24 0
-5 11 -18 -20 -21 23 24 0
-5 11 -18 -20 21 -23 24 0
-5 11 -18 -20 21 23 -24 0
-5 11 -18 20 -21 -23 24 0
-5 11 -18 20 -21 23 -24 0
-5 11 -18 20 21 -23 -24 0
-5 11 -18 20 21 23 24 0
-5 11 18 -20 -21 -23 24 0
-5 11 18 -20 -21 23 -24 0
-5 11 18 -20 21 -23 -24 0
-5 11 18 -20 21 23 24 0
-5 11 18 20 -21 -23 -24 0
-5 11 18 20 -21 23 24 0
-5 11 18 20 21 -23 24 0
-5 11 18 20 21 23 -24 0
-4 -10 -12 -14 -22 -24 -26 0
-4 -10 -12 -14 -22 24 26 0
-4 -10 -12 -14 22 -24 26 0
-4 -10 -12 -14 22 24 -26 0
-4 -10 -12 14 -22 -24 26 0
-4 -10 -12 14 -22 24 -26 0
-4 -10 -12 14 22 -24 -26 0
-4 -10 -12 14 22 24 26 0
-4 -10 12 -14 -22 -24 26 0
-4 -10 12 -14 -22 24 -26 0
-4 -10 12 -14 22 -24 -26 0
-4 -10 12 -14 22 24 26 0
-4 -10 12 14 -22 -24 -26 0
-4 -10 12 14 -22 24 26 0
-4 -10 12 14 22 -24 26 0
-4 -10 12 14 22 24 -26 0
-4 -6 -8 -13 -15 -23 -25 0
-4 -6 -8 -13 -15 23 25 0
-4 -6 -8 -13 15 -23 25 0
-4 -6 -8 -13 15 23 -25 0
-4 -6 -8 13 -15 -23 25 0
-4 -6 -8 13 -15 23 -25 0
-4 -6 -8 13 15 -23 -25 0
-4 -6 -8 13 15 23 25 0
-4 -6 8 -13 -15 -23 25 0
-4 -6 8 -13 -15 23 -25 0
-4 -6 8 -13 15 -23 -25 0
-4 -6 8 -13 15 23 25 0
-4 -6 8 13 -15 -23 -25 0
-4 -6 8 13 -15 23 25 0
-4 -6 8 13 15 -23 25 0
-4 -6 8 13 15 23 -25 0
-4 6 -8 -13 -15 -23 25 0
-4 6 -8 -13 -15 23 -25 0
-4 6 -8 -13 15 -23 -25 0
-4 6 -8 -13 15 23 25 0
-4 6 -8 13 -15 -23 -25 0
-4 6 -8 13 -15 23 25 0
-4 6 -8 13 15 -23 25 0
-4 6 -8 13 15 23 -25 0
-4 6 8 -13 -15 -23 -25 0
-4 6 8 -13 -15 23 25 0
-4 6 8 -13 15 -23 25 0
-4 6 8 -13 15 23 -25 0
-4 6 8 13 -15 -23 25 0
-4 6 8 13 -15 23 -25 0
-4 6 8 13 15 -23 -25 0
-4 6 8 13 15 23 25 0
-4 10 -12 -14 -22 -24 26 0
-4 10 -12 -14 -22 24 -26 0
-4 10 -12 -14 22 -24 -26 0
-4 10 -12 -14 22 24 26 0
-4 10 -12 14 -22 -24 -26 0
-4 10 -12 14 -22 24 26 0
-4 10 -12 14 22 -24 26 0
-4 10 -12 14 22 24 -26 0
-4 10 12 -14 -22 -24 -26 0
-4 10 12 -14 -22 24 26 0
-4 10 12 -14 22 -24 26 0
-4 10 12 -14 22 24 -26 0
-4 10 12 14 -22 -24 26 0
-4 10 12 14 -22 24 -26 0
-4 10 12 14 22 -24 -26 0
-4 10 12 14 22 24 26 0
-3 -9 -18 -19 -22 -25 -27 0
-3 -9 -18 -19 -22 25 27 0
-3 -9 -18 -19 22 -25 27 0
-3 -9 -18 -19 22 25 -27 0
-3 -9 -18 19 -22 -25 27 0
-3 -9 -18 19 -22 25 -27 0
-3 -9 -18 19 22 -25 -27 0
-3 -9 -18 19 22 25 27 0
-3 -9 18 -19 -22 -25 27 0
-3 -9 18 -19 -22 25 -27 0
-3 -9 18 -19 22 -25 -27 0
-3 -9 18 -19 22 25 27 0
-3 -9 18 19 -22 -25 -27 0
-3 -9 18 19 -22 25 27 0
-3 -9 18 19 22 -25 27 0
-3 -9 18 19 22 25 -27 0
-3 9 -18 -19 -22 -25 27 0
-3 9 -18 -19 -22 25 -27 0
-3 9 -18 -19 22 -25 -27 0
-3 9 -18 -19 22 25 27 0
-3 9 -18 19 -22 -25 -27 0
-3 9 -18 19 -22 25 27 0
-3 9 -18 19 22 -25 27 0
-3 9 -18 19 22 25 -27 0
-3 9 18 -19 -22 -25 -27 0
-3 9 18 -19 -22 25 27 0
-3 9 18 -19 22 -25 27 0
-3 9 18 -19 22 25 -27 0
-3 9 18 19 -22 -25 27 0
-3 9 18 19 -22 25 -27 0
-3 9 18 19 22 -25 -27 0
-3 9 18 19 22 25 27 0
-2 -13 -14 -16 -21 -27 -28 0
-2 -13 -14 -16 -21 27 28 0
-2 -13 -14 -16 21 -27 28 0
-2 -13 -14 -16 21 27 -28 0
-2 -13 -14 16 -21 -27 28 0
-2 -13 -14 16 -21 27 -28 0
-2 -13 -14 16 21 -27 -28 0
-2 -13 -14 16 21 27 28 0
-2 -13 14 -16 -21 -27 28 0
-2 -13 14 -16 -21 27 -28 0
-2 -13 14 -16 21 -27 -28 0
-2 -13 14 -16 21 27 28 0
-2 -13 14 16 -21 -27 -28 0
-2 -13 14 16 -21 27 28 0
-2 -13 14 16 21 -27 28 0
-2 -13 14 16 21 27 -28 0
-2 13 -14 -16 -21 -27 28 0
-2 13 -14 -16 -21 27 -28 0
-2 13 -14 -16 21 -27 -28 0
-2 13 -14 -16 21 27 28 0
-2 13 -14 16 -21 -27 -28 0
-2 13 -14 16 -21 27 28 0
-2 13 -14 16 21 -27 28 0
-2 13 -14 16 21 27 -28 0
-2 13 14 -16 -21 -27 -28 0
-2 13 14 -16 -21 27 28 0
-2 13 14 -16 21 -27 28 0
-2 13 14 -16 21 27 -28 0
-2 13 14 16 -21 -27 28 0
-2 13 14 16 -21 27 -28 0
-2 13 14 16 21 -27 -28 0
-2 13 14 16 21 27 28 0
-1 -3 -6 -7 -10 -11 -16 0
-1 -3 -6 -7 -10 11 16 0
-1 -3 -6 -7 10 -11 16 0
-1 -3 -6 -7 10 11 -16 0
-1 -3 -6 7 -10 -11 16 0
-1 -3 -6 7 -10 11 -16 0
-1 -3 -6 7 10 -11 -16 0
-1 -3 -6 7 10 11 16 0
-1 -3 6 -7 -10 -11 16 0
-1 -3 6 -7 -10 11 -16 0
-1 -3 6 -7 10 -11 -16 0
-1 -3 6 -7 10 11 16 0
-1 -3 6 7 -10 -11 -16 0
-1 -3 6 7 -10 11 16 0
-1 -3 6 7 10 -11 16 0
-1 -3 6 7 10 11 -16 0
-1 -2 -9 -15 -17 -20 -26 0
-1 -2 -9 -15 -17 20 26 0
-1 -2 -9 -15 17 -20 26 0
-1 -2 -9 -15 17 20 -26 0
-1 -2 -9 15 -17 -20 26 0
-1 -2 -9 15 -17 20 -26 0
-1 -2 -9 15 17 -20 -26 0
-1 -2 -9 15 17 20 26 0
-1 -2 9 -15 -17 -20 26 0
-1 -2 9 -15 -17 20 -26 0
-1 -2 9 -15 17 -20 -26 0
-1 -2 9 -15 17 20 26 0
-1 -2 9 15 -17 -20 -26 0
-1 -2 9 15 -17 20 26 0
-1 -2 9 15 17 -20 26 0
-1 -2 9 15 17 20 -26 0
-1 2 -9 -15 -17 -20 26 0
-1 2 -9 -15 -17 20 -26 0
-1 2 -9 -15 17 -20 -26 0
-1 2 -9 -15 17 20 26 0
-1 2 -9 15 -17 -20 -26 0
-1 2 -9 15 -17 20 26 0
-1 2 -9 15 17 -20 26 0
-1 2 -9 15 17 20 -26 0
-1 2 9 -15 -17 -20 -26 0
-1 2 9 -15 -17 20 26 0
-1 2 9 -15 17 -20 26 0
-1 2 9 -15 17 20 -26 0
-1 2 9 15 -17 -20 26 0
-1 2 9 15 -17 20 -26 0
-1 2 9 15 17 -20 -26 0
-1 2 9 15 17 20 26 0
-1 3 -6 -7 -10 -11 16 0
-1 3 -6 -7 -10 11 -16 0
-1 3 -6 -7 10 -11 -16 0
-1 3 -6 -7 10 11 16 0
-1 3 -6 7 -10 -11 -16 0
-1 3 -6 7 -10 11 16 0
-1 3 -6 7 10 -11 16 0
-1 3 -6 7 10 11 -16 0
-1 3 6 -7 -10 -11 -16 0
-1 3 6 -7 -10 11 16 0
-1 3 6 -7 10 -11 16 0
-1 3 6 -7 10 11 -16 0
-1 3 6 7 -10 -11 16 0
-1 3 6 7 -10 11 -16 0
-1 3 6 7 10 -11 -16 0
-1 3 6 7 10 11 16 0
1 -3 -6 -7 -10 -11 16 0
1 -3 -6 -7 -10 11 -16 0
1 -3 -6 -7 10 -11 -16 0
1 -3 -6 -7 10 11 16 0
1 -3 -6 7 -10 -11 -16 0
1 -3 -6 7 -10 11 16 0
1 -3 -6 7 10 -11 16 0
1 -3 -6 7 10 11 -16 0
1 -3 6 -7 -10 -11 -16 0
1 -3 6 -7 -10 11 16 0
1 -3 6 -7 10 -11 16 0
1 -3 6 -7 10 11 -16 0
1 -3 6 7 -10 -11 16 0
1 -3 6 7 -10 11 -16 0
1 -3 6 7 10 -11 -16 0
1 -3 6 7 10 11 16 0
1 -2 -9 -15 -17 -20 26 0
1 -2 -9 -15 -17 20 -26 0
1 -2 -9 -15 17 -20 -26 0
1 -2 -9 -15 17 20 26 0
1 -2 -9 15 -17 -20 -26 0
1 -2 -9 15 -17 20 26 0
1 -2 -9 15 17 -20 26 0
1 -2 -9 15 17 20 -26 0
1 -2 9 -15 -17 -20 -26 0
1 -2 9 -15 -17 20 26 0
1 -2 9 -15 17 -20 26 0
1 -2 9 -15 17 20 -26 0
1 -2 9 15 -17 -20 26 0
1 -2 9 15 -17 20 -26 0
1 -2 9 15 17 -20 -26 0
1 -2 9 15 17 20 26 0
1 2 -9 -15 -17 -20 -26 0
1 2 -9 -15 -17 20 26 0
1 2 -9 -15 17 -20 26 0
1 2 -9 -15 17 20 -26 0
1 2 -9 15 -17 -20 26 0
1 2 -9 15 -17 20 -26 0
1 2 -9 15 17 -20 -26 0
1 2 -9 15 17 20 26 0
1 2 9 -15 -17 -20 26 0
1 2 9 -15 -17 20 -26 0
1 2 9 -15 17 -20 -26 0
1 2 9 -15 17 20 26 0
1 2 9 15 -17 -20 -26 0
1 2 9 15 -17 20 26 0
1 2 9 15 17 -20 26 0
1 2 9 15 17 20 -26 0
1 3 -6 -7 -10 -11 -16 0
1 3 -6 -7 -10 11 16 0
1 3 -6 -7 10 -11 16 0
1 3 -6 -7 10 11 -16 0
1 3 -6 7 -10 -11 16 0
1 3 -6 7 -10 11 -16 0
1 3 -6 7 10 -11 -16 0
1 3 -6 7 10 11 16 0
1 3 6 -7 -10 -11 16 0
1 3 6 -7 -10 11 -16 0
1 3 6 -7 10 -11 -16 0
1 3 6 -7 10 11 16 0
1 3 6 7 -10 -11 -16 0
1 3 6 7 -10 11 16 0
1 3 6 7 10 -11 16 0
1 3 6 7 10 11 -16 0
2 -13 -14 -16 -21 -27 28 0
2 -13 -14 -16 -21 27 -28 0
2 -13 -14 -16 21 -27 -28 0
2 -13 -14 -16 21 27 28 0
2 -13 -14 16 -21 -27 -28 0
2 -13 -14 16 -21 27 28 0
2 -13 -14 16 21 -27 28 0
2 -13 -14 16 21 27 -28 0
2 -13 14 -16 -21 -27 -28 0
2 -13 14 -16 -21 27 28 0
2 -13 14 -16 21 -27 28 0
2 -13 14 -16 21 27 -28 0
2 -13 14 16 -21 -27 28 0
2 -13 14 16 -21 27 -28 0
2 -13 14 16 21 -27 -28 0
2 -13 14 16 21 27 28 0
2 13 -14 -16 -21 -27 -28 0
2 13 -14 -16 -21 27 28 0
2 13 -14 -16 21 -27 28 0
2 13 -14 -16 21 27 -28 0
2 13 -14 16 -21 -27 28 0
2 13 -14 16 -21 27 -28 0
2 13 -14 16 21 -27 -28 0
2 13 -14 16 21 27 28 0
2 13 14 -16 -21 -27 28 0
2 13 14 -16 -21 27 -28 0
2 13 14 -16 21 -27 -28 0
2 13 14 -16 21 27 28 0
2 13 14 16 -21 -27 -28 0
2 13 14 16 -21 27 28 0
2 13 14 16 21 -27 28 0
2 13 14 16 21 27 -28 0
3 -9 -18 -19 -22 -25 27 0
3 -9 -18 -19 -22 25 -27 0
3 -9 -18 -19 22 -25 -27 0
3 -9 -18 -19 22 25 27 0
3 -9 -18 19 -22 -25 -27 0
3 -9 -18 19 -22 25 27 0
3 -9 -18 19 22 -25 27 0
3 -9 -18 19 22 25 -27 0
3 -9 18 -19 -22 -25 -27 0
3 -9 18 -19 -22 25 27 0
3 -9 18 -19 22 -25 27 0
3 -9 18 -19 22 25 -27 0
3 -9 18 19 -22 -25 27 0
3 -9 18 19 -22 25 -27 0
3 -9 18 19 22 -25 -27 0
3 -9 18 19 22 25 27 0
3 9 -18 -19 -22 -25 -27 0
3 9 -18 -19 -22 25 27 0
3 9 -18 -19 22 -25 27 0
3 9 -18 -19 22 25 -27 0
3 9 -18 19 -22 -25 27 0
3 9 -18 19 -22 25 -27 0
3 9 -18 19 22 -25 -27 0
3 9 -18 19 22 25 27 0
3 9 18 -19 -22 -25 27 0
3 9 18 -19 -22 25 -27 0
3 9 18 -19 22 -25 -27 0
3 9 18 -19 22 25 27 0
3 9 18 19 -22 -25 -27 0
3 9 18 19 -22 25 27 0
3 9 18 19 22 -25 27 0
3 9 18 19 22 25 -27 0
4 -10 -12 -14 -22 -24 26 0
4 -10 -12 -14 -22 24 -26 0
4 -10 -12 -14 22 -24 -26 0
4 -10 -12 -14 22 24 26 0
4 -10 -12 14 -22 -24 -26 0
4 -10 -12 14 -22 24 26 0
4 -10 -12 14 22 -24 26 0
4 -10 -12 14 22 24 -26 0
4 -10 12 -14 -22 -24 -26 0
4 -10 12 -14 -22 24 26 0
4 -10 12 -14 22 -24 26 0
4 -10 12 -14 22 24 -26 0
4 -10 12 14 -22 -24 26 0
4 -10 12 14 -22 24 -26 0
4 -10 12 14 22 -24 -26 0
4 -10 12 14 22 24 26 0
4 -6 -8 -13 -15 -23 25 0
4 -6 -8 -13 -15 23 -25 0
4 -6 -8 -13 15 -23 -25 0
4 -6 -8 -13 15 23 25 0
4 -6 -8 13 -15 -23 -25 0
4 -6 -8 13 -15 23 25 0
4 -6 -8 13 15 -23 25 0
4 -6 -8 13 15 23 -25 0
4 -6 8 -13 -15 -23 -25 0
4 -6 8 -13 -15 23 25 0
4 -6 8 -13 15 -23 25 0
4 -6 8 -13 15 23 -25 0
4 -6 8 13 -15 -23 25 0
4 -6 8 13 -15 23 -25 0
4 -6 8 13 15 -23 -25 0
4 -6 8 13 15 23 25 0
4 6 -8 -13 -15 -23 -25 0
4 6 -8 -13 -15 23 25 0
4 6 -8 -13 15 -23 25 0
4 6 -8 -13 15 23 -25 0
4 6 -8 13 -15 -23 25 0
4 6 -8 13 -15 23 -25 0
4 6 -8 13 15 -23 -25 0
4 6 -8 13 15 23 25 0
4 6 8 -13 -15 -23 25 0
4 6 8 -13 -15 23 -25 0
4 6 8 -13 15 -23 -25 0
4 6 8 -13 15 23 25 0
4 6 8 13 -15 -23 -25 0
4 6 8 13 -15 23 25 0
4 6 8 13 15 -23 25 0
4 6 8 13 15 23 -25 0
4 10 -12 -14 -22 -24 -26 0
4 10 -12 -14 -22 24 26 0
4 10 -12 -14 22 -24 26 0
4 10 -12 -14 22 24 -26 0
4 10 -12 14 -22 -24 26 0
4 10 -12 14 -22 24 -26 0
4 10 -12 14 22 -24 -26 0
4 10 -12 14 22 24 26 0
4 10 12 -14 -22 -24 26 0
4 10 12 -14 -22 24 -26 0
4 10 12 -14 22 -24 -26 0
4 10 12 -14 22 24 26 0
4 10 12 14 -22 -24 -26 0
4 10 12 14 -22 24 26 0
4 10 12 14 22 -24 26 0
4 10 12 14 22 24 -26 0
5 -11 -18 -20 -21 -23 -24 0
5 -11 -18 -20 -21 23 24 0
5 -11 -18 -20 21 -23 24 0
5 -11 -18 -20 21 23 -24 0
5 -11 -18 20 -21 -23 24 0
5 -11 -18 20 -21 23 -24 0
5 -11 -18 20 21 -23 -24 0
5 -11 -18 20 21 23 24 0
5 -11 18 -20 -21 -23 24 0
5 -11 18 -20 -21 23 -24 0
5 -11 18 -20 21 -23 -24 0
5 -11 18 -20 21 23 24 0
5 -11 18 20 -21 -23 -24 0
5 -11 18 20 -21 23 24 0
5 -11 18 20 21 -23 24 0
5 -11 18 20 21 23 -24 0
5 -7 -8 -12 -17 -19 28 0
5 -7 -8 -12 -17 19 -28 0
5 -7 -8 -12 17 -19 -28 0
5 -7 -8 -12 17 19 28 0
5 -7 -8 12 -17 -19 -28 0
5 -7 -8 12 -17 19 28 0
5 -7 -8 12 17 -19 28 0
5 -7 -8 12 17 19 -28 0
5 -7 8 -12 -17 -19 -28 0
5 -7 8 -12 -17 19 28 0
5 -7 8 -12 17 -19 28 0
5 -7 8 -12 17 19 -28 0
5 -7 8 12 -17 -19 28 0
5 -7 8 12 -17 19 -28 0
5 -7 8 12 17 -19 -28 0
5 -7 8 12 17 19 28 0
5 7 -8 -12 -17 -19 -28 0
5 7 -8 -12 -17 19 28 0
5 7 -8 -12 17 -19 28 0
5 7 -8 -12 17 19 -28 0
5 7 -8 12 -17 -19 28 0
5 7 -8 12 -17 19 -28 0
5 7 -8 12 17 -19 -28 0
5 7 -8 12 17 19 28 0
5 7 8 -12 -17 -19 28 0
5 7 8 -12 -17 19 -28 0
5 7 8 -12 17 -19 -28 0
5 7 8 -12 17 19 28 0
5 7 8 12 -17 -19 -28 0
5 7 8 12 -17 19 28 0
5 7 8 12 17 -19 28 0
5 7 8 12 17 19 -28 0
5 11 -18 -20 -21 -23 24 0
5 11 -18 -20 -21 23 -24 0
5 11 -18 -20 21 -23 -24 0
5 11 -18 -20 21 23 24 0
5 11 -18 20 -21 -23 -24 0
5 11 -18 20 -21 23 24 0
5 11 -18 20 21 -23 24 0
5 11 -18 20 21 23 -24 0
5 11 18 -20 -21 -23 -24 0
5 11 18 -20 -21 23 24 0
5 11 18 -20 21 -23 24 0
5 11 18 -20 21 23 -24 0
5 11 18 20 -21 -23 24 0
5 11 18 20 -21 23 -24 0
5 11 18 20 21 -23 -24 0
5 11 18 20 21 23 24 0
