p cnf 15 96
-5 -6 -7 -10 -12 0
-5 -6 -7 10 12 0
-5 -6 7 -10 12 0
-5 -6 7 10 -12 0
-5 6 -7 -10 12 0
-5 6 -7 10 -12 0
-5 6 7 -10 -12 0
-5 6 7 10 12 0
-3 -4 -6 -9 -11 0
-3 -4 -6 9 11 0
-3 -4 6 -9 11 0
-3 -4 6 9 -11 0
-3 4 -6 -9 11 0
-3 4 -6 9 -11 0
-3 4 6 -9 -11 0
-3 4 6 9 11 0
-2 -7 -9 -14 -15 0
-2 -7 -9 14 15 0
-2 -7 9 -14 15 0
-2 -7 9 14 -15 0
-2 -4 -5 -8 -13 0
-2 -4 -5 8 13 0
-2 -4 5 -8 13 0
-2 -4 5 8 -13 0
-2 4 -5 -8 13 0
-2 4 -5 8 -13 0
-2 4 5 -8 -13 0
-2 4 5 8 13 0
-2 7 -9 -14 15 0
-2 7 -9 14 -15 0
-2 7 9 -14 -15 0
-2 7 9 14 15 0
-1 -10 -11 -13 14 0
-1 -10 -11 13 -14 0
-1 -10 11 -13 -14 0
-1 -10 11 13 14 0
-1 -3 -8 -12 -15 0
-1 -3 -8 12 15 0
-1 -3 8 -12 15 0
-1 -3 8 12 -15 0
-1 3 -8 -12 15 0
-1 3 -8 12 -15 0
-1 3 8 -12 -15 0
-1 3 8 12 15 0
-1 10 -11 -13 -14 0
-1 10 -11 13 14 0
-1 10 11 -13 14 0
-1 10 11 13 -14 0
1 -10 -11 -13 -14 0
1 -10 -11 13 14 0
1 -10 11 -13 14 0
1 -10 11 13 -14 0
1 -3 -8 -12 15 0
1 -3 -8 12 -15 0
1 -3 8 -12 -15 0
1 -3 8 12 15 0
1 3 -8 -12 -15 0
1 3 -8 12 15 0
1 3 8 -12 15 0
1 3 8 12 -15 0
1 10 -11 -13 14 0
1 10 -11 13 -14 0
1 10 11 -13 -14 0
1 10 11 13 14 0
2 -7 -9 -14 15 0
2 -7 -9 14 -15 0
2 -7 9 -14 -15 0
2 -7 9 14 15 0
2 -4 -5 -8 13 0
2 -4 -5 8 -13 0
2 -4 5 -8 -13 0
2 -4 5 8 13 0
2 4 -5 -8 -13 0
2 4 -5 8 13 0
2 4 5 -8 13 0
2 4 5 8 -13 0
2 7 -9 -14 -15 0
2 7 -9 14 15 0
2 7 9 -14 15 0
2 7 9 14 -15 0
3 -4 -6 -9 11 0
3 -4 -6 9 -11 0
3 -4 6 -9 -11 0
3 -4 6 9 11 0
3 4 -6 -9 -11 0
3 4 -6 9 11 0
3 4 6 -9 11 0
3 4 6 9 -11 0
5 -6 -7 -10 12 0
5 -6 -7 10 -12 0
5 -6 7 -10 -12 0
5 -6 7 10 12 0
5 6 -7 -10 -12 0
5 6 -7 10 12 0
5 6 7 -10 12 0
5 6 7 10 -12 0
