p cnf 36 1152
-25 -27 -31 -32 -33 -34 -35 36 0
-25 -27 -31 -32 -33 -34 35 -36 0
-25 -27 -31 -32 -33 34 -35 -36 0
-25 -27 -31 -32 -33 34 35 36 0
-25 -27 -31 -32 33 -34 -35 -36 0
-25 -27 -31 -32 33 -34 35 36 0
-25 -27 -31 -32 33 34 -35 36 0
-25 -27 -31 -32 33 34 35 -36 0
-25 -27 -31 32 -33 -34 -35 -36 0
-25 -27 -31 32 -33 -34 35 36 0
-25 -27 -31 32 -33 34 -35 36 0
-25 -27 -31 32 -33 34 35 -36 0
-25 -27 -31 32 33 -34 -35 36 0
-25 -27 -31 32 33 -34 35 -36 0
-25 -27 -31 32 33 34 -35 -36 0
-25 -27 -31 32 33 34 35 36 0
-25 -27 31 -32 -33 -34 -35 -36 0
-25 -27 31 -32 -33 -34 35 36 0
-25 -27 31 -32 -33 34 -35 36 0
-25 -27 31 -32 -33 34 35 -36 0
-25 -27 31 -32 33 -34 -35 36 0
-25 -27 31 -32 33 -34 35 -36 0
-25 -27 31 -32 33 34 -35 -36 0
-25 -27 31 -32 33 34 35 36 0
-25 -27 31 32 -33 -34 -35 36 0
-25 -27 31 32 -33 -34 35 -36 0
-25 -27 31 32 -33 34 -35 -36 0
-25 -27 31 32 -33 34 35 36 0
-25 -27 31 32 33 -34 -35 -36 0
-25 -27 31 32 33 -34 35 36 0
-25 -27 31 32 33 34 -35 36 0
-25 -27 31 32 33 34 35 -36 0
-25 27 -31 -32 -33 -34 -35 -36 0
-25 27 -31 -32 -33 -34 35 36 0
-25 27 -31 -32 -33 34 -35 36 0
-25 27 -31 -32 -33 34 35 -36 0
-25 27 -31 -32 33 -34 -35 36 0
-25 27 -31 -32 33 -34 35 -36 0
-25 27 -31 -32 33 34 -35 -36 0
-25 27 -31 -32 33 34 35 36 0
-25 27 -31 32 -33 -34 -35 36 0
-25 27 -31 32 -33 -34 35 -36 0
-25 27 -31 32 -33 34 -35 -36 0
-25 27 -31 32 -33 34 35 36 0
-25 27 -31 32 33 -34 -35 -36 0
-25 27 -31 32 33 -34 35 36 0
-25 27 -31 32 33 34 -35 36 0
-25 27 -31 32 33 34 35 -36 0
-25 27 31 -32 -33 -34 -35 36 0
-25 27 31 -32 -33 -34 35 -36 0
-25 27 31 -32 -33 34 -35 -36 0
-25 27 31 -32 -33 34 35 36 0
-25 27 31 -32 33 -34 -35 -36 0
-25 27 31 -32 33 -34 35 36 0
-25 27 31 -32 33 34 -35 36 0
-25 27 31 -32 33 34 35 -36 0
-25 27 31 32 -33 -34 -35 -36 0
-25 27 31 32 -33 -34 35 36 0
-25 27 31 32 -33 34 -35 36 0
-25 27 31 32 -33 34 35 -36 0
-25 27 31 32 33 -34 -35 36 0
-25 27 31 32 33 -34 35 -36 0
-25 27 31 32 33 34 -35 -36 0
-25 27 31 32 33 34 35 36 0
-10 -13 -17 -18 -19 -23 -30 31 0
-10 -13 -17 -18 -19 -23 30 -31 0
-10 -13 -17 -18 -19 23 -30 -31 0
-10 -13 -17 -18 -19 23 30 31 0
-10 -13 -17 -18 19 -23 -30 -31 0
-10 -13 -17 -18 19 -23 30 31 0
-10 -13 -17 -18 19 23 -30 31 0
-10 -13 -17 -18 19 23 30 -31 0
-10 -13 -17 18 -19 -23 -30 -31 0
-10 -13 -17 18 -19 -23 30 31 0
-10 -13 -17 18 -19 23 -30 31 0
-10 -13 -17 18 -19 23 30 -31 0
-10 -13 -17 18 19 -23 -30 31 0
-10 -13 -17 18 19 -23 30 -31 0
-10 -13 -17 18 19 23 -30 -31 0
-10 -13 -17 18 19 23 30 31 0
-10 -13 17 -18 -19 -23 -30 -31 0
-10 -13 17 -18 -19 -23 30 31 0
-10 -13 17 -18 -19 23 -30 31 0
-10 -13 17 -18 -19 23 30 -31 0
-10 -13 17 -18 19 -23 -30 31 0
-10 -13 17 -18 19 -23 30 -31 0
-10 -13 17 -18 19 23 -30 -31 0
-10 -13 17 -18 19 23 30 31 0
-10 -13 17 18 -19 -23 -30 31 0
-10 -13 17 18 -19 -23 30 -31 0
-10 -13 17 18 -19 23 -30 -31 0
-10 -13 17 18 -19 23 30 31 0
-10 -13 17 18 19 -23 -30 -31 0
-10 -13 17 18 19 -23 30 31 0
-10 -13 17 18 19 23 -30 31 0
-10 -13 17 18 19 23 30 -31 0
-10 13 -17 -18 -19 -23 -30 -31 0
-10 13 -17 -18 -19 -23 30 31 0
-10 13 -17 -18 -19 23 -30 31 0
-10 13 -17 -18 -19 23 30 -31 0
-10 13 -17 -18 19 -23 -30 31 0
-10 13 -17 -18 19 -23 30 -31 0
-10 13 -17 -18 19 23 -30 -31 0
-10 13 -17 -18 19 23 30 31 0
-10 13 -17 18 -19 -23 -30 31 0
-10 13 -17 18 -19 -23 30 -31 0
-10 13 -17 18 -19 23 -30 -31 0
-10 13 -17 18 -19 23 30 31 0
-10 13 -17 18 19 -23 -30 -31 0
-10 13 -17 18 19 -23 30 31 0
-10 13 -17 18 19 23 -30 31 0
-10 13 -17 18 19 23 30 -31 0
-10 13 17 -18 -19 -23 -30 31 0
-10 13 17 -18 -19 -23 30 -31 0
-10 13 17 -18 -19 23 -30 -31 0
-10 13 17 -18 -19 23 30 31 0
-10 13 17 -18 19 -23 -30 -31 0
-10 13 17 -18 19 -23 30 31 0
-10 13 17 -18 19 23 -30 31 0
-10 13 17 -18 19 23 30 -31 0
-10 13 17 18 -19 -23 -30 -31 0
-10 13 17 18 -19 -23 30 31 0
-10 13 17 18 -19 23 -30 31 0
-10 13 17 18 -19 23 30 -31 0
-10 13 17 18 19 -23 -30 31 0
-10 13 17 18 19 -23 30 -31 0
-10 13 17 18 19 23 -30 -31 0
-10 13 17 18 19 23 30 31 0
-6 -10 -11 -14 -15 -16 -29 32 0
-6 -10 -11 -14 -15 -16 29 -32 0
-6 -10 -11 -14 -15 16 -29 -32 0
-6 -10 -11 -14 -15 16 29 32 0
-6 -10 -11 -14 15 -16 -29 -32 0
-6 -10 -11 -14 15 -16 29 32 0
-6 -10 -11 -14 15 16 -29 32 0
-6 -10 -11 -14 15 16 29 -32 0
-6 -10 -11 14 -15 -16 -29 -32 0
-6 -10 -11 14 -15 -16 29 32 0
-6 -10 -11 14 -15 16 -29 32 0
-6 -10 -11 14 -15 16 29 -32 0
-6 -10 -11 14 15 -16 -29 32 0
-6 -10 -11 14 15 -16 29 -32 0
-6 -10 -11 14 15 16 -29 -32 0
-6 -10 -11 14 15 16 29 32 0
-6 -10 11 -14 -15 -16 -29 -32 0
-6 -10 11 -14 -15 -16 29 32 0
-6 -10 11 -14 -15 16 -29 32 0
-6 -10 11 -14 -15 16 29 -32 0
-6 -10 11 -14 15 -16 -29 32 0
-6 -10 11 -14 15 -16 29 -32 0
-6 -10 11 -14 15 16 -29 -32 0
-6 -10 11 -14 15 16 29 32 0
-6 -10 11 14 -15 -16 -29 32 0
-6 -10 11 14 -15 -16 29 -32 0
-6 -10 11 14 -15 16 -29 -32 0
-6 -10 11 14 -15 16 29 32 0
-6 -10 11 14 15 -16 -29 -32 0
-6 -10 11 14 15 -16 29 32 0
-6 -10 11 14 15 16 -29 32 0
-6 -10 11 14 15 16 29 -32 0
-6 10 -11 -14 -15 -16 -29 -32 0
-6 10 -11 -14 -15 -16 29 32 0
-6 10 -11 -14 -15 16 -29 32 0
-6 10 -11 -14 -15 16 29 -32 0
-6 10 -11 -14 15 -16 -29 32 0
-6 10 -11 -14 15 -16 29 -32 0
-6 10 -11 -14 15 16 -29 -32 0
-6 10 -11 -14 15 16 29 32 0
-6 10 -11 14 -15 -16 -29 32 0
-6 10 -11 14 -15 -16 29 -32 0
-6 10 -11 14 -15 16 -29 -32 0
-6 10 -11 14 -15 16 29 32 0
-6 10 -11 14 15 -16 -29 -32 0
-6 10 -11 14 15 -16 29 32 0
-6 10 -11 14 15 16 -29 32 0
-6 10 -11 14 15 16 29 -32 0
-6 10 11 -14 -15 -16 -29 32 0
-6 10 11 -14 -15 -16 29 -32 0
-6 10 11 -14 -15 16 -29 -32 0
-6 10 11 -14 -15 16 29 32 0
-6 10 11 -14 15 -16 -29 -32 0
-6 10 11 -14 15 -16 29 32 0
-6 10 11 -14 15 16 -29 32 0
-6 10 11 -14 15 16 29 -32 0
-6 10 11 14 -15 -16 -29 -32 0
-6 10 11 14 -15 -16 29 32 0
-6 10 11 14 -15 16 -29 32 0
-6 10 11 14 -15 16 29 -32 0
-6 10 11 14 15 -16 -29 32 0
-6 10 11 14 15 -16 29 -32 0
-6 10 11 14 15 16 -29 -32 0
-6 10 11 14 15 16 29 32 0
-4 -5 -9 -11 -24 -26 -30 -33 0
-4 -5 -9 -11 -24 -26 30 33 0
-4 -5 -9 -11 -24 26 -30 33 0
-4 -5 -9 -11 -24 26 30 -33 0
-4 -5 -9 -11 24 -26 -30 33 0
-4 -5 -9 -11 24 -26 30 -33 0
-4 -5 -9 -11 24 26 -30 -33 0
-4 -5 -9 -11 24 26 30 33 0
-4 -5 -9 11 -24 -26 -30 33 0
-4 -5 -9 11 -24 -26 30 -33 0
-4 -5 -9 11 -24 26 -30 -33 0
-4 -5 -9 11 -24 26 30 33 0
-4 -5 -9 11 24 -26 -30 -33 0
-4 -5 -9 11 24 -26 30 33 0
-4 -5 -9 11 24 26 -30 33 0
-4 -5 -9 11 24 26 30 -33 0
-4 -5 9 -11 -24 -26 -30 33 0
-4 -5 9 -11 -24 -26 30 -33 0
-4 -5 9 -11 -24 26 -30 -33 0
-4 -5 9 -11 -24 26 30 33 0
-4 -5 9 -11 24 -26 -30 -33 0
-4 -5 9 -11 24 -26 30 33 0
-4 -5 9 -11 24 26 -30 33 0
-4 -5 9 -11 24 26 30 -33 0
-4 -5 9 11 -24 -26 -30 -33 0
-4 -5 9 11 -24 -26 30 33 0
-4 -5 9 11 -24 26 -30 33 0
-4 -5 9 11 -24 26 30 -33 0
-4 -5 9 11 24 -26 -30 33 0
-4 -5 9 11 24 -26 30 -33 0
-4 -5 9 11 24 26 -30 -33 0
-4 -5 9 11 24 26 30 33 0
-4 5 -9 -11 -24 -26 -30 33 0
-4 5 -9 -11 -24 -26 30 -33 0
-4 5 -9 -11 -24 26 -30 -33 0
-4 5 -9 -11 -24 26 30 33 0
-4 5 -9 -11 24 -26 -30 -33 0
-4 5 -9 -11 24 -26 30 33 0
-4 5 -9 -11 24 26 -30 33 0
-4 5 -9 -11 24 26 30 -33 0
-4 5 -9 11 -24 -26 -30 -33 0
-4 5 -9 11 -24 -26 30 33 0
-4 5 -9 11 -24 26 -30 33 0
-4 5 -9 11 -24 26 30 -33 0
-4 5 -9 11 24 -26 -30 33 0
-4 5 -9 11 24 -26 30 -33 0
-4 5 -9 11 24 26 -30 -33 0
-4 5 -9 11 24 26 30 33 0
-4 5 9 -11 -24 -26 -30 -33 0
-4 5 9 -11 -24 -26 30 33 0
-4 5 9 -11 -24 26 -30 33 0
-4 5 9 -11 -24 26 30 -33 0
-4 5 9 -11 24 -26 -30 33 0
-4 5 9 -11 24 -26 30 -33 0
-4 5 9 -11 24 26 -30 -33 0
-4 5 9 -11 24 26 30 33 0
-4 5 9 11 -24 -26 -30 33 0
-4 5 9 11 -24 -26 30 -33 0
-4 5 9 11 -24 26 -30 -33 0
-4 5 9 11 -24 26 30 33 0
-4 5 9 11 24 -26 -30 -33 0
-4 5 9 11 24 -26 30 33 0
-4 5 9 11 24 26 -30 33 0
-4 5 9 11 24 26 30 -33 0
-3 -8 -9 -12 -16 -23 -28 34 0
-3 -8 -9 -12 -16 -23 28 -34 0
-3 -8 -9 -12 -16 23 -28 -34 0
-3 -8 -9 -12 -16 23 28 34 0
-3 -8 -9 -12 16 -23 -28 -34 0
-3 -8 -9 -12 16 -23 28 34 0
-3 -8 -9 -12 16 23 -28 34 0
-3 -8 -9 -12 16 23 28 -34 0
-3 -8 -9 12 -16 -23 -28 -34 0
-3 -8 -9 12 -16 -23 28 34 0
-3 -8 -9 12 -16 23 -28 34 0
-3 -8 -9 12 -16 23 28 -34 0
-3 -8 -9 12 16 -23 -28 34 0
-3 -8 -9 12 16 -23 28 -34 0
-3 -8 -9 12 16 23 -28 -34 0
-3 -8 -9 12 16 23 28 34 0
-3 -8 9 -12 -16 -23 -28 -34 0
-3 -8 9 -12 -16 -23 28 34 0
-3 -8 9 -12 -16 23 -28 34 0
-3 -8 9 -12 -16 23 28 -34 0
-3 -8 9 -12 16 -23 -28 34 0
-3 -8 9 -12 16 -23 28 -34 0
-3 -8 9 -12 16 23 -28 -34 0
-3 -8 9 -12 16 23 28 34 0
-3 -8 9 12 -16 -23 -28 34 0
-3 -8 9 12 -16 -23 28 -34 0
-3 -8 9 12 -16 23 -28 -34 0
-3 -8 9 12 -16 23 28 34 0
-3 -8 9 12 16 -23 -28 -34 0
-3 -8 9 12 16 -23 28 34 0
-3 -8 9 12 16 23 -28 34 0
-3 -8 9 12 16 23 28 -34 0
-3 -4 -7 -13 -20 -22 -25 29 0
-3 -4 -7 -13 -20 -22 25 -29 0
-3 -4 -7 -13 -20 22 -25 -29 0
-3 -4 -7 -13 -20 22 25 29 0
-3 -4 -7 -13 20 -22 -25 -29 0
-3 -4 -7 -13 20 -22 25 29 0
-3 -4 -7 -13 20 22 -25 29 0
-3 -4 -7 -13 20 22 25 -29 0
-3 -4 -7 13 -20 -22 -25 -29 0
-3 -4 -7 13 -20 -22 25 29 0
-3 -4 -7 13 -20 22 -25 29 0
-3 -4 -7 13 -20 22 25 -29 0
-3 -4 -7 13 20 -22 -25 29 0
-3 -4 -7 13 20 -22 25 -29 0
-3 -4 -7 13 20 22 -25 -29 0
-3 -4 -7 13 20 22 25 29 0
-3 -4 7 -13 -20 -22 -25 -29 0
-3 -4 7 -13 -20 -22 25 29 0
-3 -4 7 -13 -20 22 -25 29 0
-3 -4 7 -13 -20 22 25 -29 0
-3 -4 7 -13 20 -22 -25 29 0
-3 -4 7 -13 20 -22 25 -29 0
-3 -4 7 -13 20 22 -25 -29 0
-3 -4 7 -13 20 22 25 29 0
-3 -4 7 13 -20 -22 -25 29 0
-3 -4 7 13 -20 -22 25 -29 0
-3 -4 7 13 -20 22 -25 -29 0
-3 -4 7 13 -20 22 25 29 0
-3 -4 7 13 20 -22 -25 -29 0
-3 -4 7 13 20 -22 25 29 0
-3 -4 7 13 20 22 -25 29 0
-3 -4 7 13 20 22 25 -29 0
-3 4 -7 -13 -20 -22 -25 -29 0
-3 4 -7 -13 -20 -22 25 29 0
-3 4 -7 -13 -20 22 -25 29 0
-3 4 -7 -13 -20 22 25 -29 0
-3 4 -7 -13 20 -22 -25 29 0
-3 4 -7 -13 20 -22 25 -29 0
-3 4 -7 -13 20 22 -25 -29 0
-3 4 -7 -13 20 22 25 29 0
-3 4 -7 13 -20 -22 -25 29 0
-3 4 -7 13 -20 -22 25 -29 0
-3 4 -7 13 -20 22 -25 -29 0
-3 4 -7 13 -20 22 25 29 0
-3 4 -7 13 20 -22 -25 -29 0
-3 4 -7 13 20 -22 25 29 0
-3 4 -7 13 20 22 -25 29 0
-3 4 -7 13 20 22 25 -29 0
-3 4 7 -13 -20 -22 -25 29 0
-3 4 7 -13 -20 -22 25 -29 0
-3 4 7 -13 -20 22 -25 -29 0
-3 4 7 -13 -20 22 25 29 0
-3 4 7 -13 20 -22 -25 -29 0
-3 4 7 -13 20 -22 25 29 0
-3 4 7 -13 20 22 -25 29 0
-3 4 7 -13 20 22 25 -29 0
-3 4 7 13 -20 -22 -25 -29 0
-3 4 7 13 -20 -22 25 29 0
-3 4 7 13 -20 22 -25 29 0
-3 4 7 13 -20 22 25 -29 0
-3 4 7 13 20 -22 -25 29 0
-3 4 7 13 20 -22 25 -29 0
-3 4 7 13 20 22 -25 -29 0
-3 4 7 13 20 22 25 29 0
-3 8 -9 -12 -16 -23 -28 -34 0
-3 8 -9 -12 -16 -23 28 34 0
-3 8 -9 -12 -16 23 -28 34 0
-3 8 -9 -12 -16 23 28 -34 0
-3 8 -9 -12 16 -23 -28 34 0
-3 8 -9 -12 16 -23 28 -34 0
-3 8 -9 -12 16 23 -28 -34 0
-3 8 -9 -12 16 23 28 34 0
-3 8 -9 12 -16 -23 -28 34 0
-3 8 -9 12 -16 -23 28 -34 0
-3 8 -9 12 -16 23 -28 -34 0
-3 8 -9 12 -16 23 28 34 0
-3 8 -9 12 16 -23 -28 -34 0
-3 8 -9 12 16 -23 28 34 0
-3 8 -9 12 16 23 -28 34 0
-3 8 -9 12 16 23 28 -34 0
-3 8 9 -12 -16 -23 -28 34 0
-3 8 9 -12 -16 -23 28 -34 0
-3 8 9 -12 -16 23 -28 -34 0
-3 8 9 -12 -16 23 28 34 0
-3 8 9 -12 16 -23 -28 -34 0
-3 8 9 -12 16 -23 28 34 0
-3 8 9 -12 16 23 -28 34 0
-3 8 9 -12 16 23 28 -34 0
-3 8 9 12 -16 -23 -28 -34 0
-3 8 9 12 -16 -23 28 34 0
-3 8 9 12 -16 23 -28 34 0
-3 8 9 12 -16 23 28 -34 0
-3 8 9 12 16 -23 -28 34 0
-3 8 9 12 16 -23 28 -34 0
-3 8 9 12 16 23 -28 -34 0
-3 8 9 12 16 23 28 34 0
-2 -12 -14 -17 -20 -21 -26 35 0
-2 -12 -14 -17 -20 -21 26 -35 0
-2 -12 -14 -17 -20 21 -26 -35 0
-2 -12 -14 -17 -20 21 26 35 0
-2 -12 -14 -17 20 -21 -26 -35 0
-2 -12 -14 -17 20 -21 26 35 0
-2 -12 -14 -17 20 21 -26 35 0
-2 -12 -14 -17 20 21 26 -35 0
-2 -12 -14 17 -20 -21 -26 -35 0
-2 -12 -14 17 -20 -21 26 35 0
-2 -12 -14 17 -20 21 -26 35 0
-2 -12 -14 17 -20 21 26 -35 0
-2 -12 -14 17 20 -21 -26 35 0
-2 -12 -14 17 20 -21 26 -35 0
-2 -12 -14 17 20 21 -26 -35 0
-2 -12 -14 17 20 21 26 35 0
-2 -12 14 -17 -20 -21 -26 -35 0
-2 -12 14 -17 -20 -21 26 35 0
-2 -12 14 -17 -20 21 -26 35 0
-2 -12 14 -17 -20 21 26 -35 0
-2 -12 14 -17 20 -21 -26 35 0
-2 -12 14 -17 20 -21 26 -35 0
-2 -12 14 -17 20 21 -26 -35 0
-2 -12 14 -17 20 21 26 35 0
-2 -12 14 17 -20 -21 -26 35 0
-2 -12 14 17 -20 -21 26 -35 0
-2 -12 14 17 -20 21 -26 -35 0
-2 -12 14 17 -20 21 26 35 0
-2 -12 14 17 20 -21 -26 -35 0
-2 -12 14 17 20 -21 26 35 0
-2 -12 14 17 20 21 -26 35 0
-2 -12 14 17 20 21 26 -35 0
-2 12 -14 -17 -20 -21 -26 -35 0
-2 12 -14 -17 -20 -21 26 35 0
-2 12 -14 -17 -20 21 -26 35 0
-2 12 -14 -17 -20 21 26 -35 0
-2 12 -14 -17 20 -21 -26 35 0
-2 12 -14 -17 20 -21 26 -35 0
-2 12 -14 -17 20 21 -26 -35 0
-2 12 -14 -17 20 21 26 35 0
-2 12 -14 17 -20 -21 -26 35 0
-2 12 -14 17 -20 -21 26 -35 0
-2 12 -14 17 -20 21 -26 -35 0
-2 12 -14 17 -20 21 26 35 0
-2 12 -14 17 20 -21 -26 -35 0
-2 12 -14 17 20 -21 26 35 0
-2 12 -14 17 20 21 -26 35 0
-2 12 -14 17 20 21 26 -35 0
-2 12 14 -17 -20 -21 -26 35 0
-2 12 14 -17 -20 -21 26 -35 0
-2 12 14 -17 -20 21 -26 -35 0
-2 12 14 -17 -20 21 26 35 0
-2 12 14 -17 20 -21 -26 -35 0
-2 12 14 -17 20 -21 26 35 0
-2 12 14 -17 20 21 -26 35 0
-2 12 14 -17 20 21 26 -35 0
-2 12 14 17 -20 -21 -26 -35 0
-2 12 14 17 -20 -21 26 35 0
-2 12 14 17 -20 21 -26 35 0
-2 12 14 17 -20 21 26 -35 0
-2 12 14 17 20 -21 -26 35 0
-2 12 14 17 20 -21 26 -35 0
-2 12 14 17 20 21 -26 -35 0
-2 12 14 17 20 21 26 35 0
-1 -6 -7 -19 -21 -24 -28 36 0
-1 -6 -7 -19 -21 -24 28 -36 0
-1 -6 -7 -19 -21 24 -28 -36 0
-1 -6 -7 -19 -21 24 28 36 0
-1 -6 -7 -19 21 -24 -28 -36 0
-1 -6 -7 -19 21 -24 28 36 0
-1 -6 -7 -19 21 24 -28 36 0
-1 -6 -7 -19 21 24 28 -36 0
-1 -6 -7 19 -21 -24 -28 -36 0
-1 -6 -7 19 -21 -24 28 36 0
-1 -6 -7 19 -21 24 -28 36 0
-1 -6 -7 19 -21 24 28 -36 0
-1 -6 -7 19 21 -24 -28 36 0
-1 -6 -7 19 21 -24 28 -36 0
-1 -6 -7 19 21 24 -28 -36 0
-1 -6 -7 19 21 24 28 36 0
-1 -6 7 -19 -21 -24 -28 -36 0
-1 -6 7 -19 -21 -24 28 36 0
-1 -6 7 -19 -21 24 -28 36 0
-1 -6 7 -19 -21 24 28 -36 0
-1 -6 7 -19 21 -24 -28 36 0
-1 -6 7 -19 21 -24 28 -36 0
-1 -6 7 -19 21 24 -28 -36 0
-1 -6 7 -19 21 24 28 36 0
-1 -6 7 19 -21 -24 -28 36 0
-1 -6 7 19 -21 -24 28 -36 0
-1 -6 7 19 -21 24 -28 -36 0
-1 -6 7 19 -21 24 28 36 0
-1 -6 7 19 21 -24 -28 -36 0
-1 -6 7 19 21 -24 28 36 0
-1 -6 7 19 21 24 -28 36 0
-1 -6 7 19 21 24 28 -36 0
-1 -2 -5 -8 -15 -18 -22 27 0
-1 -2 -5 -8 -15 -18 22 -27 0
-1 -2 -5 -8 -15 18 -22 -27 0
-1 -2 -5 -8 -15 18 22 27 0
-1 -2 -5 -8 15 -18 -22 -27 0
-1 -2 -5 -8 15 -18 22 27 0
-1 -2 -5 -8 15 18 -22 27 0
-1 -2 -5 -8 15 18 22 -27 0
-1 -2 -5 8 -15 -18 -22 -27 0
-1 -2 -5 8 -15 -18 22 27 0
-1 -2 -5 8 -15 18 -22 27 0
-1 -2 -5 8 -15 18 22 -27 0
-1 -2 -5 8 15 -18 -22 27 0
-1 -2 -5 8 15 -18 22 -27 0
-1 -2 -5 8 15 18 -22 -27 0
-1 -2 -5 8 15 18 22 27 0
-1 -2 5 -8 -15 -18 -22 -27 0
-1 -2 5 -8 -15 -18 22 27 0
-1 -2 5 -8 -15 18 -22 27 0
-1 -2 5 -8 -15 18 22 -27 0
-1 -2 5 -8 15 -18 -22 27 0
-1 -2 5 -8 15 -18 22 -27 0
-1 -2 5 -8 15 18 -22 -27 0
-1 -2 5 -8 15 18 22 27 0
-1 -2 5 8 -15 -18 -22 27 0
-1 -2 5 8 -15 -18 22 -27 0
-1 -2 5 8 -15 18 -22 -27 0
-1 -2 5 8 -15 18 22 27 0
-1 -2 5 8 15 -18 -22 -27 0
-1 -2 5 8 15 -18 22 27 0
-1 -2 5 8 15 18 -22 27 0
-1 -2 5 8 15 18 22 -27 0
-1 2 -5 -8 -15 -18 -22 -27 0
-1 2 -5 -8 -15 -18 22 27 0
-1 2 -5 -8 -15 18 -22 27 0
-1 2 -5 -8 -15 18 22 -27 0
-1 2 -5 -8 15 -18 -22 27 0
-1 2 -5 -8 15 -18 22 -27 0
-1 2 -5 -8 15 18 -22 -27 0
-1 2 -5 -8 15 18 22 27 0
-1 2 -5 8 -15 -18 -22 27 0
-1 2 -5 8 -15 -18 22 -27 0
-1 2 -5 8 -15 18 -22 -27 0
-1 2 -5 8 -15 18 22 27 0
-1 2 -5 8 15 -18 -22 -27 0
-1 2 -5 8 15 -18 22 27 0
-1 2 -5 8 15 18 -22 27 0
-1 2 -5 8 15 18 22 -27 0
-1 2 5 -8 -15 -18 -22 27 0
-1 2 5 -8 -15 -18 22 -27 0
-1 2 5 -8 -15 18 -22 -27 0
-1 2 5 -8 -15 18 22 27 0
-1 2 5 -8 15 -18 -22 -27 0
-1 2 5 -8 15 -18 22 27 0
-1 2 5 -8 15 18 -22 27 0
-1 2 5 -8 15 18 22 -27 0
-1 2 5 8 -15 -18 -22 -27 0
-1 2 5 8 -15 -18 22 27 0
-1 2 5 8 -15 18 -22 27 0
-1 2 5 8 -15 18 22 -27 0
-1 2 5 8 15 -18 -22 27 0
-1 2 5 8 15 -18 22 -27 0
-1 2 5 8 15 18 -22 -27 0
-1 2 5 8 15 18 22 27 0
-1 6 -7 -19 -21 -24 -28 -36 0
-1 6 -7 -19 -21 -24 28 36 0
-1 6 -7 -19 -21 24 -28 36 0
-1 6 -7 -19 -21 24 28 -36 0
-1 6 -7 -19 21 -24 -28 36 0
-1 6 -7 -19 21 -24 28 -36 0
-1 6 -7 -19 21 24 -28 -36 0
-1 6 -7 -19 21 24 28 36 0
-1 6 -7 19 -21 -24 -28 36 0
-1 6 -7 19 -21 -24 28 -36 0
-1 6 -7 19 -21 24 -28 -36 0
-1 6 -7 19 -21 24 28 36 0
-1 6 -7 19 21 -24 -28 -36 0
-1 6 -7 19 21 -24 28 36 0
-1 6 -7 19 21 24 -28 36 0
-1 6 -7 19 21 24 28 -36 0
-1 6 7 -19 -21 -24 -28 36 0
-1 6 7 -19 -21 -24 28 -36 0
-1 6 7 -19 -21 24 -28 -36 0
-1 6 7 -19 -21 24 28 36 0
-1 6 7 -19 21 -24 -28 -36 0
-1 6 7 -19 21 -24 28 36 0
-1 6 7 -19 21 24 -28 36 0
-1 6 7 -19 21 24 28 -36 0
-1 6 7 19 -21 -24 -28 -36 0
-1 6 7 19 -21 -24 28 36 0
-1 6 7 19 -21 24 -28 36 0
-1 6 7 19 -21 24 28 -36 0
-1 6 7 19 21 -24 -28 36 0
-1 6 7 19 21 -24 28 -36 0
-1 6 7 19 21 24 -28 -36 0
-1 6 7 19 21 24 28 36 0
1 -6 -7 -19 -21 -24 -28 -36 0
1 -6 -7 -19 -21 -24 28 36 0
1 -6 -7 -19 -21 24 -28 36 0
1 -6 -7 -19 -21 24 28 -36 0
1 -6 -7 -19 21 -24 -28 36 0
1 -6 -7 -19 21 -24 28 -36 0
1 -6 -7 -19 21 24 -28 -36 0
1 -6 -7 -19 21 24 28 36 0
1 -6 -7 19 -21 -24 -28 36 0
1 -6 -7 19 -21 -24 28 -36 0
1 -6 -7 19 -21 24 -28 -36 0
1 -6 -7 19 -21 24 28 36 0
1 -6 -7 19 21 -24 -28 -36 0
1 -6 -7 19 21 -24 28 36 0
1 -6 -7 19 21 24 -28 36 0
1 -6 -7 19 21 24 28 -36 0
1 -6 7 -19 -21 -24 -28 36 0
1 -6 7 -19 -21 -24 28 -36 0
1 -6 7 -19 -21 24 -28 -36 0
1 -6 7 -19 -21 24 28 36 0
1 -6 7 -19 21 -24 -28 -36 0
1 -6 7 -19 21 -24 28 36 0
1 -6 7 -19 21 24 -28 36 0
1 -6 7 -19 21 24 28 -36 0
1 -6 7 19 -21 -24 -28 -36 0
1 -6 7 19 -21 -24 28 36 0
1 -6 7 19 -21 24 -28 36 0
1 -6 7 19 -21 24 28 -36 0
1 -6 7 19 21 -24 -28 36 0
1 -6 7 19 21 -24 28 -36 0
1 -6 7 19 21 24 -28 -36 0
1 -6 7 19 21 24 28 36 0
1 -2 -5 -8 -15 -18 -22 -27 0
1 -2 -5 -8 -15 -18 22 27 0
1 -2 -5 -8 -15 18 -22 27 0
1 -2 -5 -8 -15 18 22 -27 0
1 -2 -5 -8 15 -18 -22 27 0
1 -2 -5 -8 15 -18 22 -27 0
1 -2 -5 -8 15 18 -22 -27 0
1 -2 -5 -8 15 18 22 27 0
1 -2 -5 8 -15 -18 -22 27 0
1 -2 -5 8 -15 -18 22 -27 0
1 -2 -5 8 -15 18 -22 -27 0
1 -2 -5 8 -15 18 22 27 0
1 -2 -5 8 15 -18 -22 -27 0
1 -2 -5 8 15 -18 22 27 0
1 -2 -5 8 15 18 -22 27 0
1 -2 -5 8 15 18 22 -27 0
1 -2 5 -8 -15 -18 -22 27 0
1 -2 5 -8 -15 -18 22 -27 0
1 -2 5 -8 -15 18 -22 -27 0
1 -2 5 -8 -15 18 22 27 0
1 -2 5 -8 15 -18 -22 -27 0
1 -2 5 -8 15 -18 22 27 0
1 -2 5 -8 15 18 -22 27 0
1 -2 5 -8 15 18 22 -27 0
1 -2 5 8 -15 -18 -22 -27 0
1 -2 5 8 -15 -18 22 27 0
1 -2 5 8 -15 18 -22 27 0
1 -2 5 8 -15 18 22 -27 0
1 -2 5 8 15 -18 -22 27 0
1 -2 5 8 15 -18 22 -27 0
1 -2 5 8 15 18 -22 -27 0
1 -2 5 8 15 18 22 27 0
1 2 -5 -8 -15 -18 -22 27 0
1 2 -5 -8 -15 -18 22 -27 0
1 2 -5 -8 -15 18 -22 -27 0
1 2 -5 -8 -15 18 22 27 0
1 2 -5 -8 15 -18 -22 -27 0
1 2 -5 -8 15 -18 22 27 0
1 2 -5 -8 15 18 -22 27 0
1 2 -5 -8 15 18 22 -27 0
1 2 -5 8 -15 -18 -22 -27 0
1 2 -5 8 -15 -18 22 27 0
1 2 -5 8 -15 18 -22 27 0
1 2 -5 8 -15 18 22 -27 0
1 2 -5 8 15 -18 -22 27 0
1 2 -5 8 15 -18 22 -27 0
1 2 -5 8 15 18 -22 -27 0
1 2 -5 8 15 18 22 27 0
1 2 5 -8 -15 -18 -22 -27 0
1 2 5 -8 -15 -18 22 27 0
1 2 5 -8 -15 18 -22 27 0
1 2 5 -8 -15 18 22 -27 0
1 2 5 -8 15 -18 -22 27 0
1 2 5 -8 15 -18 22 -27 0
1 2 5 -8 15 18 -22 -27 0
1 2 5 -8 15 18 22 27 0
1 2 5 8 -15 -18 -22 27 0
1 2 5 8 -15 -18 22 -27 0
1 2 5 8 -15 18 -22 -27 0
1 2 5 8 -15 18 22 27 0
1 2 5 8 15 -18 -22 -27 0
1 2 5 8 15 -18 22 27 0
1 2 5 8 15 18 -22 27 0
1 2 5 8 15 18 22 -27 0
1 6 -7 -19 -21 -24 -28 36 0
1 6 -7 -19 -21 -24 28 -36 0
1 6 -7 -19 -21 24 -28 -36 0
1 6 -7 -19 -21 24 28 36 0
1 6 -7 -19 21 -24 -28 -36 0
1 6 -7 -19 21 -24 28 36 0
1 6 -7 -19 21 24 -28 36 0
1 6 -7 -19 21 24 28 -36 0
1 6 -7 19 -21 -24 -28 -36 0
1 6 -7 19 -21 -24 28 36 0
1 6 -7 19 -21 24 -28 36 0
1 6 -7 19 -21 24 28 -36 0
1 6 -7 19 21 -24 -28 36 0
1 6 -7 19 21 -24 28 -36 0
1 6 -7 19 21 24 -28 -36 0
1 6 -7 19 21 24 28 36 0
1 6 7 -19 -21 -24 -28 -36 0
1 6 7 -19 -21 -24 28 36 0
1 6 7 -19 -21 24 -28 36 0
1 6 7 -19 -21 24 28 -36 0
1 6 7 -19 21 -24 -28 36 0
1 6 7 -19 21 -24 28 -36 0
1 6 7 -19 21 24 -28 -36 0
1 6 7 -19 21 24 28 36 0
1 6 7 19 -21 -24 -28 36 0
1 6 7 19 -21 -24 28 -36 0
1 6 7 19 -21 24 -28 -36 0
1 6 7 19 -21 24 28 36 0
1 6 7 19 21 -24 -28 -36 0
1 6 7 19 21 -24 28 36 0
1 6 7 19 21 24 -28 36 0
1 6 7 19 21 24 28 -36 0
2 -12 -14 -17 -20 -21 -26 -35 0
2 -12 -14 -17 -20 -21 26 35 0
2 -12 -14 -17 -20 21 -26 35 0
2 -12 -14 -17 -20 21 26 -35 0
2 -12 -14 -17 20 -21 -26 35 0
2 -12 -14 -17 20 -21 26 -35 0
2 -12 -14 -17 20 21 -26 -35 0
2 -12 -14 -17 20 21 26 35 0
2 -12 -14 17 -20 -21 -26 35 0
2 -12 -14 17 -20 -21 26 -35 0
2 -12 -14 17 -20 21 -26 -35 0
2 -12 -14 17 -20 21 26 35 0
2 -12 -14 17 20 -21 -26 -35 0
2 -12 -14 17 20 -21 26 35 0
2 -12 -14 17 20 21 -26 35 0
2 -12 -14 17 20 21 26 -35 0
2 -12 14 -17 -20 -21 -26 35 0
2 -12 14 -17 -20 -21 26 -35 0
2 -12 14 -17 -20 21 -26 -35 0
2 -12 14 -17 -20 21 26 35 0
2 -12 14 -17 20 -21 -26 -35 0
2 -12 14 -17 20 -21 26 35 0
2 -12 14 -17 20 21 -26 35 0
2 -12 14 -17 20 21 26 -35 0
2 -12 14 17 -20 -21 -26 -35 0
2 -12 14 17 -20 -21 26 35 0
2 -12 14 17 -20 21 -26 35 0
2 -12 14 17 -20 21 26 -35 0
2 -12 14 17 20 -21 -26 35 0
2 -12 14 17 20 -21 26 -35 0
2 -12 14 17 20 21 -26 -35 0
2 -12 14 17 20 21 26 35 0
2 12 -14 -17 -20 -21 -26 35 0
2 12 -14 -17 -20 -21 26 -35 0
2 12 -14 -17 -20 21 -26 -35 0
2 12 -14 -17 -20 21 26 35 0
2 12 -14 -17 20 -21 -26 -35 0
2 12 -14 -17 20 -21 26 35 0
2 12 -14 -17 20 21 -26 35 0
2 12 -14 -17 20 21 26 -35 0
2 12 -14 17 -20 -21 -26 -35 0
2 12 -14 17 -20 -21 26 35 0
2 12 -14 17 -20 21 -26 35 0
2 12 -14 17 -20 21 26 -35 0
2 12 -14 17 20 -21 -26 35 0
2 12 -14 17 20 -21 26 -35 0
2 12 -14 17 20 21 -26 -35 0
2 12 -14 17 20 21 26 35 0
2 12 14 -17 -20 -21 -26 -35 0
2 12 14 -17 -20 -21 26 35 0
2 12 14 -17 -20 21 -26 35 0
2 12 14 -17 -20 21 26 -35 0
2 12 14 -17 20 -21 -26 35 0
2 12 14 -17 20 -21 26 -35 0
2 12 14 -17 20 21 -26 -35 0
2 12 14 -17 20 21 26 35 0
2 12 14 17 -20 -21 -26 35 0
2 12 14 17 -20 -21 26 -35 0
2 12 14 17 -20 21 -26 -35 0
2 12 14 17 -20 21 26 35 0
2 12 14 17 20 -21 -26 -35 0
2 12 14 17 20 -21 26 35 0
2 12 14 17 20 21 -26 35 0
2 12 14 17 20 21 26 -35 0
3 -8 -9 -12 -16 -23 -28 -34 0
3 -8 -9 -12 -16 -23 28 34 0
3 -8 -9 -12 -16 23 -28 34 0
3 -8 -9 -12 -16 23 28 -34 0
3 -8 -9 -12 16 -23 -28 34 0
3 -8 -9 -12 16 -23 28 -34 0
3 -8 -9 -12 16 23 -28 -34 0
3 -8 -9 -12 16 23 28 34 0
3 -8 -9 12 -16 -23 -28 34 0
3 -8 -9 12 -16 -23 28 -34 0
3 -8 -9 12 -16 23 -28 -34 0
3 -8 -9 12 -16 23 28 34 0
3 -8 -9 12 16 -23 -28 -34 0
3 -8 -9 12 16 -23 28 34 0
3 -8 -9 12 16 23 -28 34 0
3 -8 -9 12 16 23 28 -34 0
3 -8 9 -12 -16 -23 -28 34 0
3 -8 9 -12 -16 -23 28 -34 0
3 -8 9 -12 -16 23 -28 -34 0
3 -8 9 -12 -16 23 28 34 0
3 -8 9 -12 16 -23 -28 -34 0
3 -8 9 -12 16 -23 28 34 0
3 -8 9 -12 16 23 -28 34 0
3 -8 9 -12 16 23 28 -34 0
3 -8 9 12 -16 -23 -28 -34 0
3 -8 9 12 -16 -23 28 34 0
3 -8 9 12 -16 23 -28 34 0
3 -8 9 12 -16 23 28 -34 0
3 -8 9 12 16 -23 -28 34 0
3 -8 9 12 16 -23 28 -34 0
3 -8 9 12 16 23 -28 -34 0
3 -8 9 12 16 23 28 34 0
3 -4 -7 -13 -20 -22 -25 -29 0
3 -4 -7 -13 -20 -22 25 29 0
3 -4 -7 -13 -20 22 -25 29 0
3 -4 -7 -13 -20 22 25 -29 0
3 -4 -7 -13 20 -22 -25 29 0
3 -4 -7 -13 20 -22 25 -29 0
3 -4 -7 -13 20 22 -25 -29 0
3 -4 -7 -13 20 22 25 29 0
3 -4 -7 13 -20 -22 -25 29 0
3 -4 -7 13 -20 -22 25 -29 0
3 -4 -7 13 -20 22 -25 -29 0
3 -4 -7 13 -20 22 25 29 0
3 -4 -7 13 20 -22 -25 -29 0
3 -4 -7 13 20 -22 25 29 0
3 -4 -7 13 20 22 -25 29 0
3 -4 -7 13 20 22 25 -29 0
3 -4 7 -13 -20 -22 -25 29 0
3 -4 7 -13 -20 -22 25 -29 0
3 -4 7 -13 -20 22 -25 -29 0
3 -4 7 -13 -20 22 25 29 0
3 -4 7 -13 20 -22 -25 -29 0
3 -4 7 -13 20 -22 25 29 0
3 -4 7 -13 20 22 -25 29 0
3 -4 7 -13 20 22 25 -29 0
3 -4 7 13 -20 -22 -25 -29 0
3 -4 7 13 -20 -22 25 29 0
3 -4 7 13 -20 22 -25 29 0
3 -4 7 13 -20 22 25 -29 0
3 -4 7 13 20 -22 -25 29 0
3 -4 7 13 20 -22 25 -29 0
3 -4 7 13 20 22 -25 -29 0
3 -4 7 13 20 22 25 29 0
3 4 -7 -13 -20 -22 -25 29 0
3 4 -7 -13 -20 -22 25 -29 0
3 4 -7 -13 -20 22 -25 -29 0
3 4 -7 -13 -20 22 25 29 0
3 4 -7 -13 20 -22 -25 -29 0
3 4 -7 -13 20 -22 25 29 0
3 4 -7 -13 20 22 -25 29 0
3 4 -7 -13 20 22 25 -29 0
3 4 -7 13 -20 -22 -25 -29 0
3 4 -7 13 -20 -22 25 29 0
3 4 -7 13 -20 22 -25 29 0
3 4 -7 13 -20 22 25 -29 0
3 4 -7 13 20 -22 -25 29 0
3 4 -7 13 20 -22 25 -29 0
3 4 -7 13 20 22 -25 -29 0
3 4 -7 13 20 22 25 29 0
3 4 7 -13 -20 -22 -25 -29 0
3 4 7 -13 -20 -22 25 29 0
3 4 7 -13 -20 22 -25 29 0
3 4 7 -13 -20 22 25 -29 0
3 4 7 -13 20 -22 -25 29 0
3 4 7 -13 20 -22 25 -29 0
3 4 7 -13 20 22 -25 -29 0
3 4 7 -13 20 22 25 29 0
3 4 7 13 -20 -22 -25 29 0
3 4 7 13 -20 -22 25 -29 0
3 4 7 13 -20 22 -25 -29 0
3 4 7 13 -20 22 25 29 0
3 4 7 13 20 -22 -25 -29 0
3 4 7 13 20 -22 25 29 0
3 4 7 13 20 22 -25 29 0
3 4 7 13 20 22 25 -29 0
3 8 -9 -12 -16 -23 -28 34 0
3 8 -9 -12 -16 -23 28 -34 0
3 8 -9 -12 -16 23 -28 -34 0
3 8 -9 -12 -16 23 28 34 0
3 8 -9 -12 16 -23 -28 -34 0
3 8 -9 -12 16 -23 28 34 0
3 8 -9 -12 16 23 -28 34 0
3 8 -9 -12 16 23 28 -34 0
3 8 -9 12 -16 -23 -28 -34 0
3 8 -9 12 -16 -23 28 34 0
3 8 -9 12 -16 23 -28 34 0
3 8 -9 12 -16 23 28 -34 0
3 8 -9 12 16 -23 -28 34 0
3 8 -9 12 16 -23 28 -34 0
3 8 -9 12 16 23 -28 -34 0
3 8 -9 12 16 23 28 34 0
3 8 9 -12 -16 -23 -28 -34 0
3 8 9 -12 -16 -23 28 34 0
3 8 9 -12 -16 23 -28 34 0
3 8 9 -12 -16 23 28 -34 0
3 8 9 -12 16 -23 -28 34 0
3 8 9 -12 16 -23 28 -34 0
3 8 9 -12 16 23 -28 -34 0
3 8 9 -12 16 23 28 34 0
3 8 9 12 -16 -23 -28 34 0
3 8 9 12 -16 -23 28 -34 0
3 8 9 12 -16 23 -28 -34 0
3 8 9 12 -16 23 28 34 0
3 8 9 12 16 -23 -28 -34 0
3 8 9 12 16 -23 28 34 0
3 8 9 12 16 23 -28 34 0
3 8 9 12 16 23 28 -34 0
4 -5 -9 -11 -24 -26 -30 33 0
4 -5 -9 -11 -24 -26 30 -33 0
4 -5 -9 -11 -24 26 -30 -33 0
4 -5 -9 -11 -24 26 30 33 0
4 -5 -9 -11 24 -26 -30 -33 0
4 -5 -9 -11 24 -26 30 33 0
4 -5 -9 -11 24 26 -30 33 0
4 -5 -9 -11 24 26 30 -33 0
4 -5 -9 11 -24 -26 -30 -33 0
4 -5 -9 11 -24 -26 30 33 0
4 -5 -9 11 -24 26 -30 33 0
4 -5 -9 11 -24 26 30 -33 0
4 -5 -9 11 24 -26 -30 33 0
4 -5 -9 11 24 -26 30 -33 0
4 -5 -9 11 24 26 -30 -33 0
4 -5 -9 11 24 26 30 33 0
4 -5 9 -11 -24 -26 -30 -33 0
4 -5 9 -11 -24 -26 30 33 0
4 -5 9 -11 -24 26 -30 33 0
4 -5 9 -11 -24 26 30 -33 0
4 -5 9 -11 24 -26 -30 33 0
4 -5 9 -11 24 -26 30 -33 0
4 -5 9 -11 24 26 -30 -33 0
4 -5 9 -11 24 26 30 33 0
4 -5 9 11 -24 -26 -30 33 0
4 -5 9 11 -24 -26 30 -33 0
4 -5 9 11 -24 26 -30 -33 0
4 -5 9 11 -24 26 30 33 0
4 -5 9 11 24 -26 -30 -33 0
4 -5 9 11 24 -26 30 33 0
4 -5 9 11 24 26 -30 33 0
4 -5 9 11 24 26 30 -33 0
4 5 -9 -11 -24 -26 -30 -33 0
4 5 -9 -11 -24 -26 30 33 0
4 5 -9 -11 -24 26 -30 33 0
4 5 -9 -11 -24 26 30 -33 0
4 5 -9 -11 24 -26 -30 33 0
4 5 -9 -11 24 -26 30 -33 0
4 5 -9 -11 24 26 -30 -33 0
4 5 -9 -11 24 26 30 33 0
4 5 -9 11 -24 -26 -30 33 0
4 5 -9 11 -24 -26 30 -33 0
4 5 -9 11 -24 26 -30 -33 0
4 5 -9 11 -24 26 30 33 0
4 5 -9 11 24 -26 -30 -33 0
4 5 -9 11 24 -26 30 33 0
4 5 -9 11 24 26 -30 33 0
4 5 -9 11 24 26 30 -33 0
4 5 9 -11 -24 -26 -30 33 0
4 5 9 -11 -24 -26 30 -33 0
4 5 9 -11 -24 26 -30 -33 0
4 5 9 -11 -24 26 30 33 0
4 5 9 -11 24 -26 -30 -33 0
4 5 9 -11 24 -26 30 33 0
4 5 9 -11 24 26 -30 33 0
4 5 9 -11 24 26 30 -33 0
4 5 9 11 -24 -26 -30 -33 0
4 5 9 11 -24 -26 30 33 0
4 5 9 11 -24 26 -30 33 0
4 5 9 11 -24 26 30 -33 0
4 5 9 11 24 -26 -30 33 0
4 5 9 11 24 -26 30 -33 0
4 5 9 11 24 26 -30 -33 0
4 5 9 11 24 26 30 33 0
6 -10 -11 -14 -15 -16 -29 -32 0
6 -10 -11 -14 -15 -16 29 32 0
6 -10 -11 -14 -15 16 -29 32 0
6 -10 -11 -14 -15 16 29 -32 0
6 -10 -11 -14 15 -16 -29 32 0
6 -10 -11 -14 15 -16 29 -32 0
6 -10 -11 -14 15 16 -29 -32 0
6 -10 -11 -14 15 16 29 32 0
6 -10 -11 14 -15 -16 -29 32 0
6 -10 -11 14 -15 -16 29 -32 0
6 -10 -11 14 -15 16 -29 -32 0
6 -10 -11 14 -15 16 29 32 0
6 -10 -11 14 15 -16 -29 -32 0
6 -10 -11 14 15 -16 29 32 0
6 -10 -11 14 15 16 -29 32 0
6 -10 -11 14 15 16 29 -32 0
6 -10 11 -14 -15 -16 -29 32 0
6 -10 11 -14 -15 -16 29 -32 0
6 -10 11 -14 -15 16 -29 -32 0
6 -10 11 -14 -15 16 29 32 0
6 -10 11 -14 15 -16 -29 -32 0
6 -10 11 -14 15 -16 29 32 0
6 -10 11 -14 15 16 -29 32 0
6 -10 11 -14 15 16 29 -32 0
6 -10 11 14 -15 -16 -29 -32 0
6 -10 11 14 -15 -16 29 32 0
6 -10 11 14 -15 16 -29 32 0
6 -10 11 14 -15 16 29 -32 0
6 -10 11 14 15 -16 -29 32 0
6 -10 11 14 15 -16 29 -32 0
6 -10 11 14 15 16 -29 -32 0
6 -10 11 14 15 16 29 32 0
6 10 -11 -14 -15 -16 -29 32 0
6 10 -11 -14 -15 -16 29 -32 0
6 10 -11 -14 -15 16 -29 -32 0
6 10 -11 -14 -15 16 29 32 0
6 10 -11 -14 15 -16 -29 -32 0
6 10 -11 -14 15 -16 29 32 0
6 10 -11 -14 15 16 -29 32 0
6 10 -11 -14 15 16 29 -32 0
6 10 -11 14 -15 -16 -29 -32 0
6 10 -11 14 -15 -16 29 32 0
6 10 -11 14 -15 16 -29 32 0
6 10 -11 14 -15 16 29 -32 0
6 10 -11 14 15 -16 -29 32 0
6 10 -11 14 15 -16 29 -32 0
6 10 -11 14 15 16 -29 -32 0
6 10 -11 14 15 16 29 32 0
6 10 11 -14 -15 -16 -29 -32 0
6 10 11 -14 -15 -16 29 32 0
6 10 11 -14 -15 16 -29 32 0
6 10 11 -14 -15 16 29 -32 0
6 10 11 -14 15 -16 -29 32 0
6 10 11 -14 15 -16 29 -32 0
6 10 11 -14 15 16 -29 -32 0
6 10 11 -14 15 16 29 32 0
6 10 11 14 -15 -16 -29 32 0
6 10 11 14 -15 -16 29 -32 0
6 10 11 14 -15 16 -29 -32 0
6 10 11 14 -15 16 29 32 0
6 10 11 14 15 -16 -29 -32 0
6 10 11 14 15 -16 29 32 0
6 10 11 14 15 16 -29 32 0
6 10 11 14 15 16 29 -32 0
10 -13 -17 -18 -19 -23 -30 -31 0
10 -13 -17 -18 -19 -23 30 31 0
10 -13 -17 -18 -19 23 -30 31 0
10 -13 -17 -18 -19 23 30 -31 0
10 -13 -17 -18 19 -23 -30 31 0
10 -13 -17 -18 19 -23 30 -31 0
10 -13 -17 -18 19 23 -30 -31 0
10 -13 -17 -18 19 23 30 31 0
10 -13 -17 18 -19 -23 -30 31 0
10 -13 -17 18 -19 -23 30 -31 0
10 -13 -17 18 -19 23 -30 -31 0
10 -13 -17 18 -19 23 30 31 0
10 -13 -17 18 19 -23 -30 -31 0
10 -13 -17 18 19 -23 30 31 0
10 -13 -17 18 19 23 -30 31 0
10 -13 -17 18 19 23 30 -31 0
10 -13 17 -18 -19 -23 -30 31 0
10 -13 17 -18 -19 -23 30 -31 0
10 -13 17 -18 -19 23 -30 -31 0
10 -13 17 -18 -19 23 30 31 0
10 -13 17 -18 19 -23 -30 -31 0
10 -13 17 -18 19 -23 30 31 0
10 -13 17 -18 19 23 -30 31 0
10 -13 17 -18 19 23 30 -31 0
10 -13 17 18 -19 -23 -30 -31 0
10 -13 17 18 -19 -23 30 31 0
10 -13 17 18 -19 23 -30 31 0
10 -13 17 18 -19 23 30 -31 0
10 -13 17 18 19 -23 -30 31 0
10 -13 17 18 19 -23 30 -31 0
10 -13 17 18 19 23 -30 -31 0
10 -13 17 18 19 23 30 31 0
10 13 -17 -18 -19 -23 -30 31 0
10 13 -17 -18 -19 -23 30 -31 0
10 13 -17 -18 -19 23 -30 -31 0
10 13 -17 -18 -19 23 30 31 0
10 13 -17 -18 19 -23 -30 -31 0
10 13 -17 -18 19 -23 30 31 0
10 13 -17 -18 19 23 -30 31 0
10 13 -17 -18 19 23 30 -31 0
10 13 -17 18 -19 -23 -30 -31 0
10 13 -17 18 -19 -23 30 31 0
10 13 -17 18 -19 23 -30 31 0
10 13 -17 18 -19 23 30 -31 0
10 13 -17 18 19 -23 -30 31 0
10 13 -17 18 19 -23 30 -31 0
10 13 -17 18 19 23 -30 -31 0
10 13 -17 18 19 23 30 31 0
10 13 17 -18 -19 -23 -30 -31 0
10 13 17 -18 -19 -23 30 31 0
10 13 17 -18 -19 23 -30 31 0
10 13 17 -18 -19 23 30 -31 0
10 13 17 -18 19 -23 -30 31 0
10 13 17 -18 19 -23 30 -31 0
10 13 17 -18 19 23 -30 -31 0
10 13 17 -18 19 23 30 31 0
10 13 17 18 -19 -23 -30 31 0
10 13 17 18 -19 -23 30 -31 0
10 13 17 18 -19 23 -30 -31 0
10 13 17 18 -19 23 30 31 0
10 13 17 18 19 -23 -30 -31 0
10 13 17 18 19 -23 30 31 0
10 13 17 18 19 23 -30 31 0
10 13 17 18 19 23 30 -31 0
25 -27 -31 -32 -33 -34 -35 -36 0
25 -27 -31 -32 -33 -34 35 36 0
25 -27 -31 -32 -33 34 -35 36 0
25 -27 -31 -32 -33 34 35 -36 0
25 -27 -31 -32 33 -34 -35 36 0
25 -27 -31 -32 33 -34 35 -36 0
25 -27 -31 -32 33 34 -35 -36 0
25 -27 -31 -32 33 34 35 36 0
25 -27 -31 32 -33 -34 -35 36 0
25 -27 -31 32 -33 -34 35 -36 0
25 -27 -31 32 -33 34 -35 -36 0
25 -27 -31 32 -33 34 35 36 0
25 -27 -31 32 33 -34 -35 -36 0
25 -27 -31 32 33 -34 35 36 0
25 -27 -31 32 33 34 -35 36 0
25 -27 -31 32 33 34 35 -36 0
25 -27 31 -32 -33 -34 -35 36 0
25 -27 31 -32 -33 -34 35 -36 0
25 -27 31 -32 -33 34 -35 -36 0
25 -27 31 -32 -33 34 35 36 0
25 -27 31 -32 33 -34 -35 -36 0
25 -27 31 -32 33 -34 35 36 0
25 -27 31 -32 33 34 -35 36 0
25 -27 31 -32 33 34 35 -36 0
25 -27 31 32 -33 -34 -35 -36 0
25 -27 31 32 -33 -34 35 36 0
25 -27 31 32 -33 34 -35 36 0
25 -27 31 32 -33 34 35 -36 0
25 -27 31 32 33 -34 -35 36 0
25 -27 31 32 33 -34 35 -36 0
25 -27 31 32 33 34 -35 -36 0
25 -27 31 32 33 34 35 36 0
25 27 -31 -32 -33 -34 -35 36 0
25 27 -31 -32 -33 -34 35 -36 0
25 27 -31 -32 -33 34 -35 -36 0
25 27 -31 -32 -33 34 35 36 0
25 27 -31 -32 33 -34 -35 -36 0
25 27 -31 -32 33 -34 35 36 0
25 27 -31 -32 33 34 -35 36 0
25 27 -31 -32 33 34 35 -36 0
25 27 -31 32 -33 -34 -35 -36 0
25 27 -31 32 -33 -34 35 36 0
25 27 -31 32 -33 34 -35 36 0
25 27 -31 32 -33 34 35 -36 0
25 27 -31 32 33 -34 -35 36 0
25 27 -31 32 33 -34 35 -36 0
25 27 -31 32 33 34 -35 -36 0
25 27 -31 32 33 34 35 36 0
25 27 31 -32 -33 -34 -35 -36 0
25 27 31 -32 -33 -34 35 36 0
25 27 31 -32 -33 34 -35 36 0
25 27 31 -32 -33 34 35 -36 0
25 27 31 -32 33 -34 -35 36 0
25 27 31 -32 33 -34 35 -36 0
25 27 31 -32 33 34 -35 -36 0
25 27 31 -32 33 34 35 36 0
25 27 31 32 -33 -34 -35 36 0
25 27 31 32 -33 -34 35 -36 0
25 27 31 32 -33 34 -35 -36 0
25 27 31 32 -33 34 35 36 0
25 27 31 32 33 -34 -35 -36 0
25 27 31 32 33 -34 35 36 0
25 27 31 32 33 34 -35 36 0
25 27 31 32 33 34 35 -36 0
