p cnf 10 40
-5 -6 -8 10 0
-5 -6 8 -10 0
-5 6 -8 -10 0
-5 6 8 10 0
-4 -7 -9 10 0
-4 -7 9 -10 0
-4 7 -9 -10 0
-4 7 9 10 0
-2 -3 -6 9 0
-2 -3 6 -9 0
-2 3 -6 -9 0
-2 3 6 9 0
-1 -3 -4 -8 0
-1 -3 4 8 0
-1 -2 -5 7 0
-1 -2 5 -7 0
-1 2 -5 -7 0
-1 2 5 7 0
-1 3 -4 8 0
-1 3 4 -8 0
1 -3 -4 8 0
1 -3 4 -8 0
1 -2 -5 -7 0
1 -2 5 7 0
1 2 -5 7 0
1 2 5 -7 0
1 3 -4 -8 0
1 3 4 8 0
2 -3 -6 -9 0
2 -3 6 9 0
2 3 -6 9 0
2 3 6 -9 0
4 -7 -9 -10 0
4 -7 9 10 0
4 7 -9 10 0
4 7 9 -10 0
5 -6 -8 -10 0
5 -6 8 10 0
5 6 -8 10 0
5 6 8 -10 0
