p cnf 10 40
-4 -5 -6 -10 0
-4 -5 6 10 0
-4 5 -6 10 0
-4 5 6 -10 0
-3 -8 -9 10 0
-3 -8 9 -10 0
-3 8 -9 -10 0
-3 8 9 10 0
-2 -5 -7 8 0
-2 -5 7 -8 0
-2 5 -7 -8 0
-2 5 7 8 0
-1 -3 -6 7 0
-1 -3 6 -7 0
-1 -2 -4 9 0
-1 -2 4 -9 0
-1 2 -4 -9 0
-1 2 4 9 0
-1 3 -6 -7 0
-1 3 6 7 0
1 -3 -6 -7 0
1 -3 6 7 0
1 -2 -4 -9 0
1 -2 4 9 0
1 2 -4 9 0
1 2 4 -9 0
1 3 -6 7 0
1 3 6 -7 0
2 -5 -7 -8 0
2 -5 7 8 0
2 5 -7 8 0
2 5 7 -8 0
3 -8 -9 -10 0
3 -8 9 10 0
3 8 -9 10 0
3 8 9 -10 0
4 -5 -6 10 0
4 -5 6 -10 0
4 5 -6 -10 0
4 5 6 10 0
