p cnf 28 512
-7 -8 -18 -19 -22 -23 -25 0
-7 -8 -18 -19 -22 23 25 0
-7 -8 -18 -19 22 -23 25 0
-7 -8 -18 -19 22 23 -25 0
-7 -8 -18 19 -22 -23 25 0
-7 -8 -18 19 -22 23 -25 0
-7 -8 -18 19 22 -23 -25 0
-7 -8 -18 19 22 23 25 0
-7 -8 18 -19 -22 -23 25 0
-7 -8 18 -19 -22 23 -25 0
-7 -8 18 -19 22 -23 -25 0
-7 -8 18 -19 22 23 25 0
-7 -8 18 19 -22 -23 -25 0
-7 -8 18 19 -22 23 25 0
-7 -8 18 19 22 -23 25 0
-7 -8 18 19 22 23 -25 0
-7 8 -18 -19 -22 -23 25 0
-7 8 -18 -19 -22 23 -25 0
-7 8 -18 -19 22 -23 -25 0
-7 8 -18 -19 22 23 25 0
-7 8 -18 19 -22 -23 -25 0
-7 8 -18 19 -22 23 25 0
-7 8 -18 19 22 -23 25 0
-7 8 -18 19 22 23 -25 0
-7 8 18 -19 -22 -23 -25 0
-7 8 18 -19 -22 23 25 0
-7 8 18 -19 22 -23 25 0
-7 8 18 -19 22 23 -25 0
-7 8 18 19 -22 -23 25 0
-7 8 18 19 -22 23 -25 0
-7 8 18 19 22 -23 -25 0
-7 8 18 19 22 23 25 0
-5 -12 -17 -19 -21 -24 -28 0
-5 -12 -17 -19 -21 24 28 0
-5 -12 -17 -19 21 -24 28 0
-5 -12 -17 -19 21 24 -28 0
-5 -12 -17 19 -21 -24 28 0
-5 -12 -17 19 -21 24 -28 0
-5 -12 -17 19 21 -24 -28 0
-5 -12 -17 19 21 24 28 0
-5 -12 17 -19 -21 -24 28 0
-5 -12 17 -19 -21 24 -28 0
-5 -12 17 -19 21 -24 -28 0
-5 -12 17 -19 21 24 28 0
-5 -12 17 19 -21 -24 -28 0
-5 -12 17 19 -21 24 28 0
-5 -12 17 19 21 -24 28 0
-5 -12 17 19 21 24 -28 0
-5 12 -17 -19 -21 -24 28 0
-5 12 -17 -19 -21 24 -28 0
-5 12 -17 -19 21 -24 -28 0
-5 12 -17 -19 21 24 28 0
-5 12 -17 19 -21 -24 -28 0
-5 12 -17 19 -21 24 28 0
-5 12 -17 19 21 -24 28 0
-5 12 -17 19 21 24 -28 0
-5 12 17 -19 -21 -24 -28 0
-5 12 17 -19 -21 24 28 0
-5 12 17 -19 21 -24 28 0
-5 12 17 -19 21 24 -28 0
-5 12 17 19 -21 -24 28 0
-5 12 17 19 -21 24 -28 0
-5 12 17 19 21 -24 -28 0
-5 12 17 19 21 24 28 0
-4 -5 -6 -10 -15 -16 -25 0
-4 -5 -6 -10 -15 16 25 0
-4 -5 -6 -10 15 -16 25 0
-4 -5 -6 -10 15 16 -25 0
-4 -5 -6 10 -15 -16 25 0
-4 -5 -6 10 -15 16 -25 0
-4 -5 -6 10 15 -16 -25 0
-4 -5 -6 10 15 16 25 0
-4 -5 6 -10 -15 -16 25 0
-4 -5 6 -10 -15 16 -25 0
-4 -5 6 -10 15 -16 -25 0
-4 -5 6 -10 15 16 25 0
-4 -5 6 10 -15 -16 -25 0
-4 -5 6 10 -15 16 25 0
-4 -5 6 10 15 -16 25 0
-4 -5 6 10 15 16 -25 0
-4 5 -6 -10 -15 -16 25 0
-4 5 -6 -10 -15 16 -25 0
-4 5 -6 -10 15 -16 -25 0
-4 5 -6 -10 15 16 25 0
-4 5 -6 10 -15 -16 -25 0
-4 5 -6 10 -15 16 25 0
-4 5 -6 10 15 -16 25 0
-4 5 -6 10 15 16 -25 0
-4 5 6 -10 -15 -16 -25 0
-4 5 6 -10 -15 16 25 0
-4 5 6 -10 15 -16 25 0
-4 5 6 -10 15 16 -25 0
-4 5 6 10 -15 -16 25 0
-4 5 6 10 -15 16 -25 0
-4 5 6 10 15 -16 -25 0
-4 5 6 10 15 16 25 0
-3 -6 -9 -13 -23 -24 -26 0
-3 -6 -9 -13 -23 24 26 0
-3 -6 -9 -13 23 -24 26 0
-3 -6 -9 -13 23 24 -26 0
-3 -6 -9 13 -23 -24 26 0
-3 -6 -9 13 -23 24 -26 0
-3 -6 -9 13 23 -24 -26 0
-3 -6 -9 13 23 24 26 0
-3 -6 9 -13 -23 -24 26 0
-3 -6 9 -13 -23 24 -26 0
-3 -6 9 -13 23 -24 -26 0
-3 -6 9 -13 23 24 26 0
-3 -6 9 13 -23 -24 -26 0
-3 -6 9 13 -23 24 26 0
-3 -6 9 13 23 -24 26 0
-3 -6 9 13 23 24 -26 0
-3 -4 -7 -11 -14 -17 -27 0
-3 -4 -7 -11 -14 17 27 0
-3 -4 -7 -11 14 -17 27 0
-3 -4 -7 -11 14 17 -27 0
-3 -4 -7 11 -14 -17 27 0
-3 -4 -7 11 -14 17 -27 0
-3 -4 -7 11 14 -17 -27 0
-3 -4 -7 11 14 17 27 0
-3 -4 7 -11 -14 -17 27 0
-3 -4 7 -11 -14 17 -27 0
-3 -4 7 -11 14 -17 -27 0
-3 -4 7 -11 14 17 27 0
-3 -4 7 11 -14 -17 -27 0
-3 -4 7 11 -14 17 27 0
-3 -4 7 11 14 -17 27 0
-3 -4 7 11 14 17 -27 0
-3 4 -7 -11 -14 -17 27 0
-3 4 -7 -11 -14 17 -27 0
-3 4 -7 -11 14 -17 -27 0
-3 4 -7 -11 14 17 27 0
-3 4 -7 11 -14 -17 -27 0
-3 4 -7 11 -14 17 27 0
-3 4 -7 11 14 -17 27 0
-3 4 -7 11 14 17 -27 0
-3 4 7 -11 -14 -17 -27 0
-3 4 7 -11 -14 17 27 0
-3 4 7 -11 14 -17 27 0
-3 4 7 -11 14 17 -27 0
-3 4 7 11 -14 -17 27 0
-3 4 7 11 -14 17 -27 0
-3 4 7 11 14 -17 -27 0
-3 4 7 11 14 17 27 0
-3 6 -9 -13 -23 -24 26 0
-3 6 -9 -13 -23 24 -26 0
-3 6 -9 -13 23 -24 -26 0
-3 6 -9 -13 23 24 26 0
-3 6 -9 13 -23 -24 -26 0
-3 6 -9 13 -23 24 26 0
-3 6 -9 13 23 -24 26 0
-3 6 -9 13 23 24 -26 0
-3 6 9 -13 -23 -24 -26 0
-3 6 9 -13 -23 24 26 0
-3 6 9 -13 23 -24 26 0
-3 6 9 -13 23 24 -26 0
-3 6 9 13 -23 -24 26 0
-3 6 9 13 -23 24 -26 0
-3 6 9 13 23 -24 -26 0
-3 6 9 13 23 24 26 0
-2 -10 -12 -13 -14 -20 -22 0
-2 -10 -12 -13 -14 20 22 0
-2 -10 -12 -13 14 -20 22 0
-2 -10 -12 -13 14 20 -22 0
-2 -10 -12 13 -14 -20 22 0
-2 -10 -12 13 -14 20 -22 0
-2 -10 -12 13 14 -20 -22 0
-2 -10 -12 13 14 20 22 0
-2 -10 12 -13 -14 -20 22 0
-2 -10 12 -13 -14 20 -22 0
-2 -10 12 -13 14 -20 -22 0
-2 -10 12 -13 14 20 22 0
-2 -10 12 13 -14 -20 -22 0
-2 -10 12 13 -14 20 22 0
-2 -10 12 13 14 -20 22 0
-2 -10 12 13 14 20 -22 0
-2 10 -12 -13 -14 -20 22 0
-2 10 -12 -13 -14 20 -22 0
-2 10 -12 -13 14 -20 -22 0
-2 10 -12 -13 14 20 22 0
-2 10 -12 13 -14 -20 -22 0
-2 10 -12 13 -14 20 22 0
-2 10 -12 13 14 -20 22 0
-2 10 -12 13 14 20 -22 0
-2 10 12 -13 -14 -20 -22 0
-2 10 12 -13 -14 20 22 0
-2 10 12 -13 14 -20 22 0
-2 10 12 -13 14 20 -22 0
-2 10 12 13 -14 -20 22 0
-2 10 12 13 -14 20 -22 0
-2 10 12 13 14 -20 -22 0
-2 10 12 13 14 20 22 0
-1 -9 -16 -18 -20 -27 -28 0
-1 -9 -16 -18 -20 27 28 0
-1 -9 -16 -18 20 -27 28 0
-1 -9 -16 -18 20 27 -28 0
-1 -9 -16 18 -20 -27 28 0
-1 -9 -16 18 -20 27 -28 0
-1 -9 -16 18 20 -27 -28 0
-1 -9 -16 18 20 27 28 0
-1 -9 16 -18 -20 -27 28 0
-1 -9 16 -18 -20 27 -28 0
-1 -9 16 -18 20 -27 -28 0
-1 -9 16 -18 20 27 28 0
-1 -9 16 18 -20 -27 -28 0
-1 -9 16 18 -20 27 28 0
-1 -9 16 18 20 -27 28 0
-1 -9 16 18 20 27 -28 0
-1 -2 -8 -11 -15 -21 -26 0
-1 -2 -8 -11 -15 21 26 0
-1 -2 -8 -11 15 -21 26 0
-1 -2 -8 -11 15 21 -26 0
-1 -2 -8 11 -15 -21 26 0
-1 -2 -8 11 -15 21 -26 0
-1 -2 -8 11 15 -21 -26 0
-1 -2 -8 11 15 21 26 0
-1 -2 8 -11 -15 -21 26 0
-1 -2 8 -11 -15 21 -26 0
-1 -2 8 -11 15 -21 -26 0
-1 -2 8 -11 15 21 26 0
-1 -2 8 11 -15 -21 -26 0
-1 -2 8 11 -15 21 26 0
-1 -2 8 11 15 -21 26 0
-1 -2 8 11 15 21 -26 0
-1 2 -8 -11 -15 -21 26 0
-1 2 -8 -11 -15 21 -26 0
-1 2 -8 -11 15 -21 -26 0
-1 2 -8 -11 15 21 26 0
-1 2 -8 11 -15 -21 -26 0
-1 2 -8 11 -15 21 26 0
-1 2 -8 11 15 -21 26 0
-1 2 -8 11 15 21 -26 0
-1 2 8 -11 -15 -21 -26 0
-1 2 8 -11 -15 21 26 0
-1 2 8 -11 15 -21 26 0
-1 2 8 -11 15 21 -26 0
-1 2 8 11 -15 -21 26 0
-1 2 8 11 -15 21 -26 0
-1 2 8 11 15 -21 -26 0
-1 2 8 11 15 21 26 0
-1 9 -16 -18 -20 -27 28 0
-1 9 -16 -18 -20 27 -28 0
-1 9 -16 -18 20 -27 -28 0
-1 9 -16 -18 20 27 28 0
-1 9 -16 18 -20 -27 -28 0
-1 9 -16 18 -20 27 28 0
-1 9 -16 18 20 -27 28 0
-1 9 -16 18 20 27 -28 0
-1 9 16 -18 -20 -27 -28 0
-1 9 16 -18 -20 27 28 0
-1 9 16 -18 20 -27 28 0
-1 9 16 -18 20 27 -28 0
-1 9 16 18 -20 -27 28 0
-1 9 16 18 -20 27 -28 0
-1 9 16 18 20 -27 -28 0
-1 9 16 18 20 27 28 0
1 -9 -16 -18 -20 -27 28 0
1 -9 -16 -18 -20 27 -28 0
1 -9 -16 -18 20 -27 -28 0
1 -9 -16 -18 20 27 28 0
1 -9 -16 18 -20 -27 -28 0
1 -9 -16 18 -20 27 28 0
1 -9 -16 18 20 -27 28 0
1 -9 -16 18 20 27 -28 0
1 -9 16 -18 -20 -27 -28 0
1 -9 16 -18 -20 27 28 0
1 -9 16 -18 20 -27 28 0
1 -9 16 -18 20 27 -28 0
1 -9 16 18 -20 -27 28 0
1 -9 16 18 -20 27 -28 0
1 -9 16 18 20 -27 -28 0
1 -9 16 18 20 27 28 0
1 -2 -8 -11 -15 -21 26 0
1 -2 -8 -11 -15 21 -26 0
1 -2 -8 -11 15 -21 -26 0
1 -2 -8 -11 15 21 26 0
1 -2 -8 11 -15 -21 -26 0
1 -2 -8 11 -15 21 26 0
1 -2 -8 11 15 -21 26 0
1 -2 -8 11 15 21 -26 0
1 -2 8 -11 -15 -21 -26 0
1 -2 8 -11 -15 21 26 0
1 -2 8 -11 15 -21 26 0
1 -2 8 -11 15 21 -26 0
1 -2 8 11 -15 -21 26 0
1 -2 8 11 -15 21 -26 0
1 -2 8 11 15 -21 -26 0
1 -2 8 11 15 21 26 0
1 2 -8 -11 -15 -21 -26 0
1 2 -8 -11 -15 21 26 0
1 2 -8 -11 15 -21 26 0
1 2 -8 -11 15 21 -26 0
1 2 -8 11 -15 -21 26 0
1 2 -8 11 -15 21 -26 0
1 2 -8 11 15 -21 -26 0
1 2 -8 11 15 21 26 0
1 2 8 -11 -15 -21 26 0
1 2 8 -11 -15 21 -26 0
1 2 8 -11 15 -21 -26 0
1 2 8 -11 15 21 26 0
1 2 8 11 -15 -21 -26 0
1 2 8 11 -15 21 26 0
1 2 8 11 15 -21 26 0
1 2 8 11 15 21 -26 0
1 9 -16 -18 -20 -27 -28 0
1 9 -16 -18 -20 27 28 0
1 9 -16 -18 20 -27 28 0
1 9 -16 -18 20 27 -28 0
1 9 -16 18 -20 -27 28 0
1 9 -16 18 -20 27 -28 0
1 9 -16 18 20 -27 -28 0
1 9 -16 18 20 27 28 0
1 9 16 -18 -20 -27 28 0
1 9 16 -18 -20 27 -28 0
1 9 16 -18 20 -27 -28 0
1 9 16 -18 20 27 28 0
1 9 16 18 -20 -27 -28 0
1 9 16 18 -20 27 28 0
1 9 16 18 20 -27 28 0
1 9 16 18 20 27 -28 0
2 -10 -12 -13 -14 -20 22 0
2 -10 -12 -13 -14 20 -22 0
2 -10 -12 -13 14 -20 -22 0
2 -10 -12 -13 14 20 22 0
2 -10 -12 13 -14 -20 -22 0
2 -10 -12 13 -14 20 22 0
2 -10 -12 13 14 -20 22 0
2 -10 -12 13 14 20 -22 0
2 -10 12 -13 -14 -20 -22 0
2 -10 12 -13 -14 20 22 0
2 -10 12 -13 14 -20 22 0
2 -10 12 -13 14 20 -22 0
2 -10 12 13 -14 -20 22 0
2 -10 12 13 -14 20 -22 0
2 -10 12 13 14 -20 -22 0
2 -10 12 13 14 20 22 0
2 10 -12 -13 -14 -20 -22 0
2 10 -12 -13 -14 20 22 0
2 10 -12 -13 14 -20 22 0
2 10 -12 -13 14 20 -22 0
2 10 -12 13 -14 -20 22 0
2 10 -12 13 -14 20 -22 0
2 10 -12 13 14 -20 -22 0
2 10 -12 13 14 20 22 0
2 10 12 -13 -14 -20 22 0
2 10 12 -13 -14 20 -22 0
2 10 12 -13 14 -20 -22 0
2 10 12 -13 14 20 22 0
2 10 12 13 -14 -20 -22 0
2 10 12 13 -14 20 22 0
2 10 12 13 14 -20 22 0
2 10 12 13 14 20 -22 0
3 -6 -9 -13 -23 -24 26 0
3 -6 -9 -13 -23 24 -26 0
3 -6 -9 -13 23 -24 -26 0
3 -6 -9 -13 23 24 26 0
3 -6 -9 13 -23 -24 -26 0
3 -6 -9 13 -23 24 26 0
3 -6 -9 13 23 -24 26 0
3 -6 -9 13 23 24 -26 0
3 -6 9 -13 -23 -24 -26 0
3 -6 9 -13 -23 24 26 0
3 -6 9 -13 23 -24 26 0
3 -6 9 -13 23 24 -26 0
3 -6 9 13 -23 -24 26 0
3 -6 9 13 -23 24 -26 0
3 -6 9 13 23 -24 -26 0
3 -6 9 13 23 24 26 0
3 -4 -7 -11 -14 -17 27 0
3 -4 -7 -11 -14 17 -27 0
3 -4 -7 -11 14 -17 -27 0
3 -4 -7 -11 14 17 27 0
3 -4 -7 11 -14 -17 -27 0
3 -4 -7 11 -14 17 27 0
3 -4 -7 11 14 -17 27 0
3 -4 -7 11 14 17 -27 0
3 -4 7 -11 -14 -17 -27 0
3 -4 7 -11 -14 17 27 0
3 -4 7 -11 14 -17 27 0
3 -4 7 -11 14 17 -27 0
3 -4 7 11 -14 -17 27 0
3 -4 7 11 -14 17 -27 0
3 -4 7 11 14 -17 -27 0
3 -4 7 11 14 17 27 0
3 4 -7 -11 -14 -17 -27 0
3 4 -7 -11 -14 17 27 0
3 4 -7 -11 14 -17 27 0
3 4 -7 -11 14 17 -27 0
3 4 -7 11 -14 -17 27 0
3 4 -7 11 -14 17 -27 0
3 4 -7 11 14 -17 -27 0
3 4 -7 11 14 17 27 0
3 4 7 -11 -14 -17 27 0
3 4 7 -11 -14 17 -27 0
3 4 7 -11 14 -17 -27 0
3 4 7 -11 14 17 27 0
3 4 7 11 -14 -17 -27 0
3 4 7 11 -14 17 27 0
3 4 7 11 14 -17 27 0
3 4 7 11 14 17 -27 0
3 6 -9 -13 -23 -24 -26 0
3 6 -9 -13 -23 24 26 0
3 6 -9 -13 23 -24 26 0
3 6 -9 -13 23 24 -26 0
3 6 -9 13 -23 -24 26 0
3 6 -9 13 -23 24 -26 0
3 6 -9 13 23 -24 -26 0
3 6 -9 13 23 24 26 0
3 6 9 -13 -23 -24 26 0
3 6 9 -13 -23 24 -26 0
3 6 9 -13 23 -24 -26 0
3 6 9 -13 23 24 26 0
3 6 9 13 -23 -24 -26 0
3 6 9 13 -23 24 26 0
3 6 9 13 23 -24 26 0
3 6 9 13 23 24 -26 0
4 -5 -6 -10 -15 -16 25 0
4 -5 -6 -10 -15 16 -25 0
4 -5 -6 -10 15 -16 -25 0
4 -5 -6 -10 15 16 25 0
4 -5 -6 10 -15 -16 -25 0
4 -5 -6 10 -15 16 25 0
4 -5 -6 10 15 -16 25 0
4 -5 -6 10 15 16 -25 0
4 -5 6 -10 -15 -16 -25 0
4 -5 6 -10 -15 16 25 0
4 -5 6 -10 15 -16 25 0
4 -5 6 -10 15 16 -25 0
4 -5 6 10 -15 -16 25 0
4 -5 6 10 -15 16 -25 0
4 -5 6 10 15 -16 -25 0
4 -5 6 10 15 16 25 0
4 5 -6 -10 -15 -16 -25 0
4 5 -6 -10 -15 16 25 0
4 5 -6 -10 15 -16 25 0
4 5 -6 -10 15 16 -25 0
4 5 -6 10 -15 -16 25 0
4 5 -6 10 -15 16 -25 0
4 5 -6 10 15 -16 -25 0
4 5 -6 10 15 16 25 0
4 5 6 -10 -15 -16 25 0
4 5 6 -10 -15 16 -25 0
4 5 6 -10 15 -16 -25 0
4 5 6 -10 15 16 25 0
4 5 6 10 -15 -16 -25 0
4 5 6 10 -15 16 25 0
4 5 6 10 15 -16 25 0
4 5 6 10 15 16 -25 0
5 -12 -17 -19 -21 -24 28 0
5 -12 -17 -19 -21 24 -28 0
5 -12 -17 -19 21 -24 -28 0
5 -12 -17 -19 21 24 28 0
5 -12 -17 19 -21 -24 -28 0
5 -12 -17 19 -21 24 28 0
5 -12 -17 19 21 -24 28 0
5 -12 -17 19 21 24 -28 0
5 -12 17 -19 -21 -24 -28 0
5 -12 17 -19 -21 24 28 0
5 -12 17 -19 21 -24 28 0
5 -12 17 -19 21 24 -28 0
5 -12 17 19 -21 -24 28 0
5 -12 17 19 -21 24 -28 0
5 -12 17 19 21 -24 -28 0
5 -12 17 19 21 24 28 0
5 12 -17 -19 -21 -24 -28 0
5 12 -17 -19 -21 24 28 0
5 12 -17 -19 21 -24 28 0
5 12 -17 -19 21 24 -28 0
5 12 -17 19 -21 -24 28 0
5 12 -17 19 -21 24 -28 0
5 12 -17 19 21 -24 -28 0
5 12 -17 19 21 24 28 0
5 12 17 -19 -21 -24 28 0
5 12 17 -19 -21 24 -28 0
5 12 17 -19 21 -24 -28 0
5 12 17 -19 21 24 28 0
5 12 17 19 -21 -24 -28 0
5 12 17 19 -21 24 28 0
5 12 17 19 21 -24 28 0
5 12 17 19 21 24 -28 0
7 -8 -18 -19 -22 -23 25 0
7 -8 -18 -19 -22 23 -25 0
7 -8 -18 -19 22 -23 -25 0
7 -8 -18 -19 22 23 25 0
7 -8 -18 19 -22 -23 -25 0
7 -8 -18 19 -22 23 25 0
7 -8 -18 19 22 -23 25 0
7 -8 -18 19 22 23 -25 0
7 -8 18 -19 -22 -23 -25 0
7 -8 18 -19 -22 23 25 0
7 -8 18 -19 22 -23 25 0
7 -8 18 -19 22 23 -25 0
7 -8 18 19 -22 -23 25 0
7 -8 18 19 -22 23 -25 0
7 -8 18 19 22 -23 -25 0
7 -8 18 19 22 23 25 0
7 8 -18 -19 -22 -23 -25 0
7 8 -18 -19 -22 23 25 0
7 8 -18 -19 22 -23 25 0
7 8 -18 -19 22 23 -25 0
7 8 -18 19 -22 -23 25 0
7 8 -18 19 -22 23 -25 0
7 8 -18 19 22 -23 -25 0
7 8 -18 19 22 23 25 0
7 8 18 -19 -22 -23 25 0
7 8 18 -19 -22 23 -25 0
7 8 18 -19 22 -23 -25 0
7 8 18 -19 22 23 25 0
7 8 18 19 -22 -23 -25 0
7 8 18 19 -22 23 25 0
7 8 18 19 22 -23 25 0
7 8 18 19 22 23 -25 0
