p cnf 10 40
-5 -7 -8 10 0
-5 -7 8 -10 0
-5 7 -8 -10 0
-5 7 8 10 0
-3 -6 -9 10 0
-3 -6 9 -10 0
-3 6 -9 -10 0
-3 6 9 10 0
-2 -4 -5 6 0
-2 -4 5 -6 0
-2 4 -5 -6 0
-2 4 5 6 0
-1 -3 -4 7 0
-1 -3 4 -7 0
-1 -2 -8 9 0
-1 -2 8 -9 0
-1 2 -8 -9 0
-1 2 8 9 0
-1 3 -4 -7 0
-1 3 4 7 0
1 -3 -4 -7 0
1 -3 4 7 0
1 -2 -8 -9 0
1 -2 8 9 0
1 2 -8 9 0
1 2 8 -9 0
1 3 -4 7 0
1 3 4 -7 0
2 -4 -5 -6 0
2 -4 5 6 0
2 4 -5 6 0
2 4 5 -6 0
3 -6 -9 -10 0
3 -6 9 10 0
3 6 -9 10 0
3 6 9 -10 0
5 -7 -8 -10 0
5 -7 8 10 0
5 7 -8 10 0
5 7 8 -10 0
