p cnf 36 1152
-7 -14 -16 -19 -24 -25 -26 -33 0
-7 -14 -16 -19 -24 -25 26 33 0
-7 -14 -16 -19 -24 25 -26 33 0
-7 -14 -16 -19 -24 25 26 -33 0
-7 -14 -16 -19 24 -25 -26 33 0
-7 -14 -16 -19 24 -25 26 -33 0
-7 -14 -16 -19 24 25 -26 -33 0
-7 -14 -16 -19 24 25 26 33 0
-7 -14 -16 19 -24 -25 -26 33 0
-7 -14 -16 19 -24 -25 26 -33 0
-7 -14 -16 19 -24 25 -26 -33 0
-7 -14 -16 19 -24 25 26 33 0
-7 -14 -16 19 24 -25 -26 -33 0
-7 -14 -16 19 24 -25 26 33 0
-7 -14 -16 19 24 25 -26 33 0
-7 -14 -16 19 24 25 26 -33 0
-7 -14 16 -19 -24 -25 -26 33 0
-7 -14 16 -19 -24 -25 26 -33 0
-7 -14 16 -19 -24 25 -26 -33 0
-7 -14 16 -19 -24 25 26 33 0
-7 -14 16 -19 24 -25 -26 -33 0
-7 -14 16 -19 24 -25 26 33 0
-7 -14 16 -19 24 25 -26 33 0
-7 -14 16 -19 24 25 26 -33 0
-7 -14 16 19 -24 -25 -26 -33 0
-7 -14 16 19 -24 -25 26 33 0
-7 -14 16 19 -24 25 -26 33 0
-7 -14 16 19 -24 25 26 -33 0
-7 -14 16 19 24 -25 -26 33 0
-7 -14 16 19 24 -25 26 -33 0
-7 -14 16 19 24 25 -26 -33 0
-7 -14 16 19 24 25 26 33 0
-7 14 -16 -19 -24 -25 -26 33 0
-7 14 -16 -19 -24 -25 26 -33 0
-7 14 -16 -19 -24 25 -26 -33 0
-7 14 -16 -19 -24 25 26 33 0
-7 14 -16 -19 24 -25 -26 -33 0
-7 14 -16 -19 24 -25 26 33 0
-7 14 -16 -19 24 25 -26 33 0
-7 14 -16 -19 24 25 26 -33 0
-7 14 -16 19 -24 -25 -26 -33 0
-7 14 -16 19 -24 -25 26 33 0
-7 14 -16 19 -24 25 -26 33 0
-7 14 -16 19 -24 25 26 -33 0
-7 14 -16 19 24 -25 -26 33 0
-7 14 -16 19 24 -25 26 -33 0
-7 14 -16 19 24 25 -26 -33 0
-7 14 -16 19 24 25 26 33 0
-7 14 16 -19 -24 -25 -26 -33 0
-7 14 16 -19 -24 -25 26 33 0
-7 14 16 -19 -24 25 -26 33 0
-7 14 16 -19 -24 25 26 -33 0
-7 14 16 -19 24 -25 -26 33 0
-7 14 16 -19 24 -25 26 -33 0
-7 14 16 -19 24 25 -26 -33 0
-7 14 16 -19 24 25 26 33 0
-7 14 16 19 -24 -25 -26 33 0
-7 14 16 19 -24 -25 26 -33 0
-7 14 16 19 -24 25 -26 -33 0
-7 14 16 19 -24 25 26 33 0
-7 14 16 19 24 -25 -26 -33 0
-7 14 16 19 24 -25 26 33 0
-7 14 16 19 24 25 -26 33 0
-7 14 16 19 24 25 26 -33 0
-6 -7 -8 -12 -20 -22 -23 27 0
-6 -7 -8 -12 -20 -22 23 -27 0
-6 -7 -8 -12 -20 22 -23 -27 0
-6 -7 -8 -12 -20 22 23 27 0
-6 -7 -8 -12 20 -22 -23 -27 0
-6 -7 -8 -12 20 -22 23 27 0
-6 -7 -8 -12 20 22 -23 27 0
-6 -7 -8 -12 20 22 23 -27 0
-6 -7 -8 12 -20 -22 -23 -27 0
-6 -7 -8 12 -20 -22 23 27 0
-6 -7 -8 12 -20 22 -23 27 0
-6 -7 -8 12 -20 22 23 -27 0
-6 -7 -8 12 20 -22 -23 27 0
-6 -7 -8 12 20 -22 23 -27 0
-6 -7 -8 12 20 22 -23 -27 0
-6 -7 -8 12 20 22 23 27 0
-6 -7 8 -12 -20 -22 -23 -27 0
-6 -7 8 -12 -20 -22 23 27 0
-6 -7 8 -12 -20 22 -23 27 0
-6 -7 8 -12 -20 22 23 -27 0
-6 -7 8 -12 20 -22 -23 27 0
-6 -7 8 -12 20 -22 23 -27 0
-6 -7 8 -12 20 22 -23 -27 0
-6 -7 8 -12 20 22 23 27 0
-6 -7 8 12 -20 -22 -23 27 0
-6 -7 8 12 -20 -22 23 -27 0
-6 -7 8 12 -20 22 -23 -27 0
-6 -7 8 12 -20 22 23 27 0
-6 -7 8 12 20 -22 -23 -27 0
-6 -7 8 12 20 -22 23 27 0
-6 -7 8 12 20 22 -23 27 0
-6 -7 8 12 20 22 23 -27 0
-6 7 -8 -12 -20 -22 -23 -27 0
-6 7 -8 -12 -20 -22 23 27 0
-6 7 -8 -12 -20 22 -23 27 0
-6 7 -8 -12 -20 22 23 -27 0
-6 7 -8 -12 20 -22 -23 27 0
-6 7 -8 -12 20 -22 23 -27 0
-6 7 -8 -12 20 22 -23 -27 0
-6 7 -8 -12 20 22 23 27 0
-6 7 -8 12 -20 -22 -23 27 0
-6 7 -8 12 -20 -22 23 -27 0
-6 7 -8 12 -20 22 -23 -27 0
-6 7 -8 12 -20 22 23 27 0
-6 7 -8 12 20 -22 -23 -27 0
-6 7 -8 12 20 -22 23 27 0
-6 7 -8 12 20 22 -23 27 0
-6 7 -8 12 20 22 23 -27 0
-6 7 8 -12 -20 -22 -23 27 0
-6 7 8 -12 -20 -22 23 -27 0
-6 7 8 -12 -20 22 -23 -27 0
-6 7 8 -12 -20 22 23 27 0
-6 7 8 -12 20 -22 -23 -27 0
-6 7 8 -12 20 -22 23 27 0
-6 7 8 -12 20 22 -23 27 0
-6 7 8 -12 20 22 23 -27 0
-6 7 8 12 -20 -22 -23 -27 0
-6 7 8 12 -20 -22 23 27 0
-6 7 8 12 -20 22 -23 27 0
-6 7 8 12 -20 22 23 -27 0
-6 7 8 12 20 -22 -23 27 0
-6 7 8 12 20 -22 23 -27 0
-6 7 8 12 20 22 -23 -27 0
-6 7 8 12 20 22 23 27 0
-5 -11 -16 -22 -30 -31 -32 36 0
-5 -11 -16 -22 -30 -31 32 -36 0
-5 -11 -16 -22 -30 31 -32 -36 0
-5 -11 -16 -22 -30 31 32 36 0
-5 -11 -16 -22 30 -31 -32 -36 0
-5 -11 -16 -22 30 -31 32 36 0
-5 -11 -16 -22 30 31 -32 36 0
-5 -11 -16 -22 30 31 32 -36 0
-5 -11 -16 22 -30 -31 -32 -36 0
-5 -11 -16 22 -30 -31 32 36 0
-5 -11 -16 22 -30 31 -32 36 0
-5 -11 -16 22 -30 31 32 -36 0
-5 -11 -16 22 30 -31 -32 36 0
-5 -11 -16 22 30 -31 32 -36 0
-5 -11 -16 22 30 31 -32 -36 0
-5 -11 -16 22 30 31 32 36 0
-5 -11 16 -22 -30 -31 -32 -36 0
-5 -11 16 -22 -30 -31 32 36 0
-5 -11 16 -22 -30 31 -32 36 0
-5 -11 16 -22 -30 31 32 -36 0
-5 -11 16 -22 30 -31 -32 36 0
-5 -11 16 -22 30 -31 32 -36 0
-5 -11 16 -22 30 31 -32 -36 0
-5 -11 16 -22 30 31 32 36 0
-5 -11 16 22 -30 -31 -32 36 0
-5 -11 16 22 -30 -31 32 -36 0
-5 -11 16 22 -30 31 -32 -36 0
-5 -11 16 22 -30 31 32 36 0
-5 -11 16 22 30 -31 -32 -36 0
-5 -11 16 22 30 -31 32 36 0
-5 -11 16 22 30 31 -32 36 0
-5 -11 16 22 30 31 32 -36 0
-5 -8 -13 -15 -17 -18 -26 34 0
-5 -8 -13 -15 -17 -18 26 -34 0
-5 -8 -13 -15 -17 18 -26 -34 0
-5 -8 -13 -15 -17 18 26 34 0
-5 -8 -13 -15 17 -18 -26 -34 0
-5 -8 -13 -15 17 -18 26 34 0
-5 -8 -13 -15 17 18 -26 34 0
-5 -8 -13 -15 17 18 26 -34 0
-5 -8 -13 15 -17 -18 -26 -34 0
-5 -8 -13 15 -17 -18 26 34 0
-5 -8 -13 15 -17 18 -26 34 0
-5 -8 -13 15 -17 18 26 -34 0
-5 -8 -13 15 17 -18 -26 34 0
-5 -8 -13 15 17 -18 26 -34 0
-5 -8 -13 15 17 18 -26 -34 0
-5 -8 -13 15 17 18 26 34 0
-5 -8 13 -15 -17 -18 -26 -34 0
-5 -8 13 -15 -17 -18 26 34 0
-5 -8 13 -15 -17 18 -26 34 0
-5 -8 13 -15 -17 18 26 -34 0
-5 -8 13 -15 17 -18 -26 34 0
-5 -8 13 -15 17 -18 26 -34 0
-5 -8 13 -15 17 18 -26 -34 0
-5 -8 13 -15 17 18 26 34 0
-5 -8 13 15 -17 -18 -26 34 0
-5 -8 13 15 -17 -18 26 -34 0
-5 -8 13 15 -17 18 -26 -34 0
-5 -8 13 15 -17 18 26 34 0
-5 -8 13 15 17 -18 -26 -34 0
-5 -8 13 15 17 -18 26 34 0
-5 -8 13 15 17 18 -26 34 0
-5 -8 13 15 17 18 26 -34 0
-5 8 -13 -15 -17 -18 -26 -34 0
-5 8 -13 -15 -17 -18 26 34 0
-5 8 -13 -15 -17 18 -26 34 0
-5 8 -13 -15 -17 18 26 -34 0
-5 8 -13 -15 17 -18 -26 34 0
-5 8 -13 -15 17 -18 26 -34 0
-5 8 -13 -15 17 18 -26 -34 0
-5 8 -13 -15 17 18 26 34 0
-5 8 -13 15 -17 -18 -26 34 0
-5 8 -13 15 -17 -18 26 -34 0
-5 8 -13 15 -17 18 -26 -34 0
-5 8 -13 15 -17 18 26 34 0
-5 8 -13 15 17 -18 -26 -34 0
-5 8 -13 15 17 -18 26 34 0
-5 8 -13 15 17 18 -26 34 0
-5 8 -13 15 17 18 26 -34 0
-5 8 13 -15 -17 -18 -26 34 0
-5 8 13 -15 -17 -18 26 -34 0
-5 8 13 -15 -17 18 -26 -34 0
-5 8 13 -15 -17 18 26 34 0
-5 8 13 -15 17 -18 -26 -34 0
-5 8 13 -15 17 -18 26 34 0
-5 8 13 -15 17 18 -26 34 0
-5 8 13 -15 17 18 26 -34 0
-5 8 13 15 -17 -18 -26 -34 0
-5 8 13 15 -17 -18 26 34 0
-5 8 13 15 -17 18 -26 34 0
-5 8 13 15 -17 18 26 -34 0
-5 8 13 15 17 -18 -26 34 0
-5 8 13 15 17 -18 26 -34 0
-5 8 13 15 17 18 -26 -34 0
-5 8 13 15 17 18 26 34 0
-5 11 -16 -22 -30 -31 -32 -36 0
-5 11 -16 -22 -30 -31 32 36 0
-5 11 -16 -22 -30 31 -32 36 0
-5 11 -16 -22 -30 31 32 -36 0
-5 11 -16 -22 30 -31 -32 36 0
-5 11 -16 -22 30 -31 32 -36 0
-5 11 -16 -22 30 31 -32 -36 0
-5 11 -16 -22 30 31 32 36 0
-5 11 -16 22 -30 -31 -32 36 0
-5 11 -16 22 -30 -31 32 -36 0
-5 11 -16 22 -30 31 -32 -36 0
-5 11 -16 22 -30 31 32 36 0
-5 11 -16 22 30 -31 -32 -36 0
-5 11 -16 22 30 -31 32 36 0
-5 11 -16 22 30 31 -32 36 0
-5 11 -16 22 30 31 32 -36 0
-5 11 16 -22 -30 -31 -32 36 0
-5 11 16 -22 -30 -31 32 -36 0
-5 11 16 -22 -30 31 -32 -36 0
-5 11 16 -22 -30 31 32 36 0
-5 11 16 -22 30 -31 -32 -36 0
-5 11 16 -22 30 -31 32 36 0
-5 11 16 -22 30 31 -32 36 0
-5 11 16 -22 30 31 32 -36 0
-5 11 16 22 -30 -31 -32 -36 0
-5 11 16 22 -30 -31 32 36 0
-5 11 16 22 -30 31 -32 36 0
-5 11 16 22 -30 31 32 -36 0
-5 11 16 22 30 -31 -32 36 0
-5 11 16 22 30 -31 32 -36 0
-5 11 16 22 30 31 -32 -36 0
-5 11 16 22 30 31 32 36 0
-3 -10 -14 -21 -27 -28 -34 36 0
-3 -10 -14 -21 -27 -28 34 -36 0
-3 -10 -14 -21 -27 28 -34 -36 0
-3 -10 -14 -21 -27 28 34 36 0
-3 -10 -14 -21 27 -28 -34 -36 0
-3 -10 -14 -21 27 -28 34 36 0
-3 -10 -14 -21 27 28 -34 36 0
-3 -10 -14 -21 27 28 34 -36 0
-3 -10 -14 21 -27 -28 -34 -36 0
-3 -10 -14 21 -27 -28 34 36 0
-3 -10 -14 21 -27 28 -34 36 0
-3 -10 -14 21 -27 28 34 -36 0
-3 -10 -14 21 27 -28 -34 36 0
-3 -10 -14 21 27 -28 34 -36 0
-3 -10 -14 21 27 28 -34 -36 0
-3 -10 -14 21 27 28 34 36 0
-3 -10 14 -21 -27 -28 -34 -36 0
-3 -10 14 -21 -27 -28 34 36 0
-3 -10 14 -21 -27 28 -34 36 0
-3 -10 14 -21 -27 28 34 -36 0
-3 -10 14 -21 27 -28 -34 36 0
-3 -10 14 -21 27 -28 34 -36 0
-3 -10 14 -21 27 28 -34 -36 0
-3 -10 14 -21 27 28 34 36 0
-3 -10 14 21 -27 -28 -34 36 0
-3 -10 14 21 -27 -28 34 -36 0
-3 -10 14 21 -27 28 -34 -36 0
-3 -10 14 21 -27 28 34 36 0
-3 -10 14 21 27 -28 -34 -36 0
-3 -10 14 21 27 -28 34 36 0
-3 -10 14 21 27 28 -34 36 0
-3 -10 14 21 27 28 34 -36 0
-3 10 -14 -21 -27 -28 -34 -36 0
-3 10 -14 -21 -27 -28 34 36 0
-3 10 -14 -21 -27 28 -34 36 0
-3 10 -14 -21 -27 28 34 -36 0
-3 10 -14 -21 27 -28 -34 36 0
-3 10 -14 -21 27 -28 34 -36 0
-3 10 -14 -21 27 28 -34 -36 0
-3 10 -14 -21 27 28 34 36 0
-3 10 -14 21 -27 -28 -34 36 0
-3 10 -14 21 -27 -28 34 -36 0
-3 10 -14 21 -27 28 -34 -36 0
-3 10 -14 21 -27 28 34 36 0
-3 10 -14 21 27 -28 -34 -36 0
-3 10 -14 21 27 -28 34 36 0
-3 10 -14 21 27 28 -34 36 0
-3 10 -14 21 27 28 34 -36 0
-3 10 14 -21 -27 -28 -34 36 0
-3 10 14 -21 -27 -28 34 -36 0
-3 10 14 -21 -27 28 -34 -36 0
-3 10 14 -21 -27 28 34 36 0
-3 10 14 -21 27 -28 -34 -36 0
-3 10 14 -21 27 -28 34 36 0
-3 10 14 -21 27 28 -34 36 0
-3 10 14 -21 27 28 34 -36 0
-3 10 14 21 -27 -28 -34 -36 0
-3 10 14 21 -27 -28 34 36 0
-3 10 14 21 -27 28 -34 36 0
-3 10 14 21 -27 28 34 -36 0
-3 10 14 21 27 -28 -34 36 0
-3 10 14 21 27 -28 34 -36 0
-3 10 14 21 27 28 -34 -36 0
-3 10 14 21 27 28 34 36 0
-2 -9 -10 -17 -20 -24 -31 35 0
-2 -9 -10 -17 -20 -24 31 -35 0
-2 -9 -10 -17 -20 24 -31 -35 0
-2 -9 -10 -17 -20 24 31 35 0
-2 -9 -10 -17 20 -24 -31 -35 0
-2 -9 -10 -17 20 -24 31 35 0
-2 -9 -10 -17 20 24 -31 35 0
-2 -9 -10 -17 20 24 31 -35 0
-2 -9 -10 17 -20 -24 -31 -35 0
-2 -9 -10 17 -20 -24 31 35 0
-2 -9 -10 17 -20 24 -31 35 0
-2 -9 -10 17 -20 24 31 -35 0
-2 -9 -10 17 20 -24 -31 35 0
-2 -9 -10 17 20 -24 31 -35 0
-2 -9 -10 17 20 24 -31 -35 0
-2 -9 -10 17 20 24 31 35 0
-2 -9 10 -17 -20 -24 -31 -35 0
-2 -9 10 -17 -20 -24 31 35 0
-2 -9 10 -17 -20 24 -31 35 0
-2 -9 10 -17 -20 24 31 -35 0
-2 -9 10 -17 20 -24 -31 35 0
-2 -9 10 -17 20 -24 31 -35 0
-2 -9 10 -17 20 24 -31 -35 0
-2 -9 10 -17 20 24 31 35 0
-2 -9 10 17 -20 -24 -31 35 0
-2 -9 10 17 -20 -24 31 -35 0
-2 -9 10 17 -20 24 -31 -35 0
-2 -9 10 17 -20 24 31 35 0
-2 -9 10 17 20 -24 -31 -35 0
-2 -9 10 17 20 -24 31 35 0
-2 -9 10 17 20 24 -31 35 0
-2 -9 10 17 20 24 31 -35 0
-2 -3 -4 -6 -13 -25 -29 30 0
-2 -3 -4 -6 -13 -25 29 -30 0
-2 -3 -4 -6 -13 25 -29 -30 0
-2 -3 -4 -6 -13 25 29 30 0
-2 -3 -4 -6 13 -25 -29 -30 0
-2 -3 -4 -6 13 -25 29 30 0
-2 -3 -4 -6 13 25 -29 30 0
-2 -3 -4 -6 13 25 29 -30 0
-2 -3 -4 6 -13 -25 -29 -30 0
-2 -3 -4 6 -13 -25 29 30 0
-2 -3 -4 6 -13 25 -29 30 0
-2 -3 -4 6 -13 25 29 -30 0
-2 -3 -4 6 13 -25 -29 30 0
-2 -3 -4 6 13 -25 29 -30 0
-2 -3 -4 6 13 25 -29 -30 0
-2 -3 -4 6 13 25 29 30 0
-2 -3 4 -6 -13 -25 -29 -30 0
-2 -3 4 -6 -13 -25 29 30 0
-2 -3 4 -6 -13 25 -29 30 0
-2 -3 4 -6 -13 25 29 -30 0
-2 -3 4 -6 13 -25 -29 30 0
-2 -3 4 -6 13 -25 29 -30 0
-2 -3 4 -6 13 25 -29 -30 0
-2 -3 4 -6 13 25 29 30 0
-2 -3 4 6 -13 -25 -29 30 0
-2 -3 4 6 -13 -25 29 -30 0
-2 -3 4 6 -13 25 -29 -30 0
-2 -3 4 6 -13 25 29 30 0
-2 -3 4 6 13 -25 -29 -30 0
-2 -3 4 6 13 -25 29 30 0
-2 -3 4 6 13 25 -29 30 0
-2 -3 4 6 13 25 29 -30 0
-2 3 -4 -6 -13 -25 -29 -30 0
-2 3 -4 -6 -13 -25 29 30 0
-2 3 -4 -6 -13 25 -29 30 0
-2 3 -4 -6 -13 25 29 -30 0
-2 3 -4 -6 13 -25 -29 30 0
-2 3 -4 -6 13 -25 29 -30 0
-2 3 -4 -6 13 25 -29 -30 0
-2 3 -4 -6 13 25 29 30 0
-2 3 -4 6 -13 -25 -29 30 0
-2 3 -4 6 -13 -25 29 -30 0
-2 3 -4 6 -13 25 -29 -30 0
-2 3 -4 6 -13 25 29 30 0
-2 3 -4 6 13 -25 -29 -30 0
-2 3 -4 6 13 -25 29 30 0
-2 3 -4 6 13 25 -29 30 0
-2 3 -4 6 13 25 29 -30 0
-2 3 4 -6 -13 -25 -29 30 0
-2 3 4 -6 -13 -25 29 -30 0
-2 3 4 -6 -13 25 -29 -30 0
-2 3 4 -6 -13 25 29 30 0
-2 3 4 -6 13 -25 -29 -30 0
-2 3 4 -6 13 -25 29 30 0
-2 3 4 -6 13 25 -29 30 0
-2 3 4 -6 13 25 29 -30 0
-2 3 4 6 -13 -25 -29 -30 0
-2 3 4 6 -13 -25 29 30 0
-2 3 4 6 -13 25 -29 30 0
-2 3 4 6 -13 25 29 -30 0
-2 3 4 6 13 -25 -29 30 0
-2 3 4 6 13 -25 29 -30 0
-2 3 4 6 13 25 -29 -30 0
-2 3 4 6 13 25 29 30 0
-2 9 -10 -17 -20 -24 -31 -35 0
-2 9 -10 -17 -20 -24 31 35 0
-2 9 -10 -17 -20 24 -31 35 0
-2 9 -10 -17 -20 24 31 -35 0
-2 9 -10 -17 20 -24 -31 35 0
-2 9 -10 -17 20 -24 31 -35 0
-2 9 -10 -17 20 24 -31 -35 0
-2 9 -10 -17 20 24 31 35 0
-2 9 -10 17 -20 -24 -31 35 0
-2 9 -10 17 -20 -24 31 -35 0
-2 9 -10 17 -20 24 -31 -35 0
-2 9 -10 17 -20 24 31 35 0
-2 9 -10 17 20 -24 -31 -35 0
-2 9 -10 17 20 -24 31 35 0
-2 9 -10 17 20 24 -31 35 0
-2 9 -10 17 20 24 31 -35 0
-2 9 10 -17 -20 -24 -31 35 0
-2 9 10 -17 -20 -24 31 -35 0
-2 9 10 -17 -20 24 -31 -35 0
-2 9 10 -17 -20 24 31 35 0
-2 9 10 -17 20 -24 -31 -35 0
-2 9 10 -17 20 -24 31 35 0
-2 9 10 -17 20 24 -31 35 0
-2 9 10 -17 20 24 31 -35 0
-2 9 10 17 -20 -24 -31 -35 0
-2 9 10 17 -20 -24 31 35 0
-2 9 10 17 -20 24 -31 35 0
-2 9 10 17 -20 24 31 -35 0
-2 9 10 17 20 -24 -31 35 0
-2 9 10 17 20 -24 31 -35 0
-2 9 10 17 20 24 -31 -35 0
-2 9 10 17 20 24 31 35 0
-1 -9 -15 -21 -23 -29 -32 33 0
-1 -9 -15 -21 -23 -29 32 -33 0
-1 -9 -15 -21 -23 29 -32 -33 0
-1 -9 -15 -21 -23 29 32 33 0
-1 -9 -15 -21 23 -29 -32 -33 0
-1 -9 -15 -21 23 -29 32 33 0
-1 -9 -15 -21 23 29 -32 33 0
-1 -9 -15 -21 23 29 32 -33 0
-1 -9 -15 21 -23 -29 -32 -33 0
-1 -9 -15 21 -23 -29 32 33 0
-1 -9 -15 21 -23 29 -32 33 0
-1 -9 -15 21 -23 29 32 -33 0
-1 -9 -15 21 23 -29 -32 33 0
-1 -9 -15 21 23 -29 32 -33 0
-1 -9 -15 21 23 29 -32 -33 0
-1 -9 -15 21 23 29 32 33 0
-1 -9 15 -21 -23 -29 -32 -33 0
-1 -9 15 -21 -23 -29 32 33 0
-1 -9 15 -21 -23 29 -32 33 0
-1 -9 15 -21 -23 29 32 -33 0
-1 -9 15 -21 23 -29 -32 33 0
-1 -9 15 -21 23 -29 32 -33 0
-1 -9 15 -21 23 29 -32 -33 0
-1 -9 15 -21 23 29 32 33 0
-1 -9 15 21 -23 -29 -32 33 0
-1 -9 15 21 -23 -29 32 -33 0
-1 -9 15 21 -23 29 -32 -33 0
-1 -9 15 21 -23 29 32 33 0
-1 -9 15 21 23 -29 -32 -33 0
-1 -9 15 21 23 -29 32 33 0
-1 -9 15 21 23 29 -32 33 0
-1 -9 15 21 23 29 32 -33 0
-1 -4 -11 -12 -18 -19 -28 35 0
-1 -4 -11 -12 -18 -19 28 -35 0
-1 -4 -11 -12 -18 19 -28 -35 0
-1 -4 -11 -12 -18 19 28 35 0
-1 -4 -11 -12 18 -19 -28 -35 0
-1 -4 -11 -12 18 -19 28 35 0
-1 -4 -11 -12 18 19 -28 35 0
-1 -4 -11 -12 18 19 28 -35 0
-1 -4 -11 12 -18 -19 -28 -35 0
-1 -4 -11 12 -18 -19 28 35 0
-1 -4 -11 12 -18 19 -28 35 0
-1 -4 -11 12 -18 19 28 -35 0
-1 -4 -11 12 18 -19 -28 35 0
-1 -4 -11 12 18 -19 28 -35 0
-1 -4 -11 12 18 19 -28 -35 0
-1 -4 -11 12 18 19 28 35 0
-1 -4 11 -12 -18 -19 -28 -35 0
-1 -4 11 -12 -18 -19 28 35 0
-1 -4 11 -12 -18 19 -28 35 0
-1 -4 11 -12 -18 19 28 -35 0
-1 -4 11 -12 18 -19 -28 35 0
-1 -4 11 -12 18 -19 28 -35 0
-1 -4 11 -12 18 19 -28 -35 0
-1 -4 11 -12 18 19 28 35 0
-1 -4 11 12 -18 -19 -28 35 0
-1 -4 11 12 -18 -19 28 -35 0
-1 -4 11 12 -18 19 -28 -35 0
-1 -4 11 12 -18 19 28 35 0
-1 -4 11 12 18 -19 -28 -35 0
-1 -4 11 12 18 -19 28 35 0
-1 -4 11 12 18 19 -28 35 0
-1 -4 11 12 18 19 28 -35 0
-1 4 -11 -12 -18 -19 -28 -35 0
-1 4 -11 -12 -18 -19 28 35 0
-1 4 -11 -12 -18 19 -28 35 0
-1 4 -11 -12 -18 19 28 -35 0
-1 4 -11 -12 18 -19 -28 35 0
-1 4 -11 -12 18 -19 28 -35 0
-1 4 -11 -12 18 19 -28 -35 0
-1 4 -11 -12 18 19 28 35 0
-1 4 -11 12 -18 -19 -28 35 0
-1 4 -11 12 -18 -19 28 -35 0
-1 4 -11 12 -18 19 -28 -35 0
-1 4 -11 12 -18 19 28 35 0
-1 4 -11 12 18 -19 -28 -35 0
-1 4 -11 12 18 -19 28 35 0
-1 4 -11 12 18 19 -28 35 0
-1 4 -11 12 18 19 28 -35 0
-1 4 11 -12 -18 -19 -28 35 0
-1 4 11 -12 -18 -19 28 -35 0
-1 4 11 -12 -18 19 -28 -35 0
-1 4 11 -12 -18 19 28 35 0
-1 4 11 -12 18 -19 -28 -35 0
-1 4 11 -12 18 -19 28 35 0
-1 4 11 -12 18 19 -28 35 0
-1 4 11 -12 18 19 28 -35 0
-1 4 11 12 -18 -19 -28 -35 0
-1 4 11 12 -18 -19 28 35 0
-1 4 11 12 -18 19 -28 35 0
-1 4 11 12 -18 19 28 -35 0
-1 4 11 12 18 -19 -28 35 0
-1 4 11 12 18 -19 28 -35 0
-1 4 11 12 18 19 -28 -35 0
-1 4 11 12 18 19 28 35 0
-1 9 -15 -21 -23 -29 -32 -33 0
-1 9 -15 -21 -23 -29 32 33 0
-1 9 -15 -21 -23 29 -32 33 0
-1 9 -15 -21 -23 29 32 -33 0
-1 9 -15 -21 23 -29 -32 33 0
-1 9 -15 -21 23 -29 32 -33 0
-1 9 -15 -21 23 29 -32 -33 0
-1 9 -15 -21 23 29 32 33 0
-1 9 -15 21 -23 -29 -32 33 0
-1 9 -15 21 -23 -29 32 -33 0
-1 9 -15 21 -23 29 -32 -33 0
-1 9 -15 21 -23 29 32 33 0
-1 9 -15 21 23 -29 -32 -33 0
-1 9 -15 21 23 -29 32 33 0
-1 9 -15 21 23 29 -32 33 0
-1 9 -15 21 23 29 32 -33 0
-1 9 15 -21 -23 -29 -32 33 0
-1 9 15 -21 -23 -29 32 -33 0
-1 9 15 -21 -23 29 -32 -33 0
-1 9 15 -21 -23 29 32 33 0
-1 9 15 -21 23 -29 -32 -33 0
-1 9 15 -21 23 -29 32 33 0
-1 9 15 -21 23 29 -32 33 0
-1 9 15 -21 23 29 32 -33 0
-1 9 15 21 -23 -29 -32 -33 0
-1 9 15 21 -23 -29 32 33 0
-1 9 15 21 -23 29 -32 33 0
-1 9 15 21 -23 29 32 -33 0
-1 9 15 21 23 -29 -32 33 0
-1 9 15 21 23 -29 32 -33 0
-1 9 15 21 23 29 -32 -33 0
-1 9 15 21 23 29 32 33 0
1 -9 -15 -21 -23 -29 -32 -33 0
1 -9 -15 -21 -23 -29 32 33 0
1 -9 -15 -21 -23 29 -32 33 0
1 -9 -15 -21 -23 29 32 -33 0
1 -9 -15 -21 23 -29 -32 33 0
1 -9 -15 -21 23 -29 32 -33 0
1 -9 -15 -21 23 29 -32 -33 0
1 -9 -15 -21 23 29 32 33 0
1 -9 -15 21 -23 -29 -32 33 0
1 -9 -15 21 -23 -29 32 -33 0
1 -9 -15 21 -23 29 -32 -33 0
1 -9 -15 21 -23 29 32 33 0
1 -9 -15 21 23 -29 -32 -33 0
1 -9 -15 21 23 -29 32 33 0
1 -9 -15 21 23 29 -32 33 0
1 -9 -15 21 23 29 32 -33 0
1 -9 15 -21 -23 -29 -32 33 0
1 -9 15 -21 -23 -29 32 -33 0
1 -9 15 -21 -23 29 -32 -33 0
1 -9 15 -21 -23 29 32 33 0
1 -9 15 -21 23 -29 -32 -33 0
1 -9 15 -21 23 -29 32 33 0
1 -9 15 -21 23 29 -32 33 0
1 -9 15 -21 23 29 32 -33 0
1 -9 15 21 -23 -29 -32 -33 0
1 -9 15 21 -23 -29 32 33 0
1 -9 15 21 -23 29 -32 33 0
1 -9 15 21 -23 29 32 -33 0
1 -9 15 21 23 -29 -32 33 0
1 -9 15 21 23 -29 32 -33 0
1 -9 15 21 23 29 -32 -33 0
1 -9 15 21 23 29 32 33 0
1 -4 -11 -12 -18 -19 -28 -35 0
1 -4 -11 -12 -18 -19 28 35 0
1 -4 -11 -12 -18 19 -28 35 0
1 -4 -11 -12 -18 19 28 -35 0
1 -4 -11 -12 18 -19 -28 35 0
1 -4 -11 -12 18 -19 28 -35 0
1 -4 -11 -12 18 19 -28 -35 0
1 -4 -11 -12 18 19 28 35 0
1 -4 -11 12 -18 -19 -28 35 0
1 -4 -11 12 -18 -19 28 -35 0
1 -4 -11 12 -18 19 -28 -35 0
1 -4 -11 12 -18 19 28 35 0
1 -4 -11 12 18 -19 -28 -35 0
1 -4 -11 12 18 -19 28 35 0
1 -4 -11 12 18 19 -28 35 0
1 -4 -11 12 18 19 28 -35 0
1 -4 11 -12 -18 -19 -28 35 0
1 -4 11 -12 -18 -19 28 -35 0
1 -4 11 -12 -18 19 -28 -35 0
1 -4 11 -12 -18 19 28 35 0
1 -4 11 -12 18 -19 -28 -35 0
1 -4 11 -12 18 -19 28 35 0
1 -4 11 -12 18 19 -28 35 0
1 -4 11 -12 18 19 28 -35 0
1 -4 11 12 -18 -19 -28 -35 0
1 -4 11 12 -18 -19 28 35 0
1 -4 11 12 -18 19 -28 35 0
1 -4 11 12 -18 19 28 -35 0
1 -4 11 12 18 -19 -28 35 0
1 -4 11 12 18 -19 28 -35 0
1 -4 11 12 18 19 -28 -35 0
1 -4 11 12 18 19 28 35 0
1 4 -11 -12 -18 -19 -28 35 0
1 4 -11 -12 -18 -19 28 -35 0
1 4 -11 -12 -18 19 -28 -35 0
1 4 -11 -12 -18 19 28 35 0
1 4 -11 -12 18 -19 -28 -35 0
1 4 -11 -12 18 -19 28 35 0
1 4 -11 -12 18 19 -28 35 0
1 4 -11 -12 18 19 28 -35 0
1 4 -11 12 -18 -19 -28 -35 0
1 4 -11 12 -18 -19 28 35 0
1 4 -11 12 -18 19 -28 35 0
1 4 -11 12 -18 19 28 -35 0
1 4 -11 12 18 -19 -28 35 0
1 4 -11 12 18 -19 28 -35 0
1 4 -11 12 18 19 -28 -35 0
1 4 -11 12 18 19 28 35 0
1 4 11 -12 -18 -19 -28 -35 0
1 4 11 -12 -18 -19 28 35 0
1 4 11 -12 -18 19 -28 35 0
1 4 11 -12 -18 19 28 -35 0
1 4 11 -12 18 -19 -28 35 0
1 4 11 -12 18 -19 28 -35 0
1 4 11 -12 18 19 -28 -35 0
1 4 11 -12 18 19 28 35 0
1 4 11 12 -18 -19 -28 35 0
1 4 11 12 -18 -19 28 -35 0
1 4 11 12 -18 19 -28 -35 0
1 4 11 12 -18 19 28 35 0
1 4 11 12 18 -19 -28 -35 0
1 4 11 12 18 -19 28 35 0
1 4 11 12 18 19 -28 35 0
1 4 11 12 18 19 28 -35 0
1 9 -15 -21 -23 -29 -32 33 0
1 9 -15 -21 -23 -29 32 -33 0
1 9 -15 -21 -23 29 -32 -33 0
1 9 -15 -21 -23 29 32 33 0
1 9 -15 -21 23 -29 -32 -33 0
1 9 -15 -21 23 -29 32 33 0
1 9 -15 -21 23 29 -32 33 0
1 9 -15 -21 23 29 32 -33 0
1 9 -15 21 -23 -29 -32 -33 0
1 9 -15 21 -23 -29 32 33 0
1 9 -15 21 -23 29 -32 33 0
1 9 -15 21 -23 29 32 -33 0
1 9 -15 21 23 -29 -32 33 0
1 9 -15 21 23 -29 32 -33 0
1 9 -15 21 23 29 -32 -33 0
1 9 -15 21 23 29 32 33 0
1 9 15 -21 -23 -29 -32 -33 0
1 9 15 -21 -23 -29 32 33 0
1 9 15 -21 -23 29 -32 33 0
1 9 15 -21 -23 29 32 -33 0
1 9 15 -21 23 -29 -32 33 0
1 9 15 -21 23 -29 32 -33 0
1 9 15 -21 23 29 -32 -33 0
1 9 15 -21 23 29 32 33 0
1 9 15 21 -23 -29 -32 33 0
1 9 15 21 -23 -29 32 -33 0
1 9 15 21 -23 29 -32 -33 0
1 9 15 21 -23 29 32 33 0
1 9 15 21 23 -29 -32 -33 0
1 9 15 21 23 -29 32 33 0
1 9 15 21 23 29 -32 33 0
1 9 15 21 23 29 32 -33 0
2 -9 -10 -17 -20 -24 -31 -35 0
2 -9 -10 -17 -20 -24 31 35 0
2 -9 -10 -17 -20 24 -31 35 0
2 -9 -10 -17 -20 24 31 -35 0
2 -9 -10 -17 20 -24 -31 35 0
2 -9 -10 -17 20 -24 31 -35 0
2 -9 -10 -17 20 24 -31 -35 0
2 -9 -10 -17 20 24 31 35 0
2 -9 -10 17 -20 -24 -31 35 0
2 -9 -10 17 -20 -24 31 -35 0
2 -9 -10 17 -20 24 -31 -35 0
2 -9 -10 17 -20 24 31 35 0
2 -9 -10 17 20 -24 -31 -35 0
2 -9 -10 17 20 -24 31 35 0
2 -9 -10 17 20 24 -31 35 0
2 -9 -10 17 20 24 31 -35 0
2 -9 10 -17 -20 -24 -31 35 0
2 -9 10 -17 -20 -24 31 -35 0
2 -9 10 -17 -20 24 -31 -35 0
2 -9 10 -17 -20 24 31 35 0
2 -9 10 -17 20 -24 -31 -35 0
2 -9 10 -17 20 -24 31 35 0
2 -9 10 -17 20 24 -31 35 0
2 -9 10 -17 20 24 31 -35 0
2 -9 10 17 -20 -24 -31 -35 0
2 -9 10 17 -20 -24 31 35 0
2 -9 10 17 -20 24 -31 35 0
2 -9 10 17 -20 24 31 -35 0
2 -9 10 17 20 -24 -31 35 0
2 -9 10 17 20 -24 31 -35 0
2 -9 10 17 20 24 -31 -35 0
2 -9 10 17 20 24 31 35 0
2 -3 -4 -6 -13 -25 -29 -30 0
2 -3 -4 -6 -13 -25 29 30 0
2 -3 -4 -6 -13 25 -29 30 0
2 -3 -4 -6 -13 25 29 -30 0
2 -3 -4 -6 13 -25 -29 30 0
2 -3 -4 -6 13 -25 29 -30 0
2 -3 -4 -6 13 25 -29 -30 0
2 -3 -4 -6 13 25 29 30 0
2 -3 -4 6 -13 -25 -29 30 0
2 -3 -4 6 -13 -25 29 -30 0
2 -3 -4 6 -13 25 -29 -30 0
2 -3 -4 6 -13 25 29 30 0
2 -3 -4 6 13 -25 -29 -30 0
2 -3 -4 6 13 -25 29 30 0
2 -3 -4 6 13 25 -29 30 0
2 -3 -4 6 13 25 29 -30 0
2 -3 4 -6 -13 -25 -29 30 0
2 -3 4 -6 -13 -25 29 -30 0
2 -3 4 -6 -13 25 -29 -30 0
2 -3 4 -6 -13 25 29 30 0
2 -3 4 -6 13 -25 -29 -30 0
2 -3 4 -6 13 -25 29 30 0
2 -3 4 -6 13 25 -29 30 0
2 -3 4 -6 13 25 29 -30 0
2 -3 4 6 -13 -25 -29 -30 0
2 -3 4 6 -13 -25 29 30 0
2 -3 4 6 -13 25 -29 30 0
2 -3 4 6 -13 25 29 -30 0
2 -3 4 6 13 -25 -29 30 0
2 -3 4 6 13 -25 29 -30 0
2 -3 4 6 13 25 -29 -30 0
2 -3 4 6 13 25 29 30 0
2 3 -4 -6 -13 -25 -29 30 0
2 3 -4 -6 -13 -25 29 -30 0
2 3 -4 -6 -13 25 -29 -30 0
2 3 -4 -6 -13 25 29 30 0
2 3 -4 -6 13 -25 -29 -30 0
2 3 -4 -6 13 -25 29 30 0
2 3 -4 -6 13 25 -29 30 0
2 3 -4 -6 13 25 29 -30 0
2 3 -4 6 -13 -25 -29 -30 0
2 3 -4 6 -13 -25 29 30 0
2 3 -4 6 -13 25 -29 30 0
2 3 -4 6 -13 25 29 -30 0
2 3 -4 6 13 -25 -29 30 0
2 3 -4 6 13 -25 29 -30 0
2 3 -4 6 13 25 -29 -30 0
2 3 -4 6 13 25 29 30 0
2 3 4 -6 -13 -25 -29 -30 0
2 3 4 -6 -13 -25 29 30 0
2 3 4 -6 -13 25 -29 30 0
2 3 4 -6 -13 25 29 -30 0
2 3 4 -6 13 -25 -29 30 0
2 3 4 -6 13 -25 29 -30 0
2 3 4 -6 13 25 -29 -30 0
2 3 4 -6 13 25 29 30 0
2 3 4 6 -13 -25 -29 30 0
2 3 4 6 -13 -25 29 -30 0
2 3 4 6 -13 25 -29 -30 0
2 3 4 6 -13 25 29 30 0
2 3 4 6 13 -25 -29 -30 0
2 3 4 6 13 -25 29 30 0
2 3 4 6 13 25 -29 30 0
2 3 4 6 13 25 29 -30 0
2 9 -10 -17 -20 -24 -31 35 0
2 9 -10 -17 -20 -24 31 -35 0
2 9 -10 -17 -20 24 -31 -35 0
2 9 -10 -17 -20 24 31 35 0
2 9 -10 -17 20 -24 -31 -35 0
2 9 -10 -17 20 -24 31 35 0
2 9 -10 -17 20 24 -31 35 0
2 9 -10 -17 20 24 31 -35 0
2 9 -10 17 -20 -24 -31 -35 0
2 9 -10 17 -20 -24 31 35 0
2 9 -10 17 -20 24 -31 35 0
2 9 -10 17 -20 24 31 -35 0
2 9 -10 17 20 -24 -31 35 0
2 9 -10 17 20 -24 31 -35 0
2 9 -10 17 20 24 -31 -35 0
2 9 -10 17 20 24 31 35 0
2 9 10 -17 -20 -24 -31 -35 0
2 9 10 -17 -20 -24 31 35 0
2 9 10 -17 -20 24 -31 35 0
2 9 10 -17 -20 24 31 -35 0
2 9 10 -17 20 -24 -31 35 0
2 9 10 -17 20 -24 31 -35 0
2 9 10 -17 20 24 -31 -35 0
2 9 10 -17 20 24 31 35 0
2 9 10 17 -20 -24 -31 35 0
2 9 10 17 -20 -24 31 -35 0
2 9 10 17 -20 24 -31 -35 0
2 9 10 17 -20 24 31 35 0
2 9 10 17 20 -24 -31 -35 0
2 9 10 17 20 -24 31 35 0
2 9 10 17 20 24 -31 35 0
2 9 10 17 20 24 31 -35 0
3 -10 -14 -21 -27 -28 -34 -36 0
3 -10 -14 -21 -27 -28 34 36 0
3 -10 -14 -21 -27 28 -34 36 0
3 -10 -14 -21 -27 28 34 -36 0
3 -10 -14 -21 27 -28 -34 36 0
3 -10 -14 -21 27 -28 34 -36 0
3 -10 -14 -21 27 28 -34 -36 0
3 -10 -14 -21 27 28 34 36 0
3 -10 -14 21 -27 -28 -34 36 0
3 -10 -14 21 -27 -28 34 -36 0
3 -10 -14 21 -27 28 -34 -36 0
3 -10 -14 21 -27 28 34 36 0
3 -10 -14 21 27 -28 -34 -36 0
3 -10 -14 21 27 -28 34 36 0
3 -10 -14 21 27 28 -34 36 0
3 -10 -14 21 27 28 34 -36 0
3 -10 14 -21 -27 -28 -34 36 0
3 -10 14 -21 -27 -28 34 -36 0
3 -10 14 -21 -27 28 -34 -36 0
3 -10 14 -21 -27 28 34 36 0
3 -10 14 -21 27 -28 -34 -36 0
3 -10 14 -21 27 -28 34 36 0
3 -10 14 -21 27 28 -34 36 0
3 -10 14 -21 27 28 34 -36 0
3 -10 14 21 -27 -28 -34 -36 0
3 -10 14 21 -27 -28 34 36 0
3 -10 14 21 -27 28 -34 36 0
3 -10 14 21 -27 28 34 -36 0
3 -10 14 21 27 -28 -34 36 0
3 -10 14 21 27 -28 34 -36 0
3 -10 14 21 27 28 -34 -36 0
3 -10 14 21 27 28 34 36 0
3 10 -14 -21 -27 -28 -34 36 0
3 10 -14 -21 -27 -28 34 -36 0
3 10 -14 -21 -27 28 -34 -36 0
3 10 -14 -21 -27 28 34 36 0
3 10 -14 -21 27 -28 -34 -36 0
3 10 -14 -21 27 -28 34 36 0
3 10 -14 -21 27 28 -34 36 0
3 10 -14 -21 27 28 34 -36 0
3 10 -14 21 -27 -28 -34 -36 0
3 10 -14 21 -27 -28 34 36 0
3 10 -14 21 -27 28 -34 36 0
3 10 -14 21 -27 28 34 -36 0
3 10 -14 21 27 -28 -34 36 0
3 10 -14 21 27 -28 34 -36 0
3 10 -14 21 27 28 -34 -36 0
3 10 -14 21 27 28 34 36 0
3 10 14 -21 -27 -28 -34 -36 0
3 10 14 -21 -27 -28 34 36 0
3 10 14 -21 -27 28 -34 36 0
3 10 14 -21 -27 28 34 -36 0
3 10 14 -21 27 -28 -34 36 0
3 10 14 -21 27 -28 34 -36 0
3 10 14 -21 27 28 -34 -36 0
3 10 14 -21 27 28 34 36 0
3 10 14 21 -27 -28 -34 36 0
3 10 14 21 -27 -28 34 -36 0
3 10 14 21 -27 28 -34 -36 0
3 10 14 21 -27 28 34 36 0
3 10 14 21 27 -28 -34 -36 0
3 10 14 21 27 -28 34 36 0
3 10 14 21 27 28 -34 36 0
3 10 14 21 27 28 34 -36 0
5 -11 -16 -22 -30 -31 -32 -36 0
5 -11 -16 -22 -30 -31 32 36 0
5 -11 -16 -22 -30 31 -32 36 0
5 -11 -16 -22 -30 31 32 -36 0
5 -11 -16 -22 30 -31 -32 36 0
5 -11 -16 -22 30 -31 32 -36 0
5 -11 -16 -22 30 31 -32 -36 0
5 -11 -16 -22 30 31 32 36 0
5 -11 -16 22 -30 -31 -32 36 0
5 -11 -16 22 -30 -31 32 -36 0
5 -11 -16 22 -30 31 -32 -36 0
5 -11 -16 22 -30 31 32 36 0
5 -11 -16 22 30 -31 -32 -36 0
5 -11 -16 22 30 -31 32 36 0
5 -11 -16 22 30 31 -32 36 0
5 -11 -16 22 30 31 32 -36 0
5 -11 16 -22 -30 -31 -32 36 0
5 -11 16 -22 -30 -31 32 -36 0
5 -11 16 -22 -30 31 -32 -36 0
5 -11 16 -22 -30 31 32 36 0
5 -11 16 -22 30 -31 -32 -36 0
5 -11 16 -22 30 -31 32 36 0
5 -11 16 -22 30 31 -32 36 0
5 -11 16 -22 30 31 32 -36 0
5 -11 16 22 -30 -31 -32 -36 0
5 -11 16 22 -30 -31 32 36 0
5 -11 16 22 -30 31 -32 36 0
5 -11 16 22 -30 31 32 -36 0
5 -11 16 22 30 -31 -32 36 0
5 -11 16 22 30 -31 32 -36 0
5 -11 16 22 30 31 -32 -36 0
5 -11 16 22 30 31 32 36 0
5 -8 -13 -15 -17 -18 -26 -34 0
5 -8 -13 -15 -17 -18 26 34 0
5 -8 -13 -15 -17 18 -26 34 0
5 -8 -13 -15 -17 18 26 -34 0
5 -8 -13 -15 17 -18 -26 34 0
5 -8 -13 -15 17 -18 26 -34 0
5 -8 -13 -15 17 18 -26 -34 0
5 -8 -13 -15 17 18 26 34 0
5 -8 -13 15 -17 -18 -26 34 0
5 -8 -13 15 -17 -18 26 -34 0
5 -8 -13 15 -17 18 -26 -34 0
5 -8 -13 15 -17 18 26 34 0
5 -8 -13 15 17 -18 -26 -34 0
5 -8 -13 15 17 -18 26 34 0
5 -8 -13 15 17 18 -26 34 0
5 -8 -13 15 17 18 26 -34 0
5 -8 13 -15 -17 -18 -26 34 0
5 -8 13 -15 -17 -18 26 -34 0
5 -8 13 -15 -17 18 -26 -34 0
5 -8 13 -15 -17 18 26 34 0
5 -8 13 -15 17 -18 -26 -34 0
5 -8 13 -15 17 -18 26 34 0
5 -8 13 -15 17 18 -26 34 0
5 -8 13 -15 17 18 26 -34 0
5 -8 13 15 -17 -18 -26 -34 0
5 -8 13 15 -17 -18 26 34 0
5 -8 13 15 -17 18 -26 34 0
5 -8 13 15 -17 18 26 -34 0
5 -8 13 15 17 -18 -26 34 0
5 -8 13 15 17 -18 26 -34 0
5 -8 13 15 17 18 -26 -34 0
5 -8 13 15 17 18 26 34 0
5 8 -13 -15 -17 -18 -26 34 0
5 8 -13 -15 -17 -18 26 -34 0
5 8 -13 -15 -17 18 -26 -34 0
5 8 -13 -15 -17 18 26 34 0
5 8 -13 -15 17 -18 -26 -34 0
5 8 -13 -15 17 -18 26 34 0
5 8 -13 -15 17 18 -26 34 0
5 8 -13 -15 17 18 26 -34 0
5 8 -13 15 -17 -18 -26 -34 0
5 8 -13 15 -17 -18 26 34 0
5 8 -13 15 -17 18 -26 34 0
5 8 -13 15 -17 18 26 -34 0
5 8 -13 15 17 -18 -26 34 0
5 8 -13 15 17 -18 26 -34 0
5 8 -13 15 17 18 -26 -34 0
5 8 -13 15 17 18 26 34 0
5 8 13 -15 -17 -18 -26 -34 0
5 8 13 -15 -17 -18 26 34 0
5 8 13 -15 -17 18 -26 34 0
5 8 13 -15 -17 18 26 -34 0
5 8 13 -15 17 -18 -26 34 0
5 8 13 -15 17 -18 26 -34 0
5 8 13 -15 17 18 -26 -34 0
5 8 13 -15 17 18 26 34 0
5 8 13 15 -17 -18 -26 34 0
5 8 13 15 -17 -18 26 -34 0
5 8 13 15 -17 18 -26 -34 0
5 8 13 15 -17 18 26 34 0
5 8 13 15 17 -18 -26 -34 0
5 8 13 15 17 -18 26 34 0
5 8 13 15 17 18 -26 34 0
5 8 13 15 17 18 26 -34 0
5 11 -16 -22 -30 -31 -32 36 0
5 11 -16 -22 -30 -31 32 -36 0
5 11 -16 -22 -30 31 -32 -36 0
5 11 -16 -22 -30 31 32 36 0
5 11 -16 -22 30 -31 -32 -36 0
5 11 -16 -22 30 -31 32 36 0
5 11 -16 -22 30 31 -32 36 0
5 11 -16 -22 30 31 32 -36 0
5 11 -16 22 -30 -31 -32 -36 0
5 11 -16 22 -30 -31 32 36 0
5 11 -16 22 -30 31 -32 36 0
5 11 -16 22 -30 31 32 -36 0
5 11 -16 22 30 -31 -32 36 0
5 11 -16 22 30 -31 32 -36 0
5 11 -16 22 30 31 -32 -36 0
5 11 -16 22 30 31 32 36 0
5 11 16 -22 -30 -31 -32 -36 0
5 11 16 -22 -30 -31 32 36 0
5 11 16 -22 -30 31 -32 36 0
5 11 16 -22 -30 31 32 -36 0
5 11 16 -22 30 -31 -32 36 0
5 11 16 -22 30 -31 32 -36 0
5 11 16 -22 30 31 -32 -36 0
5 11 16 -22 30 31 32 36 0
5 11 16 22 -30 -31 -32 36 0
5 11 16 22 -30 -31 32 -36 0
5 11 16 22 -30 31 -32 -36 0
5 11 16 22 -30 31 32 36 0
5 11 16 22 30 -31 -32 -36 0
5 11 16 22 30 -31 32 36 0
5 11 16 22 30 31 -32 36 0
5 11 16 22 30 31 32 -36 0
6 -7 -8 -12 -20 -22 -23 -27 0
6 -7 -8 -12 -20 -22 23 27 0
6 -7 -8 -12 -20 22 -23 27 0
6 -7 -8 -12 -20 22 23 -27 0
6 -7 -8 -12 20 -22 -23 27 0
6 -7 -8 -12 20 -22 23 -27 0
6 -7 -8 -12 20 22 -23 -27 0
6 -7 -8 -12 20 22 23 27 0
6 -7 -8 12 -20 -22 -23 27 0
6 -7 -8 12 -20 -22 23 -27 0
6 -7 -8 12 -20 22 -23 -27 0
6 -7 -8 12 -20 22 23 27 0
6 -7 -8 12 20 -22 -23 -27 0
6 -7 -8 12 20 -22 23 27 0
6 -7 -8 12 20 22 -23 27 0
6 -7 -8 12 20 22 23 -27 0
6 -7 8 -12 -20 -22 -23 27 0
6 -7 8 -12 -20 -22 23 -27 0
6 -7 8 -12 -20 22 -23 -27 0
6 -7 8 -12 -20 22 23 27 0
6 -7 8 -12 20 -22 -23 -27 0
6 -7 8 -12 20 -22 23 27 0
6 -7 8 -12 20 22 -23 27 0
6 -7 8 -12 20 22 23 -27 0
6 -7 8 12 -20 -22 -23 -27 0
6 -7 8 12 -20 -22 23 27 0
6 -7 8 12 -20 22 -23 27 0
6 -7 8 12 -20 22 23 -27 0
6 -7 8 12 20 -22 -23 27 0
6 -7 8 12 20 -22 23 -27 0
6 -7 8 12 20 22 -23 -27 0
6 -7 8 12 20 22 23 27 0
6 7 -8 -12 -20 -22 -23 27 0
6 7 -8 -12 -20 -22 23 -27 0
6 7 -8 -12 -20 22 -23 -27 0
6 7 -8 -12 -20 22 23 27 0
6 7 -8 -12 20 -22 -23 -27 0
6 7 -8 -12 20 -22 23 27 0
6 7 -8 -12 20 22 -23 27 0
6 7 -8 -12 20 22 23 -27 0
6 7 -8 12 -20 -22 -23 -27 0
6 7 -8 12 -20 -22 23 27 0
6 7 -8 12 -20 22 -23 27 0
6 7 -8 12 -20 22 23 -27 0
6 7 -8 12 20 -22 -23 27 0
6 7 -8 12 20 -22 23 -27 0
6 7 -8 12 20 22 -23 -27 0
6 7 -8 12 20 22 23 27 0
6 7 8 -12 -20 -22 -23 -27 0
6 7 8 -12 -20 -22 23 27 0
6 7 8 -12 -20 22 -23 27 0
6 7 8 -12 -20 22 23 -27 0
6 7 8 -12 20 -22 -23 27 0
6 7 8 -12 20 -22 23 -27 0
6 7 8 -12 20 22 -23 -27 0
6 7 8 -12 20 22 23 27 0
6 7 8 12 -20 -22 -23 27 0
6 7 8 12 -20 -22 23 -27 0
6 7 8 12 -20 22 -23 -27 0
6 7 8 12 -20 22 23 27 0
6 7 8 12 20 -22 -23 -27 0
6 7 8 12 20 -22 23 27 0
6 7 8 12 20 22 -23 27 0
6 7 8 12 20 22 23 -27 0
7 -14 -16 -19 -24 -25 -26 33 0
7 -14 -16 -19 -24 -25 26 -33 0
7 -14 -16 -19 -24 25 -26 -33 0
7 -14 -16 -19 -24 25 26 33 0
7 -14 -16 -19 24 -25 -26 -33 0
7 -14 -16 -19 24 -25 26 33 0
7 -14 -16 -19 24 25 -26 33 0
7 -14 -16 -19 24 25 26 -33 0
7 -14 -16 19 -24 -25 -26 -33 0
7 -14 -16 19 -24 -25 26 33 0
7 -14 -16 19 -24 25 -26 33 0
7 -14 -16 19 -24 25 26 -33 0
7 -14 -16 19 24 -25 -26 33 0
7 -14 -16 19 24 -25 26 -33 0
7 -14 -16 19 24 25 -26 -33 0
7 -14 -16 19 24 25 26 33 0
7 -14 16 -19 -24 -25 -26 -33 0
7 -14 16 -19 -24 -25 26 33 0
7 -14 16 -19 -24 25 -26 33 0
7 -14 16 -19 -24 25 26 -33 0
7 -14 16 -19 24 -25 -26 33 0
7 -14 16 -19 24 -25 26 -33 0
7 -14 16 -19 24 25 -26 -33 0
7 -14 16 -19 24 25 26 33 0
7 -14 16 19 -24 -25 -26 33 0
7 -14 16 19 -24 -25 26 -33 0
7 -14 16 19 -24 25 -26 -33 0
7 -14 16 19 -24 25 26 33 0
7 -14 16 19 24 -25 -26 -33 0
7 -14 16 19 24 -25 26 33 0
7 -14 16 19 24 25 -26 33 0
7 -14 16 19 24 25 26 -33 0
7 14 -16 -19 -24 -25 -26 -33 0
7 14 -16 -19 -24 -25 26 33 0
7 14 -16 -19 -24 25 -26 33 0
7 14 -16 -19 -24 25 26 -33 0
7 14 -16 -19 24 -25 -26 33 0
7 14 -16 -19 24 -25 26 -33 0
7 14 -16 -19 24 25 -26 -33 0
7 14 -16 -19 24 25 26 33 0
7 14 -16 19 -24 -25 -26 33 0
7 14 -16 19 -24 -25 26 -33 0
7 14 -16 19 -24 25 -26 -33 0
7 14 -16 19 -24 25 26 33 0
7 14 -16 19 24 -25 -26 -33 0
7 14 -16 19 24 -25 26 33 0
7 14 -16 19 24 25 -26 33 0
7 14 -16 19 24 25 26 -33 0
7 14 16 -19 -24 -25 -26 33 0
7 14 16 -19 -24 -25 26 -33 0
7 14 16 -19 -24 25 -26 -33 0
7 14 16 -19 -24 25 26 33 0
7 14 16 -19 24 -25 -26 -33 0
7 14 16 -19 24 -25 26 33 0
7 14 16 -19 24 25 -26 33 0
7 14 16 -19 24 25 26 -33 0
7 14 16 19 -24 -25 -26 -33 0
7 14 16 19 -24 -25 26 33 0
7 14 16 19 -24 25 -26 33 0
7 14 16 19 -24 25 26 -33 0
7 14 16 19 24 -25 -26 33 0
7 14 16 19 24 -25 26 -33 0
7 14 16 19 24 25 -26 -33 0
7 14 16 19 24 25 26 33 0
