p cnf 15 96
-5 -8 -11 -12 -14 0
-5 -8 -11 12 14 0
-5 -8 11 -12 14 0
-5 -8 11 12 -14 0
-5 8 -11 -12 14 0
-5 8 -11 12 -14 0
-5 8 11 -12 -14 0
-5 8 11 12 14 0
-3 -4 -8 -10 -13 0
-3 -4 -8 10 13 0
-3 -4 8 -10 13 0
-3 -4 8 10 -13 0
-3 4 -8 -10 13 0
-3 4 -8 10 -13 0
-3 4 8 -10 -13 0
-3 4 8 10 13 0
-2 -7 -9 -10 -11 0
-2 -7 -9 10 11 0
-2 -7 9 -10 11 0
-2 -7 9 10 -11 0
-2 -3 -6 -12 -15 0
-2 -3 -6 12 15 0
-2 -3 6 -12 15 0
-2 -3 6 12 -15 0
-2 3 -6 -12 15 0
-2 3 -6 12 -15 0
-2 3 6 -12 -15 0
-2 3 6 12 15 0
-2 7 -9 -10 11 0
-2 7 -9 10 -11 0
-2 7 9 -10 -11 0
-2 7 9 10 11 0
-1 -5 -6 -9 -13 0
-1 -5 -6 9 13 0
-1 -5 6 -9 13 0
-1 -5 6 9 -13 0
-1 -4 -7 -14 -15 0
-1 -4 -7 14 15 0
-1 -4 7 -14 15 0
-1 -4 7 14 -15 0
-1 4 -7 -14 15 0
-1 4 -7 14 -15 0
-1 4 7 -14 -15 0
-1 4 7 14 15 0
-1 5 -6 -9 13 0
-1 5 -6 9 -13 0
-1 5 6 -9 -13 0
-1 5 6 9 13 0
1 -5 -6 -9 13 0
1 -5 -6 9 -13 0
1 -5 6 -9 -13 0
1 -5 6 9 13 0
1 -4 -7 -14 15 0
1 -4 -7 14 -15 0
1 -4 7 -14 -15 0
1 -4 7 14 15 0
1 4 -7 -14 -15 0
1 4 -7 14 15 0
1 4 7 -14 15 0
1 4 7 14 -15 0
1 5 -6 -9 -13 0
1 5 -6 9 13 0
1 5 6 -9 13 0
1 5 6 9 -13 0
2 -7 -9 -10 11 0
2 -7 -9 10 -11 0
2 -7 9 -10 -11 0
2 -7 9 10 11 0
2 -3 -6 -12 15 0
2 -3 -6 12 -15 0
2 -3 6 -12 -15 0
2 -3 6 12 15 0
2 3 -6 -12 -15 0
2 3 -6 12 15 0
2 3 6 -12 15 0
2 3 6 12 -15 0
2 7 -9 -10 -11 0
2 7 -9 10 11 0
2 7 9 -10 11 0
2 7 9 10 -11 0
3 -4 -8 -10 13 0
3 -4 -8 10 -13 0
3 -4 8 -10 -13 0
3 -4 8 10 13 0
3 4 -8 -10 -13 0
3 4 -8 10 13 0
3 4 8 -10 13 0
3 4 8 10 -13 0
5 -8 -11 -12 14 0
5 -8 -11 12 -14 0
5 -8 11 -12 -14 0
5 -8 11 12 14 0
5 8 -11 -12 -14 0
5 8 -11 12 14 0
5 8 11 -12 14 0
5 8 11 12 -14 0
