p cnf 36 1152
-9 -12 -17 -22 -24 -26 -35 36 0
-9 -12 -17 -22 -24 -26 35 -36 0
-9 -12 -17 -22 -24 26 -35 -36 0
-9 -12 -17 -22 -24 26 35 36 0
-9 -12 -17 -22 24 -26 -35 -36 0
-9 -12 -17 -22 24 -26 35 36 0
-9 -12 -17 -22 24 26 -35 36 0
-9 -12 -17 -22 24 26 35 -36 0
-9 -12 -17 22 -24 -26 -35 -36 0
-9 -12 -17 22 -24 -26 35 36 0
-9 -12 -17 22 -24 26 -35 36 0
-9 -12 -17 22 -24 26 35 -36 0
-9 -12 -17 22 24 -26 -35 36 0
-9 -12 -17 22 24 -26 35 -36 0
-9 -12 -17 22 24 26 -35 -36 0
-9 -12 -17 22 24 26 35 36 0
-9 -12 17 -22 -24 -26 -35 -36 0
-9 -12 17 -22 -24 -26 35 36 0
-9 -12 17 -22 -24 26 -35 36 0
-9 -12 17 -22 -24 26 35 -36 0
-9 -12 17 -22 24 -26 -35 36 0
-9 -12 17 -22 24 -26 35 -36 0
-9 -12 17 -22 24 26 -35 -36 0
-9 -12 17 -22 24 26 35 36 0
-9 -12 17 22 -24 -26 -35 36 0
-9 -12 17 22 -24 -26 35 -36 0
-9 -12 17 22 -24 26 -35 -36 0
-9 -12 17 22 -24 26 35 36 0
-9 -12 17 22 24 -26 -35 -36 0
-9 -12 17 22 24 -26 35 36 0
-9 -12 17 22 24 26 -35 36 0
-9 -12 17 22 24 26 35 -36 0
-9 12 -17 -22 -24 -26 -35 -36 0
-9 12 -17 -22 -24 -26 35 36 0
-9 12 -17 -22 -24 26 -35 36 0
-9 12 -17 -22 -24 26 35 -36 0
-9 12 -17 -22 24 -26 -35 36 0
-9 12 -17 -22 24 -26 35 -36 0
-9 12 -17 -22 24 26 -35 -36 0
-9 12 -17 -22 24 26 35 36 0
-9 12 -17 22 -24 -26 -35 36 0
-9 12 -17 22 -24 -26 35 -36 0
-9 12 -17 22 -24 26 -35 -36 0
-9 12 -17 22 -24 26 35 36 0
-9 12 -17 22 24 -26 -35 -36 0
-9 12 -17 22 24 -26 35 36 0
-9 12 -17 22 24 26 -35 36 0
-9 12 -17 22 24 26 35 -36 0
-9 12 17 -22 -24 -26 -35 36 0
-9 12 17 -22 -24 -26 35 -36 0
-9 12 17 -22 -24 26 -35 -36 0
-9 12 17 -22 -24 26 35 36 0
-9 12 17 -22 24 -26 -35 -36 0
-9 12 17 -22 24 -26 35 36 0
-9 12 17 -22 24 26 -35 36 0
-9 12 17 -22 24 26 35 -36 0
-9 12 17 22 -24 -26 -35 -36 0
-9 12 17 22 -24 -26 35 36 0
-9 12 17 22 -24 26 -35 36 0
-9 12 17 22 -24 26 35 -36 0
-9 12 17 22 24 -26 -35 36 0
-9 12 17 22 24 -26 35 -36 0
-9 12 17 22 24 26 -35 -36 0
-9 12 17 22 24 26 35 36 0
-7 -11 -17 -18 -20 -21 -33 34 0
-7 -11 -17 -18 -20 -21 33 -34 0
-7 -11 -17 -18 -20 21 -33 -34 0
-7 -11 -17 -18 -20 21 33 34 0
-7 -11 -17 -18 20 -21 -33 -34 0
-7 -11 -17 -18 20 -21 33 34 0
-7 -11 -17 -18 20 21 -33 34 0
-7 -11 -17 -18 20 21 33 -34 0
-7 -11 -17 18 -20 -21 -33 -34 0
-7 -11 -17 18 -20 -21 33 34 0
-7 -11 -17 18 -20 21 -33 34 0
-7 -11 -17 18 -20 21 33 -34 0
-7 -11 -17 18 20 -21 -33 34 0
-7 -11 -17 18 20 -21 33 -34 0
-7 -11 -17 18 20 21 -33 -34 0
-7 -11 -17 18 20 21 33 34 0
-7 -11 17 -18 -20 -21 -33 -34 0
-7 -11 17 -18 -20 -21 33 34 0
-7 -11 17 -18 -20 21 -33 34 0
-7 -11 17 -18 -20 21 33 -34 0
-7 -11 17 -18 20 -21 -33 34 0
-7 -11 17 -18 20 -21 33 -34 0
-7 -11 17 -18 20 21 -33 -34 0
-7 -11 17 -18 20 21 33 34 0
-7 -11 17 18 -20 -21 -33 34 0
-7 -11 17 18 -20 -21 33 -34 0
-7 -11 17 18 -20 21 -33 -34 0
-7 -11 17 18 -20 21 33 34 0
-7 -11 17 18 20 -21 -33 -34 0
-7 -11 17 18 20 -21 33 34 0
-7 -11 17 18 20 21 -33 34 0
-7 -11 17 18 20 21 33 -34 0
-7 11 -17 -18 -20 -21 -33 -34 0
-7 11 -17 -18 -20 -21 33 34 0
-7 11 -17 -18 -20 21 -33 34 0
-7 11 -17 -18 -20 21 33 -34 0
-7 11 -17 -18 20 -21 -33 34 0
-7 11 -17 -18 20 -21 33 -34 0
-7 11 -17 -18 20 21 -33 -34 0
-7 11 -17 -18 20 21 33 34 0
-7 11 -17 18 -20 -21 -33 34 0
-7 11 -17 18 -20 -21 33 -34 0
-7 11 -17 18 -20 21 -33 -34 0
-7 11 -17 18 -20 21 33 34 0
-7 11 -17 18 20 -21 -33 -34 0
-7 11 -17 18 20 -21 33 34 0
-7 11 -17 18 20 21 -33 34 0
-7 11 -17 18 20 21 33 -34 0
-7 11 17 -18 -20 -21 -33 34 0
-7 11 17 -18 -20 -21 33 -34 0
-7 11 17 -18 -20 21 -33 -34 0
-7 11 17 -18 -20 21 33 34 0
-7 11 17 -18 20 -21 -33 -34 0
-7 11 17 -18 20 -21 33 34 0
-7 11 17 -18 20 21 -33 34 0
-7 11 17 -18 20 21 33 -34 0
-7 11 17 18 -20 -21 -33 -34 0
-7 11 17 18 -20 -21 33 34 0
-7 11 17 18 -20 21 -33 34 0
-7 11 17 18 -20 21 33 -34 0
-7 11 17 18 20 -21 -33 34 0
-7 11 17 18 20 -21 33 -34 0
-7 11 17 18 20 21 -33 -34 0
-7 11 17 18 20 21 33 34 0
-6 -10 -11 -16 -22 -30 -31 32 0
-6 -10 -11 -16 -22 -30 31 -32 0
-6 -10 -11 -16 -22 30 -31 -32 0
-6 -10 -11 -16 -22 30 31 32 0
-6 -10 -11 -16 22 -30 -31 -32 0
-6 -10 -11 -16 22 -30 31 32 0
-6 -10 -11 -16 22 30 -31 32 0
-6 -10 -11 -16 22 30 31 -32 0
-6 -10 -11 16 -22 -30 -31 -32 0
-6 -10 -11 16 -22 -30 31 32 0
-6 -10 -11 16 -22 30 -31 32 0
-6 -10 -11 16 -22 30 31 -32 0
-6 -10 -11 16 22 -30 -31 32 0
-6 -10 -11 16 22 -30 31 -32 0
-6 -10 -11 16 22 30 -31 -32 0
-6 -10 -11 16 22 30 31 32 0
-6 -10 11 -16 -22 -30 -31 -32 0
-6 -10 11 -16 -22 -30 31 32 0
-6 -10 11 -16 -22 30 -31 32 0
-6 -10 11 -16 -22 30 31 -32 0
-6 -10 11 -16 22 -30 -31 32 0
-6 -10 11 -16 22 -30 31 -32 0
-6 -10 11 -16 22 30 -31 -32 0
-6 -10 11 -16 22 30 31 32 0
-6 -10 11 16 -22 -30 -31 32 0
-6 -10 11 16 -22 -30 31 -32 0
-6 -10 11 16 -22 30 -31 -32 0
-6 -10 11 16 -22 30 31 32 0
-6 -10 11 16 22 -30 -31 -32 0
-6 -10 11 16 22 -30 31 32 0
-6 -10 11 16 22 30 -31 32 0
-6 -10 11 16 22 30 31 -32 0
-6 10 -11 -16 -22 -30 -31 -32 0
-6 10 -11 -16 -22 -30 31 32 0
-6 10 -11 -16 -22 30 -31 32 0
-6 10 -11 -16 -22 30 31 -32 0
-6 10 -11 -16 22 -30 -31 32 0
-6 10 -11 -16 22 -30 31 -32 0
-6 10 -11 -16 22 30 -31 -32 0
-6 10 -11 -16 22 30 31 32 0
-6 10 -11 16 -22 -30 -31 32 0
-6 10 -11 16 -22 -30 31 -32 0
-6 10 -11 16 -22 30 -31 -32 0
-6 10 -11 16 -22 30 31 32 0
-6 10 -11 16 22 -30 -31 -32 0
-6 10 -11 16 22 -30 31 32 0
-6 10 -11 16 22 30 -31 32 0
-6 10 -11 16 22 30 31 -32 0
-6 10 11 -16 -22 -30 -31 32 0
-6 10 11 -16 -22 -30 31 -32 0
-6 10 11 -16 -22 30 -31 -32 0
-6 10 11 -16 -22 30 31 32 0
-6 10 11 -16 22 -30 -31 -32 0
-6 10 11 -16 22 -30 31 32 0
-6 10 11 -16 22 30 -31 32 0
-6 10 11 -16 22 30 31 -32 0
-6 10 11 16 -22 -30 -31 -32 0
-6 10 11 16 -22 -30 31 32 0
-6 10 11 16 -22 30 -31 32 0
-6 10 11 16 -22 30 31 -32 0
-6 10 11 16 22 -30 -31 32 0
-6 10 11 16 22 -30 31 -32 0
-6 10 11 16 22 30 -31 -32 0
-6 10 11 16 22 30 31 32 0
-4 -19 -21 -27 -28 -29 -31 35 0
-4 -19 -21 -27 -28 -29 31 -35 0
-4 -19 -21 -27 -28 29 -31 -35 0
-4 -19 -21 -27 -28 29 31 35 0
-4 -19 -21 -27 28 -29 -31 -35 0
-4 -19 -21 -27 28 -29 31 35 0
-4 -19 -21 -27 28 29 -31 35 0
-4 -19 -21 -27 28 29 31 -35 0
-4 -19 -21 27 -28 -29 -31 -35 0
-4 -19 -21 27 -28 -29 31 35 0
-4 -19 -21 27 -28 29 -31 35 0
-4 -19 -21 27 -28 29 31 -35 0
-4 -19 -21 27 28 -29 -31 35 0
-4 -19 -21 27 28 -29 31 -35 0
-4 -19 -21 27 28 29 -31 -35 0
-4 -19 -21 27 28 29 31 35 0
-4 -19 21 -27 -28 -29 -31 -35 0
-4 -19 21 -27 -28 -29 31 35 0
-4 -19 21 -27 -28 29 -31 35 0
-4 -19 21 -27 -28 29 31 -35 0
-4 -19 21 -27 28 -29 -31 35 0
-4 -19 21 -27 28 -29 31 -35 0
-4 -19 21 -27 28 29 -31 -35 0
-4 -19 21 -27 28 29 31 35 0
-4 -19 21 27 -28 -29 -31 35 0
-4 -19 21 27 -28 -29 31 -35 0
-4 -19 21 27 -28 29 -31 -35 0
-4 -19 21 27 -28 29 31 35 0
-4 -19 21 27 28 -29 -31 -35 0
-4 -19 21 27 28 -29 31 35 0
-4 -19 21 27 28 29 -31 35 0
-4 -19 21 27 28 29 31 -35 0
-4 19 -21 -27 -28 -29 -31 -35 0
-4 19 -21 -27 -28 -29 31 35 0
-4 19 -21 -27 -28 29 -31 35 0
-4 19 -21 -27 -28 29 31 -35 0
-4 19 -21 -27 28 -29 -31 35 0
-4 19 -21 -27 28 -29 31 -35 0
-4 19 -21 -27 28 29 -31 -35 0
-4 19 -21 -27 28 29 31 35 0
-4 19 -21 27 -28 -29 -31 35 0
-4 19 -21 27 -28 -29 31 -35 0
-4 19 -21 27 -28 29 -31 -35 0
-4 19 -21 27 -28 29 31 35 0
-4 19 -21 27 28 -29 -31 -35 0
-4 19 -21 27 28 -29 31 35 0
-4 19 -21 27 28 29 -31 35 0
-4 19 -21 27 28 29 31 -35 0
-4 19 21 -27 -28 -29 -31 35 0
-4 19 21 -27 -28 -29 31 -35 0
-4 19 21 -27 -28 29 -31 -35 0
-4 19 21 -27 -28 29 31 35 0
-4 19 21 -27 28 -29 -31 -35 0
-4 19 21 -27 28 -29 31 35 0
-4 19 21 -27 28 29 -31 35 0
-4 19 21 -27 28 29 31 -35 0
-4 19 21 27 -28 -29 -31 -35 0
-4 19 21 27 -28 -29 31 35 0
-4 19 21 27 -28 29 -31 35 0
-4 19 21 27 -28 29 31 -35 0
-4 19 21 27 28 -29 -31 35 0
-4 19 21 27 28 -29 31 -35 0
-4 19 21 27 28 29 -31 -35 0
-4 19 21 27 28 29 31 35 0
-3 -7 -12 -14 -23 -25 -29 30 0
-3 -7 -12 -14 -23 -25 29 -30 0
-3 -7 -12 -14 -23 25 -29 -30 0
-3 -7 -12 -14 -23 25 29 30 0
-3 -7 -12 -14 23 -25 -29 -30 0
-3 -7 -12 -14 23 -25 29 30 0
-3 -7 -12 -14 23 25 -29 30 0
-3 -7 -12 -14 23 25 29 -30 0
-3 -7 -12 14 -23 -25 -29 -30 0
-3 -7 -12 14 -23 -25 29 30 0
-3 -7 -12 14 -23 25 -29 30 0
-3 -7 -12 14 -23 25 29 -30 0
-3 -7 -12 14 23 -25 -29 30 0
-3 -7 -12 14 23 -25 29 -30 0
-3 -7 -12 14 23 25 -29 -30 0
-3 -7 -12 14 23 25 29 30 0
-3 -7 12 -14 -23 -25 -29 -30 0
-3 -7 12 -14 -23 -25 29 30 0
-3 -7 12 -14 -23 25 -29 30 0
-3 -7 12 -14 -23 25 29 -30 0
-3 -7 12 -14 23 -25 -29 30 0
-3 -7 12 -14 23 -25 29 -30 0
-3 -7 12 -14 23 25 -29 -30 0
-3 -7 12 -14 23 25 29 30 0
-3 -7 12 14 -23 -25 -29 30 0
-3 -7 12 14 -23 -25 29 -30 0
-3 -7 12 14 -23 25 -29 -30 0
-3 -7 12 14 -23 25 29 30 0
-3 -7 12 14 23 -25 -29 -30 0
-3 -7 12 14 23 -25 29 30 0
-3 -7 12 14 23 25 -29 30 0
-3 -7 12 14 23 25 29 -30 0
-3 7 -12 -14 -23 -25 -29 -30 0
-3 7 -12 -14 -23 -25 29 30 0
-3 7 -12 -14 -23 25 -29 30 0
-3 7 -12 -14 -23 25 29 -30 0
-3 7 -12 -14 23 -25 -29 30 0
-3 7 -12 -14 23 -25 29 -30 0
-3 7 -12 -14 23 25 -29 -30 0
-3 7 -12 -14 23 25 29 30 0
-3 7 -12 14 -23 -25 -29 30 0
-3 7 -12 14 -23 -25 29 -30 0
-3 7 -12 14 -23 25 -29 -30 0
-3 7 -12 14 -23 25 29 30 0
-3 7 -12 14 23 -25 -29 -30 0
-3 7 -12 14 23 -25 29 30 0
-3 7 -12 14 23 25 -29 30 0
-3 7 -12 14 23 25 29 -30 0
-3 7 12 -14 -23 -25 -29 30 0
-3 7 12 -14 -23 -25 29 -30 0
-3 7 12 -14 -23 25 -29 -30 0
-3 7 12 -14 -23 25 29 30 0
-3 7 12 -14 23 -25 -29 -30 0
-3 7 12 -14 23 -25 29 30 0
-3 7 12 -14 23 25 -29 30 0
-3 7 12 -14 23 25 29 -30 0
-3 7 12 14 -23 -25 -29 -30 0
-3 7 12 14 -23 -25 29 30 0
-3 7 12 14 -23 25 -29 30 0
-3 7 12 14 -23 25 29 -30 0
-3 7 12 14 23 -25 -29 30 0
-3 7 12 14 23 -25 29 -30 0
-3 7 12 14 23 25 -29 -30 0
-3 7 12 14 23 25 29 30 0
-2 -10 -13 -15 -23 -24 -27 33 0
-2 -10 -13 -15 -23 -24 27 -33 0
-2 -10 -13 -15 -23 24 -27 -33 0
-2 -10 -13 -15 -23 24 27 33 0
-2 -10 -13 -15 23 -24 -27 -33 0
-2 -10 -13 -15 23 -24 27 33 0
-2 -10 -13 -15 23 24 -27 33 0
-2 -10 -13 -15 23 24 27 -33 0
-2 -10 -13 15 -23 -24 -27 -33 0
-2 -10 -13 15 -23 -24 27 33 0
-2 -10 -13 15 -23 24 -27 33 0
-2 -10 -13 15 -23 24 27 -33 0
-2 -10 -13 15 23 -24 -27 33 0
-2 -10 -13 15 23 -24 27 -33 0
-2 -10 -13 15 23 24 -27 -33 0
-2 -10 -13 15 23 24 27 33 0
-2 -10 13 -15 -23 -24 -27 -33 0
-2 -10 13 -15 -23 -24 27 33 0
-2 -10 13 -15 -23 24 -27 33 0
-2 -10 13 -15 -23 24 27 -33 0
-2 -10 13 -15 23 -24 -27 33 0
-2 -10 13 -15 23 -24 27 -33 0
-2 -10 13 -15 23 24 -27 -33 0
-2 -10 13 -15 23 24 27 33 0
-2 -10 13 15 -23 -24 -27 33 0
-2 -10 13 15 -23 -24 27 -33 0
-2 -10 13 15 -23 24 -27 -33 0
-2 -10 13 15 -23 24 27 33 0
-2 -10 13 15 23 -24 -27 -33 0
-2 -10 13 15 23 -24 27 33 0
-2 -10 13 15 23 24 -27 33 0
-2 -10 13 15 23 24 27 -33 0
-2 -5 -6 -8 -14 -18 -26 28 0
-2 -5 -6 -8 -14 -18 26 -28 0
-2 -5 -6 -8 -14 18 -26 -28 0
-2 -5 -6 -8 -14 18 26 28 0
-2 -5 -6 -8 14 -18 -26 -28 0
-2 -5 -6 -8 14 -18 26 28 0
-2 -5 -6 -8 14 18 -26 28 0
-2 -5 -6 -8 14 18 26 -28 0
-2 -5 -6 8 -14 -18 -26 -28 0
-2 -5 -6 8 -14 -18 26 28 0
-2 -5 -6 8 -14 18 -26 28 0
-2 -5 -6 8 -14 18 26 -28 0
-2 -5 -6 8 14 -18 -26 28 0
-2 -5 -6 8 14 -18 26 -28 0
-2 -5 -6 8 14 18 -26 -28 0
-2 -5 -6 8 14 18 26 28 0
-2 -5 6 -8 -14 -18 -26 -28 0
-2 -5 6 -8 -14 -18 26 28 0
-2 -5 6 -8 -14 18 -26 28 0
-2 -5 6 -8 -14 18 26 -28 0
-2 -5 6 -8 14 -18 -26 28 0
-2 -5 6 -8 14 -18 26 -28 0
-2 -5 6 -8 14 18 -26 -28 0
-2 -5 6 -8 14 18 26 28 0
-2 -5 6 8 -14 -18 -26 28 0
-2 -5 6 8 -14 -18 26 -28 0
-2 -5 6 8 -14 18 -26 -28 0
-2 -5 6 8 -14 18 26 28 0
-2 -5 6 8 14 -18 -26 -28 0
-2 -5 6 8 14 -18 26 28 0
-2 -5 6 8 14 18 -26 28 0
-2 -5 6 8 14 18 26 -28 0
-2 5 -6 -8 -14 -18 -26 -28 0
-2 5 -6 -8 -14 -18 26 28 0
-2 5 -6 -8 -14 18 -26 28 0
-2 5 -6 -8 -14 18 26 -28 0
-2 5 -6 -8 14 -18 -26 28 0
-2 5 -6 -8 14 -18 26 -28 0
-2 5 -6 -8 14 18 -26 -28 0
-2 5 -6 -8 14 18 26 28 0
-2 5 -6 8 -14 -18 -26 28 0
-2 5 -6 8 -14 -18 26 -28 0
-2 5 -6 8 -14 18 -26 -28 0
-2 5 -6 8 -14 18 26 28 0
-2 5 -6 8 14 -18 -26 -28 0
-2 5 -6 8 14 -18 26 28 0
-2 5 -6 8 14 18 -26 28 0
-2 5 -6 8 14 18 26 -28 0
-2 5 6 -8 -14 -18 -26 28 0
-2 5 6 -8 -14 -18 26 -28 0
-2 5 6 -8 -14 18 -26 -28 0
-2 5 6 -8 -14 18 26 28 0
-2 5 6 -8 14 -18 -26 -28 0
-2 5 6 -8 14 -18 26 28 0
-2 5 6 -8 14 18 -26 28 0
-2 5 6 -8 14 18 26 -28 0
-2 5 6 8 -14 -18 -26 -28 0
-2 5 6 8 -14 -18 26 28 0
-2 5 6 8 -14 18 -26 28 0
-2 5 6 8 -14 18 26 -28 0
-2 5 6 8 14 -18 -26 28 0
-2 5 6 8 14 -18 26 -28 0
-2 5 6 8 14 18 -26 -28 0
-2 5 6 8 14 18 26 28 0
-2 10 -13 -15 -23 -24 -27 -33 0
-2 10 -13 -15 -23 -24 27 33 0
-2 10 -13 -15 -23 24 -27 33 0
-2 10 -13 -15 -23 24 27 -33 0
-2 10 -13 -15 23 -24 -27 33 0
-2 10 -13 -15 23 -24 27 -33 0
-2 10 -13 -15 23 24 -27 -33 0
-2 10 -13 -15 23 24 27 33 0
-2 10 -13 15 -23 -24 -27 33 0
-2 10 -13 15 -23 -24 27 -33 0
-2 10 -13 15 -23 24 -27 -33 0
-2 10 -13 15 -23 24 27 33 0
-2 10 -13 15 23 -24 -27 -33 0
-2 10 -13 15 23 -24 27 33 0
-2 10 -13 15 23 24 -27 33 0
-2 10 -13 15 23 24 27 -33 0
-2 10 13 -15 -23 -24 -27 33 0
-2 10 13 -15 -23 -24 27 -33 0
-2 10 13 -15 -23 24 -27 -33 0
-2 10 13 -15 -23 24 27 33 0
-2 10 13 -15 23 -24 -27 -33 0
-2 10 13 -15 23 -24 27 33 0
-2 10 13 -15 23 24 -27 33 0
-2 10 13 -15 23 24 27 -33 0
-2 10 13 15 -23 -24 -27 -33 0
-2 10 13 15 -23 -24 27 33 0
-2 10 13 15 -23 24 -27 33 0
-2 10 13 15 -23 24 27 -33 0
-2 10 13 15 23 -24 -27 33 0
-2 10 13 15 23 -24 27 -33 0
-2 10 13 15 23 24 -27 -33 0
-2 10 13 15 23 24 27 33 0
-1 -4 -8 -9 -15 -16 -20 25 0
-1 -4 -8 -9 -15 -16 20 -25 0
-1 -4 -8 -9 -15 16 -20 -25 0
-1 -4 -8 -9 -15 16 20 25 0
-1 -4 -8 -9 15 -16 -20 -25 0
-1 -4 -8 -9 15 -16 20 25 0
-1 -4 -8 -9 15 16 -20 25 0
-1 -4 -8 -9 15 16 20 -25 0
-1 -4 -8 9 -15 -16 -20 -25 0
-1 -4 -8 9 -15 -16 20 25 0
-1 -4 -8 9 -15 16 -20 25 0
-1 -4 -8 9 -15 16 20 -25 0
-1 -4 -8 9 15 -16 -20 25 0
-1 -4 -8 9 15 -16 20 -25 0
-1 -4 -8 9 15 16 -20 -25 0
-1 -4 -8 9 15 16 20 25 0
-1 -4 8 -9 -15 -16 -20 -25 0
-1 -4 8 -9 -15 -16 20 25 0
-1 -4 8 -9 -15 16 -20 25 0
-1 -4 8 -9 -15 16 20 -25 0
-1 -4 8 -9 15 -16 -20 25 0
-1 -4 8 -9 15 -16 20 -25 0
-1 -4 8 -9 15 16 -20 -25 0
-1 -4 8 -9 15 16 20 25 0
-1 -4 8 9 -15 -16 -20 25 0
-1 -4 8 9 -15 -16 20 -25 0
-1 -4 8 9 -15 16 -20 -25 0
-1 -4 8 9 -15 16 20 25 0
-1 -4 8 9 15 -16 -20 -25 0
-1 -4 8 9 15 -16 20 25 0
-1 -4 8 9 15 16 -20 25 0
-1 -4 8 9 15 16 20 -25 0
-1 -3 -5 -13 -19 -32 -34 36 0
-1 -3 -5 -13 -19 -32 34 -36 0
-1 -3 -5 -13 -19 32 -34 -36 0
-1 -3 -5 -13 -19 32 34 36 0
-1 -3 -5 -13 19 -32 -34 -36 0
-1 -3 -5 -13 19 -32 34 36 0
-1 -3 -5 -13 19 32 -34 36 0
-1 -3 -5 -13 19 32 34 -36 0
-1 -3 -5 13 -19 -32 -34 -36 0
-1 -3 -5 13 -19 -32 34 36 0
-1 -3 -5 13 -19 32 -34 36 0
-1 -3 -5 13 -19 32 34 -36 0
-1 -3 -5 13 19 -32 -34 36 0
-1 -3 -5 13 19 -32 34 -36 0
-1 -3 -5 13 19 32 -34 -36 0
-1 -3 -5 13 19 32 34 36 0
-1 -3 5 -13 -19 -32 -34 -36 0
-1 -3 5 -13 -19 -32 34 36 0
-1 -3 5 -13 -19 32 -34 36 0
-1 -3 5 -13 -19 32 34 -36 0
-1 -3 5 -13 19 -32 -34 36 0
-1 -3 5 -13 19 -32 34 -36 0
-1 -3 5 -13 19 32 -34 -36 0
-1 -3 5 -13 19 32 34 36 0
-1 -3 5 13 -19 -32 -34 36 0
-1 -3 5 13 -19 -32 34 -36 0
-1 -3 5 13 -19 32 -34 -36 0
-1 -3 5 13 -19 32 34 36 0
-1 -3 5 13 19 -32 -34 -36 0
-1 -3 5 13 19 -32 34 36 0
-1 -3 5 13 19 32 -34 36 0
-1 -3 5 13 19 32 34 -36 0
-1 3 -5 -13 -19 -32 -34 -36 0
-1 3 -5 -13 -19 -32 34 36 0
-1 3 -5 -13 -19 32 -34 36 0
-1 3 -5 -13 -19 32 34 -36 0
-1 3 -5 -13 19 -32 -34 36 0
-1 3 -5 -13 19 -32 34 -36 0
-1 3 -5 -13 19 32 -34 -36 0
-1 3 -5 -13 19 32 34 36 0
-1 3 -5 13 -19 -32 -34 36 0
-1 3 -5 13 -19 -32 34 -36 0
-1 3 -5 13 -19 32 -34 -36 0
-1 3 -5 13 -19 32 34 36 0
-1 3 -5 13 19 -32 -34 -36 0
-1 3 -5 13 19 -32 34 36 0
-1 3 -5 13 19 32 -34 36 0
-1 3 -5 13 19 32 34 -36 0
-1 3 5 -13 -19 -32 -34 36 0
-1 3 5 -13 -19 -32 34 -36 0
-1 3 5 -13 -19 32 -34 -36 0
-1 3 5 -13 -19 32 34 36 0
-1 3 5 -13 19 -32 -34 -36 0
-1 3 5 -13 19 -32 34 36 0
-1 3 5 -13 19 32 -34 36 0
-1 3 5 -13 19 32 34 -36 0
-1 3 5 13 -19 -32 -34 -36 0
-1 3 5 13 -19 -32 34 36 0
-1 3 5 13 -19 32 -34 36 0
-1 3 5 13 -19 32 34 -36 0
-1 3 5 13 19 -32 -34 36 0
-1 3 5 13 19 -32 34 -36 0
-1 3 5 13 19 32 -34 -36 0
-1 3 5 13 19 32 34 36 0
-1 4 -8 -9 -15 -16 -20 -25 0
-1 4 -8 -9 -15 -16 20 25 0
-1 4 -8 -9 -15 16 -20 25 0
-1 4 -8 -9 -15 16 20 -25 0
-1 4 -8 -9 15 -16 -20 25 0
-1 4 -8 -9 15 -16 20 -25 0
-1 4 -8 -9 15 16 -20 -25 0
-1 4 -8 -9 15 16 20 25 0
-1 4 -8 9 -15 -16 -20 25 0
-1 4 -8 9 -15 -16 20 -25 0
-1 4 -8 9 -15 16 -20 -25 0
-1 4 -8 9 -15 16 20 25 0
-1 4 -8 9 15 -16 -20 -25 0
-1 4 -8 9 15 -16 20 25 0
-1 4 -8 9 15 16 -20 25 0
-1 4 -8 9 15 16 20 -25 0
-1 4 8 -9 -15 -16 -20 25 0
-1 4 8 -9 -15 -16 20 -25 0
-1 4 8 -9 -15 16 -20 -25 0
-1 4 8 -9 -15 16 20 25 0
-1 4 8 -9 15 -16 -20 -25 0
-1 4 8 -9 15 -16 20 25 0
-1 4 8 -9 15 16 -20 25 0
-1 4 8 -9 15 16 20 -25 0
-1 4 8 9 -15 -16 -20 -25 0
-1 4 8 9 -15 -16 20 25 0
-1 4 8 9 -15 16 -20 25 0
-1 4 8 9 -15 16 20 -25 0
-1 4 8 9 15 -16 -20 25 0
-1 4 8 9 15 -16 20 -25 0
-1 4 8 9 15 16 -20 -25 0
-1 4 8 9 15 16 20 25 0
1 -4 -8 -9 -15 -16 -20 -25 0
1 -4 -8 -9 -15 -16 20 25 0
1 -4 -8 -9 -15 16 -20 25 0
1 -4 -8 -9 -15 16 20 -25 0
1 -4 -8 -9 15 -16 -20 25 0
1 -4 -8 -9 15 -16 20 -25 0
1 -4 -8 -9 15 16 -20 -25 0
1 -4 -8 -9 15 16 20 25 0
1 -4 -8 9 -15 -16 -20 25 0
1 -4 -8 9 -15 -16 20 -25 0
1 -4 -8 9 -15 16 -20 -25 0
1 -4 -8 9 -15 16 20 25 0
1 -4 -8 9 15 -16 -20 -25 0
1 -4 -8 9 15 -16 20 25 0
1 -4 -8 9 15 16 -20 25 0
1 -4 -8 9 15 16 20 -25 0
1 -4 8 -9 -15 -16 -20 25 0
1 -4 8 -9 -15 -16 20 -25 0
1 -4 8 -9 -15 16 -20 -25 0
1 -4 8 -9 -15 16 20 25 0
1 -4 8 -9 15 -16 -20 -25 0
1 -4 8 -9 15 -16 20 25 0
1 -4 8 -9 15 16 -20 25 0
1 -4 8 -9 15 16 20 -25 0
1 -4 8 9 -15 -16 -20 -25 0
1 -4 8 9 -15 -16 20 25 0
1 -4 8 9 -15 16 -20 25 0
1 -4 8 9 -15 16 20 -25 0
1 -4 8 9 15 -16 -20 25 0
1 -4 8 9 15 -16 20 -25 0
1 -4 8 9 15 16 -20 -25 0
1 -4 8 9 15 16 20 25 0
1 -3 -5 -13 -19 -32 -34 -36 0
1 -3 -5 -13 -19 -32 34 36 0
1 -3 -5 -13 -19 32 -34 36 0
1 -3 -5 -13 -19 32 34 -36 0
1 -3 -5 -13 19 -32 -34 36 0
1 -3 -5 -13 19 -32 34 -36 0
1 -3 -5 -13 19 32 -34 -36 0
1 -3 -5 -13 19 32 34 36 0
1 -3 -5 13 -19 -32 -34 36 0
1 -3 -5 13 -19 -32 34 -36 0
1 -3 -5 13 -19 32 -34 -36 0
1 -3 -5 13 -19 32 34 36 0
1 -3 -5 13 19 -32 -34 -36 0
1 -3 -5 13 19 -32 34 36 0
1 -3 -5 13 19 32 -34 36 0
1 -3 -5 13 19 32 34 -36 0
1 -3 5 -13 -19 -32 -34 36 0
1 -3 5 -13 -19 -32 34 -36 0
1 -3 5 -13 -19 32 -34 -36 0
1 -3 5 -13 -19 32 34 36 0
1 -3 5 -13 19 -32 -34 -36 0
1 -3 5 -13 19 -32 34 36 0
1 -3 5 -13 19 32 -34 36 0
1 -3 5 -13 19 32 34 -36 0
1 -3 5 13 -19 -32 -34 -36 0
1 -3 5 13 -19 -32 34 36 0
1 -3 5 13 -19 32 -34 36 0
1 -3 5 13 -19 32 34 -36 0
1 -3 5 13 19 -32 -34 36 0
1 -3 5 13 19 -32 34 -36 0
1 -3 5 13 19 32 -34 -36 0
1 -3 5 13 19 32 34 36 0
1 3 -5 -13 -19 -32 -34 36 0
1 3 -5 -13 -19 -32 34 -36 0
1 3 -5 -13 -19 32 -34 -36 0
1 3 -5 -13 -19 32 34 36 0
1 3 -5 -13 19 -32 -34 -36 0
1 3 -5 -13 19 -32 34 36 0
1 3 -5 -13 19 32 -34 36 0
1 3 -5 -13 19 32 34 -36 0
1 3 -5 13 -19 -32 -34 -36 0
1 3 -5 13 -19 -32 34 36 0
1 3 -5 13 -19 32 -34 36 0
1 3 -5 13 -19 32 34 -36 0
1 3 -5 13 19 -32 -34 36 0
1 3 -5 13 19 -32 34 -36 0
1 3 -5 13 19 32 -34 -36 0
1 3 -5 13 19 32 34 36 0
1 3 5 -13 -19 -32 -34 -36 0
1 3 5 -13 -19 -32 34 36 0
1 3 5 -13 -19 32 -34 36 0
1 3 5 -13 -19 32 34 -36 0
1 3 5 -13 19 -32 -34 36 0
1 3 5 -13 19 -32 34 -36 0
1 3 5 -13 19 32 -34 -36 0
1 3 5 -13 19 32 34 36 0
1 3 5 13 -19 -32 -34 36 0
1 3 5 13 -19 -32 34 -36 0
1 3 5 13 -19 32 -34 -36 0
1 3 5 13 -19 32 34 36 0
1 3 5 13 19 -32 -34 -36 0
1 3 5 13 19 -32 34 36 0
1 3 5 13 19 32 -34 36 0
1 3 5 13 19 32 34 -36 0
1 4 -8 -9 -15 -16 -20 25 0
1 4 -8 -9 -15 -16 20 -25 0
1 4 -8 -9 -15 16 -20 -25 0
1 4 -8 -9 -15 16 20 25 0
1 4 -8 -9 15 -16 -20 -25 0
1 4 -8 -9 15 -16 20 25 0
1 4 -8 -9 15 16 -20 25 0
1 4 -8 -9 15 16 20 -25 0
1 4 -8 9 -15 -16 -20 -25 0
1 4 -8 9 -15 -16 20 25 0
1 4 -8 9 -15 16 -20 25 0
1 4 -8 9 -15 16 20 -25 0
1 4 -8 9 15 -16 -20 25 0
1 4 -8 9 15 -16 20 -25 0
1 4 -8 9 15 16 -20 -25 0
1 4 -8 9 15 16 20 25 0
1 4 8 -9 -15 -16 -20 -25 0
1 4 8 -9 -15 -16 20 25 0
1 4 8 -9 -15 16 -20 25 0
1 4 8 -9 -15 16 20 -25 0
1 4 8 -9 15 -16 -20 25 0
1 4 8 -9 15 -16 20 -25 0
1 4 8 -9 15 16 -20 -25 0
1 4 8 -9 15 16 20 25 0
1 4 8 9 -15 -16 -20 25 0
1 4 8 9 -15 -16 20 -25 0
1 4 8 9 -15 16 -20 -25 0
1 4 8 9 -15 16 20 25 0
1 4 8 9 15 -16 -20 -25 0
1 4 8 9 15 -16 20 25 0
1 4 8 9 15 16 -20 25 0
1 4 8 9 15 16 20 -25 0
2 -10 -13 -15 -23 -24 -27 -33 0
2 -10 -13 -15 -23 -24 27 33 0
2 -10 -13 -15 -23 24 -27 33 0
2 -10 -13 -15 -23 24 27 -33 0
2 -10 -13 -15 23 -24 -27 33 0
2 -10 -13 -15 23 -24 27 -33 0
2 -10 -13 -15 23 24 -27 -33 0
2 -10 -13 -15 23 24 27 33 0
2 -10 -13 15 -23 -24 -27 33 0
2 -10 -13 15 -23 -24 27 -33 0
2 -10 -13 15 -23 24 -27 -33 0
2 -10 -13 15 -23 24 27 33 0
2 -10 -13 15 23 -24 -27 -33 0
2 -10 -13 15 23 -24 27 33 0
2 -10 -13 15 23 24 -27 33 0
2 -10 -13 15 23 24 27 -33 0
2 -10 13 -15 -23 -24 -27 33 0
2 -10 13 -15 -23 -24 27 -33 0
2 -10 13 -15 -23 24 -27 -33 0
2 -10 13 -15 -23 24 27 33 0
2 -10 13 -15 23 -24 -27 -33 0
2 -10 13 -15 23 -24 27 33 0
2 -10 13 -15 23 24 -27 33 0
2 -10 13 -15 23 24 27 -33 0
2 -10 13 15 -23 -24 -27 -33 0
2 -10 13 15 -23 -24 27 33 0
2 -10 13 15 -23 24 -27 33 0
2 -10 13 15 -23 24 27 -33 0
2 -10 13 15 23 -24 -27 33 0
2 -10 13 15 23 -24 27 -33 0
2 -10 13 15 23 24 -27 -33 0
2 -10 13 15 23 24 27 33 0
2 -5 -6 -8 -14 -18 -26 -28 0
2 -5 -6 -8 -14 -18 26 28 0
2 -5 -6 -8 -14 18 -26 28 0
2 -5 -6 -8 -14 18 26 -28 0
2 -5 -6 -8 14 -18 -26 28 0
2 -5 -6 -8 14 -18 26 -28 0
2 -5 -6 -8 14 18 -26 -28 0
2 -5 -6 -8 14 18 26 28 0
2 -5 -6 8 -14 -18 -26 28 0
2 -5 -6 8 -14 -18 26 -28 0
2 -5 -6 8 -14 18 -26 -28 0
2 -5 -6 8 -14 18 26 28 0
2 -5 -6 8 14 -18 -26 -28 0
2 -5 -6 8 14 -18 26 28 0
2 -5 -6 8 14 18 -26 28 0
2 -5 -6 8 14 18 26 -28 0
2 -5 6 -8 -14 -18 -26 28 0
2 -5 6 -8 -14 -18 26 -28 0
2 -5 6 -8 -14 18 -26 -28 0
2 -5 6 -8 -14 18 26 28 0
2 -5 6 -8 14 -18 -26 -28 0
2 -5 6 -8 14 -18 26 28 0
2 -5 6 -8 14 18 -26 28 0
2 -5 6 -8 14 18 26 -28 0
2 -5 6 8 -14 -18 -26 -28 0
2 -5 6 8 -14 -18 26 28 0
2 -5 6 8 -14 18 -26 28 0
2 -5 6 8 -14 18 26 -28 0
2 -5 6 8 14 -18 -26 28 0
2 -5 6 8 14 -18 26 -28 0
2 -5 6 8 14 18 -26 -28 0
2 -5 6 8 14 18 26 28 0
2 5 -6 -8 -14 -18 -26 28 0
2 5 -6 -8 -14 -18 26 -28 0
2 5 -6 -8 -14 18 -26 -28 0
2 5 -6 -8 -14 18 26 28 0
2 5 -6 -8 14 -18 -26 -28 0
2 5 -6 -8 14 -18 26 28 0
2 5 -6 -8 14 18 -26 28 0
2 5 -6 -8 14 18 26 -28 0
2 5 -6 8 -14 -18 -26 -28 0
2 5 -6 8 -14 -18 26 28 0
2 5 -6 8 -14 18 -26 28 0
2 5 -6 8 -14 18 26 -28 0
2 5 -6 8 14 -18 -26 28 0
2 5 -6 8 14 -18 26 -28 0
2 5 -6 8 14 18 -26 -28 0
2 5 -6 8 14 18 26 28 0
2 5 6 -8 -14 -18 -26 -28 0
2 5 6 -8 -14 -18 26 28 0
2 5 6 -8 -14 18 -26 28 0
2 5 6 -8 -14 18 26 -28 0
2 5 6 -8 14 -18 -26 28 0
2 5 6 -8 14 -18 26 -28 0
2 5 6 -8 14 18 -26 -28 0
2 5 6 -8 14 18 26 28 0
2 5 6 8 -14 -18 -26 28 0
2 5 6 8 -14 -18 26 -28 0
2 5 6 8 -14 18 -26 -28 0
2 5 6 8 -14 18 26 28 0
2 5 6 8 14 -18 -26 -28 0
2 5 6 8 14 -18 26 28 0
2 5 6 8 14 18 -26 28 0
2 5 6 8 14 18 26 -28 0
2 10 -13 -15 -23 -24 -27 33 0
2 10 -13 -15 -23 -24 27 -33 0
2 10 -13 -15 -23 24 -27 -33 0
2 10 -13 -15 -23 24 27 33 0
2 10 -13 -15 23 -24 -27 -33 0
2 10 -13 -15 23 -24 27 33 0
2 10 -13 -15 23 24 -27 33 0
2 10 -13 -15 23 24 27 -33 0
2 10 -13 15 -23 -24 -27 -33 0
2 10 -13 15 -23 -24 27 33 0
2 10 -13 15 -23 24 -27 33 0
2 10 -13 15 -23 24 27 -33 0
2 10 -13 15 23 -24 -27 33 0
2 10 -13 15 23 -24 27 -33 0
2 10 -13 15 23 24 -27 -33 0
2 10 -13 15 23 24 27 33 0
2 10 13 -15 -23 -24 -27 -33 0
2 10 13 -15 -23 -24 27 33 0
2 10 13 -15 -23 24 -27 33 0
2 10 13 -15 -23 24 27 -33 0
2 10 13 -15 23 -24 -27 33 0
2 10 13 -15 23 -24 27 -33 0
2 10 13 -15 23 24 -27 -33 0
2 10 13 -15 23 24 27 33 0
2 10 13 15 -23 -24 -27 33 0
2 10 13 15 -23 -24 27 -33 0
2 10 13 15 -23 24 -27 -33 0
2 10 13 15 -23 24 27 33 0
2 10 13 15 23 -24 -27 -33 0
2 10 13 15 23 -24 27 33 0
2 10 13 15 23 24 -27 33 0
2 10 13 15 23 24 27 -33 0
3 -7 -12 -14 -23 -25 -29 -30 0
3 -7 -12 -14 -23 -25 29 30 0
3 -7 -12 -14 -23 25 -29 30 0
3 -7 -12 -14 -23 25 29 -30 0
3 -7 -12 -14 23 -25 -29 30 0
3 -7 -12 -14 23 -25 29 -30 0
3 -7 -12 -14 23 25 -29 -30 0
3 -7 -12 -14 23 25 29 30 0
3 -7 -12 14 -23 -25 -29 30 0
3 -7 -12 14 -23 -25 29 -30 0
3 -7 -12 14 -23 25 -29 -30 0
3 -7 -12 14 -23 25 29 30 0
3 -7 -12 14 23 -25 -29 -30 0
3 -7 -12 14 23 -25 29 30 0
3 -7 -12 14 23 25 -29 30 0
3 -7 -12 14 23 25 29 -30 0
3 -7 12 -14 -23 -25 -29 30 0
3 -7 12 -14 -23 -25 29 -30 0
3 -7 12 -14 -23 25 -29 -30 0
3 -7 12 -14 -23 25 29 30 0
3 -7 12 -14 23 -25 -29 -30 0
3 -7 12 -14 23 -25 29 30 0
3 -7 12 -14 23 25 -29 30 0
3 -7 12 -14 23 25 29 -30 0
3 -7 12 14 -23 -25 -29 -30 0
3 -7 12 14 -23 -25 29 30 0
3 -7 12 14 -23 25 -29 30 0
3 -7 12 14 -23 25 29 -30 0
3 -7 12 14 23 -25 -29 30 0
3 -7 12 14 23 -25 29 -30 0
3 -7 12 14 23 25 -29 -30 0
3 -7 12 14 23 25 29 30 0
3 7 -12 -14 -23 -25 -29 30 0
3 7 -12 -14 -23 -25 29 -30 0
3 7 -12 -14 -23 25 -29 -30 0
3 7 -12 -14 -23 25 29 30 0
3 7 -12 -14 23 -25 -29 -30 0
3 7 -12 -14 23 -25 29 30 0
3 7 -12 -14 23 25 -29 30 0
3 7 -12 -14 23 25 29 -30 0
3 7 -12 14 -23 -25 -29 -30 0
3 7 -12 14 -23 -25 29 30 0
3 7 -12 14 -23 25 -29 30 0
3 7 -12 14 -23 25 29 -30 0
3 7 -12 14 23 -25 -29 30 0
3 7 -12 14 23 -25 29 -30 0
3 7 -12 14 23 25 -29 -30 0
3 7 -12 14 23 25 29 30 0
3 7 12 -14 -23 -25 -29 -30 0
3 7 12 -14 -23 -25 29 30 0
3 7 12 -14 -23 25 -29 30 0
3 7 12 -14 -23 25 29 -30 0
3 7 12 -14 23 -25 -29 30 0
3 7 12 -14 23 -25 29 -30 0
3 7 12 -14 23 25 -29 -30 0
3 7 12 -14 23 25 29 30 0
3 7 12 14 -23 -25 -29 30 0
3 7 12 14 -23 -25 29 -30 0
3 7 12 14 -23 25 -29 -30 0
3 7 12 14 -23 25 29 30 0
3 7 12 14 23 -25 -29 -30 0
3 7 12 14 23 -25 29 30 0
3 7 12 14 23 25 -29 30 0
3 7 12 14 23 25 29 -30 0
4 -19 -21 -27 -28 -29 -31 -35 0
4 -19 -21 -27 -28 -29 31 35 0
4 -19 -21 -27 -28 29 -31 35 0
4 -19 -21 -27 -28 29 31 -35 0
4 -19 -21 -27 28 -29 -31 35 0
4 -19 -21 -27 28 -29 31 -35 0
4 -19 -21 -27 28 29 -31 -35 0
4 -19 -21 -27 28 29 31 35 0
4 -19 -21 27 -28 -29 -31 35 0
4 -19 -21 27 -28 -29 31 -35 0
4 -19 -21 27 -28 29 -31 -35 0
4 -19 -21 27 -28 29 31 35 0
4 -19 -21 27 28 -29 -31 -35 0
4 -19 -21 27 28 -29 31 35 0
4 -19 -21 27 28 29 -31 35 0
4 -19 -21 27 28 29 31 -35 0
4 -19 21 -27 -28 -29 -31 35 0
4 -19 21 -27 -28 -29 31 -35 0
4 -19 21 -27 -28 29 -31 -35 0
4 -19 21 -27 -28 29 31 35 0
4 -19 21 -27 28 -29 -31 -35 0
4 -19 21 -27 28 -29 31 35 0
4 -19 21 -27 28 29 -31 35 0
4 -19 21 -27 28 29 31 -35 0
4 -19 21 27 -28 -29 -31 -35 0
4 -19 21 27 -28 -29 31 35 0
4 -19 21 27 -28 29 -31 35 0
4 -19 21 27 -28 29 31 -35 0
4 -19 21 27 28 -29 -31 35 0
4 -19 21 27 28 -29 31 -35 0
4 -19 21 27 28 29 -31 -35 0
4 -19 21 27 28 29 31 35 0
4 19 -21 -27 -28 -29 -31 35 0
4 19 -21 -27 -28 -29 31 -35 0
4 19 -21 -27 -28 29 -31 -35 0
4 19 -21 -27 -28 29 31 35 0
4 19 -21 -27 28 -29 -31 -35 0
4 19 -21 -27 28 -29 31 35 0
4 19 -21 -27 28 29 -31 35 0
4 19 -21 -27 28 29 31 -35 0
4 19 -21 27 -28 -29 -31 -35 0
4 19 -21 27 -28 -29 31 35 0
4 19 -21 27 -28 29 -31 35 0
4 19 -21 27 -28 29 31 -35 0
4 19 -21 27 28 -29 -31 35 0
4 19 -21 27 28 -29 31 -35 0
4 19 -21 27 28 29 -31 -35 0
4 19 -21 27 28 29 31 35 0
4 19 21 -27 -28 -29 -31 -35 0
4 19 21 -27 -28 -29 31 35 0
4 19 21 -27 -28 29 -31 35 0
4 19 21 -27 -28 29 31 -35 0
4 19 21 -27 28 -29 -31 35 0
4 19 21 -27 28 -29 31 -35 0
4 19 21 -27 28 29 -31 -35 0
4 19 21 -27 28 29 31 35 0
4 19 21 27 -28 -29 -31 35 0
4 19 21 27 -28 -29 31 -35 0
4 19 21 27 -28 29 -31 -35 0
4 19 21 27 -28 29 31 35 0
4 19 21 27 28 -29 -31 -35 0
4 19 21 27 28 -29 31 35 0
4 19 21 27 28 29 -31 35 0
4 19 21 27 28 29 31 -35 0
6 -10 -11 -16 -22 -30 -31 -32 0
6 -10 -11 -16 -22 -30 31 32 0
6 -10 -11 -16 -22 30 -31 32 0
6 -10 -11 -16 -22 30 31 -32 0
6 -10 -11 -16 22 -30 -31 32 0
6 -10 -11 -16 22 -30 31 -32 0
6 -10 -11 -16 22 30 -31 -32 0
6 -10 -11 -16 22 30 31 32 0
6 -10 -11 16 -22 -30 -31 32 0
6 -10 -11 16 -22 -30 31 -32 0
6 -10 -11 16 -22 30 -31 -32 0
6 -10 -11 16 -22 30 31 32 0
6 -10 -11 16 22 -30 -31 -32 0
6 -10 -11 16 22 -30 31 32 0
6 -10 -11 16 22 30 -31 32 0
6 -10 -11 16 22 30 31 -32 0
6 -10 11 -16 -22 -30 -31 32 0
6 -10 11 -16 -22 -30 31 -32 0
6 -10 11 -16 -22 30 -31 -32 0
6 -10 11 -16 -22 30 31 32 0
6 -10 11 -16 22 -30 -31 -32 0
6 -10 11 -16 22 -30 31 32 0
6 -10 11 -16 22 30 -31 32 0
6 -10 11 -16 22 30 31 -32 0
6 -10 11 16 -22 -30 -31 -32 0
6 -10 11 16 -22 -30 31 32 0
6 -10 11 16 -22 30 -31 32 0
6 -10 11 16 -22 30 31 -32 0
6 -10 11 16 22 -30 -31 32 0
6 -10 11 16 22 -30 31 -32 0
6 -10 11 16 22 30 -31 -32 0
6 -10 11 16 22 30 31 32 0
6 10 -11 -16 -22 -30 -31 32 0
6 10 -11 -16 -22 -30 31 -32 0
6 10 -11 -16 -22 30 -31 -32 0
6 10 -11 -16 -22 30 31 32 0
6 10 -11 -16 22 -30 -31 -32 0
6 10 -11 -16 22 -30 31 32 0
6 10 -11 -16 22 30 -31 32 0
6 10 -11 -16 22 30 31 -32 0
6 10 -11 16 -22 -30 -31 -32 0
6 10 -11 16 -22 -30 31 32 0
6 10 -11 16 -22 30 -31 32 0
6 10 -11 16 -22 30 31 -32 0
6 10 -11 16 22 -30 -31 32 0
6 10 -11 16 22 -30 31 -32 0
6 10 -11 16 22 30 -31 -32 0
6 10 -11 16 22 30 31 32 0
6 10 11 -16 -22 -30 -31 -32 0
6 10 11 -16 -22 -30 31 32 0
6 10 11 -16 -22 30 -31 32 0
6 10 11 -16 -22 30 31 -32 0
6 10 11 -16 22 -30 -31 32 0
6 10 11 -16 22 -30 31 -32 0
6 10 11 -16 22 30 -31 -32 0
6 10 11 -16 22 30 31 32 0
6 10 11 16 -22 -30 -31 32 0
6 10 11 16 -22 -30 31 -32 0
6 10 11 16 -22 30 -31 -32 0
6 10 11 16 -22 30 31 32 0
6 10 11 16 22 -30 -31 -32 0
6 10 11 16 22 -30 31 32 0
6 10 11 16 22 30 -31 32 0
6 10 11 16 22 30 31 -32 0
7 -11 -17 -18 -20 -21 -33 -34 0
7 -11 -17 -18 -20 -21 33 34 0
7 -11 -17 -18 -20 21 -33 34 0
7 -11 -17 -18 -20 21 33 -34 0
7 -11 -17 -18 20 -21 -33 34 0
7 -11 -17 -18 20 -21 33 -34 0
7 -11 -17 -18 20 21 -33 -34 0
7 -11 -17 -18 20 21 33 34 0
7 -11 -17 18 -20 -21 -33 34 0
7 -11 -17 18 -20 -21 33 -34 0
7 -11 -17 18 -20 21 -33 -34 0
7 -11 -17 18 -20 21 33 34 0
7 -11 -17 18 20 -21 -33 -34 0
7 -11 -17 18 20 -21 33 34 0
7 -11 -17 18 20 21 -33 34 0
7 -11 -17 18 20 21 33 -34 0
7 -11 17 -18 -20 -21 -33 34 0
7 -11 17 -18 -20 -21 33 -34 0
7 -11 17 -18 -20 21 -33 -34 0
7 -11 17 -18 -20 21 33 34 0
7 -11 17 -18 20 -21 -33 -34 0
7 -11 17 -18 20 -21 33 34 0
7 -11 17 -18 20 21 -33 34 0
7 -11 17 -18 20 21 33 -34 0
7 -11 17 18 -20 -21 -33 -34 0
7 -11 17 18 -20 -21 33 34 0
7 -11 17 18 -20 21 -33 34 0
7 -11 17 18 -20 21 33 -34 0
7 -11 17 18 20 -21 -33 34 0
7 -11 17 18 20 -21 33 -34 0
7 -11 17 18 20 21 -33 -34 0
7 -11 17 18 20 21 33 34 0
7 11 -17 -18 -20 -21 -33 34 0
7 11 -17 -18 -20 -21 33 -34 0
7 11 -17 -18 -20 21 -33 -34 0
7 11 -17 -18 -20 21 33 34 0
7 11 -17 -18 20 -21 -33 -34 0
7 11 -17 -18 20 -21 33 34 0
7 11 -17 -18 20 21 -33 34 0
7 11 -17 -18 20 21 33 -34 0
7 11 -17 18 -20 -21 -33 -34 0
7 11 -17 18 -20 -21 33 34 0
7 11 -17 18 -20 21 -33 34 0
7 11 -17 18 -20 21 33 -34 0
7 11 -17 18 20 -21 -33 34 0
7 11 -17 18 20 -21 33 -34 0
7 11 -17 18 20 21 -33 -34 0
7 11 -17 18 20 21 33 34 0
7 11 17 -18 -20 -21 -33 -34 0
7 11 17 -18 -20 -21 33 34 0
7 11 17 -18 -20 21 -33 34 0
7 11 17 -18 -20 21 33 -34 0
7 11 17 -18 20 -21 -33 34 0
7 11 17 -18 20 -21 33 -34 0
7 11 17 -18 20 21 -33 -34 0
7 11 17 -18 20 21 33 34 0
7 11 17 18 -20 -21 -33 34 0
7 11 17 18 -20 -21 33 -34 0
7 11 17 18 -20 21 -33 -34 0
7 11 17 18 -20 21 33 34 0
7 11 17 18 20 -21 -33 -34 0
7 11 17 18 20 -21 33 34 0
7 11 17 18 20 21 -33 34 0
7 11 17 18 20 21 33 -34 0
9 -12 -17 -22 -24 -26 -35 -36 0
9 -12 -17 -22 -24 -26 35 36 0
9 -12 -17 -22 -24 26 -35 36 0
9 -12 -17 -22 -24 26 35 -36 0
9 -12 -17 -22 24 -26 -35 36 0
9 -12 -17 -22 24 -26 35 -36 0
9 -12 -17 -22 24 26 -35 -36 0
9 -12 -17 -22 24 26 35 36 0
9 -12 -17 22 -24 -26 -35 36 0
9 -12 -17 22 -24 -26 35 -36 0
9 -12 -17 22 -24 26 -35 -36 0
9 -12 -17 22 -24 26 35 36 0
9 -12 -17 22 24 -26 -35 -36 0
9 -12 -17 22 24 -26 35 36 0
9 -12 -17 22 24 26 -35 36 0
9 -12 -17 22 24 26 35 -36 0
9 -12 17 -22 -24 -26 -35 36 0
9 -12 17 -22 -24 -26 35 -36 0
9 -12 17 -22 -24 26 -35 -36 0
9 -12 17 -22 -24 26 35 36 0
9 -12 17 -22 24 -26 -35 -36 0
9 -12 17 -22 24 -26 35 36 0
9 -12 17 -22 24 26 -35 36 0
9 -12 17 -22 24 26 35 -36 0
9 -12 17 22 -24 -26 -35 -36 0
9 -12 17 22 -24 -26 35 36 0
9 -12 17 22 -24 26 -35 36 0
9 -12 17 22 -24 26 35 -36 0
9 -12 17 22 24 -26 -35 36 0
9 -12 17 22 24 -26 35 -36 0
9 -12 17 22 24 26 -35 -36 0
9 -12 17 22 24 26 35 36 0
9 12 -17 -22 -24 -26 -35 36 0
9 12 -17 -22 -24 -26 35 -36 0
9 12 -17 -22 -24 26 -35 -36 0
9 12 -17 -22 -24 26 35 36 0
9 12 -17 -22 24 -26 -35 -36 0
9 12 -17 -22 24 -26 35 36 0
9 12 -17 -22 24 26 -35 36 0
9 12 -17 -22 24 26 35 -36 0
9 12 -17 22 -24 -26 -35 -36 0
9 12 -17 22 -24 -26 35 36 0
9 12 -17 22 -24 26 -35 36 0
9 12 -17 22 -24 26 35 -36 0
9 12 -17 22 24 -26 -35 36 0
9 12 -17 22 24 -26 35 -36 0
9 12 -17 22 24 26 -35 -36 0
9 12 -17 22 24 26 35 36 0
9 12 17 -22 -24 -26 -35 -36 0
9 12 17 -22 -24 -26 35 36 0
9 12 17 -22 -24 26 -35 36 0
9 12 17 -22 -24 26 35 -36 0
9 12 17 -22 24 -26 -35 36 0
9 12 17 -22 24 -26 35 -36 0
9 12 17 -22 24 26 -35 -36 0
9 12 17 -22 24 26 35 36 0
9 12 17 22 -24 -26 -35 36 0
9 12 17 22 -24 -26 35 -36 0
9 12 17 22 -24 26 -35 -36 0
9 12 17 22 -24 26 35 36 0
9 12 17 22 24 -26 -35 -36 0
9 12 17 22 24 -26 35 36 0
9 12 17 22 24 26 -35 36 0
9 12 17 22 24 26 35 -36 0
