p cnf 15 96
-7 -11 -12 -13 -14 0
-7 -11 -12 13 14 0
-7 -11 12 -13 14 0
-7 -11 12 13 -14 0
-7 11 -12 -13 14 0
-7 11 -12 13 -14 0
-7 11 12 -13 -14 0
-7 11 12 13 14 0
-5 -6 -8 -10 -11 0
-5 -6 -8 10 11 0
-5 -6 8 -10 11 0
-5 -6 8 10 -11 0
-5 6 -8 -10 11 0
-5 6 -8 10 -11 0
-5 6 8 -10 -11 0
-5 6 8 10 11 0
-3 -4 -5 -9 -13 0
-3 -4 -5 9 13 0
-3 -4 5 -9 13 0
-3 -4 5 9 -13 0
-3 4 -5 -9 13 0
-3 4 -5 9 -13 0
-3 4 5 -9 -13 0
-3 4 5 9 13 0
-2 -4 -8 -14 -15 0
-2 -4 -8 14 15 0
-2 -4 8 -14 15 0
-2 -4 8 14 -15 0
-2 4 -8 -14 15 0
-2 4 -8 14 -15 0
-2 4 8 -14 -15 0
-2 4 8 14 15 0
-1 -3 -10 -12 -15 0
-1 -3 -10 12 15 0
-1 -3 10 -12 15 0
-1 -3 10 12 -15 0
-1 -2 -6 -7 9 0
-1 -2 -6 7 -9 0
-1 -2 6 -7 -9 0
-1 -2 6 7 9 0
-1 2 -6 -7 -9 0
-1 2 -6 7 9 0
-1 2 6 -7 9 0
-1 2 6 7 -9 0
-1 3 -10 -12 15 0
-1 3 -10 12 -15 0
-1 3 10 -12 -15 0
-1 3 10 12 15 0
1 -3 -10 -12 15 0
1 -3 -10 12 -15 0
1 -3 10 -12 -15 0
1 -3 10 12 15 0
1 -2 -6 -7 -9 0
1 -2 -6 7 9 0
1 -2 6 -7 9 0
1 -2 6 7 -9 0
1 2 -6 -7 9 0
1 2 -6 7 -9 0
1 2 6 -7 -9 0
1 2 6 7 9 0
1 3 -10 -12 -15 0
1 3 -10 12 15 0
1 3 10 -12 15 0
1 3 10 12 -15 0
2 -4 -8 -14 15 0
2 -4 -8 14 -15 0
2 -4 8 -14 -15 0
2 -4 8 14 15 0
2 4 -8 -14 -15 0
2 4 -8 14 15 0
2 4 8 -14 15 0
2 4 8 14 -15 0
3 -4 -5 -9 13 0
3 -4 -5 9 -13 0
3 -4 5 -9 -13 0
3 -4 5 9 13 0
3 4 -5 -9 -13 0
3 4 -5 9 13 0
3 4 5 -9 13 0
3 4 5 9 -13 0
5 -6 -8 -10 11 0
5 -6 -8 10 -11 0
5 -6 8 -10 -11 0
5 -6 8 10 11 0
5 6 -8 -10 -11 0
5 6 -8 10 11 0
5 6 8 -10 11 0
5 6 8 10 -11 0
7 -11 -12 -13 14 0
7 -11 -12 13 -14 0
7 -11 12 -13 -14 0
7 -11 12 13 14 0
7 11 -12 -13 -14 0
7 11 -12 13 14 0
7 11 12 -13 14 0
7 11 12 13 -14 0
