p cnf 36 1152
-10 -16 -17 -24 -26 -33 -34 35 0
-10 -16 -17 -24 -26 -33 34 -35 0
-10 -16 -17 -24 -26 33 -34 -35 0
-10 -16 -17 -24 -26 33 34 35 0
-10 -16 -17 -24 26 -33 -34 -35 0
-10 -16 -17 -24 26 -33 34 35 0
-10 -16 -17 -24 26 33 -34 35 0
-10 -16 -17 -24 26 33 34 -35 0
-10 -16 -17 24 -26 -33 -34 -35 0
-10 -16 -17 24 -26 -33 34 35 0
-10 -16 -17 24 -26 33 -34 35 0
-10 -16 -17 24 -26 33 34 -35 0
-10 -16 -17 24 26 -33 -34 35 0
-10 -16 -17 24 26 -33 34 -35 0
-10 -16 -17 24 26 33 -34 -35 0
-10 -16 -17 24 26 33 34 35 0
-10 -16 17 -24 -26 -33 -34 -35 0
-10 -16 17 -24 -26 -33 34 35 0
-10 -16 17 -24 -26 33 -34 35 0
-10 -16 17 -24 -26 33 34 -35 0
-10 -16 17 -24 26 -33 -34 35 0
-10 -16 17 -24 26 -33 34 -35 0
-10 -16 17 -24 26 33 -34 -35 0
-10 -16 17 -24 26 33 34 35 0
-10 -16 17 24 -26 -33 -34 35 0
-10 -16 17 24 -26 -33 34 -35 0
-10 -16 17 24 -26 33 -34 -35 0
-10 -16 17 24 -26 33 34 35 0
-10 -16 17 24 26 -33 -34 -35 0
-10 -16 17 24 26 -33 34 35 0
-10 -16 17 24 26 33 -34 35 0
-10 -16 17 24 26 33 34 -35 0
-10 16 -17 -24 -26 -33 -34 -35 0
-10 16 -17 -24 -26 -33 34 35 0
-10 16 -17 -24 -26 33 -34 35 0
-10 16 -17 -24 -26 33 34 -35 0
-10 16 -17 -24 26 -33 -34 35 0
-10 16 -17 -24 26 -33 34 -35 0
-10 16 -17 -24 26 33 -34 -35 0
-10 16 -17 -24 26 33 34 35 0
-10 16 -17 24 -26 -33 -34 35 0
-10 16 -17 24 -26 -33 34 -35 0
-10 16 -17 24 -26 33 -34 -35 0
-10 16 -17 24 -26 33 34 35 0
-10 16 -17 24 26 -33 -34 -35 0
-10 16 -17 24 26 -33 34 35 0
-10 16 -17 24 26 33 -34 35 0
-10 16 -17 24 26 33 34 -35 0
-10 16 17 -24 -26 -33 -34 35 0
-10 16 17 -24 -26 -33 34 -35 0
-10 16 17 -24 -26 33 -34 -35 0
-10 16 17 -24 -26 33 34 35 0
-10 16 17 -24 26 -33 -34 -35 0
-10 16 17 -24 26 -33 34 35 0
-10 16 17 -24 26 33 -34 35 0
-10 16 17 -24 26 33 34 -35 0
-10 16 17 24 -26 -33 -34 -35 0
-10 16 17 24 -26 -33 34 35 0
-10 16 17 24 -26 33 -34 35 0
-10 16 17 24 -26 33 34 -35 0
-10 16 17 24 26 -33 -34 35 0
-10 16 17 24 26 -33 34 -35 0
-10 16 17 24 26 33 -34 -35 0
-10 16 17 24 26 33 34 35 0
-6 -8 -11 -18 -20 -30 -32 34 0
-6 -8 -11 -18 -20 -30 32 -34 0
-6 -8 -11 -18 -20 30 -32 -34 0
-6 -8 -11 -18 -20 30 32 34 0
-6 -8 -11 -18 20 -30 -32 -34 0
-6 -8 -11 -18 20 -30 32 34 0
-6 -8 -11 -18 20 30 -32 34 0
-6 -8 -11 -18 20 30 32 -34 0
-6 -8 -11 18 -20 -30 -32 -34 0
-6 -8 -11 18 -20 -30 32 34 0
-6 -8 -11 18 -20 30 -32 34 0
-6 -8 -11 18 -20 30 32 -34 0
-6 -8 -11 18 20 -30 -32 34 0
-6 -8 -11 18 20 -30 32 -34 0
-6 -8 -11 18 20 30 -32 -34 0
-6 -8 -11 18 20 30 32 34 0
-6 -8 11 -18 -20 -30 -32 -34 0
-6 -8 11 -18 -20 -30 32 34 0
-6 -8 11 -18 -20 30 -32 34 0
-6 -8 11 -18 -20 30 32 -34 0
-6 -8 11 -18 20 -30 -32 34 0
-6 -8 11 -18 20 -30 32 -34 0
-6 -8 11 -18 20 30 -32 -34 0
-6 -8 11 -18 20 30 32 34 0
-6 -8 11 18 -20 -30 -32 34 0
-6 -8 11 18 -20 -30 32 -34 0
-6 -8 11 18 -20 30 -32 -34 0
-6 -8 11 18 -20 30 32 34 0
-6 -8 11 18 20 -30 -32 -34 0
-6 -8 11 18 20 -30 32 34 0
-6 -8 11 18 20 30 -32 34 0
-6 -8 11 18 20 30 32 -34 0
-6 8 -11 -18 -20 -30 -32 -34 0
-6 8 -11 -18 -20 -30 32 34 0
-6 8 -11 -18 -20 30 -32 34 0
-6 8 -11 -18 -20 30 32 -34 0
-6 8 -11 -18 20 -30 -32 34 0
-6 8 -11 -18 20 -30 32 -34 0
-6 8 -11 -18 20 30 -32 -34 0
-6 8 -11 -18 20 30 32 34 0
-6 8 -11 18 -20 -30 -32 34 0
-6 8 -11 18 -20 -30 32 -34 0
-6 8 -11 18 -20 30 -32 -34 0
-6 8 -11 18 -20 30 32 34 0
-6 8 -11 18 20 -30 -32 -34 0
-6 8 -11 18 20 -30 32 34 0
-6 8 -11 18 20 30 -32 34 0
-6 8 -11 18 20 30 32 -34 0
-6 8 11 -18 -20 -30 -32 34 0
-6 8 11 -18 -20 -30 32 -34 0
-6 8 11 -18 -20 30 -32 -34 0
-6 8 11 -18 -20 30 32 34 0
-6 8 11 -18 20 -30 -32 -34 0
-6 8 11 -18 20 -30 32 34 0
-6 8 11 -18 20 30 -32 34 0
-6 8 11 -18 20 30 32 -34 0
-6 8 11 18 -20 -30 -32 -34 0
-6 8 11 18 -20 -30 32 34 0
-6 8 11 18 -20 30 -32 34 0
-6 8 11 18 -20 30 32 -34 0
-6 8 11 18 20 -30 -32 34 0
-6 8 11 18 20 -30 32 -34 0
-6 8 11 18 20 30 -32 -34 0
-6 8 11 18 20 30 32 34 0
-5 -14 -18 -19 -22 -24 -25 27 0
-5 -14 -18 -19 -22 -24 25 -27 0
-5 -14 -18 -19 -22 24 -25 -27 0
-5 -14 -18 -19 -22 24 25 27 0
-5 -14 -18 -19 22 -24 -25 -27 0
-5 -14 -18 -19 22 -24 25 27 0
-5 -14 -18 -19 22 24 -25 27 0
-5 -14 -18 -19 22 24 25 -27 0
-5 -14 -18 19 -22 -24 -25 -27 0
-5 -14 -18 19 -22 -24 25 27 0
-5 -14 -18 19 -22 24 -25 27 0
-5 -14 -18 19 -22 24 25 -27 0
-5 -14 -18 19 22 -24 -25 27 0
-5 -14 -18 19 22 -24 25 -27 0
-5 -14 -18 19 22 24 -25 -27 0
-5 -14 -18 19 22 24 25 27 0
-5 -14 18 -19 -22 -24 -25 -27 0
-5 -14 18 -19 -22 -24 25 27 0
-5 -14 18 -19 -22 24 -25 27 0
-5 -14 18 -19 -22 24 25 -27 0
-5 -14 18 -19 22 -24 -25 27 0
-5 -14 18 -19 22 -24 25 -27 0
-5 -14 18 -19 22 24 -25 -27 0
-5 -14 18 -19 22 24 25 27 0
-5 -14 18 19 -22 -24 -25 27 0
-5 -14 18 19 -22 -24 25 -27 0
-5 -14 18 19 -22 24 -25 -27 0
-5 -14 18 19 -22 24 25 27 0
-5 -14 18 19 22 -24 -25 -27 0
-5 -14 18 19 22 -24 25 27 0
-5 -14 18 19 22 24 -25 27 0
-5 -14 18 19 22 24 25 -27 0
-5 14 -18 -19 -22 -24 -25 -27 0
-5 14 -18 -19 -22 -24 25 27 0
-5 14 -18 -19 -22 24 -25 27 0
-5 14 -18 -19 -22 24 25 -27 0
-5 14 -18 -19 22 -24 -25 27 0
-5 14 -18 -19 22 -24 25 -27 0
-5 14 -18 -19 22 24 -25 -27 0
-5 14 -18 -19 22 24 25 27 0
-5 14 -18 19 -22 -24 -25 27 0
-5 14 -18 19 -22 -24 25 -27 0
-5 14 -18 19 -22 24 -25 -27 0
-5 14 -18 19 -22 24 25 27 0
-5 14 -18 19 22 -24 -25 -27 0
-5 14 -18 19 22 -24 25 27 0
-5 14 -18 19 22 24 -25 27 0
-5 14 -18 19 22 24 25 -27 0
-5 14 18 -19 -22 -24 -25 27 0
-5 14 18 -19 -22 -24 25 -27 0
-5 14 18 -19 -22 24 -25 -27 0
-5 14 18 -19 -22 24 25 27 0
-5 14 18 -19 22 -24 -25 -27 0
-5 14 18 -19 22 -24 25 27 0
-5 14 18 -19 22 24 -25 27 0
-5 14 18 -19 22 24 25 -27 0
-5 14 18 19 -22 -24 -25 -27 0
-5 14 18 19 -22 -24 25 27 0
-5 14 18 19 -22 24 -25 27 0
-5 14 18 19 -22 24 25 -27 0
-5 14 18 19 22 -24 -25 27 0
-5 14 18 19 22 -24 25 -27 0
-5 14 18 19 22 24 -25 -27 0
-5 14 18 19 22 24 25 27 0
-3 -5 -7 -11 -12 -13 -26 28 0
-3 -5 -7 -11 -12 -13 26 -28 0
-3 -5 -7 -11 -12 13 -26 -28 0
-3 -5 -7 -11 -12 13 26 28 0
-3 -5 -7 -11 12 -13 -26 -28 0
-3 -5 -7 -11 12 -13 26 28 0
-3 -5 -7 -11 12 13 -26 28 0
-3 -5 -7 -11 12 13 26 -28 0
-3 -5 -7 11 -12 -13 -26 -28 0
-3 -5 -7 11 -12 -13 26 28 0
-3 -5 -7 11 -12 13 -26 28 0
-3 -5 -7 11 -12 13 26 -28 0
-3 -5 -7 11 12 -13 -26 28 0
-3 -5 -7 11 12 -13 26 -28 0
-3 -5 -7 11 12 13 -26 -28 0
-3 -5 -7 11 12 13 26 28 0
-3 -5 7 -11 -12 -13 -26 -28 0
-3 -5 7 -11 -12 -13 26 28 0
-3 -5 7 -11 -12 13 -26 28 0
-3 -5 7 -11 -12 13 26 -28 0
-3 -5 7 -11 12 -13 -26 28 0
-3 -5 7 -11 12 -13 26 -28 0
-3 -5 7 -11 12 13 -26 -28 0
-3 -5 7 -11 12 13 26 28 0
-3 -5 7 11 -12 -13 -26 28 0
-3 -5 7 11 -12 -13 26 -28 0
-3 -5 7 11 -12 13 -26 -28 0
-3 -5 7 11 -12 13 26 28 0
-3 -5 7 11 12 -13 -26 -28 0
-3 -5 7 11 12 -13 26 28 0
-3 -5 7 11 12 13 -26 28 0
-3 -5 7 11 12 13 26 -28 0
-3 -4 -9 -15 -17 -23 -25 30 0
-3 -4 -9 -15 -17 -23 25 -30 0
-3 -4 -9 -15 -17 23 -25 -30 0
-3 -4 -9 -15 -17 23 25 30 0
-3 -4 -9 -15 17 -23 -25 -30 0
-3 -4 -9 -15 17 -23 25 30 0
-3 -4 -9 -15 17 23 -25 30 0
-3 -4 -9 -15 17 23 25 -30 0
-3 -4 -9 15 -17 -23 -25 -30 0
-3 -4 -9 15 -17 -23 25 30 0
-3 -4 -9 15 -17 23 -25 30 0
-3 -4 -9 15 -17 23 25 -30 0
-3 -4 -9 15 17 -23 -25 30 0
-3 -4 -9 15 17 -23 25 -30 0
-3 -4 -9 15 17 23 -25 -30 0
-3 -4 -9 15 17 23 25 30 0
-3 -4 9 -15 -17 -23 -25 -30 0
-3 -4 9 -15 -17 -23 25 30 0
-3 -4 9 -15 -17 23 -25 30 0
-3 -4 9 -15 -17 23 25 -30 0
-3 -4 9 -15 17 -23 -25 30 0
-3 -4 9 -15 17 -23 25 -30 0
-3 -4 9 -15 17 23 -25 -30 0
-3 -4 9 -15 17 23 25 30 0
-3 -4 9 15 -17 -23 -25 30 0
-3 -4 9 15 -17 -23 25 -30 0
-3 -4 9 15 -17 23 -25 -30 0
-3 -4 9 15 -17 23 25 30 0
-3 -4 9 15 17 -23 -25 -30 0
-3 -4 9 15 17 -23 25 30 0
-3 -4 9 15 17 23 -25 30 0
-3 -4 9 15 17 23 25 -30 0
-3 4 -9 -15 -17 -23 -25 -30 0
-3 4 -9 -15 -17 -23 25 30 0
-3 4 -9 -15 -17 23 -25 30 0
-3 4 -9 -15 -17 23 25 -30 0
-3 4 -9 -15 17 -23 -25 30 0
-3 4 -9 -15 17 -23 25 -30 0
-3 4 -9 -15 17 23 -25 -30 0
-3 4 -9 -15 17 23 25 30 0
-3 4 -9 15 -17 -23 -25 30 0
-3 4 -9 15 -17 -23 25 -30 0
-3 4 -9 15 -17 23 -25 -30 0
-3 4 -9 15 -17 23 25 30 0
-3 4 -9 15 17 -23 -25 -30 0
-3 4 -9 15 17 -23 25 30 0
-3 4 -9 15 17 23 -25 30 0
-3 4 -9 15 17 23 25 -30 0
-3 4 9 -15 -17 -23 -25 30 0
-3 4 9 -15 -17 -23 25 -30 0
-3 4 9 -15 -17 23 -25 -30 0
-3 4 9 -15 -17 23 25 30 0
-3 4 9 -15 17 -23 -25 -30 0
-3 4 9 -15 17 -23 25 30 0
-3 4 9 -15 17 23 -25 30 0
-3 4 9 -15 17 23 25 -30 0
-3 4 9 15 -17 -23 -25 -30 0
-3 4 9 15 -17 -23 25 30 0
-3 4 9 15 -17 23 -25 30 0
-3 4 9 15 -17 23 25 -30 0
-3 4 9 15 17 -23 -25 30 0
-3 4 9 15 17 -23 25 -30 0
-3 4 9 15 17 23 -25 -30 0
-3 4 9 15 17 23 25 30 0
-3 5 -7 -11 -12 -13 -26 -28 0
-3 5 -7 -11 -12 -13 26 28 0
-3 5 -7 -11 -12 13 -26 28 0
-3 5 -7 -11 -12 13 26 -28 0
-3 5 -7 -11 12 -13 -26 28 0
-3 5 -7 -11 12 -13 26 -28 0
-3 5 -7 -11 12 13 -26 -28 0
-3 5 -7 -11 12 13 26 28 0
-3 5 -7 11 -12 -13 -26 28 0
-3 5 -7 11 -12 -13 26 -28 0
-3 5 -7 11 -12 13 -26 -28 0
-3 5 -7 11 -12 13 26 28 0
-3 5 -7 11 12 -13 -26 -28 0
-3 5 -7 11 12 -13 26 28 0
-3 5 -7 11 12 13 -26 28 0
-3 5 -7 11 12 13 26 -28 0
-3 5 7 -11 -12 -13 -26 28 0
-3 5 7 -11 -12 -13 26 -28 0
-3 5 7 -11 -12 13 -26 -28 0
-3 5 7 -11 -12 13 26 28 0
-3 5 7 -11 12 -13 -26 -28 0
-3 5 7 -11 12 -13 26 28 0
-3 5 7 -11 12 13 -26 28 0
-3 5 7 -11 12 13 26 -28 0
-3 5 7 11 -12 -13 -26 -28 0
-3 5 7 11 -12 -13 26 28 0
-3 5 7 11 -12 13 -26 28 0
-3 5 7 11 -12 13 26 -28 0
-3 5 7 11 12 -13 -26 28 0
-3 5 7 11 12 -13 26 -28 0
-3 5 7 11 12 13 -26 -28 0
-3 5 7 11 12 13 26 28 0
-2 -9 -16 -27 -28 -31 -32 36 0
-2 -9 -16 -27 -28 -31 32 -36 0
-2 -9 -16 -27 -28 31 -32 -36 0
-2 -9 -16 -27 -28 31 32 36 0
-2 -9 -16 -27 28 -31 -32 -36 0
-2 -9 -16 -27 28 -31 32 36 0
-2 -9 -16 -27 28 31 -32 36 0
-2 -9 -16 -27 28 31 32 -36 0
-2 -9 -16 27 -28 -31 -32 -36 0
-2 -9 -16 27 -28 -31 32 36 0
-2 -9 -16 27 -28 31 -32 36 0
-2 -9 -16 27 -28 31 32 -36 0
-2 -9 -16 27 28 -31 -32 36 0
-2 -9 -16 27 28 -31 32 -36 0
-2 -9 -16 27 28 31 -32 -36 0
-2 -9 -16 27 28 31 32 36 0
-2 -9 16 -27 -28 -31 -32 -36 0
-2 -9 16 -27 -28 -31 32 36 0
-2 -9 16 -27 -28 31 -32 36 0
-2 -9 16 -27 -28 31 32 -36 0
-2 -9 16 -27 28 -31 -32 36 0
-2 -9 16 -27 28 -31 32 -36 0
-2 -9 16 -27 28 31 -32 -36 0
-2 -9 16 -27 28 31 32 36 0
-2 -9 16 27 -28 -31 -32 36 0
-2 -9 16 27 -28 -31 32 -36 0
-2 -9 16 27 -28 31 -32 -36 0
-2 -9 16 27 -28 31 32 36 0
-2 -9 16 27 28 -31 -32 -36 0
-2 -9 16 27 28 -31 32 36 0
-2 -9 16 27 28 31 -32 36 0
-2 -9 16 27 28 31 32 -36 0
-2 -8 -12 -14 -21 -23 -29 35 0
-2 -8 -12 -14 -21 -23 29 -35 0
-2 -8 -12 -14 -21 23 -29 -35 0
-2 -8 -12 -14 -21 23 29 35 0
-2 -8 -12 -14 21 -23 -29 -35 0
-2 -8 -12 -14 21 -23 29 35 0
-2 -8 -12 -14 21 23 -29 35 0
-2 -8 -12 -14 21 23 29 -35 0
-2 -8 -12 14 -21 -23 -29 -35 0
-2 -8 -12 14 -21 -23 29 35 0
-2 -8 -12 14 -21 23 -29 35 0
-2 -8 -12 14 -21 23 29 -35 0
-2 -8 -12 14 21 -23 -29 35 0
-2 -8 -12 14 21 -23 29 -35 0
-2 -8 -12 14 21 23 -29 -35 0
-2 -8 -12 14 21 23 29 35 0
-2 -8 12 -14 -21 -23 -29 -35 0
-2 -8 12 -14 -21 -23 29 35 0
-2 -8 12 -14 -21 23 -29 35 0
-2 -8 12 -14 -21 23 29 -35 0
-2 -8 12 -14 21 -23 -29 35 0
-2 -8 12 -14 21 -23 29 -35 0
-2 -8 12 -14 21 23 -29 -35 0
-2 -8 12 -14 21 23 29 35 0
-2 -8 12 14 -21 -23 -29 35 0
-2 -8 12 14 -21 -23 29 -35 0
-2 -8 12 14 -21 23 -29 -35 0
-2 -8 12 14 -21 23 29 35 0
-2 -8 12 14 21 -23 -29 -35 0
-2 -8 12 14 21 -23 29 35 0
-2 -8 12 14 21 23 -29 35 0
-2 -8 12 14 21 23 29 -35 0
-2 8 -12 -14 -21 -23 -29 -35 0
-2 8 -12 -14 -21 -23 29 35 0
-2 8 -12 -14 -21 23 -29 35 0
-2 8 -12 -14 -21 23 29 -35 0
-2 8 -12 -14 21 -23 -29 35 0
-2 8 -12 -14 21 -23 29 -35 0
-2 8 -12 -14 21 23 -29 -35 0
-2 8 -12 -14 21 23 29 35 0
-2 8 -12 14 -21 -23 -29 35 0
-2 8 -12 14 -21 -23 29 -35 0
-2 8 -12 14 -21 23 -29 -35 0
-2 8 -12 14 -21 23 29 35 0
-2 8 -12 14 21 -23 -29 -35 0
-2 8 -12 14 21 -23 29 35 0
-2 8 -12 14 21 23 -29 35 0
-2 8 -12 14 21 23 29 -35 0
-2 8 12 -14 -21 -23 -29 35 0
-2 8 12 -14 -21 -23 29 -35 0
-2 8 12 -14 -21 23 -29 -35 0
-2 8 12 -14 -21 23 29 35 0
-2 8 12 -14 21 -23 -29 -35 0
-2 8 12 -14 21 -23 29 35 0
-2 8 12 -14 21 23 -29 35 0
-2 8 12 -14 21 23 29 -35 0
-2 8 12 14 -21 -23 -29 -35 0
-2 8 12 14 -21 -23 29 35 0
-2 8 12 14 -21 23 -29 35 0
-2 8 12 14 -21 23 29 -35 0
-2 8 12 14 21 -23 -29 35 0
-2 8 12 14 21 -23 29 -35 0
-2 8 12 14 21 23 -29 -35 0
-2 8 12 14 21 23 29 35 0
-2 9 -16 -27 -28 -31 -32 -36 0
-2 9 -16 -27 -28 -31 32 36 0
-2 9 -16 -27 -28 31 -32 36 0
-2 9 -16 -27 -28 31 32 -36 0
-2 9 -16 -27 28 -31 -32 36 0
-2 9 -16 -27 28 -31 32 -36 0
-2 9 -16 -27 28 31 -32 -36 0
-2 9 -16 -27 28 31 32 36 0
-2 9 -16 27 -28 -31 -32 36 0
-2 9 -16 27 -28 -31 32 -36 0
-2 9 -16 27 -28 31 -32 -36 0
-2 9 -16 27 -28 31 32 36 0
-2 9 -16 27 28 -31 -32 -36 0
-2 9 -16 27 28 -31 32 36 0
-2 9 -16 27 28 31 -32 36 0
-2 9 -16 27 28 31 32 -36 0
-2 9 16 -27 -28 -31 -32 36 0
-2 9 16 -27 -28 -31 32 -36 0
-2 9 16 -27 -28 31 -32 -36 0
-2 9 16 -27 -28 31 32 36 0
-2 9 16 -27 28 -31 -32 -36 0
-2 9 16 -27 28 -31 32 36 0
-2 9 16 -27 28 31 -32 36 0
-2 9 16 -27 28 31 32 -36 0
-2 9 16 27 -28 -31 -32 -36 0
-2 9 16 27 -28 -31 32 36 0
-2 9 16 27 -28 31 -32 36 0
-2 9 16 27 -28 31 32 -36 0
-2 9 16 27 28 -31 -32 36 0
-2 9 16 27 28 -31 32 -36 0
-2 9 16 27 28 31 -32 -36 0
-2 9 16 27 28 31 32 36 0
-1 -7 -10 -15 -20 -22 -29 36 0
-1 -7 -10 -15 -20 -22 29 -36 0
-1 -7 -10 -15 -20 22 -29 -36 0
-1 -7 -10 -15 -20 22 29 36 0
-1 -7 -10 -15 20 -22 -29 -36 0
-1 -7 -10 -15 20 -22 29 36 0
-1 -7 -10 -15 20 22 -29 36 0
-1 -7 -10 -15 20 22 29 -36 0
-1 -7 -10 15 -20 -22 -29 -36 0
-1 -7 -10 15 -20 -22 29 36 0
-1 -7 -10 15 -20 22 -29 36 0
-1 -7 -10 15 -20 22 29 -36 0
-1 -7 -10 15 20 -22 -29 36 0
-1 -7 -10 15 20 -22 29 -36 0
-1 -7 -10 15 20 22 -29 -36 0
-1 -7 -10 15 20 22 29 36 0
-1 -7 10 -15 -20 -22 -29 -36 0
-1 -7 10 -15 -20 -22 29 36 0
-1 -7 10 -15 -20 22 -29 36 0
-1 -7 10 -15 -20 22 29 -36 0
-1 -7 10 -15 20 -22 -29 36 0
-1 -7 10 -15 20 -22 29 -36 0
-1 -7 10 -15 20 22 -29 -36 0
-1 -7 10 -15 20 22 29 36 0
-1 -7 10 15 -20 -22 -29 36 0
-1 -7 10 15 -20 -22 29 -36 0
-1 -7 10 15 -20 22 -29 -36 0
-1 -7 10 15 -20 22 29 36 0
-1 -7 10 15 20 -22 -29 -36 0
-1 -7 10 15 20 -22 29 36 0
-1 -7 10 15 20 22 -29 36 0
-1 -7 10 15 20 22 29 -36 0
-1 -4 -6 -13 -19 -21 -31 33 0
-1 -4 -6 -13 -19 -21 31 -33 0
-1 -4 -6 -13 -19 21 -31 -33 0
-1 -4 -6 -13 -19 21 31 33 0
-1 -4 -6 -13 19 -21 -31 -33 0
-1 -4 -6 -13 19 -21 31 33 0
-1 -4 -6 -13 19 21 -31 33 0
-1 -4 -6 -13 19 21 31 -33 0
-1 -4 -6 13 -19 -21 -31 -33 0
-1 -4 -6 13 -19 -21 31 33 0
-1 -4 -6 13 -19 21 -31 33 0
-1 -4 -6 13 -19 21 31 -33 0
-1 -4 -6 13 19 -21 -31 33 0
-1 -4 -6 13 19 -21 31 -33 0
-1 -4 -6 13 19 21 -31 -33 0
-1 -4 -6 13 19 21 31 33 0
-1 -4 6 -13 -19 -21 -31 -33 0
-1 -4 6 -13 -19 -21 31 33 0
-1 -4 6 -13 -19 21 -31 33 0
-1 -4 6 -13 -19 21 31 -33 0
-1 -4 6 -13 19 -21 -31 33 0
-1 -4 6 -13 19 -21 31 -33 0
-1 -4 6 -13 19 21 -31 -33 0
-1 -4 6 -13 19 21 31 33 0
-1 -4 6 13 -19 -21 -31 33 0
-1 -4 6 13 -19 -21 31 -33 0
-1 -4 6 13 -19 21 -31 -33 0
-1 -4 6 13 -19 21 31 33 0
-1 -4 6 13 19 -21 -31 -33 0
-1 -4 6 13 19 -21 31 33 0
-1 -4 6 13 19 21 -31 33 0
-1 -4 6 13 19 21 31 -33 0
-1 4 -6 -13 -19 -21 -31 -33 0
-1 4 -6 -13 -19 -21 31 33 0
-1 4 -6 -13 -19 21 -31 33 0
-1 4 -6 -13 -19 21 31 -33 0
-1 4 -6 -13 19 -21 -31 33 0
-1 4 -6 -13 19 -21 31 -33 0
-1 4 -6 -13 19 21 -31 -33 0
-1 4 -6 -13 19 21 31 33 0
-1 4 -6 13 -19 -21 -31 33 0
-1 4 -6 13 -19 -21 31 -33 0
-1 4 -6 13 -19 21 -31 -33 0
-1 4 -6 13 -19 21 31 33 0
-1 4 -6 13 19 -21 -31 -33 0
-1 4 -6 13 19 -21 31 33 0
-1 4 -6 13 19 21 -31 33 0
-1 4 -6 13 19 21 31 -33 0
-1 4 6 -13 -19 -21 -31 33 0
-1 4 6 -13 -19 -21 31 -33 0
-1 4 6 -13 -19 21 -31 -33 0
-1 4 6 -13 -19 21 31 33 0
-1 4 6 -13 19 -21 -31 -33 0
-1 4 6 -13 19 -21 31 33 0
-1 4 6 -13 19 21 -31 33 0
-1 4 6 -13 19 21 31 -33 0
-1 4 6 13 -19 -21 -31 -33 0
-1 4 6 13 -19 -21 31 33 0
-1 4 6 13 -19 21 -31 33 0
-1 4 6 13 -19 21 31 -33 0
-1 4 6 13 19 -21 -31 33 0
-1 4 6 13 19 -21 31 -33 0
-1 4 6 13 19 21 -31 -33 0
-1 4 6 13 19 21 31 33 0
-1 7 -10 -15 -20 -22 -29 -36 0
-1 7 -10 -15 -20 -22 29 36 0
-1 7 -10 -15 -20 22 -29 36 0
-1 7 -10 -15 -20 22 29 -36 0
-1 7 -10 -15 20 -22 -29 36 0
-1 7 -10 -15 20 -22 29 -36 0
-1 7 -10 -15 20 22 -29 -36 0
-1 7 -10 -15 20 22 29 36 0
-1 7 -10 15 -20 -22 -29 36 0
-1 7 -10 15 -20 -22 29 -36 0
-1 7 -10 15 -20 22 -29 -36 0
-1 7 -10 15 -20 22 29 36 0
-1 7 -10 15 20 -22 -29 -36 0
-1 7 -10 15 20 -22 29 36 0
-1 7 -10 15 20 22 -29 36 0
-1 7 -10 15 20 22 29 -36 0
-1 7 10 -15 -20 -22 -29 36 0
-1 7 10 -15 -20 -22 29 -36 0
-1 7 10 -15 -20 22 -29 -36 0
-1 7 10 -15 -20 22 29 36 0
-1 7 10 -15 20 -22 -29 -36 0
-1 7 10 -15 20 -22 29 36 0
-1 7 10 -15 20 22 -29 36 0
-1 7 10 -15 20 22 29 -36 0
-1 7 10 15 -20 -22 -29 -36 0
-1 7 10 15 -20 -22 29 36 0
-1 7 10 15 -20 22 -29 36 0
-1 7 10 15 -20 22 29 -36 0
-1 7 10 15 20 -22 -29 36 0
-1 7 10 15 20 -22 29 -36 0
-1 7 10 15 20 22 -29 -36 0
-1 7 10 15 20 22 29 36 0
1 -7 -10 -15 -20 -22 -29 -36 0
1 -7 -10 -15 -20 -22 29 36 0
1 -7 -10 -15 -20 22 -29 36 0
1 -7 -10 -15 -20 22 29 -36 0
1 -7 -10 -15 20 -22 -29 36 0
1 -7 -10 -15 20 -22 29 -36 0
1 -7 -10 -15 20 22 -29 -36 0
1 -7 -10 -15 20 22 29 36 0
1 -7 -10 15 -20 -22 -29 36 0
1 -7 -10 15 -20 -22 29 -36 0
1 -7 -10 15 -20 22 -29 -36 0
1 -7 -10 15 -20 22 29 36 0
1 -7 -10 15 20 -22 -29 -36 0
1 -7 -10 15 20 -22 29 36 0
1 -7 -10 15 20 22 -29 36 0
1 -7 -10 15 20 22 29 -36 0
1 -7 10 -15 -20 -22 -29 36 0
1 -7 10 -15 -20 -22 29 -36 0
1 -7 10 -15 -20 22 -29 -36 0
1 -7 10 -15 -20 22 29 36 0
1 -7 10 -15 20 -22 -29 -36 0
1 -7 10 -15 20 -22 29 36 0
1 -7 10 -15 20 22 -29 36 0
1 -7 10 -15 20 22 29 -36 0
1 -7 10 15 -20 -22 -29 -36 0
1 -7 10 15 -20 -22 29 36 0
1 -7 10 15 -20 22 -29 36 0
1 -7 10 15 -20 22 29 -36 0
1 -7 10 15 20 -22 -29 36 0
1 -7 10 15 20 -22 29 -36 0
1 -7 10 15 20 22 -29 -36 0
1 -7 10 15 20 22 29 36 0
1 -4 -6 -13 -19 -21 -31 -33 0
1 -4 -6 -13 -19 -21 31 33 0
1 -4 -6 -13 -19 21 -31 33 0
1 -4 -6 -13 -19 21 31 -33 0
1 -4 -6 -13 19 -21 -31 33 0
1 -4 -6 -13 19 -21 31 -33 0
1 -4 -6 -13 19 21 -31 -33 0
1 -4 -6 -13 19 21 31 33 0
1 -4 -6 13 -19 -21 -31 33 0
1 -4 -6 13 -19 -21 31 -33 0
1 -4 -6 13 -19 21 -31 -33 0
1 -4 -6 13 -19 21 31 33 0
1 -4 -6 13 19 -21 -31 -33 0
1 -4 -6 13 19 -21 31 33 0
1 -4 -6 13 19 21 -31 33 0
1 -4 -6 13 19 21 31 -33 0
1 -4 6 -13 -19 -21 -31 33 0
1 -4 6 -13 -19 -21 31 -33 0
1 -4 6 -13 -19 21 -31 -33 0
1 -4 6 -13 -19 21 31 33 0
1 -4 6 -13 19 -21 -31 -33 0
1 -4 6 -13 19 -21 31 33 0
1 -4 6 -13 19 21 -31 33 0
1 -4 6 -13 19 21 31 -33 0
1 -4 6 13 -19 -21 -31 -33 0
1 -4 6 13 -19 -21 31 33 0
1 -4 6 13 -19 21 -31 33 0
1 -4 6 13 -19 21 31 -33 0
1 -4 6 13 19 -21 -31 33 0
1 -4 6 13 19 -21 31 -33 0
1 -4 6 13 19 21 -31 -33 0
1 -4 6 13 19 21 31 33 0
1 4 -6 -13 -19 -21 -31 33 0
1 4 -6 -13 -19 -21 31 -33 0
1 4 -6 -13 -19 21 -31 -33 0
1 4 -6 -13 -19 21 31 33 0
1 4 -6 -13 19 -21 -31 -33 0
1 4 -6 -13 19 -21 31 33 0
1 4 -6 -13 19 21 -31 33 0
1 4 -6 -13 19 21 31 -33 0
1 4 -6 13 -19 -21 -31 -33 0
1 4 -6 13 -19 -21 31 33 0
1 4 -6 13 -19 21 -31 33 0
1 4 -6 13 -19 21 31 -33 0
1 4 -6 13 19 -21 -31 33 0
1 4 -6 13 19 -21 31 -33 0
1 4 -6 13 19 21 -31 -33 0
1 4 -6 13 19 21 31 33 0
1 4 6 -13 -19 -21 -31 -33 0
1 4 6 -13 -19 -21 31 33 0
1 4 6 -13 -19 21 -31 33 0
1 4 6 -13 -19 21 31 -33 0
1 4 6 -13 19 -21 -31 33 0
1 4 6 -13 19 -21 31 -33 0
1 4 6 -13 19 21 -31 -33 0
1 4 6 -13 19 21 31 33 0
1 4 6 13 -19 -21 -31 33 0
1 4 6 13 -19 -21 31 -33 0
1 4 6 13 -19 21 -31 -33 0
1 4 6 13 -19 21 31 33 0
1 4 6 13 19 -21 -31 -33 0
1 4 6 13 19 -21 31 33 0
1 4 6 13 19 21 -31 33 0
1 4 6 13 19 21 31 -33 0
1 7 -10 -15 -20 -22 -29 36 0
1 7 -10 -15 -20 -22 29 -36 0
1 7 -10 -15 -20 22 -29 -36 0
1 7 -10 -15 -20 22 29 36 0
1 7 -10 -15 20 -22 -29 -36 0
1 7 -10 -15 20 -22 29 36 0
1 7 -10 -15 20 22 -29 36 0
1 7 -10 -15 20 22 29 -36 0
1 7 -10 15 -20 -22 -29 -36 0
1 7 -10 15 -20 -22 29 36 0
1 7 -10 15 -20 22 -29 36 0
1 7 -10 15 -20 22 29 -36 0
1 7 -10 15 20 -22 -29 36 0
1 7 -10 15 20 -22 29 -36 0
1 7 -10 15 20 22 -29 -36 0
1 7 -10 15 20 22 29 36 0
1 7 10 -15 -20 -22 -29 -36 0
1 7 10 -15 -20 -22 29 36 0
1 7 10 -15 -20 22 -29 36 0
1 7 10 -15 -20 22 29 -36 0
1 7 10 -15 20 -22 -29 36 0
1 7 10 -15 20 -22 29 -36 0
1 7 10 -15 20 22 -29 -36 0
1 7 10 -15 20 22 29 36 0
1 7 10 15 -20 -22 -29 36 0
1 7 10 15 -20 -22 29 -36 0
1 7 10 15 -20 22 -29 -36 0
1 7 10 15 -20 22 29 36 0
1 7 10 15 20 -22 -29 -36 0
1 7 10 15 20 -22 29 36 0
1 7 10 15 20 22 -29 36 0
1 7 10 15 20 22 29 -36 0
2 -9 -16 -27 -28 -31 -32 -36 0
2 -9 -16 -27 -28 -31 32 36 0
2 -9 -16 -27 -28 31 -32 36 0
2 -9 -16 -27 -28 31 32 -36 0
2 -9 -16 -27 28 -31 -32 36 0
2 -9 -16 -27 28 -31 32 -36 0
2 -9 -16 -27 28 31 -32 -36 0
2 -9 -16 -27 28 31 32 36 0
2 -9 -16 27 -28 -31 -32 36 0
2 -9 -16 27 -28 -31 32 -36 0
2 -9 -16 27 -28 31 -32 -36 0
2 -9 -16 27 -28 31 32 36 0
2 -9 -16 27 28 -31 -32 -36 0
2 -9 -16 27 28 -31 32 36 0
2 -9 -16 27 28 31 -32 36 0
2 -9 -16 27 28 31 32 -36 0
2 -9 16 -27 -28 -31 -32 36 0
2 -9 16 -27 -28 -31 32 -36 0
2 -9 16 -27 -28 31 -32 -36 0
2 -9 16 -27 -28 31 32 36 0
2 -9 16 -27 28 -31 -32 -36 0
2 -9 16 -27 28 -31 32 36 0
2 -9 16 -27 28 31 -32 36 0
2 -9 16 -27 28 31 32 -36 0
2 -9 16 27 -28 -31 -32 -36 0
2 -9 16 27 -28 -31 32 36 0
2 -9 16 27 -28 31 -32 36 0
2 -9 16 27 -28 31 32 -36 0
2 -9 16 27 28 -31 -32 36 0
2 -9 16 27 28 -31 32 -36 0
2 -9 16 27 28 31 -32 -36 0
2 -9 16 27 28 31 32 36 0
2 -8 -12 -14 -21 -23 -29 -35 0
2 -8 -12 -14 -21 -23 29 35 0
2 -8 -12 -14 -21 23 -29 35 0
2 -8 -12 -14 -21 23 29 -35 0
2 -8 -12 -14 21 -23 -29 35 0
2 -8 -12 -14 21 -23 29 -35 0
2 -8 -12 -14 21 23 -29 -35 0
2 -8 -12 -14 21 23 29 35 0
2 -8 -12 14 -21 -23 -29 35 0
2 -8 -12 14 -21 -23 29 -35 0
2 -8 -12 14 -21 23 -29 -35 0
2 -8 -12 14 -21 23 29 35 0
2 -8 -12 14 21 -23 -29 -35 0
2 -8 -12 14 21 -23 29 35 0
2 -8 -12 14 21 23 -29 35 0
2 -8 -12 14 21 23 29 -35 0
2 -8 12 -14 -21 -23 -29 35 0
2 -8 12 -14 -21 -23 29 -35 0
2 -8 12 -14 -21 23 -29 -35 0
2 -8 12 -14 -21 23 29 35 0
2 -8 12 -14 21 -23 -29 -35 0
2 -8 12 -14 21 -23 29 35 0
2 -8 12 -14 21 23 -29 35 0
2 -8 12 -14 21 23 29 -35 0
2 -8 12 14 -21 -23 -29 -35 0
2 -8 12 14 -21 -23 29 35 0
2 -8 12 14 -21 23 -29 35 0
2 -8 12 14 -21 23 29 -35 0
2 -8 12 14 21 -23 -29 35 0
2 -8 12 14 21 -23 29 -35 0
2 -8 12 14 21 23 -29 -35 0
2 -8 12 14 21 23 29 35 0
2 8 -12 -14 -21 -23 -29 35 0
2 8 -12 -14 -21 -23 29 -35 0
2 8 -12 -14 -21 23 -29 -35 0
2 8 -12 -14 -21 23 29 35 0
2 8 -12 -14 21 -23 -29 -35 0
2 8 -12 -14 21 -23 29 35 0
2 8 -12 -14 21 23 -29 35 0
2 8 -12 -14 21 23 29 -35 0
2 8 -12 14 -21 -23 -29 -35 0
2 8 -12 14 -21 -23 29 35 0
2 8 -12 14 -21 23 -29 35 0
2 8 -12 14 -21 23 29 -35 0
2 8 -12 14 21 -23 -29 35 0
2 8 -12 14 21 -23 29 -35 0
2 8 -12 14 21 23 -29 -35 0
2 8 -12 14 21 23 29 35 0
2 8 12 -14 -21 -23 -29 -35 0
2 8 12 -14 -21 -23 29 35 0
2 8 12 -14 -21 23 -29 35 0
2 8 12 -14 -21 23 29 -35 0
2 8 12 -14 21 -23 -29 35 0
2 8 12 -14 21 -23 29 -35 0
2 8 12 -14 21 23 -29 -35 0
2 8 12 -14 21 23 29 35 0
2 8 12 14 -21 -23 -29 35 0
2 8 12 14 -21 -23 29 -35 0
2 8 12 14 -21 23 -29 -35 0
2 8 12 14 -21 23 29 35 0
2 8 12 14 21 -23 -29 -35 0
2 8 12 14 21 -23 29 35 0
2 8 12 14 21 23 -29 35 0
2 8 12 14 21 23 29 -35 0
2 9 -16 -27 -28 -31 -32 36 0
2 9 -16 -27 -28 -31 32 -36 0
2 9 -16 -27 -28 31 -32 -36 0
2 9 -16 -27 -28 31 32 36 0
2 9 -16 -27 28 -31 -32 -36 0
2 9 -16 -27 28 -31 32 36 0
2 9 -16 -27 28 31 -32 36 0
2 9 -16 -27 28 31 32 -36 0
2 9 -16 27 -28 -31 -32 -36 0
2 9 -16 27 -28 -31 32 36 0
2 9 -16 27 -28 31 -32 36 0
2 9 -16 27 -28 31 32 -36 0
2 9 -16 27 28 -31 -32 36 0
2 9 -16 27 28 -31 32 -36 0
2 9 -16 27 28 31 -32 -36 0
2 9 -16 27 28 31 32 36 0
2 9 16 -27 -28 -31 -32 -36 0
2 9 16 -27 -28 -31 32 36 0
2 9 16 -27 -28 31 -32 36 0
2 9 16 -27 -28 31 32 -36 0
2 9 16 -27 28 -31 -32 36 0
2 9 16 -27 28 -31 32 -36 0
2 9 16 -27 28 31 -32 -36 0
2 9 16 -27 28 31 32 36 0
2 9 16 27 -28 -31 -32 36 0
2 9 16 27 -28 -31 32 -36 0
2 9 16 27 -28 31 -32 -36 0
2 9 16 27 -28 31 32 36 0
2 9 16 27 28 -31 -32 -36 0
2 9 16 27 28 -31 32 36 0
2 9 16 27 28 31 -32 36 0
2 9 16 27 28 31 32 -36 0
3 -5 -7 -11 -12 -13 -26 -28 0
3 -5 -7 -11 -12 -13 26 28 0
3 -5 -7 -11 -12 13 -26 28 0
3 -5 -7 -11 -12 13 26 -28 0
3 -5 -7 -11 12 -13 -26 28 0
3 -5 -7 -11 12 -13 26 -28 0
3 -5 -7 -11 12 13 -26 -28 0
3 -5 -7 -11 12 13 26 28 0
3 -5 -7 11 -12 -13 -26 28 0
3 -5 -7 11 -12 -13 26 -28 0
3 -5 -7 11 -12 13 -26 -28 0
3 -5 -7 11 -12 13 26 28 0
3 -5 -7 11 12 -13 -26 -28 0
3 -5 -7 11 12 -13 26 28 0
3 -5 -7 11 12 13 -26 28 0
3 -5 -7 11 12 13 26 -28 0
3 -5 7 -11 -12 -13 -26 28 0
3 -5 7 -11 -12 -13 26 -28 0
3 -5 7 -11 -12 13 -26 -28 0
3 -5 7 -11 -12 13 26 28 0
3 -5 7 -11 12 -13 -26 -28 0
3 -5 7 -11 12 -13 26 28 0
3 -5 7 -11 12 13 -26 28 0
3 -5 7 -11 12 13 26 -28 0
3 -5 7 11 -12 -13 -26 -28 0
3 -5 7 11 -12 -13 26 28 0
3 -5 7 11 -12 13 -26 28 0
3 -5 7 11 -12 13 26 -28 0
3 -5 7 11 12 -13 -26 28 0
3 -5 7 11 12 -13 26 -28 0
3 -5 7 11 12 13 -26 -28 0
3 -5 7 11 12 13 26 28 0
3 -4 -9 -15 -17 -23 -25 -30 0
3 -4 -9 -15 -17 -23 25 30 0
3 -4 -9 -15 -17 23 -25 30 0
3 -4 -9 -15 -17 23 25 -30 0
3 -4 -9 -15 17 -23 -25 30 0
3 -4 -9 -15 17 -23 25 -30 0
3 -4 -9 -15 17 23 -25 -30 0
3 -4 -9 -15 17 23 25 30 0
3 -4 -9 15 -17 -23 -25 30 0
3 -4 -9 15 -17 -23 25 -30 0
3 -4 -9 15 -17 23 -25 -30 0
3 -4 -9 15 -17 23 25 30 0
3 -4 -9 15 17 -23 -25 -30 0
3 -4 -9 15 17 -23 25 30 0
3 -4 -9 15 17 23 -25 30 0
3 -4 -9 15 17 23 25 -30 0
3 -4 9 -15 -17 -23 -25 30 0
3 -4 9 -15 -17 -23 25 -30 0
3 -4 9 -15 -17 23 -25 -30 0
3 -4 9 -15 -17 23 25 30 0
3 -4 9 -15 17 -23 -25 -30 0
3 -4 9 -15 17 -23 25 30 0
3 -4 9 -15 17 23 -25 30 0
3 -4 9 -15 17 23 25 -30 0
3 -4 9 15 -17 -23 -25 -30 0
3 -4 9 15 -17 -23 25 30 0
3 -4 9 15 -17 23 -25 30 0
3 -4 9 15 -17 23 25 -30 0
3 -4 9 15 17 -23 -25 30 0
3 -4 9 15 17 -23 25 -30 0
3 -4 9 15 17 23 -25 -30 0
3 -4 9 15 17 23 25 30 0
3 4 -9 -15 -17 -23 -25 30 0
3 4 -9 -15 -17 -23 25 -30 0
3 4 -9 -15 -17 23 -25 -30 0
3 4 -9 -15 -17 23 25 30 0
3 4 -9 -15 17 -23 -25 -30 0
3 4 -9 -15 17 -23 25 30 0
3 4 -9 -15 17 23 -25 30 0
3 4 -9 -15 17 23 25 -30 0
3 4 -9 15 -17 -23 -25 -30 0
3 4 -9 15 -17 -23 25 30 0
3 4 -9 15 -17 23 -25 30 0
3 4 -9 15 -17 23 25 -30 0
3 4 -9 15 17 -23 -25 30 0
3 4 -9 15 17 -23 25 -30 0
3 4 -9 15 17 23 -25 -30 0
3 4 -9 15 17 23 25 30 0
3 4 9 -15 -17 -23 -25 -30 0
3 4 9 -15 -17 -23 25 30 0
3 4 9 -15 -17 23 -25 30 0
3 4 9 -15 -17 23 25 -30 0
3 4 9 -15 17 -23 -25 30 0
3 4 9 -15 17 -23 25 -30 0
3 4 9 -15 17 23 -25 -30 0
3 4 9 -15 17 23 25 30 0
3 4 9 15 -17 -23 -25 30 0
3 4 9 15 -17 -23 25 -30 0
3 4 9 15 -17 23 -25 -30 0
3 4 9 15 -17 23 25 30 0
3 4 9 15 17 -23 -25 -30 0
3 4 9 15 17 -23 25 30 0
3 4 9 15 17 23 -25 30 0
3 4 9 15 17 23 25 -30 0
3 5 -7 -11 -12 -13 -26 28 0
3 5 -7 -11 -12 -13 26 -28 0
3 5 -7 -11 -12 13 -26 -28 0
3 5 -7 -11 -12 13 26 28 0
3 5 -7 -11 12 -13 -26 -28 0
3 5 -7 -11 12 -13 26 28 0
3 5 -7 -11 12 13 -26 28 0
3 5 -7 -11 12 13 26 -28 0
3 5 -7 11 -12 -13 -26 -28 0
3 5 -7 11 -12 -13 26 28 0
3 5 -7 11 -12 13 -26 28 0
3 5 -7 11 -12 13 26 -28 0
3 5 -7 11 12 -13 -26 28 0
3 5 -7 11 12 -13 26 -28 0
3 5 -7 11 12 13 -26 -28 0
3 5 -7 11 12 13 26 28 0
3 5 7 -11 -12 -13 -26 -28 0
3 5 7 -11 -12 -13 26 28 0
3 5 7 -11 -12 13 -26 28 0
3 5 7 -11 -12 13 26 -28 0
3 5 7 -11 12 -13 -26 28 0
3 5 7 -11 12 -13 26 -28 0
3 5 7 -11 12 13 -26 -28 0
3 5 7 -11 12 13 26 28 0
3 5 7 11 -12 -13 -26 28 0
3 5 7 11 -12 -13 26 -28 0
3 5 7 11 -12 13 -26 -28 0
3 5 7 11 -12 13 26 28 0
3 5 7 11 12 -13 -26 -28 0
3 5 7 11 12 -13 26 28 0
3 5 7 11 12 13 -26 28 0
3 5 7 11 12 13 26 -28 0
5 -14 -18 -19 -22 -24 -25 -27 0
5 -14 -18 -19 -22 -24 25 27 0
5 -14 -18 -19 -22 24 -25 27 0
5 -14 -18 -19 -22 24 25 -27 0
5 -14 -18 -19 22 -24 -25 27 0
5 -14 -18 -19 22 -24 25 -27 0
5 -14 -18 -19 22 24 -25 -27 0
5 -14 -18 -19 22 24 25 27 0
5 -14 -18 19 -22 -24 -25 27 0
5 -14 -18 19 -22 -24 25 -27 0
5 -14 -18 19 -22 24 -25 -27 0
5 -14 -18 19 -22 24 25 27 0
5 -14 -18 19 22 -24 -25 -27 0
5 -14 -18 19 22 -24 25 27 0
5 -14 -18 19 22 24 -25 27 0
5 -14 -18 19 22 24 25 -27 0
5 -14 18 -19 -22 -24 -25 27 0
5 -14 18 -19 -22 -24 25 -27 0
5 -14 18 -19 -22 24 -25 -27 0
5 -14 18 -19 -22 24 25 27 0
5 -14 18 -19 22 -24 -25 -27 0
5 -14 18 -19 22 -24 25 27 0
5 -14 18 -19 22 24 -25 27 0
5 -14 18 -19 22 24 25 -27 0
5 -14 18 19 -22 -24 -25 -27 0
5 -14 18 19 -22 -24 25 27 0
5 -14 18 19 -22 24 -25 27 0
5 -14 18 19 -22 24 25 -27 0
5 -14 18 19 22 -24 -25 27 0
5 -14 18 19 22 -24 25 -27 0
5 -14 18 19 22 24 -25 -27 0
5 -14 18 19 22 24 25 27 0
5 14 -18 -19 -22 -24 -25 27 0
5 14 -18 -19 -22 -24 25 -27 0
5 14 -18 -19 -22 24 -25 -27 0
5 14 -18 -19 -22 24 25 27 0
5 14 -18 -19 22 -24 -25 -27 0
5 14 -18 -19 22 -24 25 27 0
5 14 -18 -19 22 24 -25 27 0
5 14 -18 -19 22 24 25 -27 0
5 14 -18 19 -22 -24 -25 -27 0
5 14 -18 19 -22 -24 25 27 0
5 14 -18 19 -22 24 -25 27 0
5 14 -18 19 -22 24 25 -27 0
5 14 -18 19 22 -24 -25 27 0
5 14 -18 19 22 -24 25 -27 0
5 14 -18 19 22 24 -25 -27 0
5 14 -18 19 22 24 25 27 0
5 14 18 -19 -22 -24 -25 -27 0
5 14 18 -19 -22 -24 25 27 0
5 14 18 -19 -22 24 -25 27 0
5 14 18 -19 -22 24 25 -27 0
5 14 18 -19 22 -24 -25 27 0
5 14 18 -19 22 -24 25 -27 0
5 14 18 -19 22 24 -25 -27 0
5 14 18 -19 22 24 25 27 0
5 14 18 19 -22 -24 -25 27 0
5 14 18 19 -22 -24 25 -27 0
5 14 18 19 -22 24 -25 -27 0
5 14 18 19 -22 24 25 27 0
5 14 18 19 22 -24 -25 -27 0
5 14 18 19 22 -24 25 27 0
5 14 18 19 22 24 -25 27 0
5 14 18 19 22 24 25 -27 0
6 -8 -11 -18 -20 -30 -32 -34 0
6 -8 -11 -18 -20 -30 32 34 0
6 -8 -11 -18 -20 30 -32 34 0
6 -8 -11 -18 -20 30 32 -34 0
6 -8 -11 -18 20 -30 -32 34 0
6 -8 -11 -18 20 -30 32 -34 0
6 -8 -11 -18 20 30 -32 -34 0
6 -8 -11 -18 20 30 32 34 0
6 -8 -11 18 -20 -30 -32 34 0
6 -8 -11 18 -20 -30 32 -34 0
6 -8 -11 18 -20 30 -32 -34 0
6 -8 -11 18 -20 30 32 34 0
6 -8 -11 18 20 -30 -32 -34 0
6 -8 -11 18 20 -30 32 34 0
6 -8 -11 18 20 30 -32 34 0
6 -8 -11 18 20 30 32 -34 0
6 -8 11 -18 -20 -30 -32 34 0
6 -8 11 -18 -20 -30 32 -34 0
6 -8 11 -18 -20 30 -32 -34 0
6 -8 11 -18 -20 30 32 34 0
6 -8 11 -18 20 -30 -32 -34 0
6 -8 11 -18 20 -30 32 34 0
6 -8 11 -18 20 30 -32 34 0
6 -8 11 -18 20 30 32 -34 0
6 -8 11 18 -20 -30 -32 -34 0
6 -8 11 18 -20 -30 32 34 0
6 -8 11 18 -20 30 -32 34 0
6 -8 11 18 -20 30 32 -34 0
6 -8 11 18 20 -30 -32 34 0
6 -8 11 18 20 -30 32 -34 0
6 -8 11 18 20 30 -32 -34 0
6 -8 11 18 20 30 32 34 0
6 8 -11 -18 -20 -30 -32 34 0
6 8 -11 -18 -20 -30 32 -34 0
6 8 -11 -18 -20 30 -32 -34 0
6 8 -11 -18 -20 30 32 34 0
6 8 -11 -18 20 -30 -32 -34 0
6 8 -11 -18 20 -30 32 34 0
6 8 -11 -18 20 30 -32 34 0
6 8 -11 -18 20 30 32 -34 0
6 8 -11 18 -20 -30 -32 -34 0
6 8 -11 18 -20 -30 32 34 0
6 8 -11 18 -20 30 -32 34 0
6 8 -11 18 -20 30 32 -34 0
6 8 -11 18 20 -30 -32 34 0
6 8 -11 18 20 -30 32 -34 0
6 8 -11 18 20 30 -32 -34 0
6 8 -11 18 20 30 32 34 0
6 8 11 -18 -20 -30 -32 -34 0
6 8 11 -18 -20 -30 32 34 0
6 8 11 -18 -20 30 -32 34 0
6 8 11 -18 -20 30 32 -34 0
6 8 11 -18 20 -30 -32 34 0
6 8 11 -18 20 -30 32 -34 0
6 8 11 -18 20 30 -32 -34 0
6 8 11 -18 20 30 32 34 0
6 8 11 18 -20 -30 -32 34 0
6 8 11 18 -20 -30 32 -34 0
6 8 11 18 -20 30 -32 -34 0
6 8 11 18 -20 30 32 34 0
6 8 11 18 20 -30 -32 -34 0
6 8 11 18 20 -30 32 34 0
6 8 11 18 20 30 -32 34 0
6 8 11 18 20 30 32 -34 0
10 -16 -17 -24 -26 -33 -34 -35 0
10 -16 -17 -24 -26 -33 34 35 0
10 -16 -17 -24 -26 33 -34 35 0
10 -16 -17 -24 -26 33 34 -35 0
10 -16 -17 -24 26 -33 -34 35 0
10 -16 -17 -24 26 -33 34 -35 0
10 -16 -17 -24 26 33 -34 -35 0
10 -16 -17 -24 26 33 34 35 0
10 -16 -17 24 -26 -33 -34 35 0
10 -16 -17 24 -26 -33 34 -35 0
10 -16 -17 24 -26 33 -34 -35 0
10 -16 -17 24 -26 33 34 35 0
10 -16 -17 24 26 -33 -34 -35 0
10 -16 -17 24 26 -33 34 35 0
10 -16 -17 24 26 33 -34 35 0
10 -16 -17 24 26 33 34 -35 0
10 -16 17 -24 -26 -33 -34 35 0
10 -16 17 -24 -26 -33 34 -35 0
10 -16 17 -24 -26 33 -34 -35 0
10 -16 17 -24 -26 33 34 35 0
10 -16 17 -24 26 -33 -34 -35 0
10 -16 17 -24 26 -33 34 35 0
10 -16 17 -24 26 33 -34 35 0
10 -16 17 -24 26 33 34 -35 0
10 -16 17 24 -26 -33 -34 -35 0
10 -16 17 24 -26 -33 34 35 0
10 -16 17 24 -26 33 -34 35 0
10 -16 17 24 -26 33 34 -35 0
10 -16 17 24 26 -33 -34 35 0
10 -16 17 24 26 -33 34 -35 0
10 -16 17 24 26 33 -34 -35 0
10 -16 17 24 26 33 34 35 0
10 16 -17 -24 -26 -33 -34 35 0
10 16 -17 -24 -26 -33 34 -35 0
10 16 -17 -24 -26 33 -34 -35 0
10 16 -17 -24 -26 33 34 35 0
10 16 -17 -24 26 -33 -34 -35 0
10 16 -17 -24 26 -33 34 35 0
10 16 -17 -24 26 33 -34 35 0
10 16 -17 -24 26 33 34 -35 0
10 16 -17 24 -26 -33 -34 -35 0
10 16 -17 24 -26 -33 34 35 0
10 16 -17 24 -26 33 -34 35 0
10 16 -17 24 -26 33 34 -35 0
10 16 -17 24 26 -33 -34 35 0
10 16 -17 24 26 -33 34 -35 0
10 16 -17 24 26 33 -34 -35 0
10 16 -17 24 26 33 34 35 0
10 16 17 -24 -26 -33 -34 -35 0
10 16 17 -24 -26 -33 34 35 0
10 16 17 -24 -26 33 -34 35 0
10 16 17 -24 -26 33 34 -35 0
10 16 17 -24 26 -33 -34 35 0
10 16 17 -24 26 -33 34 -35 0
10 16 17 -24 26 33 -34 -35 0
10 16 17 -24 26 33 34 35 0
10 16 17 24 -26 -33 -34 35 0
10 16 17 24 -26 -33 34 -35 0
10 16 17 24 -26 33 -34 -35 0
10 16 17 24 -26 33 34 35 0
10 16 17 24 26 -33 -34 -35 0
10 16 17 24 26 -33 34 35 0
10 16 17 24 26 33 -34 35 0
10 16 17 24 26 33 34 -35 0
