p cnf 10 40
-4 -5 -6 7 0
-4 -5 6 -7 0
-4 5 -6 -7 0
-4 5 6 7 0
-3 -6 -9 10 0
-3 -6 9 -10 0
-3 6 -9 -10 0
-3 6 9 10 0
-2 -3 -4 8 0
-2 -3 4 -8 0
-2 3 -4 -8 0
-2 3 4 8 0
-1 -7 -8 -9 0
-1 -7 8 9 0
-1 -2 -5 10 0
-1 -2 5 -10 0
-1 2 -5 -10 0
-1 2 5 10 0
-1 7 -8 9 0
-1 7 8 -9 0
1 -7 -8 9 0
1 -7 8 -9 0
1 -2 -5 -10 0
1 -2 5 10 0
1 2 -5 10 0
1 2 5 -10 0
1 7 -8 -9 0
1 7 8 9 0
2 -3 -4 -8 0
2 -3 4 8 0
2 3 -4 8 0
2 3 4 -8 0
3 -6 -9 -10 0
3 -6 9 10 0
3 6 -9 10 0
3 6 9 -10 0
4 -5 -6 -7 0
4 -5 6 7 0
4 5 -6 7 0
4 5 6 -7 0
