p cnf 15 96
-8 -10 -11 -13 -14 0
-8 -10 -11 13 14 0
-8 -10 11 -13 14 0
-8 -10 11 13 -14 0
-8 10 -11 -13 14 0
-8 10 -11 13 -14 0
-8 10 11 -13 -14 0
-8 10 11 13 14 0
-3 -5 -6 -10 -12 0
-3 -5 -6 10 12 0
-3 -5 6 -10 12 0
-3 -5 6 10 -12 0
-3 -4 -7 -9 -13 0
-3 -4 -7 9 13 0
-3 -4 7 -9 13 0
-3 -4 7 9 -13 0
-3 4 -7 -9 13 0
-3 4 -7 9 -13 0
-3 4 7 -9 -13 0
-3 4 7 9 13 0
-3 5 -6 -10 12 0
-3 5 -6 10 -12 0
-3 5 6 -10 -12 0
-3 5 6 10 12 0
-2 -6 -7 -11 -15 0
-2 -6 -7 11 15 0
-2 -6 7 -11 15 0
-2 -6 7 11 -15 0
-2 6 -7 -11 15 0
-2 6 -7 11 -15 0
-2 6 7 -11 -15 0
-2 6 7 11 15 0
-1 -4 -12 -14 -15 0
-1 -4 -12 14 15 0
-1 -4 12 -14 15 0
-1 -4 12 14 -15 0
-1 -2 -5 -8 -9 0
-1 -2 -5 8 9 0
-1 -2 5 -8 9 0
-1 -2 5 8 -9 0
-1 2 -5 -8 9 0
-1 2 -5 8 -9 0
-1 2 5 -8 -9 0
-1 2 5 8 9 0
-1 4 -12 -14 15 0
-1 4 -12 14 -15 0
-1 4 12 -14 -15 0
-1 4 12 14 15 0
1 -4 -12 -14 15 0
1 -4 -12 14 -15 0
1 -4 12 -14 -15 0
1 -4 12 14 15 0
1 -2 -5 -8 9 0
1 -2 -5 8 -9 0
1 -2 5 -8 -9 0
1 -2 5 8 9 0
1 2 -5 -8 -9 0
1 2 -5 8 9 0
1 2 5 -8 9 0
1 2 5 8 -9 0
1 4 -12 -14 -15 0
1 4 -12 14 15 0
1 4 12 -14 15 0
1 4 12 14 -15 0
2 -6 -7 -11 15 0
2 -6 -7 11 -15 0
2 -6 7 -11 -15 0
2 -6 7 11 15 0
2 6 -7 -11 -15 0
2 6 -7 11 15 0
2 6 7 -11 15 0
2 6 7 11 -15 0
3 -5 -6 -10 12 0
3 -5 -6 10 -12 0
3 -5 6 -10 -12 0
3 -5 6 10 12 0
3 -4 -7 -9 13 0
3 -4 -7 9 -13 0
3 -4 7 -9 -13 0
3 -4 7 9 13 0
3 4 -7 -9 -13 0
3 4 -7 9 13 0
3 4 7 -9 13 0
3 4 7 9 -13 0
3 5 -6 -10 -12 0
3 5 -6 10 12 0
3 5 6 -10 12 0
3 5 6 10 -12 0
8 -10 -11 -13 14 0
8 -10 -11 13 -14 0
8 -10 11 -13 -14 0
8 -10 11 13 14 0
8 10 -11 -13 -14 0
8 10 -11 13 14 0
8 10 11 -13 14 0
8 10 11 13 -14 0
