p cnf 15 96
-4 -5 -7 -8 -15 0
-4 -5 -7 8 15 0
-4 -5 7 -8 15 0
-4 -5 7 8 -15 0
-4 5 -7 -8 15 0
-4 5 -7 8 -15 0
-4 5 7 -8 -15 0
-4 5 7 8 15 0
-3 -5 -9 -10 -11 0
-3 -5 -9 10 11 0
-3 -5 9 -10 11 0
-3 -5 9 10 -11 0
-3 5 -9 -10 11 0
-3 5 -9 10 -11 0
-3 5 9 -10 -11 0
-3 5 9 10 11 0
-2 -8 -10 -12 -13 0
-2 -8 -10 12 13 0
-2 -8 10 -12 13 0
-2 -8 10 12 -13 0
-2 -6 -11 -14 -15 0
-2 -6 -11 14 15 0
-2 -6 11 -14 15 0
-2 -6 11 14 -15 0
-2 6 -11 -14 15 0
-2 6 -11 14 -15 0
-2 6 11 -14 -15 0
-2 6 11 14 15 0
-2 8 -10 -12 13 0
-2 8 -10 12 -13 0
-2 8 10 -12 -13 0
-2 8 10 12 13 0
-1 -4 -6 -9 -12 0
-1 -4 -6 9 12 0
-1 -4 6 -9 12 0
-1 -4 6 9 -12 0
-1 -3 -7 -13 14 0
-1 -3 -7 13 -14 0
-1 -3 7 -13 -14 0
-1 -3 7 13 14 0
-1 3 -7 -13 -14 0
-1 3 -7 13 14 0
-1 3 7 -13 14 0
-1 3 7 13 -14 0
-1 4 -6 -9 12 0
-1 4 -6 9 -12 0
-1 4 6 -9 -12 0
-1 4 6 9 12 0
1 -4 -6 -9 12 0
1 -4 -6 9 -12 0
1 -4 6 -9 -12 0
1 -4 6 9 12 0
1 -3 -7 -13 -14 0
1 -3 -7 13 14 0
1 -3 7 -13 14 0
1 -3 7 13 -14 0
1 3 -7 -13 14 0
1 3 -7 13 -14 0
1 3 7 -13 -14 0
1 3 7 13 14 0
1 4 -6 -9 -12 0
1 4 -6 9 12 0
1 4 6 -9 12 0
1 4 6 9 -12 0
2 -8 -10 -12 13 0
2 -8 -10 12 -13 0
2 -8 10 -12 -13 0
2 -8 10 12 13 0
2 -6 -11 -14 15 0
2 -6 -11 14 -15 0
2 -6 11 -14 -15 0
2 -6 11 14 15 0
2 6 -11 -14 -15 0
2 6 -11 14 15 0
2 6 11 -14 15 0
2 6 11 14 -15 0
2 8 -10 -12 -13 0
2 8 -10 12 13 0
2 8 10 -12 13 0
2 8 10 12 -13 0
3 -5 -9 -10 11 0
3 -5 -9 10 -11 0
3 -5 9 -10 -11 0
3 -5 9 10 11 0
3 5 -9 -10 -11 0
3 5 -9 10 11 0
3 5 9 -10 11 0
3 5 9 10 -11 0
4 -5 -7 -8 15 0
4 -5 -7 8 -15 0
4 -5 7 -8 -15 0
4 -5 7 8 15 0
4 5 -7 -8 -15 0
4 5 -7 8 15 0
4 5 7 -8 15 0
4 5 7 8 -15 0
