p cnf 36 1152
-6 -11 -21 -27 -30 -31 -32 35 0
-6 -11 -21 -27 -30 -31 32 -35 0
-6 -11 -21 -27 -30 31 -32 -35 0
-6 -11 -21 -27 -30 31 32 35 0
-6 -11 -21 -27 30 -31 -32 -35 0
-6 -11 -21 -27 30 -31 32 35 0
-6 -11 -21 -27 30 31 -32 35 0
-6 -11 -21 -27 30 31 32 -35 0
-6 -11 -21 27 -30 -31 -32 -35 0
-6 -11 -21 27 -30 -31 32 35 0
-6 -11 -21 27 -30 31 -32 35 0
-6 -11 -21 27 -30 31 32 -35 0
-6 -11 -21 27 30 -31 -32 35 0
-6 -11 -21 27 30 -31 32 -35 0
-6 -11 -21 27 30 31 -32 -35 0
-6 -11 -21 27 30 31 32 35 0
-6 -11 21 -27 -30 -31 -32 -35 0
-6 -11 21 -27 -30 -31 32 35 0
-6 -11 21 -27 -30 31 -32 35 0
-6 -11 21 -27 -30 31 32 -35 0
-6 -11 21 -27 30 -31 -32 35 0
-6 -11 21 -27 30 -31 32 -35 0
-6 -11 21 -27 30 31 -32 -35 0
-6 -11 21 -27 30 31 32 35 0
-6 -11 21 27 -30 -31 -32 35 0
-6 -11 21 27 -30 -31 32 -35 0
-6 -11 21 27 -30 31 -32 -35 0
-6 -11 21 27 -30 31 32 35 0
-6 -11 21 27 30 -31 -32 -35 0
-6 -11 21 27 30 -31 32 35 0
-6 -11 21 27 30 31 -32 35 0
-6 -11 21 27 30 31 32 -35 0
-6 11 -21 -27 -30 -31 -32 -35 0
-6 11 -21 -27 -30 -31 32 35 0
-6 11 -21 -27 -30 31 -32 35 0
-6 11 -21 -27 -30 31 32 -35 0
-6 11 -21 -27 30 -31 -32 35 0
-6 11 -21 -27 30 -31 32 -35 0
-6 11 -21 -27 30 31 -32 -35 0
-6 11 -21 -27 30 31 32 35 0
-6 11 -21 27 -30 -31 -32 35 0
-6 11 -21 27 -30 -31 32 -35 0
-6 11 -21 27 -30 31 -32 -35 0
-6 11 -21 27 -30 31 32 35 0
-6 11 -21 27 30 -31 -32 -35 0
-6 11 -21 27 30 -31 32 35 0
-6 11 -21 27 30 31 -32 35 0
-6 11 -21 27 30 31 32 -35 0
-6 11 21 -27 -30 -31 -32 35 0
-6 11 21 -27 -30 -31 32 -35 0
-6 11 21 -27 -30 31 -32 -35 0
-6 11 21 -27 -30 31 32 35 0
-6 11 21 -27 30 -31 -32 -35 0
-6 11 21 -27 30 -31 32 35 0
-6 11 21 -27 30 31 -32 35 0
-6 11 21 -27 30 31 32 -35 0
-6 11 21 27 -30 -31 -32 -35 0
-6 11 21 27 -30 -31 32 35 0
-6 11 21 27 -30 31 -32 35 0
-6 11 21 27 -30 31 32 -35 0
-6 11 21 27 30 -31 -32 35 0
-6 11 21 27 30 -31 32 -35 0
-6 11 21 27 30 31 -32 -35 0
-6 11 21 27 30 31 32 35 0
-5 -9 -10 -13 -16 -24 -25 30 0
-5 -9 -10 -13 -16 -24 25 -30 0
-5 -9 -10 -13 -16 24 -25 -30 0
-5 -9 -10 -13 -16 24 25 30 0
-5 -9 -10 -13 16 -24 -25 -30 0
-5 -9 -10 -13 16 -24 25 30 0
-5 -9 -10 -13 16 24 -25 30 0
-5 -9 -10 -13 16 24 25 -30 0
-5 -9 -10 13 -16 -24 -25 -30 0
-5 -9 -10 13 -16 -24 25 30 0
-5 -9 -10 13 -16 24 -25 30 0
-5 -9 -10 13 -16 24 25 -30 0
-5 -9 -10 13 16 -24 -25 30 0
-5 -9 -10 13 16 -24 25 -30 0
-5 -9 -10 13 16 24 -25 -30 0
-5 -9 -10 13 16 24 25 30 0
-5 -9 10 -13 -16 -24 -25 -30 0
-5 -9 10 -13 -16 -24 25 30 0
-5 -9 10 -13 -16 24 -25 30 0
-5 -9 10 -13 -16 24 25 -30 0
-5 -9 10 -13 16 -24 -25 30 0
-5 -9 10 -13 16 -24 25 -30 0
-5 -9 10 -13 16 24 -25 -30 0
-5 -9 10 -13 16 24 25 30 0
-5 -9 10 13 -16 -24 -25 30 0
-5 -9 10 13 -16 -24 25 -30 0
-5 -9 10 13 -16 24 -25 -30 0
-5 -9 10 13 -16 24 25 30 0
-5 -9 10 13 16 -24 -25 -30 0
-5 -9 10 13 16 -24 25 30 0
-5 -9 10 13 16 24 -25 30 0
-5 -9 10 13 16 24 25 -30 0
-5 -7 -15 -22 -23 -28 -29 35 0
-5 -7 -15 -22 -23 -28 29 -35 0
-5 -7 -15 -22 -23 28 -29 -35 0
-5 -7 -15 -22 -23 28 29 35 0
-5 -7 -15 -22 23 -28 -29 -35 0
-5 -7 -15 -22 23 -28 29 35 0
-5 -7 -15 -22 23 28 -29 35 0
-5 -7 -15 -22 23 28 29 -35 0
-5 -7 -15 22 -23 -28 -29 -35 0
-5 -7 -15 22 -23 -28 29 35 0
-5 -7 -15 22 -23 28 -29 35 0
-5 -7 -15 22 -23 28 29 -35 0
-5 -7 -15 22 23 -28 -29 35 0
-5 -7 -15 22 23 -28 29 -35 0
-5 -7 -15 22 23 28 -29 -35 0
-5 -7 -15 22 23 28 29 35 0
-5 -7 15 -22 -23 -28 -29 -35 0
-5 -7 15 -22 -23 -28 29 35 0
-5 -7 15 -22 -23 28 -29 35 0
-5 -7 15 -22 -23 28 29 -35 0
-5 -7 15 -22 23 -28 -29 35 0
-5 -7 15 -22 23 -28 29 -35 0
-5 -7 15 -22 23 28 -29 -35 0
-5 -7 15 -22 23 28 29 35 0
-5 -7 15 22 -23 -28 -29 35 0
-5 -7 15 22 -23 -28 29 -35 0
-5 -7 15 22 -23 28 -29 -35 0
-5 -7 15 22 -23 28 29 35 0
-5 -7 15 22 23 -28 -29 -35 0
-5 -7 15 22 23 -28 29 35 0
-5 -7 15 22 23 28 -29 35 0
-5 -7 15 22 23 28 29 -35 0
-5 7 -15 -22 -23 -28 -29 -35 0
-5 7 -15 -22 -23 -28 29 35 0
-5 7 -15 -22 -23 28 -29 35 0
-5 7 -15 -22 -23 28 29 -35 0
-5 7 -15 -22 23 -28 -29 35 0
-5 7 -15 -22 23 -28 29 -35 0
-5 7 -15 -22 23 28 -29 -35 0
-5 7 -15 -22 23 28 29 35 0
-5 7 -15 22 -23 -28 -29 35 0
-5 7 -15 22 -23 -28 29 -35 0
-5 7 -15 22 -23 28 -29 -35 0
-5 7 -15 22 -23 28 29 35 0
-5 7 -15 22 23 -28 -29 -35 0
-5 7 -15 22 23 -28 29 35 0
-5 7 -15 22 23 28 -29 35 0
-5 7 -15 22 23 28 29 -35 0
-5 7 15 -22 -23 -28 -29 35 0
-5 7 15 -22 -23 -28 29 -35 0
-5 7 15 -22 -23 28 -29 -35 0
-5 7 15 -22 -23 28 29 35 0
-5 7 15 -22 23 -28 -29 -35 0
-5 7 15 -22 23 -28 29 35 0
-5 7 15 -22 23 28 -29 35 0
-5 7 15 -22 23 28 29 -35 0
-5 7 15 22 -23 -28 -29 -35 0
-5 7 15 22 -23 -28 29 35 0
-5 7 15 22 -23 28 -29 35 0
-5 7 15 22 -23 28 29 -35 0
-5 7 15 22 23 -28 -29 35 0
-5 7 15 22 23 -28 29 -35 0
-5 7 15 22 23 28 -29 -35 0
-5 7 15 22 23 28 29 35 0
-5 9 -10 -13 -16 -24 -25 -30 0
-5 9 -10 -13 -16 -24 25 30 0
-5 9 -10 -13 -16 24 -25 30 0
-5 9 -10 -13 -16 24 25 -30 0
-5 9 -10 -13 16 -24 -25 30 0
-5 9 -10 -13 16 -24 25 -30 0
-5 9 -10 -13 16 24 -25 -30 0
-5 9 -10 -13 16 24 25 30 0
-5 9 -10 13 -16 -24 -25 30 0
-5 9 -10 13 -16 -24 25 -30 0
-5 9 -10 13 -16 24 -25 -30 0
-5 9 -10 13 -16 24 25 30 0
-5 9 -10 13 16 -24 -25 -30 0
-5 9 -10 13 16 -24 25 30 0
-5 9 -10 13 16 24 -25 30 0
-5 9 -10 13 16 24 25 -30 0
-5 9 10 -13 -16 -24 -25 30 0
-5 9 10 -13 -16 -24 25 -30 0
-5 9 10 -13 -16 24 -25 -30 0
-5 9 10 -13 -16 24 25 30 0
-5 9 10 -13 16 -24 -25 -30 0
-5 9 10 -13 16 -24 25 30 0
-5 9 10 -13 16 24 -25 30 0
-5 9 10 -13 16 24 25 -30 0
-5 9 10 13 -16 -24 -25 -30 0
-5 9 10 13 -16 -24 25 30 0
-5 9 10 13 -16 24 -25 30 0
-5 9 10 13 -16 24 25 -30 0
-5 9 10 13 16 -24 -25 30 0
-5 9 10 13 16 -24 25 -30 0
-5 9 10 13 16 24 -25 -30 0
-5 9 10 13 16 24 25 30 0
-4 -6 -13 -17 -18 -23 -33 34 0
-4 -6 -13 -17 -18 -23 33 -34 0
-4 -6 -13 -17 -18 23 -33 -34 0
-4 -6 -13 -17 -18 23 33 34 0
-4 -6 -13 -17 18 -23 -33 -34 0
-4 -6 -13 -17 18 -23 33 34 0
-4 -6 -13 -17 18 23 -33 34 0
-4 -6 -13 -17 18 23 33 -34 0
-4 -6 -13 17 -18 -23 -33 -34 0
-4 -6 -13 17 -18 -23 33 34 0
-4 -6 -13 17 -18 23 -33 34 0
-4 -6 -13 17 -18 23 33 -34 0
-4 -6 -13 17 18 -23 -33 34 0
-4 -6 -13 17 18 -23 33 -34 0
-4 -6 -13 17 18 23 -33 -34 0
-4 -6 -13 17 18 23 33 34 0
-4 -6 13 -17 -18 -23 -33 -34 0
-4 -6 13 -17 -18 -23 33 34 0
-4 -6 13 -17 -18 23 -33 34 0
-4 -6 13 -17 -18 23 33 -34 0
-4 -6 13 -17 18 -23 -33 34 0
-4 -6 13 -17 18 -23 33 -34 0
-4 -6 13 -17 18 23 -33 -34 0
-4 -6 13 -17 18 23 33 34 0
-4 -6 13 17 -18 -23 -33 34 0
-4 -6 13 17 -18 -23 33 -34 0
-4 -6 13 17 -18 23 -33 -34 0
-4 -6 13 17 -18 23 33 34 0
-4 -6 13 17 18 -23 -33 -34 0
-4 -6 13 17 18 -23 33 34 0
-4 -6 13 17 18 23 -33 34 0
-4 -6 13 17 18 23 33 -34 0
-4 6 -13 -17 -18 -23 -33 -34 0
-4 6 -13 -17 -18 -23 33 34 0
-4 6 -13 -17 -18 23 -33 34 0
-4 6 -13 -17 -18 23 33 -34 0
-4 6 -13 -17 18 -23 -33 34 0
-4 6 -13 -17 18 -23 33 -34 0
-4 6 -13 -17 18 23 -33 -34 0
-4 6 -13 -17 18 23 33 34 0
-4 6 -13 17 -18 -23 -33 34 0
-4 6 -13 17 -18 -23 33 -34 0
-4 6 -13 17 -18 23 -33 -34 0
-4 6 -13 17 -18 23 33 34 0
-4 6 -13 17 18 -23 -33 -34 0
-4 6 -13 17 18 -23 33 34 0
-4 6 -13 17 18 23 -33 34 0
-4 6 -13 17 18 23 33 -34 0
-4 6 13 -17 -18 -23 -33 34 0
-4 6 13 -17 -18 -23 33 -34 0
-4 6 13 -17 -18 23 -33 -34 0
-4 6 13 -17 -18 23 33 34 0
-4 6 13 -17 18 -23 -33 -34 0
-4 6 13 -17 18 -23 33 34 0
-4 6 13 -17 18 23 -33 34 0
-4 6 13 -17 18 23 33 -34 0
-4 6 13 17 -18 -23 -33 -34 0
-4 6 13 17 -18 -23 33 34 0
-4 6 13 17 -18 23 -33 34 0
-4 6 13 17 -18 23 33 -34 0
-4 6 13 17 18 -23 -33 34 0
-4 6 13 17 18 -23 33 -34 0
-4 6 13 17 18 23 -33 -34 0
-4 6 13 17 18 23 33 34 0
-3 -8 -14 -24 -26 -29 -31 34 0
-3 -8 -14 -24 -26 -29 31 -34 0
-3 -8 -14 -24 -26 29 -31 -34 0
-3 -8 -14 -24 -26 29 31 34 0
-3 -8 -14 -24 26 -29 -31 -34 0
-3 -8 -14 -24 26 -29 31 34 0
-3 -8 -14 -24 26 29 -31 34 0
-3 -8 -14 -24 26 29 31 -34 0
-3 -8 -14 24 -26 -29 -31 -34 0
-3 -8 -14 24 -26 -29 31 34 0
-3 -8 -14 24 -26 29 -31 34 0
-3 -8 -14 24 -26 29 31 -34 0
-3 -8 -14 24 26 -29 -31 34 0
-3 -8 -14 24 26 -29 31 -34 0
-3 -8 -14 24 26 29 -31 -34 0
-3 -8 -14 24 26 29 31 34 0
-3 -8 14 -24 -26 -29 -31 -34 0
-3 -8 14 -24 -26 -29 31 34 0
-3 -8 14 -24 -26 29 -31 34 0
-3 -8 14 -24 -26 29 31 -34 0
-3 -8 14 -24 26 -29 -31 34 0
-3 -8 14 -24 26 -29 31 -34 0
-3 -8 14 -24 26 29 -31 -34 0
-3 -8 14 -24 26 29 31 34 0
-3 -8 14 24 -26 -29 -31 34 0
-3 -8 14 24 -26 -29 31 -34 0
-3 -8 14 24 -26 29 -31 -34 0
-3 -8 14 24 -26 29 31 34 0
-3 -8 14 24 26 -29 -31 -34 0
-3 -8 14 24 26 -29 31 34 0
-3 -8 14 24 26 29 -31 34 0
-3 -8 14 24 26 29 31 -34 0
-3 8 -14 -24 -26 -29 -31 -34 0
-3 8 -14 -24 -26 -29 31 34 0
-3 8 -14 -24 -26 29 -31 34 0
-3 8 -14 -24 -26 29 31 -34 0
-3 8 -14 -24 26 -29 -31 34 0
-3 8 -14 -24 26 -29 31 -34 0
-3 8 -14 -24 26 29 -31 -34 0
-3 8 -14 -24 26 29 31 34 0
-3 8 -14 24 -26 -29 -31 34 0
-3 8 -14 24 -26 -29 31 -34 0
-3 8 -14 24 -26 29 -31 -34 0
-3 8 -14 24 -26 29 31 34 0
-3 8 -14 24 26 -29 -31 -34 0
-3 8 -14 24 26 -29 31 34 0
-3 8 -14 24 26 29 -31 34 0
-3 8 -14 24 26 29 31 -34 0
-3 8 14 -24 -26 -29 -31 34 0
-3 8 14 -24 -26 -29 31 -34 0
-3 8 14 -24 -26 29 -31 -34 0
-3 8 14 -24 -26 29 31 34 0
-3 8 14 -24 26 -29 -31 -34 0
-3 8 14 -24 26 -29 31 34 0
-3 8 14 -24 26 29 -31 34 0
-3 8 14 -24 26 29 31 -34 0
-3 8 14 24 -26 -29 -31 -34 0
-3 8 14 24 -26 -29 31 34 0
-3 8 14 24 -26 29 -31 34 0
-3 8 14 24 -26 29 31 -34 0
-3 8 14 24 26 -29 -31 34 0
-3 8 14 24 26 -29 31 -34 0
-3 8 14 24 26 29 -31 -34 0
-3 8 14 24 26 29 31 34 0
-2 -9 -19 -21 -26 -28 -33 36 0
-2 -9 -19 -21 -26 -28 33 -36 0
-2 -9 -19 -21 -26 28 -33 -36 0
-2 -9 -19 -21 -26 28 33 36 0
-2 -9 -19 -21 26 -28 -33 -36 0
-2 -9 -19 -21 26 -28 33 36 0
-2 -9 -19 -21 26 28 -33 36 0
-2 -9 -19 -21 26 28 33 -36 0
-2 -9 -19 21 -26 -28 -33 -36 0
-2 -9 -19 21 -26 -28 33 36 0
-2 -9 -19 21 -26 28 -33 36 0
-2 -9 -19 21 -26 28 33 -36 0
-2 -9 -19 21 26 -28 -33 36 0
-2 -9 -19 21 26 -28 33 -36 0
-2 -9 -19 21 26 28 -33 -36 0
-2 -9 -19 21 26 28 33 36 0
-2 -9 19 -21 -26 -28 -33 -36 0
-2 -9 19 -21 -26 -28 33 36 0
-2 -9 19 -21 -26 28 -33 36 0
-2 -9 19 -21 -26 28 33 -36 0
-2 -9 19 -21 26 -28 -33 36 0
-2 -9 19 -21 26 -28 33 -36 0
-2 -9 19 -21 26 28 -33 -36 0
-2 -9 19 -21 26 28 33 36 0
-2 -9 19 21 -26 -28 -33 36 0
-2 -9 19 21 -26 -28 33 -36 0
-2 -9 19 21 -26 28 -33 -36 0
-2 -9 19 21 -26 28 33 36 0
-2 -9 19 21 26 -28 -33 -36 0
-2 -9 19 21 26 -28 33 36 0
-2 -9 19 21 26 28 -33 36 0
-2 -9 19 21 26 28 33 -36 0
-2 -4 -7 -8 -11 -12 -16 20 0
-2 -4 -7 -8 -11 -12 16 -20 0
-2 -4 -7 -8 -11 12 -16 -20 0
-2 -4 -7 -8 -11 12 16 20 0
-2 -4 -7 -8 11 -12 -16 -20 0
-2 -4 -7 -8 11 -12 16 20 0
-2 -4 -7 -8 11 12 -16 20 0
-2 -4 -7 -8 11 12 16 -20 0
-2 -4 -7 8 -11 -12 -16 -20 0
-2 -4 -7 8 -11 -12 16 20 0
-2 -4 -7 8 -11 12 -16 20 0
-2 -4 -7 8 -11 12 16 -20 0
-2 -4 -7 8 11 -12 -16 20 0
-2 -4 -7 8 11 -12 16 -20 0
-2 -4 -7 8 11 12 -16 -20 0
-2 -4 -7 8 11 12 16 20 0
-2 -4 7 -8 -11 -12 -16 -20 0
-2 -4 7 -8 -11 -12 16 20 0
-2 -4 7 -8 -11 12 -16 20 0
-2 -4 7 -8 -11 12 16 -20 0
-2 -4 7 -8 11 -12 -16 20 0
-2 -4 7 -8 11 -12 16 -20 0
-2 -4 7 -8 11 12 -16 -20 0
-2 -4 7 -8 11 12 16 20 0
-2 -4 7 8 -11 -12 -16 20 0
-2 -4 7 8 -11 -12 16 -20 0
-2 -4 7 8 -11 12 -16 -20 0
-2 -4 7 8 -11 12 16 20 0
-2 -4 7 8 11 -12 -16 -20 0
-2 -4 7 8 11 -12 16 20 0
-2 -4 7 8 11 12 -16 20 0
-2 -4 7 8 11 12 16 -20 0
-2 4 -7 -8 -11 -12 -16 -20 0
-2 4 -7 -8 -11 -12 16 20 0
-2 4 -7 -8 -11 12 -16 20 0
-2 4 -7 -8 -11 12 16 -20 0
-2 4 -7 -8 11 -12 -16 20 0
-2 4 -7 -8 11 -12 16 -20 0
-2 4 -7 -8 11 12 -16 -20 0
-2 4 -7 -8 11 12 16 20 0
-2 4 -7 8 -11 -12 -16 20 0
-2 4 -7 8 -11 -12 16 -20 0
-2 4 -7 8 -11 12 -16 -20 0
-2 4 -7 8 -11 12 16 20 0
-2 4 -7 8 11 -12 -16 -20 0
-2 4 -7 8 11 -12 16 20 0
-2 4 -7 8 11 12 -16 20 0
-2 4 -7 8 11 12 16 -20 0
-2 4 7 -8 -11 -12 -16 20 0
-2 4 7 -8 -11 -12 16 -20 0
-2 4 7 -8 -11 12 -16 -20 0
-2 4 7 -8 -11 12 16 20 0
-2 4 7 -8 11 -12 -16 -20 0
-2 4 7 -8 11 -12 16 20 0
-2 4 7 -8 11 12 -16 20 0
-2 4 7 -8 11 12 16 -20 0
-2 4 7 8 -11 -12 -16 -20 0
-2 4 7 8 -11 -12 16 20 0
-2 4 7 8 -11 12 -16 20 0
-2 4 7 8 -11 12 16 -20 0
-2 4 7 8 11 -12 -16 20 0
-2 4 7 8 11 -12 16 -20 0
-2 4 7 8 11 12 -16 -20 0
-2 4 7 8 11 12 16 20 0
-2 9 -19 -21 -26 -28 -33 -36 0
-2 9 -19 -21 -26 -28 33 36 0
-2 9 -19 -21 -26 28 -33 36 0
-2 9 -19 -21 -26 28 33 -36 0
-2 9 -19 -21 26 -28 -33 36 0
-2 9 -19 -21 26 -28 33 -36 0
-2 9 -19 -21 26 28 -33 -36 0
-2 9 -19 -21 26 28 33 36 0
-2 9 -19 21 -26 -28 -33 36 0
-2 9 -19 21 -26 -28 33 -36 0
-2 9 -19 21 -26 28 -33 -36 0
-2 9 -19 21 -26 28 33 36 0
-2 9 -19 21 26 -28 -33 -36 0
-2 9 -19 21 26 -28 33 36 0
-2 9 -19 21 26 28 -33 36 0
-2 9 -19 21 26 28 33 -36 0
-2 9 19 -21 -26 -28 -33 36 0
-2 9 19 -21 -26 -28 33 -36 0
-2 9 19 -21 -26 28 -33 -36 0
-2 9 19 -21 -26 28 33 36 0
-2 9 19 -21 26 -28 -33 -36 0
-2 9 19 -21 26 -28 33 36 0
-2 9 19 -21 26 28 -33 36 0
-2 9 19 -21 26 28 33 -36 0
-2 9 19 21 -26 -28 -33 -36 0
-2 9 19 21 -26 -28 33 36 0
-2 9 19 21 -26 28 -33 36 0
-2 9 19 21 -26 28 33 -36 0
-2 9 19 21 26 -28 -33 36 0
-2 9 19 21 26 -28 33 -36 0
-2 9 19 21 26 28 -33 -36 0
-2 9 19 21 26 28 33 36 0
-1 -10 -14 -18 -19 -20 -22 27 0
-1 -10 -14 -18 -19 -20 22 -27 0
-1 -10 -14 -18 -19 20 -22 -27 0
-1 -10 -14 -18 -19 20 22 27 0
-1 -10 -14 -18 19 -20 -22 -27 0
-1 -10 -14 -18 19 -20 22 27 0
-1 -10 -14 -18 19 20 -22 27 0
-1 -10 -14 -18 19 20 22 -27 0
-1 -10 -14 18 -19 -20 -22 -27 0
-1 -10 -14 18 -19 -20 22 27 0
-1 -10 -14 18 -19 20 -22 27 0
-1 -10 -14 18 -19 20 22 -27 0
-1 -10 -14 18 19 -20 -22 27 0
-1 -10 -14 18 19 -20 22 -27 0
-1 -10 -14 18 19 20 -22 -27 0
-1 -10 -14 18 19 20 22 27 0
-1 -10 14 -18 -19 -20 -22 -27 0
-1 -10 14 -18 -19 -20 22 27 0
-1 -10 14 -18 -19 20 -22 27 0
-1 -10 14 -18 -19 20 22 -27 0
-1 -10 14 -18 19 -20 -22 27 0
-1 -10 14 -18 19 -20 22 -27 0
-1 -10 14 -18 19 20 -22 -27 0
-1 -10 14 -18 19 20 22 27 0
-1 -10 14 18 -19 -20 -22 27 0
-1 -10 14 18 -19 -20 22 -27 0
-1 -10 14 18 -19 20 -22 -27 0
-1 -10 14 18 -19 20 22 27 0
-1 -10 14 18 19 -20 -22 -27 0
-1 -10 14 18 19 -20 22 27 0
-1 -10 14 18 19 20 -22 27 0
-1 -10 14 18 19 20 22 -27 0
-1 -3 -12 -15 -17 -25 -32 36 0
-1 -3 -12 -15 -17 -25 32 -36 0
-1 -3 -12 -15 -17 25 -32 -36 0
-1 -3 -12 -15 -17 25 32 36 0
-1 -3 -12 -15 17 -25 -32 -36 0
-1 -3 -12 -15 17 -25 32 36 0
-1 -3 -12 -15 17 25 -32 36 0
-1 -3 -12 -15 17 25 32 -36 0
-1 -3 -12 15 -17 -25 -32 -36 0
-1 -3 -12 15 -17 -25 32 36 0
-1 -3 -12 15 -17 25 -32 36 0
-1 -3 -12 15 -17 25 32 -36 0
-1 -3 -12 15 17 -25 -32 36 0
-1 -3 -12 15 17 -25 32 -36 0
-1 -3 -12 15 17 25 -32 -36 0
-1 -3 -12 15 17 25 32 36 0
-1 -3 12 -15 -17 -25 -32 -36 0
-1 -3 12 -15 -17 -25 32 36 0
-1 -3 12 -15 -17 25 -32 36 0
-1 -3 12 -15 -17 25 32 -36 0
-1 -3 12 -15 17 -25 -32 36 0
-1 -3 12 -15 17 -25 32 -36 0
-1 -3 12 -15 17 25 -32 -36 0
-1 -3 12 -15 17 25 32 36 0
-1 -3 12 15 -17 -25 -32 36 0
-1 -3 12 15 -17 -25 32 -36 0
-1 -3 12 15 -17 25 -32 -36 0
-1 -3 12 15 -17 25 32 36 0
-1 -3 12 15 17 -25 -32 -36 0
-1 -3 12 15 17 -25 32 36 0
-1 -3 12 15 17 25 -32 36 0
-1 -3 12 15 17 25 32 -36 0
-1 3 -12 -15 -17 -25 -32 -36 0
-1 3 -12 -15 -17 -25 32 36 0
-1 3 -12 -15 -17 25 -32 36 0
-1 3 -12 -15 -17 25 32 -36 0
-1 3 -12 -15 17 -25 -32 36 0
-1 3 -12 -15 17 -25 32 -36 0
-1 3 -12 -15 17 25 -32 -36 0
-1 3 -12 -15 17 25 32 36 0
-1 3 -12 15 -17 -25 -32 36 0
-1 3 -12 15 -17 -25 32 -36 0
-1 3 -12 15 -17 25 -32 -36 0
-1 3 -12 15 -17 25 32 36 0
-1 3 -12 15 17 -25 -32 -36 0
-1 3 -12 15 17 -25 32 36 0
-1 3 -12 15 17 25 -32 36 0
-1 3 -12 15 17 25 32 -36 0
-1 3 12 -15 -17 -25 -32 36 0
-1 3 12 -15 -17 -25 32 -36 0
-1 3 12 -15 -17 25 -32 -36 0
-1 3 12 -15 -17 25 32 36 0
-1 3 12 -15 17 -25 -32 -36 0
-1 3 12 -15 17 -25 32 36 0
-1 3 12 -15 17 25 -32 36 0
-1 3 12 -15 17 25 32 -36 0
-1 3 12 15 -17 -25 -32 -36 0
-1 3 12 15 -17 -25 32 36 0
-1 3 12 15 -17 25 -32 36 0
-1 3 12 15 -17 25 32 -36 0
-1 3 12 15 17 -25 -32 36 0
-1 3 12 15 17 -25 32 -36 0
-1 3 12 15 17 25 -32 -36 0
-1 3 12 15 17 25 32 36 0
-1 10 -14 -18 -19 -20 -22 -27 0
-1 10 -14 -18 -19 -20 22 27 0
-1 10 -14 -18 -19 20 -22 27 0
-1 10 -14 -18 -19 20 22 -27 0
-1 10 -14 -18 19 -20 -22 27 0
-1 10 -14 -18 19 -20 22 -27 0
-1 10 -14 -18 19 20 -22 -27 0
-1 10 -14 -18 19 20 22 27 0
-1 10 -14 18 -19 -20 -22 27 0
-1 10 -14 18 -19 -20 22 -27 0
-1 10 -14 18 -19 20 -22 -27 0
-1 10 -14 18 -19 20 22 27 0
-1 10 -14 18 19 -20 -22 -27 0
-1 10 -14 18 19 -20 22 27 0
-1 10 -14 18 19 20 -22 27 0
-1 10 -14 18 19 20 22 -27 0
-1 10 14 -18 -19 -20 -22 27 0
-1 10 14 -18 -19 -20 22 -27 0
-1 10 14 -18 -19 20 -22 -27 0
-1 10 14 -18 -19 20 22 27 0
-1 10 14 -18 19 -20 -22 -27 0
-1 10 14 -18 19 -20 22 27 0
-1 10 14 -18 19 20 -22 27 0
-1 10 14 -18 19 20 22 -27 0
-1 10 14 18 -19 -20 -22 -27 0
-1 10 14 18 -19 -20 22 27 0
-1 10 14 18 -19 20 -22 27 0
-1 10 14 18 -19 20 22 -27 0
-1 10 14 18 19 -20 -22 27 0
-1 10 14 18 19 -20 22 -27 0
-1 10 14 18 19 20 -22 -27 0
-1 10 14 18 19 20 22 27 0
1 -10 -14 -18 -19 -20 -22 -27 0
1 -10 -14 -18 -19 -20 22 27 0
1 -10 -14 -18 -19 20 -22 27 0
1 -10 -14 -18 -19 20 22 -27 0
1 -10 -14 -18 19 -20 -22 27 0
1 -10 -14 -18 19 -20 22 -27 0
1 -10 -14 -18 19 20 -22 -27 0
1 -10 -14 -18 19 20 22 27 0
1 -10 -14 18 -19 -20 -22 27 0
1 -10 -14 18 -19 -20 22 -27 0
1 -10 -14 18 -19 20 -22 -27 0
1 -10 -14 18 -19 20 22 27 0
1 -10 -14 18 19 -20 -22 -27 0
1 -10 -14 18 19 -20 22 27 0
1 -10 -14 18 19 20 -22 27 0
1 -10 -14 18 19 20 22 -27 0
1 -10 14 -18 -19 -20 -22 27 0
1 -10 14 -18 -19 -20 22 -27 0
1 -10 14 -18 -19 20 -22 -27 0
1 -10 14 -18 -19 20 22 27 0
1 -10 14 -18 19 -20 -22 -27 0
1 -10 14 -18 19 -20 22 27 0
1 -10 14 -18 19 20 -22 27 0
1 -10 14 -18 19 20 22 -27 0
1 -10 14 18 -19 -20 -22 -27 0
1 -10 14 18 -19 -20 22 27 0
1 -10 14 18 -19 20 -22 27 0
1 -10 14 18 -19 20 22 -27 0
1 -10 14 18 19 -20 -22 27 0
1 -10 14 18 19 -20 22 -27 0
1 -10 14 18 19 20 -22 -27 0
1 -10 14 18 19 20 22 27 0
1 -3 -12 -15 -17 -25 -32 -36 0
1 -3 -12 -15 -17 -25 32 36 0
1 -3 -12 -15 -17 25 -32 36 0
1 -3 -12 -15 -17 25 32 -36 0
1 -3 -12 -15 17 -25 -32 36 0
1 -3 -12 -15 17 -25 32 -36 0
1 -3 -12 -15 17 25 -32 -36 0
1 -3 -12 -15 17 25 32 36 0
1 -3 -12 15 -17 -25 -32 36 0
1 -3 -12 15 -17 -25 32 -36 0
1 -3 -12 15 -17 25 -32 -36 0
1 -3 -12 15 -17 25 32 36 0
1 -3 -12 15 17 -25 -32 -36 0
1 -3 -12 15 17 -25 32 36 0
1 -3 -12 15 17 25 -32 36 0
1 -3 -12 15 17 25 32 -36 0
1 -3 12 -15 -17 -25 -32 36 0
1 -3 12 -15 -17 -25 32 -36 0
1 -3 12 -15 -17 25 -32 -36 0
1 -3 12 -15 -17 25 32 36 0
1 -3 12 -15 17 -25 -32 -36 0
1 -3 12 -15 17 -25 32 36 0
1 -3 12 -15 17 25 -32 36 0
1 -3 12 -15 17 25 32 -36 0
1 -3 12 15 -17 -25 -32 -36 0
1 -3 12 15 -17 -25 32 36 0
1 -3 12 15 -17 25 -32 36 0
1 -3 12 15 -17 25 32 -36 0
1 -3 12 15 17 -25 -32 36 0
1 -3 12 15 17 -25 32 -36 0
1 -3 12 15 17 25 -32 -36 0
1 -3 12 15 17 25 32 36 0
1 3 -12 -15 -17 -25 -32 36 0
1 3 -12 -15 -17 -25 32 -36 0
1 3 -12 -15 -17 25 -32 -36 0
1 3 -12 -15 -17 25 32 36 0
1 3 -12 -15 17 -25 -32 -36 0
1 3 -12 -15 17 -25 32 36 0
1 3 -12 -15 17 25 -32 36 0
1 3 -12 -15 17 25 32 -36 0
1 3 -12 15 -17 -25 -32 -36 0
1 3 -12 15 -17 -25 32 36 0
1 3 -12 15 -17 25 -32 36 0
1 3 -12 15 -17 25 32 -36 0
1 3 -12 15 17 -25 -32 36 0
1 3 -12 15 17 -25 32 -36 0
1 3 -12 15 17 25 -32 -36 0
1 3 -12 15 17 25 32 36 0
1 3 12 -15 -17 -25 -32 -36 0
1 3 12 -15 -17 -25 32 36 0
1 3 12 -15 -17 25 -32 36 0
1 3 12 -15 -17 25 32 -36 0
1 3 12 -15 17 -25 -32 36 0
1 3 12 -15 17 -25 32 -36 0
1 3 12 -15 17 25 -32 -36 0
1 3 12 -15 17 25 32 36 0
1 3 12 15 -17 -25 -32 36 0
1 3 12 15 -17 -25 32 -36 0
1 3 12 15 -17 25 -32 -36 0
1 3 12 15 -17 25 32 36 0
1 3 12 15 17 -25 -32 -36 0
1 3 12 15 17 -25 32 36 0
1 3 12 15 17 25 -32 36 0
1 3 12 15 17 25 32 -36 0
1 10 -14 -18 -19 -20 -22 27 0
1 10 -14 -18 -19 -20 22 -27 0
1 10 -14 -18 -19 20 -22 -27 0
1 10 -14 -18 -19 20 22 27 0
1 10 -14 -18 19 -20 -22 -27 0
1 10 -14 -18 19 -20 22 27 0
1 10 -14 -18 19 20 -22 27 0
1 10 -14 -18 19 20 22 -27 0
1 10 -14 18 -19 -20 -22 -27 0
1 10 -14 18 -19 -20 22 27 0
1 10 -14 18 -19 20 -22 27 0
1 10 -14 18 -19 20 22 -27 0
1 10 -14 18 19 -20 -22 27 0
1 10 -14 18 19 -20 22 -27 0
1 10 -14 18 19 20 -22 -27 0
1 10 -14 18 19 20 22 27 0
1 10 14 -18 -19 -20 -22 -27 0
1 10 14 -18 -19 -20 22 27 0
1 10 14 -18 -19 20 -22 27 0
1 10 14 -18 -19 20 22 -27 0
1 10 14 -18 19 -20 -22 27 0
1 10 14 -18 19 -20 22 -27 0
1 10 14 -18 19 20 -22 -27 0
1 10 14 -18 19 20 22 27 0
1 10 14 18 -19 -20 -22 27 0
1 10 14 18 -19 -20 22 -27 0
1 10 14 18 -19 20 -22 -27 0
1 10 14 18 -19 20 22 27 0
1 10 14 18 19 -20 -22 -27 0
1 10 14 18 19 -20 22 27 0
1 10 14 18 19 20 -22 27 0
1 10 14 18 19 20 22 -27 0
2 -9 -19 -21 -26 -28 -33 -36 0
2 -9 -19 -21 -26 -28 33 36 0
2 -9 -19 -21 -26 28 -33 36 0
2 -9 -19 -21 -26 28 33 -36 0
2 -9 -19 -21 26 -28 -33 36 0
2 -9 -19 -21 26 -28 33 -36 0
2 -9 -19 -21 26 28 -33 -36 0
2 -9 -19 -21 26 28 33 36 0
2 -9 -19 21 -26 -28 -33 36 0
2 -9 -19 21 -26 -28 33 -36 0
2 -9 -19 21 -26 28 -33 -36 0
2 -9 -19 21 -26 28 33 36 0
2 -9 -19 21 26 -28 -33 -36 0
2 -9 -19 21 26 -28 33 36 0
2 -9 -19 21 26 28 -33 36 0
2 -9 -19 21 26 28 33 -36 0
2 -9 19 -21 -26 -28 -33 36 0
2 -9 19 -21 -26 -28 33 -36 0
2 -9 19 -21 -26 28 -33 -36 0
2 -9 19 -21 -26 28 33 36 0
2 -9 19 -21 26 -28 -33 -36 0
2 -9 19 -21 26 -28 33 36 0
2 -9 19 -21 26 28 -33 36 0
2 -9 19 -21 26 28 33 -36 0
2 -9 19 21 -26 -28 -33 -36 0
2 -9 19 21 -26 -28 33 36 0
2 -9 19 21 -26 28 -33 36 0
2 -9 19 21 -26 28 33 -36 0
2 -9 19 21 26 -28 -33 36 0
2 -9 19 21 26 -28 33 -36 0
2 -9 19 21 26 28 -33 -36 0
2 -9 19 21 26 28 33 36 0
2 -4 -7 -8 -11 -12 -16 -20 0
2 -4 -7 -8 -11 -12 16 20 0
2 -4 -7 -8 -11 12 -16 20 0
2 -4 -7 -8 -11 12 16 -20 0
2 -4 -7 -8 11 -12 -16 20 0
2 -4 -7 -8 11 -12 16 -20 0
2 -4 -7 -8 11 12 -16 -20 0
2 -4 -7 -8 11 12 16 20 0
2 -4 -7 8 -11 -12 -16 20 0
2 -4 -7 8 -11 -12 16 -20 0
2 -4 -7 8 -11 12 -16 -20 0
2 -4 -7 8 -11 12 16 20 0
2 -4 -7 8 11 -12 -16 -20 0
2 -4 -7 8 11 -12 16 20 0
2 -4 -7 8 11 12 -16 20 0
2 -4 -7 8 11 12 16 -20 0
2 -4 7 -8 -11 -12 -16 20 0
2 -4 7 -8 -11 -12 16 -20 0
2 -4 7 -8 -11 12 -16 -20 0
2 -4 7 -8 -11 12 16 20 0
2 -4 7 -8 11 -12 -16 -20 0
2 -4 7 -8 11 -12 16 20 0
2 -4 7 -8 11 12 -16 20 0
2 -4 7 -8 11 12 16 -20 0
2 -4 7 8 -11 -12 -16 -20 0
2 -4 7 8 -11 -12 16 20 0
2 -4 7 8 -11 12 -16 20 0
2 -4 7 8 -11 12 16 -20 0
2 -4 7 8 11 -12 -16 20 0
2 -4 7 8 11 -12 16 -20 0
2 -4 7 8 11 12 -16 -20 0
2 -4 7 8 11 12 16 20 0
2 4 -7 -8 -11 -12 -16 20 0
2 4 -7 -8 -11 -12 16 -20 0
2 4 -7 -8 -11 12 -16 -20 0
2 4 -7 -8 -11 12 16 20 0
2 4 -7 -8 11 -12 -16 -20 0
2 4 -7 -8 11 -12 16 20 0
2 4 -7 -8 11 12 -16 20 0
2 4 -7 -8 11 12 16 -20 0
2 4 -7 8 -11 -12 -16 -20 0
2 4 -7 8 -11 -12 16 20 0
2 4 -7 8 -11 12 -16 20 0
2 4 -7 8 -11 12 16 -20 0
2 4 -7 8 11 -12 -16 20 0
2 4 -7 8 11 -12 16 -20 0
2 4 -7 8 11 12 -16 -20 0
2 4 -7 8 11 12 16 20 0
2 4 7 -8 -11 -12 -16 -20 0
2 4 7 -8 -11 -12 16 20 0
2 4 7 -8 -11 12 -16 20 0
2 4 7 -8 -11 12 16 -20 0
2 4 7 -8 11 -12 -16 20 0
2 4 7 -8 11 -12 16 -20 0
2 4 7 -8 11 12 -16 -20 0
2 4 7 -8 11 12 16 20 0
2 4 7 8 -11 -12 -16 20 0
2 4 7 8 -11 -12 16 -20 0
2 4 7 8 -11 12 -16 -20 0
2 4 7 8 -11 12 16 20 0
2 4 7 8 11 -12 -16 -20 0
2 4 7 8 11 -12 16 20 0
2 4 7 8 11 12 -16 20 0
2 4 7 8 11 12 16 -20 0
2 9 -19 -21 -26 -28 -33 36 0
2 9 -19 -21 -26 -28 33 -36 0
2 9 -19 -21 -26 28 -33 -36 0
2 9 -19 -21 -26 28 33 36 0
2 9 -19 -21 26 -28 -33 -36 0
2 9 -19 -21 26 -28 33 36 0
2 9 -19 -21 26 28 -33 36 0
2 9 -19 -21 26 28 33 -36 0
2 9 -19 21 -26 -28 -33 -36 0
2 9 -19 21 -26 -28 33 36 0
2 9 -19 21 -26 28 -33 36 0
2 9 -19 21 -26 28 33 -36 0
2 9 -19 21 26 -28 -33 36 0
2 9 -19 21 26 -28 33 -36 0
2 9 -19 21 26 28 -33 -36 0
2 9 -19 21 26 28 33 36 0
2 9 19 -21 -26 -28 -33 -36 0
2 9 19 -21 -26 -28 33 36 0
2 9 19 -21 -26 28 -33 36 0
2 9 19 -21 -26 28 33 -36 0
2 9 19 -21 26 -28 -33 36 0
2 9 19 -21 26 -28 33 -36 0
2 9 19 -21 26 28 -33 -36 0
2 9 19 -21 26 28 33 36 0
2 9 19 21 -26 -28 -33 36 0
2 9 19 21 -26 -28 33 -36 0
2 9 19 21 -26 28 -33 -36 0
2 9 19 21 -26 28 33 36 0
2 9 19 21 26 -28 -33 -36 0
2 9 19 21 26 -28 33 36 0
2 9 19 21 26 28 -33 36 0
2 9 19 21 26 28 33 -36 0
3 -8 -14 -24 -26 -29 -31 -34 0
3 -8 -14 -24 -26 -29 31 34 0
3 -8 -14 -24 -26 29 -31 34 0
3 -8 -14 -24 -26 29 31 -34 0
3 -8 -14 -24 26 -29 -31 34 0
3 -8 -14 -24 26 -29 31 -34 0
3 -8 -14 -24 26 29 -31 -34 0
3 -8 -14 -24 26 29 31 34 0
3 -8 -14 24 -26 -29 -31 34 0
3 -8 -14 24 -26 -29 31 -34 0
3 -8 -14 24 -26 29 -31 -34 0
3 -8 -14 24 -26 29 31 34 0
3 -8 -14 24 26 -29 -31 -34 0
3 -8 -14 24 26 -29 31 34 0
3 -8 -14 24 26 29 -31 34 0
3 -8 -14 24 26 29 31 -34 0
3 -8 14 -24 -26 -29 -31 34 0
3 -8 14 -24 -26 -29 31 -34 0
3 -8 14 -24 -26 29 -31 -34 0
3 -8 14 -24 -26 29 31 34 0
3 -8 14 -24 26 -29 -31 -34 0
3 -8 14 -24 26 -29 31 34 0
3 -8 14 -24 26 29 -31 34 0
3 -8 14 -24 26 29 31 -34 0
3 -8 14 24 -26 -29 -31 -34 0
3 -8 14 24 -26 -29 31 34 0
3 -8 14 24 -26 29 -31 34 0
3 -8 14 24 -26 29 31 -34 0
3 -8 14 24 26 -29 -31 34 0
3 -8 14 24 26 -29 31 -34 0
3 -8 14 24 26 29 -31 -34 0
3 -8 14 24 26 29 31 34 0
3 8 -14 -24 -26 -29 -31 34 0
3 8 -14 -24 -26 -29 31 -34 0
3 8 -14 -24 -26 29 -31 -34 0
3 8 -14 -24 -26 29 31 34 0
3 8 -14 -24 26 -29 -31 -34 0
3 8 -14 -24 26 -29 31 34 0
3 8 -14 -24 26 29 -31 34 0
3 8 -14 -24 26 29 31 -34 0
3 8 -14 24 -26 -29 -31 -34 0
3 8 -14 24 -26 -29 31 34 0
3 8 -14 24 -26 29 -31 34 0
3 8 -14 24 -26 29 31 -34 0
3 8 -14 24 26 -29 -31 34 0
3 8 -14 24 26 -29 31 -34 0
3 8 -14 24 26 29 -31 -34 0
3 8 -14 24 26 29 31 34 0
3 8 14 -24 -26 -29 -31 -34 0
3 8 14 -24 -26 -29 31 34 0
3 8 14 -24 -26 29 -31 34 0
3 8 14 -24 -26 29 31 -34 0
3 8 14 -24 26 -29 -31 34 0
3 8 14 -24 26 -29 31 -34 0
3 8 14 -24 26 29 -31 -34 0
3 8 14 -24 26 29 31 34 0
3 8 14 24 -26 -29 -31 34 0
3 8 14 24 -26 -29 31 -34 0
3 8 14 24 -26 29 -31 -34 0
3 8 14 24 -26 29 31 34 0
3 8 14 24 26 -29 -31 -34 0
3 8 14 24 26 -29 31 34 0
3 8 14 24 26 29 -31 34 0
3 8 14 24 26 29 31 -34 0
4 -6 -13 -17 -18 -23 -33 -34 0
4 -6 -13 -17 -18 -23 33 34 0
4 -6 -13 -17 -18 23 -33 34 0
4 -6 -13 -17 -18 23 33 -34 0
4 -6 -13 -17 18 -23 -33 34 0
4 -6 -13 -17 18 -23 33 -34 0
4 -6 -13 -17 18 23 -33 -34 0
4 -6 -13 -17 18 23 33 34 0
4 -6 -13 17 -18 -23 -33 34 0
4 -6 -13 17 -18 -23 33 -34 0
4 -6 -13 17 -18 23 -33 -34 0
4 -6 -13 17 -18 23 33 34 0
4 -6 -13 17 18 -23 -33 -34 0
4 -6 -13 17 18 -23 33 34 0
4 -6 -13 17 18 23 -33 34 0
4 -6 -13 17 18 23 33 -34 0
4 -6 13 -17 -18 -23 -33 34 0
4 -6 13 -17 -18 -23 33 -34 0
4 -6 13 -17 -18 23 -33 -34 0
4 -6 13 -17 -18 23 33 34 0
4 -6 13 -17 18 -23 -33 -34 0
4 -6 13 -17 18 -23 33 34 0
4 -6 13 -17 18 23 -33 34 0
4 -6 13 -17 18 23 33 -34 0
4 -6 13 17 -18 -23 -33 -34 0
4 -6 13 17 -18 -23 33 34 0
4 -6 13 17 -18 23 -33 34 0
4 -6 13 17 -18 23 33 -34 0
4 -6 13 17 18 -23 -33 34 0
4 -6 13 17 18 -23 33 -34 0
4 -6 13 17 18 23 -33 -34 0
4 -6 13 17 18 23 33 34 0
4 6 -13 -17 -18 -23 -33 34 0
4 6 -13 -17 -18 -23 33 -34 0
4 6 -13 -17 -18 23 -33 -34 0
4 6 -13 -17 -18 23 33 34 0
4 6 -13 -17 18 -23 -33 -34 0
4 6 -13 -17 18 -23 33 34 0
4 6 -13 -17 18 23 -33 34 0
4 6 -13 -17 18 23 33 -34 0
4 6 -13 17 -18 -23 -33 -34 0
4 6 -13 17 -18 -23 33 34 0
4 6 -13 17 -18 23 -33 34 0
4 6 -13 17 -18 23 33 -34 0
4 6 -13 17 18 -23 -33 34 0
4 6 -13 17 18 -23 33 -34 0
4 6 -13 17 18 23 -33 -34 0
4 6 -13 17 18 23 33 34 0
4 6 13 -17 -18 -23 -33 -34 0
4 6 13 -17 -18 -23 33 34 0
4 6 13 -17 -18 23 -33 34 0
4 6 13 -17 -18 23 33 -34 0
4 6 13 -17 18 -23 -33 34 0
4 6 13 -17 18 -23 33 -34 0
4 6 13 -17 18 23 -33 -34 0
4 6 13 -17 18 23 33 34 0
4 6 13 17 -18 -23 -33 34 0
4 6 13 17 -18 -23 33 -34 0
4 6 13 17 -18 23 -33 -34 0
4 6 13 17 -18 23 33 34 0
4 6 13 17 18 -23 -33 -34 0
4 6 13 17 18 -23 33 34 0
4 6 13 17 18 23 -33 34 0
4 6 13 17 18 23 33 -34 0
5 -9 -10 -13 -16 -24 -25 -30 0
5 -9 -10 -13 -16 -24 25 30 0
5 -9 -10 -13 -16 24 -25 30 0
5 -9 -10 -13 -16 24 25 -30 0
5 -9 -10 -13 16 -24 -25 30 0
5 -9 -10 -13 16 -24 25 -30 0
5 -9 -10 -13 16 24 -25 -30 0
5 -9 -10 -13 16 24 25 30 0
5 -9 -10 13 -16 -24 -25 30 0
5 -9 -10 13 -16 -24 25 -30 0
5 -9 -10 13 -16 24 -25 -30 0
5 -9 -10 13 -16 24 25 30 0
5 -9 -10 13 16 -24 -25 -30 0
5 -9 -10 13 16 -24 25 30 0
5 -9 -10 13 16 24 -25 30 0
5 -9 -10 13 16 24 25 -30 0
5 -9 10 -13 -16 -24 -25 30 0
5 -9 10 -13 -16 -24 25 -30 0
5 -9 10 -13 -16 24 -25 -30 0
5 -9 10 -13 -16 24 25 30 0
5 -9 10 -13 16 -24 -25 -30 0
5 -9 10 -13 16 -24 25 30 0
5 -9 10 -13 16 24 -25 30 0
5 -9 10 -13 16 24 25 -30 0
5 -9 10 13 -16 -24 -25 -30 0
5 -9 10 13 -16 -24 25 30 0
5 -9 10 13 -16 24 -25 30 0
5 -9 10 13 -16 24 25 -30 0
5 -9 10 13 16 -24 -25 30 0
5 -9 10 13 16 -24 25 -30 0
5 -9 10 13 16 24 -25 -30 0
5 -9 10 13 16 24 25 30 0
5 -7 -15 -22 -23 -28 -29 -35 0
5 -7 -15 -22 -23 -28 29 35 0
5 -7 -15 -22 -23 28 -29 35 0
5 -7 -15 -22 -23 28 29 -35 0
5 -7 -15 -22 23 -28 -29 35 0
5 -7 -15 -22 23 -28 29 -35 0
5 -7 -15 -22 23 28 -29 -35 0
5 -7 -15 -22 23 28 29 35 0
5 -7 -15 22 -23 -28 -29 35 0
5 -7 -15 22 -23 -28 29 -35 0
5 -7 -15 22 -23 28 -29 -35 0
5 -7 -15 22 -23 28 29 35 0
5 -7 -15 22 23 -28 -29 -35 0
5 -7 -15 22 23 -28 29 35 0
5 -7 -15 22 23 28 -29 35 0
5 -7 -15 22 23 28 29 -35 0
5 -7 15 -22 -23 -28 -29 35 0
5 -7 15 -22 -23 -28 29 -35 0
5 -7 15 -22 -23 28 -29 -35 0
5 -7 15 -22 -23 28 29 35 0
5 -7 15 -22 23 -28 -29 -35 0
5 -7 15 -22 23 -28 29 35 0
5 -7 15 -22 23 28 -29 35 0
5 -7 15 -22 23 28 29 -35 0
5 -7 15 22 -23 -28 -29 -35 0
5 -7 15 22 -23 -28 29 35 0
5 -7 15 22 -23 28 -29 35 0
5 -7 15 22 -23 28 29 -35 0
5 -7 15 22 23 -28 -29 35 0
5 -7 15 22 23 -28 29 -35 0
5 -7 15 22 23 28 -29 -35 0
5 -7 15 22 23 28 29 35 0
5 7 -15 -22 -23 -28 -29 35 0
5 7 -15 -22 -23 -28 29 -35 0
5 7 -15 -22 -23 28 -29 -35 0
5 7 -15 -22 -23 28 29 35 0
5 7 -15 -22 23 -28 -29 -35 0
5 7 -15 -22 23 -28 29 35 0
5 7 -15 -22 23 28 -29 35 0
5 7 -15 -22 23 28 29 -35 0
5 7 -15 22 -23 -28 -29 -35 0
5 7 -15 22 -23 -28 29 35 0
5 7 -15 22 -23 28 -29 35 0
5 7 -15 22 -23 28 29 -35 0
5 7 -15 22 23 -28 -29 35 0
5 7 -15 22 23 -28 29 -35 0
5 7 -15 22 23 28 -29 -35 0
5 7 -15 22 23 28 29 35 0
5 7 15 -22 -23 -28 -29 -35 0
5 7 15 -22 -23 -28 29 35 0
5 7 15 -22 -23 28 -29 35 0
5 7 15 -22 -23 28 29 -35 0
5 7 15 -22 23 -28 -29 35 0
5 7 15 -22 23 -28 29 -35 0
5 7 15 -22 23 28 -29 -35 0
5 7 15 -22 23 28 29 35 0
5 7 15 22 -23 -28 -29 35 0
5 7 15 22 -23 -28 29 -35 0
5 7 15 22 -23 28 -29 -35 0
5 7 15 22 -23 28 29 35 0
5 7 15 22 23 -28 -29 -35 0
5 7 15 22 23 -28 29 35 0
5 7 15 22 23 28 -29 35 0
5 7 15 22 23 28 29 -35 0
5 9 -10 -13 -16 -24 -25 30 0
5 9 -10 -13 -16 -24 25 -30 0
5 9 -10 -13 -16 24 -25 -30 0
5 9 -10 -13 -16 24 25 30 0
5 9 -10 -13 16 -24 -25 -30 0
5 9 -10 -13 16 -24 25 30 0
5 9 -10 -13 16 24 -25 30 0
5 9 -10 -13 16 24 25 -30 0
5 9 -10 13 -16 -24 -25 -30 0
5 9 -10 13 -16 -24 25 30 0
5 9 -10 13 -16 24 -25 30 0
5 9 -10 13 -16 24 25 -30 0
5 9 -10 13 16 -24 -25 30 0
5 9 -10 13 16 -24 25 -30 0
5 9 -10 13 16 24 -25 -30 0
5 9 -10 13 16 24 25 30 0
5 9 10 -13 -16 -24 -25 -30 0
5 9 10 -13 -16 -24 25 30 0
5 9 10 -13 -16 24 -25 30 0
5 9 10 -13 -16 24 25 -30 0
5 9 10 -13 16 -24 -25 30 0
5 9 10 -13 16 -24 25 -30 0
5 9 10 -13 16 24 -25 -30 0
5 9 10 -13 16 24 25 30 0
5 9 10 13 -16 -24 -25 30 0
5 9 10 13 -16 -24 25 -30 0
5 9 10 13 -16 24 -25 -30 0
5 9 10 13 -16 24 25 30 0
5 9 10 13 16 -24 -25 -30 0
5 9 10 13 16 -24 25 30 0
5 9 10 13 16 24 -25 30 0
5 9 10 13 16 24 25 -30 0
6 -11 -21 -27 -30 -31 -32 -35 0
6 -11 -21 -27 -30 -31 32 35 0
6 -11 -21 -27 -30 31 -32 35 0
6 -11 -21 -27 -30 31 32 -35 0
6 -11 -21 -27 30 -31 -32 35 0
6 -11 -21 -27 30 -31 32 -35 0
6 -11 -21 -27 30 31 -32 -35 0
6 -11 -21 -27 30 31 32 35 0
6 -11 -21 27 -30 -31 -32 35 0
6 -11 -21 27 -30 -31 32 -35 0
6 -11 -21 27 -30 31 -32 -35 0
6 -11 -21 27 -30 31 32 35 0
6 -11 -21 27 30 -31 -32 -35 0
6 -11 -21 27 30 -31 32 35 0
6 -11 -21 27 30 31 -32 35 0
6 -11 -21 27 30 31 32 -35 0
6 -11 21 -27 -30 -31 -32 35 0
6 -11 21 -27 -30 -31 32 -35 0
6 -11 21 -27 -30 31 -32 -35 0
6 -11 21 -27 -30 31 32 35 0
6 -11 21 -27 30 -31 -32 -35 0
6 -11 21 -27 30 -31 32 35 0
6 -11 21 -27 30 31 -32 35 0
6 -11 21 -27 30 31 32 -35 0
6 -11 21 27 -30 -31 -32 -35 0
6 -11 21 27 -30 -31 32 35 0
6 -11 21 27 -30 31 -32 35 0
6 -11 21 27 -30 31 32 -35 0
6 -11 21 27 30 -31 -32 35 0
6 -11 21 27 30 -31 32 -35 0
6 -11 21 27 30 31 -32 -35 0
6 -11 21 27 30 31 32 35 0
6 11 -21 -27 -30 -31 -32 35 0
6 11 -21 -27 -30 -31 32 -35 0
6 11 -21 -27 -30 31 -32 -35 0
6 11 -21 -27 -30 31 32 35 0
6 11 -21 -27 30 -31 -32 -35 0
6 11 -21 -27 30 -31 32 35 0
6 11 -21 -27 30 31 -32 35 0
6 11 -21 -27 30 31 32 -35 0
6 11 -21 27 -30 -31 -32 -35 0
6 11 -21 27 -30 -31 32 35 0
6 11 -21 27 -30 31 -32 35 0
6 11 -21 27 -30 31 32 -35 0
6 11 -21 27 30 -31 -32 35 0
6 11 -21 27 30 -31 32 -35 0
6 11 -21 27 30 31 -32 -35 0
6 11 -21 27 30 31 32 35 0
6 11 21 -27 -30 -31 -32 -35 0
6 11 21 -27 -30 -31 32 35 0
6 11 21 -27 -30 31 -32 35 0
6 11 21 -27 -30 31 32 -35 0
6 11 21 -27 30 -31 -32 35 0
6 11 21 -27 30 -31 32 -35 0
6 11 21 -27 30 31 -32 -35 0
6 11 21 -27 30 31 32 35 0
6 11 21 27 -30 -31 -32 35 0
6 11 21 27 -30 -31 32 -35 0
6 11 21 27 -30 31 -32 -35 0
6 11 21 27 -30 31 32 35 0
6 11 21 27 30 -31 -32 -35 0
6 11 21 27 30 -31 32 35 0
6 11 21 27 30 31 -32 35 0
6 11 21 27 30 31 32 -35 0
