p cnf 28 512
-8 -11 -12 -13 -17 -18 20 0
-8 -11 -12 -13 -17 18 -20 0
-8 -11 -12 -13 17 -18 -20 0
-8 -11 -12 -13 17 18 20 0
-8 -11 -12 13 -17 -18 -20 0
-8 -11 -12 13 -17 18 20 0
-8 -11 -12 13 17 -18 20 0
-8 -11 -12 13 17 18 -20 0
-8 -11 12 -13 -17 -18 -20 0
-8 -11 12 -13 -17 18 20 0
-8 -11 12 -13 17 -18 20 0
-8 -11 12 -13 17 18 -20 0
-8 -11 12 13 -17 -18 20 0
-8 -11 12 13 -17 18 -20 0
-8 -11 12 13 17 -18 -20 0
-8 -11 12 13 17 18 20 0
-8 11 -12 -13 -17 -18 -20 0
-8 11 -12 -13 -17 18 20 0
-8 11 -12 -13 17 -18 20 0
-8 11 -12 -13 17 18 -20 0
-8 11 -12 13 -17 -18 20 0
-8 11 -12 13 -17 18 -20 0
-8 11 -12 13 17 -18 -20 0
-8 11 -12 13 17 18 20 0
-8 11 12 -13 -17 -18 20 0
-8 11 12 -13 -17 18 -20 0
-8 11 12 -13 17 -18 -20 0
-8 11 12 -13 17 18 20 0
-8 11 12 13 -17 -18 -20 0
-8 11 12 13 -17 18 20 0
-8 11 12 13 17 -18 20 0
-8 11 12 13 17 18 -20 0
-7 -9 -20 -23 -25 -26 -27 0
-7 -9 -20 -23 -25 26 27 0
-7 -9 -20 -23 25 -26 27 0
-7 -9 -20 -23 25 26 -27 0
-7 -9 -20 23 -25 -26 27 0
-7 -9 -20 23 -25 26 -27 0
-7 -9 -20 23 25 -26 -27 0
-7 -9 -20 23 25 26 27 0
-7 -9 20 -23 -25 -26 27 0
-7 -9 20 -23 -25 26 -27 0
-7 -9 20 -23 25 -26 -27 0
-7 -9 20 -23 25 26 27 0
-7 -9 20 23 -25 -26 -27 0
-7 -9 20 23 -25 26 27 0
-7 -9 20 23 25 -26 27 0
-7 -9 20 23 25 26 -27 0
-7 9 -20 -23 -25 -26 27 0
-7 9 -20 -23 -25 26 -27 0
-7 9 -20 -23 25 -26 -27 0
-7 9 -20 -23 25 26 27 0
-7 9 -20 23 -25 -26 -27 0
-7 9 -20 23 -25 26 27 0
-7 9 -20 23 25 -26 27 0
-7 9 -20 23 25 26 -27 0
-7 9 20 -23 -25 -26 -27 0
-7 9 20 -23 -25 26 27 0
-7 9 20 -23 25 -26 27 0
-7 9 20 -23 25 26 -27 0
-7 9 20 23 -25 -26 27 0
-7 9 20 23 -25 26 -27 0
-7 9 20 23 25 -26 -27 0
-7 9 20 23 25 26 27 0
-5 -6 -12 -14 -16 -21 -23 0
-5 -6 -12 -14 -16 21 23 0
-5 -6 -12 -14 16 -21 23 0
-5 -6 -12 -14 16 21 -23 0
-5 -6 -12 14 -16 -21 23 0
-5 -6 -12 14 -16 21 -23 0
-5 -6 -12 14 16 -21 -23 0
-5 -6 -12 14 16 21 23 0
-5 -6 12 -14 -16 -21 23 0
-5 -6 12 -14 -16 21 -23 0
-5 -6 12 -14 16 -21 -23 0
-5 -6 12 -14 16 21 23 0
-5 -6 12 14 -16 -21 -23 0
-5 -6 12 14 -16 21 23 0
-5 -6 12 14 16 -21 23 0
-5 -6 12 14 16 21 -23 0
-5 6 -12 -14 -16 -21 23 0
-5 6 -12 -14 -16 21 -23 0
-5 6 -12 -14 16 -21 -23 0
-5 6 -12 -14 16 21 23 0
-5 6 -12 14 -16 -21 -23 0
-5 6 -12 14 -16 21 23 0
-5 6 -12 14 16 -21 23 0
-5 6 -12 14 16 21 -23 0
-5 6 12 -14 -16 -21 -23 0
-5 6 12 -14 -16 21 23 0
-5 6 12 -14 16 -21 23 0
-5 6 12 -14 16 21 -23 0
-5 6 12 14 -16 -21 23 0
-5 6 12 14 -16 21 -23 0
-5 6 12 14 16 -21 -23 0
-5 6 12 14 16 21 23 0
-3 -4 -7 -10 -11 -14 -19 0
-3 -4 -7 -10 -11 14 19 0
-3 -4 -7 -10 11 -14 19 0
-3 -4 -7 -10 11 14 -19 0
-3 -4 -7 10 -11 -14 19 0
-3 -4 -7 10 -11 14 -19 0
-3 -4 -7 10 11 -14 -19 0
-3 -4 -7 10 11 14 19 0
-3 -4 7 -10 -11 -14 19 0
-3 -4 7 -10 -11 14 -19 0
-3 -4 7 -10 11 -14 -19 0
-3 -4 7 -10 11 14 19 0
-3 -4 7 10 -11 -14 -19 0
-3 -4 7 10 -11 14 19 0
-3 -4 7 10 11 -14 19 0
-3 -4 7 10 11 14 -19 0
-3 4 -7 -10 -11 -14 19 0
-3 4 -7 -10 -11 14 -19 0
-3 4 -7 -10 11 -14 -19 0
-3 4 -7 -10 11 14 19 0
-3 4 -7 10 -11 -14 -19 0
-3 4 -7 10 -11 14 19 0
-3 4 -7 10 11 -14 19 0
-3 4 -7 10 11 14 -19 0
-3 4 7 -10 -11 -14 -19 0
-3 4 7 -10 -11 14 19 0
-3 4 7 -10 11 -14 19 0
-3 4 7 -10 11 14 -19 0
-3 4 7 10 -11 -14 19 0
-3 4 7 10 -11 14 -19 0
-3 4 7 10 11 -14 -19 0
-3 4 7 10 11 14 19 0
-2 -17 -19 -21 -24 -25 -28 0
-2 -17 -19 -21 -24 25 28 0
-2 -17 -19 -21 24 -25 28 0
-2 -17 -19 -21 24 25 -28 0
-2 -17 -19 21 -24 -25 28 0
-2 -17 -19 21 -24 25 -28 0
-2 -17 -19 21 24 -25 -28 0
-2 -17 -19 21 24 25 28 0
-2 -17 19 -21 -24 -25 28 0
-2 -17 19 -21 -24 25 -28 0
-2 -17 19 -21 24 -25 -28 0
-2 -17 19 -21 24 25 28 0
-2 -17 19 21 -24 -25 -28 0
-2 -17 19 21 -24 25 28 0
-2 -17 19 21 24 -25 28 0
-2 -17 19 21 24 25 -28 0
-2 -9 -10 -13 -15 -16 -22 0
-2 -9 -10 -13 -15 16 22 0
-2 -9 -10 -13 15 -16 22 0
-2 -9 -10 -13 15 16 -22 0
-2 -9 -10 13 -15 -16 22 0
-2 -9 -10 13 -15 16 -22 0
-2 -9 -10 13 15 -16 -22 0
-2 -9 -10 13 15 16 22 0
-2 -9 10 -13 -15 -16 22 0
-2 -9 10 -13 -15 16 -22 0
-2 -9 10 -13 15 -16 -22 0
-2 -9 10 -13 15 16 22 0
-2 -9 10 13 -15 -16 -22 0
-2 -9 10 13 -15 16 22 0
-2 -9 10 13 15 -16 22 0
-2 -9 10 13 15 16 -22 0
-2 9 -10 -13 -15 -16 22 0
-2 9 -10 -13 -15 16 -22 0
-2 9 -10 -13 15 -16 -22 0
-2 9 -10 -13 15 16 22 0
-2 9 -10 13 -15 -16 -22 0
-2 9 -10 13 -15 16 22 0
-2 9 -10 13 15 -16 22 0
-2 9 -10 13 15 16 -22 0
-2 9 10 -13 -15 -16 -22 0
-2 9 10 -13 -15 16 22 0
-2 9 10 -13 15 -16 22 0
-2 9 10 -13 15 16 -22 0
-2 9 10 13 -15 -16 22 0
-2 9 10 13 -15 16 -22 0
-2 9 10 13 15 -16 -22 0
-2 9 10 13 15 16 22 0
-2 17 -19 -21 -24 -25 28 0
-2 17 -19 -21 -24 25 -28 0
-2 17 -19 -21 24 -25 -28 0
-2 17 -19 -21 24 25 28 0
-2 17 -19 21 -24 -25 -28 0
-2 17 -19 21 -24 25 28 0
-2 17 -19 21 24 -25 28 0
-2 17 -19 21 24 25 -28 0
-2 17 19 -21 -24 -25 -28 0
-2 17 19 -21 -24 25 28 0
-2 17 19 -21 24 -25 28 0
-2 17 19 -21 24 25 -28 0
-2 17 19 21 -24 -25 28 0
-2 17 19 21 -24 25 -28 0
-2 17 19 21 24 -25 -28 0
-2 17 19 21 24 25 28 0
-1 -4 -6 -8 -22 -24 -26 0
-1 -4 -6 -8 -22 24 26 0
-1 -4 -6 -8 22 -24 26 0
-1 -4 -6 -8 22 24 -26 0
-1 -4 -6 8 -22 -24 26 0
-1 -4 -6 8 -22 24 -26 0
-1 -4 -6 8 22 -24 -26 0
-1 -4 -6 8 22 24 26 0
-1 -4 6 -8 -22 -24 26 0
-1 -4 6 -8 -22 24 -26 0
-1 -4 6 -8 22 -24 -26 0
-1 -4 6 -8 22 24 26 0
-1 -4 6 8 -22 -24 -26 0
-1 -4 6 8 -22 24 26 0
-1 -4 6 8 22 -24 26 0
-1 -4 6 8 22 24 -26 0
-1 -3 -5 -15 -18 -27 -28 0
-1 -3 -5 -15 -18 27 28 0
-1 -3 -5 -15 18 -27 28 0
-1 -3 -5 -15 18 27 -28 0
-1 -3 -5 15 -18 -27 28 0
-1 -3 -5 15 -18 27 -28 0
-1 -3 -5 15 18 -27 -28 0
-1 -3 -5 15 18 27 28 0
-1 -3 5 -15 -18 -27 28 0
-1 -3 5 -15 -18 27 -28 0
-1 -3 5 -15 18 -27 -28 0
-1 -3 5 -15 18 27 28 0
-1 -3 5 15 -18 -27 -28 0
-1 -3 5 15 -18 27 28 0
-1 -3 5 15 18 -27 28 0
-1 -3 5 15 18 27 -28 0
-1 3 -5 -15 -18 -27 28 0
-1 3 -5 -15 -18 27 -28 0
-1 3 -5 -15 18 -27 -28 0
-1 3 -5 -15 18 27 28 0
-1 3 -5 15 -18 -27 -28 0
-1 3 -5 15 -18 27 28 0
-1 3 -5 15 18 -27 28 0
-1 3 -5 15 18 27 -28 0
-1 3 5 -15 -18 -27 -28 0
-1 3 5 -15 -18 27 28 0
-1 3 5 -15 18 -27 28 0
-1 3 5 -15 18 27 -28 0
-1 3 5 15 -18 -27 28 0
-1 3 5 15 -18 27 -28 0
-1 3 5 15 18 -27 -28 0
-1 3 5 15 18 27 28 0
-1 4 -6 -8 -22 -24 26 0
-1 4 -6 -8 -22 24 -26 0
-1 4 -6 -8 22 -24 -26 0
-1 4 -6 -8 22 24 26 0
-1 4 -6 8 -22 -24 -26 0
-1 4 -6 8 -22 24 26 0
-1 4 -6 8 22 -24 26 0
-1 4 -6 8 22 24 -26 0
-1 4 6 -8 -22 -24 -26 0
-1 4 6 -8 -22 24 26 0
-1 4 6 -8 22 -24 26 0
-1 4 6 -8 22 24 -26 0
-1 4 6 8 -22 -24 26 0
-1 4 6 8 -22 24 -26 0
-1 4 6 8 22 -24 -26 0
-1 4 6 8 22 24 26 0
1 -4 -6 -8 -22 -24 26 0
1 -4 -6 -8 -22 24 -26 0
1 -4 -6 -8 22 -24 -26 0
1 -4 -6 -8 22 24 26 0
1 -4 -6 8 -22 -24 -26 0
1 -4 -6 8 -22 24 26 0
1 -4 -6 8 22 -24 26 0
1 -4 -6 8 22 24 -26 0
1 -4 6 -8 -22 -24 -26 0
1 -4 6 -8 -22 24 26 0
1 -4 6 -8 22 -24 26 0
1 -4 6 -8 22 24 -26 0
1 -4 6 8 -22 -24 26 0
1 -4 6 8 -22 24 -26 0
1 -4 6 8 22 -24 -26 0
1 -4 6 8 22 24 26 0
1 -3 -5 -15 -18 -27 28 0
1 -3 -5 -15 -18 27 -28 0
1 -3 -5 -15 18 -27 -28 0
1 -3 -5 -15 18 27 28 0
1 -3 -5 15 -18 -27 -28 0
1 -3 -5 15 -18 27 28 0
1 -3 -5 15 18 -27 28 0
1 -3 -5 15 18 27 -28 0
1 -3 5 -15 -18 -27 -28 0
1 -3 5 -15 -18 27 28 0
1 -3 5 -15 18 -27 28 0
1 -3 5 -15 18 27 -28 0
1 -3 5 15 -18 -27 28 0
1 -3 5 15 -18 27 -28 0
1 -3 5 15 18 -27 -28 0
1 -3 5 15 18 27 28 0
1 3 -5 -15 -18 -27 -28 0
1 3 -5 -15 -18 27 28 0
1 3 -5 -15 18 -27 28 0
1 3 -5 -15 18 27 -28 0
1 3 -5 15 -18 -27 28 0
1 3 -5 15 -18 27 -28 0
1 3 -5 15 18 -27 -28 0
1 3 -5 15 18 27 28 0
1 3 5 -15 -18 -27 28 0
1 3 5 -15 -18 27 -28 0
1 3 5 -15 18 -27 -28 0
1 3 5 -15 18 27 28 0
1 3 5 15 -18 -27 -28 0
1 3 5 15 -18 27 28 0
1 3 5 15 18 -27 28 0
1 3 5 15 18 27 -28 0
1 4 -6 -8 -22 -24 -26 0
1 4 -6 -8 -22 24 26 0
1 4 -6 -8 22 -24 26 0
1 4 -6 -8 22 24 -26 0
1 4 -6 8 -22 -24 26 0
1 4 -6 8 -22 24 -26 0
1 4 -6 8 22 -24 -26 0
1 4 -6 8 22 24 26 0
1 4 6 -8 -22 -24 26 0
1 4 6 -8 -22 24 -26 0
1 4 6 -8 22 -24 -26 0
1 4 6 -8 22 24 26 0
1 4 6 8 -22 -24 -26 0
1 4 6 8 -22 24 26 0
1 4 6 8 22 -24 26 0
1 4 6 8 22 24 -26 0
2 -17 -19 -21 -24 -25 28 0
2 -17 -19 -21 -24 25 -28 0
2 -17 -19 -21 24 -25 -28 0
2 -17 -19 -21 24 25 28 0
2 -17 -19 21 -24 -25 -28 0
2 -17 -19 21 -24 25 28 0
2 -17 -19 21 24 -25 28 0
2 -17 -19 21 24 25 -28 0
2 -17 19 -21 -24 -25 -28 0
2 -17 19 -21 -24 25 28 0
2 -17 19 -21 24 -25 28 0
2 -17 19 -21 24 25 -28 0
2 -17 19 21 -24 -25 28 0
2 -17 19 21 -24 25 -28 0
2 -17 19 21 24 -25 -28 0
2 -17 19 21 24 25 28 0
2 -9 -10 -13 -15 -16 22 0
2 -9 -10 -13 -15 16 -22 0
2 -9 -10 -13 15 -16 -22 0
2 -9 -10 -13 15 16 22 0
2 -9 -10 13 -15 -16 -22 0
2 -9 -10 13 -15 16 22 0
2 -9 -10 13 15 -16 22 0
2 -9 -10 13 15 16 -22 0
2 -9 10 -13 -15 -16 -22 0
2 -9 10 -13 -15 16 22 0
2 -9 10 -13 15 -16 22 0
2 -9 10 -13 15 16 -22 0
2 -9 10 13 -15 -16 22 0
2 -9 10 13 -15 16 -22 0
2 -9 10 13 15 -16 -22 0
2 -9 10 13 15 16 22 0
2 9 -10 -13 -15 -16 -22 0
2 9 -10 -13 -15 16 22 0
2 9 -10 -13 15 -16 22 0
2 9 -10 -13 15 16 -22 0
2 9 -10 13 -15 -16 22 0
2 9 -10 13 -15 16 -22 0
2 9 -10 13 15 -16 -22 0
2 9 -10 13 15 16 22 0
2 9 10 -13 -15 -16 22 0
2 9 10 -13 -15 16 -22 0
2 9 10 -13 15 -16 -22 0
2 9 10 -13 15 16 22 0
2 9 10 13 -15 -16 -22 0
2 9 10 13 -15 16 22 0
2 9 10 13 15 -16 22 0
2 9 10 13 15 16 -22 0
2 17 -19 -21 -24 -25 -28 0
2 17 -19 -21 -24 25 28 0
2 17 -19 -21 24 -25 28 0
2 17 -19 -21 24 25 -28 0
2 17 -19 21 -24 -25 28 0
2 17 -19 21 -24 25 -28 0
2 17 -19 21 24 -25 -28 0
2 17 -19 21 24 25 28 0
2 17 19 -21 -24 -25 28 0
2 17 19 -21 -24 25 -28 0
2 17 19 -21 24 -25 -28 0
2 17 19 -21 24 25 28 0
2 17 19 21 -24 -25 -28 0
2 17 19 21 -24 25 28 0
2 17 19 21 24 -25 28 0
2 17 19 21 24 25 -28 0
3 -4 -7 -10 -11 -14 19 0
3 -4 -7 -10 -11 14 -19 0
3 -4 -7 -10 11 -14 -19 0
3 -4 -7 -10 11 14 19 0
3 -4 -7 10 -11 -14 -19 0
3 -4 -7 10 -11 14 19 0
3 -4 -7 10 11 -14 19 0
3 -4 -7 10 11 14 -19 0
3 -4 7 -10 -11 -14 -19 0
3 -4 7 -10 -11 14 19 0
3 -4 7 -10 11 -14 19 0
3 -4 7 -10 11 14 -19 0
3 -4 7 10 -11 -14 19 0
3 -4 7 10 -11 14 -19 0
3 -4 7 10 11 -14 -19 0
3 -4 7 10 11 14 19 0
3 4 -7 -10 -11 -14 -19 0
3 4 -7 -10 -11 14 19 0
3 4 -7 -10 11 -14 19 0
3 4 -7 -10 11 14 -19 0
3 4 -7 10 -11 -14 19 0
3 4 -7 10 -11 14 -19 0
3 4 -7 10 11 -14 -19 0
3 4 -7 10 11 14 19 0
3 4 7 -10 -11 -14 19 0
3 4 7 -10 -11 14 -19 0
3 4 7 -10 11 -14 -19 0
3 4 7 -10 11 14 19 0
3 4 7 10 -11 -14 -19 0
3 4 7 10 -11 14 19 0
3 4 7 10 11 -14 19 0
3 4 7 10 11 14 -19 0
5 -6 -12 -14 -16 -21 23 0
5 -6 -12 -14 -16 21 -23 0
5 -6 -12 -14 16 -21 -23 0
5 -6 -12 -14 16 21 23 0
5 -6 -12 14 -16 -21 -23 0
5 -6 -12 14 -16 21 23 0
5 -6 -12 14 16 -21 23 0
5 -6 -12 14 16 21 -23 0
5 -6 12 -14 -16 -21 -23 0
5 -6 12 -14 -16 21 23 0
5 -6 12 -14 16 -21 23 0
5 -6 12 -14 16 21 -23 0
5 -6 12 14 -16 -21 23 0
5 -6 12 14 -16 21 -23 0
5 -6 12 14 16 -21 -23 0
5 -6 12 14 16 21 23 0
5 6 -12 -14 -16 -21 -23 0
5 6 -12 -14 -16 21 23 0
5 6 -12 -14 16 -21 23 0
5 6 -12 -14 16 21 -23 0
5 6 -12 14 -16 -21 23 0
5 6 -12 14 -16 21 -23 0
5 6 -12 14 16 -21 -23 0
5 6 -12 14 16 21 23 0
5 6 12 -14 -16 -21 23 0
5 6 12 -14 -16 21 -23 0
5 6 12 -14 16 -21 -23 0
5 6 12 -14 16 21 23 0
5 6 12 14 -16 -21 -23 0
5 6 12 14 -16 21 23 0
5 6 12 14 16 -21 23 0
5 6 12 14 16 21 -23 0
7 -9 -20 -23 -25 -26 27 0
7 -9 -20 -23 -25 26 -27 0
7 -9 -20 -23 25 -26 -27 0
7 -9 -20 -23 25 26 27 0
7 -9 -20 23 -25 -26 -27 0
7 -9 -20 23 -25 26 27 0
7 -9 -20 23 25 -26 27 0
7 -9 -20 23 25 26 -27 0
7 -9 20 -23 -25 -26 -27 0
7 -9 20 -23 -25 26 27 0
7 -9 20 -23 25 -26 27 0
7 -9 20 -23 25 26 -27 0
7 -9 20 23 -25 -26 27 0
7 -9 20 23 -25 26 -27 0
7 -9 20 23 25 -26 -27 0
7 -9 20 23 25 26 27 0
7 9 -20 -23 -25 -26 -27 0
7 9 -20 -23 -25 26 27 0
7 9 -20 -23 25 -26 27 0
7 9 -20 -23 25 26 -27 0
7 9 -20 23 -25 -26 27 0
7 9 -20 23 -25 26 -27 0
7 9 -20 23 25 -26 -27 0
7 9 -20 23 25 26 27 0
7 9 20 -23 -25 -26 27 0
7 9 20 -23 -25 26 -27 0
7 9 20 -23 25 -26 -27 0
7 9 20 -23 25 26 27 0
7 9 20 23 -25 -26 -27 0
7 9 20 23 -25 26 27 0
7 9 20 23 25 -26 27 0
7 9 20 23 25 26 -27 0
8 -11 -12 -13 -17 -18 -20 0
8 -11 -12 -13 -17 18 20 0
8 -11 -12 -13 17 -18 20 0
8 -11 -12 -13 17 18 -20 0
8 -11 -12 13 -17 -18 20 0
8 -11 -12 13 -17 18 -20 0
8 -11 -12 13 17 -18 -20 0
8 -11 -12 13 17 18 20 0
8 -11 12 -13 -17 -18 20 0
8 -11 12 -13 -17 18 -20 0
8 -11 12 -13 17 -18 -20 0
8 -11 12 -13 17 18 20 0
8 -11 12 13 -17 -18 -20 0
8 -11 12 13 -17 18 20 0
8 -11 12 13 17 -18 20 0
8 -11 12 13 17 18 -20 0
8 11 -12 -13 -17 -18 20 0
8 11 -12 -13 -17 18 -20 0
8 11 -12 -13 17 -18 -20 0
8 11 -12 -13 17 18 20 0
8 11 -12 13 -17 -18 -20 0
8 11 -12 13 -17 18 20 0
8 11 -12 13 17 -18 20 0
8 11 -12 13 17 18 -20 0
8 11 12 -13 -17 -18 -20 0
8 11 12 -13 -17 18 20 0
8 11 12 -13 17 -18 20 0
8 11 12 -13 17 18 -20 0
8 11 12 13 -17 -18 20 0
8 11 12 13 -17 18 -20 0
8 11 12 13 17 -18 -20 0
8 11 12 13 17 18 20 0
