p cnf 28 512
-8 -15 -20 -25 -26 -27 -28 0
-8 -15 -20 -25 -26 27 28 0
-8 -15 -20 -25 26 -27 28 0
-8 -15 -20 -25 26 27 -28 0
-8 -15 -20 25 -26 -27 28 0
-8 -15 -20 25 -26 27 -28 0
-8 -15 -20 25 26 -27 -28 0
-8 -15 -20 25 26 27 28 0
-8 -15 20 -25 -26 -27 28 0
-8 -15 20 -25 -26 27 -28 0
-8 -15 20 -25 26 -27 -28 0
-8 -15 20 -25 26 27 28 0
-8 -15 20 25 -26 -27 -28 0
-8 -15 20 25 -26 27 28 0
-8 -15 20 25 26 -27 28 0
-8 -15 20 25 26 27 -28 0
-8 15 -20 -25 -26 -27 28 0
-8 15 -20 -25 -26 27 -28 0
-8 15 -20 -25 26 -27 -28 0
-8 15 -20 -25 26 27 28 0
-8 15 -20 25 -26 -27 -28 0
-8 15 -20 25 -26 27 28 0
-8 15 -20 25 26 -27 28 0
-8 15 -20 25 26 27 -28 0
-8 15 20 -25 -26 -27 -28 0
-8 15 20 -25 -26 27 28 0
-8 15 20 -25 26 -27 28 0
-8 15 20 -25 26 27 -28 0
-8 15 20 25 -26 -27 28 0
-8 15 20 25 -26 27 -28 0
-8 15 20 25 26 -27 -28 0
-8 15 20 25 26 27 28 0
-6 -13 -14 -16 -22 -24 -26 0
-6 -13 -14 -16 -22 24 26 0
-6 -13 -14 -16 22 -24 26 0
-6 -13 -14 -16 22 24 -26 0
-6 -13 -14 16 -22 -24 26 0
-6 -13 -14 16 -22 24 -26 0
-6 -13 -14 16 22 -24 -26 0
-6 -13 -14 16 22 24 26 0
-6 -13 14 -16 -22 -24 26 0
-6 -13 14 -16 -22 24 -26 0
-6 -13 14 -16 22 -24 -26 0
-6 -13 14 -16 22 24 26 0
-6 -13 14 16 -22 -24 -26 0
-6 -13 14 16 -22 24 26 0
-6 -13 14 16 22 -24 26 0
-6 -13 14 16 22 24 -26 0
-6 13 -14 -16 -22 -24 26 0
-6 13 -14 -16 -22 24 -26 0
-6 13 -14 -16 22 -24 -26 0
-6 13 -14 -16 22 24 26 0
-6 13 -14 16 -22 -24 -26 0
-6 13 -14 16 -22 24 26 0
-6 13 -14 16 22 -24 26 0
-6 13 -14 16 22 24 -26 0
-6 13 14 -16 -22 -24 -26 0
-6 13 14 -16 -22 24 26 0
-6 13 14 -16 22 -24 26 0
-6 13 14 -16 22 24 -26 0
-6 13 14 16 -22 -24 26 0
-6 13 14 16 -22 24 -26 0
-6 13 14 16 22 -24 -26 0
-6 13 14 16 22 24 26 0
-5 -7 -11 -14 -17 -23 -25 0
-5 -7 -11 -14 -17 23 25 0
-5 -7 -11 -14 17 -23 25 0
-5 -7 -11 -14 17 23 -25 0
-5 -7 -11 14 -17 -23 25 0
-5 -7 -11 14 -17 23 -25 0
-5 -7 -11 14 17 -23 -25 0
-5 -7 -11 14 17 23 25 0
-5 -7 11 -14 -17 -23 25 0
-5 -7 11 -14 -17 23 -25 0
-5 -7 11 -14 17 -23 -25 0
-5 -7 11 -14 17 23 25 0
-5 -7 11 14 -17 -23 -25 0
-5 -7 11 14 -17 23 25 0
-5 -7 11 14 17 -23 25 0
-5 -7 11 14 17 23 -25 0
-5 7 -11 -14 -17 -23 25 0
-5 7 -11 -14 -17 23 -25 0
-5 7 -11 -14 17 -23 -25 0
-5 7 -11 -14 17 23 25 0
-5 7 -11 14 -17 -23 -25 0
-5 7 -11 14 -17 23 25 0
-5 7 -11 14 17 -23 25 0
-5 7 -11 14 17 23 -25 0
-5 7 11 -14 -17 -23 -25 0
-5 7 11 -14 -17 23 25 0
-5 7 11 -14 17 -23 25 0
-5 7 11 -14 17 23 -25 0
-5 7 11 14 -17 -23 25 0
-5 7 11 14 -17 23 -25 0
-5 7 11 14 17 -23 -25 0
-5 7 11 14 17 23 25 0
-3 -4 -9 -16 -19 -23 -28 0
-3 -4 -9 -16 -19 23 28 0
-3 -4 -9 -16 19 -23 28 0
-3 -4 -9 -16 19 23 -28 0
-3 -4 -9 16 -19 -23 28 0
-3 -4 -9 16 -19 23 -28 0
-3 -4 -9 16 19 -23 -28 0
-3 -4 -9 16 19 23 28 0
-3 -4 9 -16 -19 -23 28 0
-3 -4 9 -16 -19 23 -28 0
-3 -4 9 -16 19 -23 -28 0
-3 -4 9 -16 19 23 28 0
-3 -4 9 16 -19 -23 -28 0
-3 -4 9 16 -19 23 28 0
-3 -4 9 16 19 -23 28 0
-3 -4 9 16 19 23 -28 0
-3 4 -9 -16 -19 -23 28 0
-3 4 -9 -16 -19 23 -28 0
-3 4 -9 -16 19 -23 -28 0
-3 4 -9 -16 19 23 28 0
-3 4 -9 16 -19 -23 -28 0
-3 4 -9 16 -19 23 28 0
-3 4 -9 16 19 -23 28 0
-3 4 -9 16 19 23 -28 0
-3 4 9 -16 -19 -23 -28 0
-3 4 9 -16 -19 23 28 0
-3 4 9 -16 19 -23 28 0
-3 4 9 -16 19 23 -28 0
-3 4 9 16 -19 -23 28 0
-3 4 9 16 -19 23 -28 0
-3 4 9 16 19 -23 -28 0
-3 4 9 16 19 23 28 0
-2 -6 -7 -10 -12 -15 -19 0
-2 -6 -7 -10 -12 15 19 0
-2 -6 -7 -10 12 -15 19 0
-2 -6 -7 -10 12 15 -19 0
-2 -6 -7 10 -12 -15 19 0
-2 -6 -7 10 -12 15 -19 0
-2 -6 -7 10 12 -15 -19 0
-2 -6 -7 10 12 15 19 0
-2 -6 7 -10 -12 -15 19 0
-2 -6 7 -10 -12 15 -19 0
-2 -6 7 -10 12 -15 -19 0
-2 -6 7 -10 12 15 19 0
-2 -6 7 10 -12 -15 -19 0
-2 -6 7 10 -12 15 19 0
-2 -6 7 10 12 -15 19 0
-2 -6 7 10 12 15 -19 0
-2 -3 -5 -8 -18 -21 -22 0
-2 -3 -5 -8 -18 21 22 0
-2 -3 -5 -8 18 -21 22 0
-2 -3 -5 -8 18 21 -22 0
-2 -3 -5 8 -18 -21 22 0
-2 -3 -5 8 -18 21 -22 0
-2 -3 -5 8 18 -21 -22 0
-2 -3 -5 8 18 21 22 0
-2 -3 5 -8 -18 -21 22 0
-2 -3 5 -8 -18 21 -22 0
-2 -3 5 -8 18 -21 -22 0
-2 -3 5 -8 18 21 22 0
-2 -3 5 8 -18 -21 -22 0
-2 -3 5 8 -18 21 22 0
-2 -3 5 8 18 -21 22 0
-2 -3 5 8 18 21 -22 0
-2 3 -5 -8 -18 -21 22 0
-2 3 -5 -8 -18 21 -22 0
-2 3 -5 -8 18 -21 -22 0
-2 3 -5 -8 18 21 22 0
-2 3 -5 8 -18 -21 -22 0
-2 3 -5 8 -18 21 22 0
-2 3 -5 8 18 -21 22 0
-2 3 -5 8 18 21 -22 0
-2 3 5 -8 -18 -21 -22 0
-2 3 5 -8 -18 21 22 0
-2 3 5 -8 18 -21 22 0
-2 3 5 -8 18 21 -22 0
-2 3 5 8 -18 -21 22 0
-2 3 5 8 -18 21 -22 0
-2 3 5 8 18 -21 -22 0
-2 3 5 8 18 21 22 0
-2 6 -7 -10 -12 -15 19 0
-2 6 -7 -10 -12 15 -19 0
-2 6 -7 -10 12 -15 -19 0
-2 6 -7 -10 12 15 19 0
-2 6 -7 10 -12 -15 -19 0
-2 6 -7 10 -12 15 19 0
-2 6 -7 10 12 -15 19 0
-2 6 -7 10 12 15 -19 0
-2 6 7 -10 -12 -15 -19 0
-2 6 7 -10 -12 15 19 0
-2 6 7 -10 12 -15 19 0
-2 6 7 -10 12 15 -19 0
-2 6 7 10 -12 -15 19 0
-2 6 7 10 -12 15 -19 0
-2 6 7 10 12 -15 -19 0
-2 6 7 10 12 15 19 0
-1 -9 -10 -17 -18 -20 -24 0
-1 -9 -10 -17 -18 20 24 0
-1 -9 -10 -17 18 -20 24 0
-1 -9 -10 -17 18 20 -24 0
-1 -9 -10 17 -18 -20 24 0
-1 -9 -10 17 -18 20 -24 0
-1 -9 -10 17 18 -20 -24 0
-1 -9 -10 17 18 20 24 0
-1 -9 10 -17 -18 -20 24 0
-1 -9 10 -17 -18 20 -24 0
-1 -9 10 -17 18 -20 -24 0
-1 -9 10 -17 18 20 24 0
-1 -9 10 17 -18 -20 -24 0
-1 -9 10 17 -18 20 24 0
-1 -9 10 17 18 -20 24 0
-1 -9 10 17 18 20 -24 0
-1 -4 -11 -12 -13 -21 27 0
-1 -4 -11 -12 -13 21 -27 0
-1 -4 -11 -12 13 -21 -27 0
-1 -4 -11 -12 13 21 27 0
-1 -4 -11 12 -13 -21 -27 0
-1 -4 -11 12 -13 21 27 0
-1 -4 -11 12 13 -21 27 0
-1 -4 -11 12 13 21 -27 0
-1 -4 11 -12 -13 -21 -27 0
-1 -4 11 -12 -13 21 27 0
-1 -4 11 -12 13 -21 27 0
-1 -4 11 -12 13 21 -27 0
-1 -4 11 12 -13 -21 27 0
-1 -4 11 12 -13 21 -27 0
-1 -4 11 12 13 -21 -27 0
-1 -4 11 12 13 21 27 0
-1 4 -11 -12 -13 -21 -27 0
-1 4 -11 -12 -13 21 27 0
-1 4 -11 -12 13 -21 27 0
-1 4 -11 -12 13 21 -27 0
-1 4 -11 12 -13 -21 27 0
-1 4 -11 12 -13 21 -27 0
-1 4 -11 12 13 -21 -27 0
-1 4 -11 12 13 21 27 0
-1 4 11 -12 -13 -21 27 0
-1 4 11 -12 -13 21 -27 0
-1 4 11 -12 13 -21 -27 0
-1 4 11 -12 13 21 27 0
-1 4 11 12 -13 -21 -27 0
-1 4 11 12 -13 21 27 0
-1 4 11 12 13 -21 27 0
-1 4 11 12 13 21 -27 0
-1 9 -10 -17 -18 -20 24 0
-1 9 -10 -17 -18 20 -24 0
-1 9 -10 -17 18 -20 -24 0
-1 9 -10 -17 18 20 24 0
-1 9 -10 17 -18 -20 -24 0
-1 9 -10 17 -18 20 24 0
-1 9 -10 17 18 -20 24 0
-1 9 -10 17 18 20 -24 0
-1 9 10 -17 -18 -20 -24 0
-1 9 10 -17 -18 20 24 0
-1 9 10 -17 18 -20 24 0
-1 9 10 -17 18 20 -24 0
-1 9 10 17 -18 -20 24 0
-1 9 10 17 -18 20 -24 0
-1 9 10 17 18 -20 -24 0
-1 9 10 17 18 20 24 0
1 -9 -10 -17 -18 -20 24 0
1 -9 -10 -17 -18 20 -24 0
1 -9 -10 -17 18 -20 -24 0
1 -9 -10 -17 18 20 24 0
1 -9 -10 17 -18 -20 -24 0
1 -9 -10 17 -18 20 24 0
1 -9 -10 17 18 -20 24 0
1 -9 -10 17 18 20 -24 0
1 -9 10 -17 -18 -20 -24 0
1 -9 10 -17 -18 20 24 0
1 -9 10 -17 18 -20 24 0
1 -9 10 -17 18 20 -24 0
1 -9 10 17 -18 -20 24 0
1 -9 10 17 -18 20 -24 0
1 -9 10 17 18 -20 -24 0
1 -9 10 17 18 20 24 0
1 -4 -11 -12 -13 -21 -27 0
1 -4 -11 -12 -13 21 27 0
1 -4 -11 -12 13 -21 27 0
1 -4 -11 -12 13 21 -27 0
1 -4 -11 12 -13 -21 27 0
1 -4 -11 12 -13 21 -27 0
1 -4 -11 12 13 -21 -27 0
1 -4 -11 12 13 21 27 0
1 -4 11 -12 -13 -21 27 0
1 -4 11 -12 -13 21 -27 0
1 -4 11 -12 13 -21 -27 0
1 -4 11 -12 13 21 27 0
1 -4 11 12 -13 -21 -27 0
1 -4 11 12 -13 21 27 0
1 -4 11 12 13 -21 27 0
1 -4 11 12 13 21 -27 0
1 4 -11 -12 -13 -21 27 0
1 4 -11 -12 -13 21 -27 0
1 4 -11 -12 13 -21 -27 0
1 4 -11 -12 13 21 27 0
1 4 -11 12 -13 -21 -27 0
1 4 -11 12 -13 21 27 0
1 4 -11 12 13 -21 27 0
1 4 -11 12 13 21 -27 0
1 4 11 -12 -13 -21 -27 0
1 4 11 -12 -13 21 27 0
1 4 11 -12 13 -21 27 0
1 4 11 -12 13 21 -27 0
1 4 11 12 -13 -21 27 0
1 4 11 12 -13 21 -27 0
1 4 11 12 13 -21 -27 0
1 4 11 12 13 21 27 0
1 9 -10 -17 -18 -20 -24 0
1 9 -10 -17 -18 20 24 0
1 9 -10 -17 18 -20 24 0
1 9 -10 -17 18 20 -24 0
1 9 -10 17 -18 -20 24 0
1 9 -10 17 -18 20 -24 0
1 9 -10 17 18 -20 -24 0
1 9 -10 17 18 20 24 0
1 9 10 -17 -18 -20 24 0
1 9 10 -17 -18 20 -24 0
1 9 10 -17 18 -20 -24 0
1 9 10 -17 18 20 24 0
1 9 10 17 -18 -20 -24 0
1 9 10 17 -18 20 24 0
1 9 10 17 18 -20 24 0
1 9 10 17 18 20 -24 0
2 -6 -7 -10 -12 -15 19 0
2 -6 -7 -10 -12 15 -19 0
2 -6 -7 -10 12 -15 -19 0
2 -6 -7 -10 12 15 19 0
2 -6 -7 10 -12 -15 -19 0
2 -6 -7 10 -12 15 19 0
2 -6 -7 10 12 -15 19 0
2 -6 -7 10 12 15 -19 0
2 -6 7 -10 -12 -15 -19 0
2 -6 7 -10 -12 15 19 0
2 -6 7 -10 12 -15 19 0
2 -6 7 -10 12 15 -19 0
2 -6 7 10 -12 -15 19 0
2 -6 7 10 -12 15 -19 0
2 -6 7 10 12 -15 -19 0
2 -6 7 10 12 15 19 0
2 -3 -5 -8 -18 -21 22 0
2 -3 -5 -8 -18 21 -22 0
2 -3 -5 -8 18 -21 -22 0
2 -3 -5 -8 18 21 22 0
2 -3 -5 8 -18 -21 -22 0
2 -3 -5 8 -18 21 22 0
2 -3 -5 8 18 -21 22 0
2 -3 -5 8 18 21 -22 0
2 -3 5 -8 -18 -21 -22 0
2 -3 5 -8 -18 21 22 0
2 -3 5 -8 18 -21 22 0
2 -3 5 -8 18 21 -22 0
2 -3 5 8 -18 -21 22 0
2 -3 5 8 -18 21 -22 0
2 -3 5 8 18 -21 -22 0
2 -3 5 8 18 21 22 0
2 3 -5 -8 -18 -21 -22 0
2 3 -5 -8 -18 21 22 0
2 3 -5 -8 18 -21 22 0
2 3 -5 -8 18 21 -22 0
2 3 -5 8 -18 -21 22 0
2 3 -5 8 -18 21 -22 0
2 3 -5 8 18 -21 -22 0
2 3 -5 8 18 21 22 0
2 3 5 -8 -18 -21 22 0
2 3 5 -8 -18 21 -22 0
2 3 5 -8 18 -21 -22 0
2 3 5 -8 18 21 22 0
2 3 5 8 -18 -21 -22 0
2 3 5 8 -18 21 22 0
2 3 5 8 18 -21 22 0
2 3 5 8 18 21 -22 0
2 6 -7 -10 -12 -15 -19 0
2 6 -7 -10 -12 15 19 0
2 6 -7 -10 12 -15 19 0
2 6 -7 -10 12 15 -19 0
2 6 -7 10 -12 -15 19 0
2 6 -7 10 -12 15 -19 0
2 6 -7 10 12 -15 -19 0
2 6 -7 10 12 15 19 0
2 6 7 -10 -12 -15 19 0
2 6 7 -10 -12 15 -19 0
2 6 7 -10 12 -15 -19 0
2 6 7 -10 12 15 19 0
2 6 7 10 -12 -15 -19 0
2 6 7 10 -12 15 19 0
2 6 7 10 12 -15 19 0
2 6 7 10 12 15 -19 0
3 -4 -9 -16 -19 -23 28 0
3 -4 -9 -16 -19 23 -28 0
3 -4 -9 -16 19 -23 -28 0
3 -4 -9 -16 19 23 28 0
3 -4 -9 16 -19 -23 -28 0
3 -4 -9 16 -19 23 28 0
3 -4 -9 16 19 -23 28 0
3 -4 -9 16 19 23 -28 0
3 -4 9 -16 -19 -23 -28 0
3 -4 9 -16 -19 23 28 0
3 -4 9 -16 19 -23 28 0
3 -4 9 -16 19 23 -28 0
3 -4 9 16 -19 -23 28 0
3 -4 9 16 -19 23 -28 0
3 -4 9 16 19 -23 -28 0
3 -4 9 16 19 23 28 0
3 4 -9 -16 -19 -23 -28 0
3 4 -9 -16 -19 23 28 0
3 4 -9 -16 19 -23 28 0
3 4 -9 -16 19 23 -28 0
3 4 -9 16 -19 -23 28 0
3 4 -9 16 -19 23 -28 0
3 4 -9 16 19 -23 -28 0
3 4 -9 16 19 23 28 0
3 4 9 -16 -19 -23 28 0
3 4 9 -16 -19 23 -28 0
3 4 9 -16 19 -23 -28 0
3 4 9 -16 19 23 28 0
3 4 9 16 -19 -23 -28 0
3 4 9 16 -19 23 28 0
3 4 9 16 19 -23 28 0
3 4 9 16 19 23 -28 0
5 -7 -11 -14 -17 -23 25 0
5 -7 -11 -14 -17 23 -25 0
5 -7 -11 -14 17 -23 -25 0
5 -7 -11 -14 17 23 25 0
5 -7 -11 14 -17 -23 -25 0
5 -7 -11 14 -17 23 25 0
5 -7 -11 14 17 -23 25 0
5 -7 -11 14 17 23 -25 0
5 -7 11 -14 -17 -23 -25 0
5 -7 11 -14 -17 23 25 0
5 -7 11 -14 17 -23 25 0
5 -7 11 -14 17 23 -25 0
5 -7 11 14 -17 -23 25 0
5 -7 11 14 -17 23 -25 0
5 -7 11 14 17 -23 -25 0
5 -7 11 14 17 23 25 0
5 7 -11 -14 -17 -23 -25 0
5 7 -11 -14 -17 23 25 0
5 7 -11 -14 17 -23 25 0
5 7 -11 -14 17 23 -25 0
5 7 -11 14 -17 -23 25 0
5 7 -11 14 -17 23 -25 0
5 7 -11 14 17 -23 -25 0
5 7 -11 14 17 23 25 0
5 7 11 -14 -17 -23 25 0
5 7 11 -14 -17 23 -25 0
5 7 11 -14 17 -23 -25 0
5 7 11 -14 17 23 25 0
5 7 11 14 -17 -23 -25 0
5 7 11 14 -17 23 25 0
5 7 11 14 17 -23 25 0
5 7 11 14 17 23 -25 0
6 -13 -14 -16 -22 -24 26 0
6 -13 -14 -16 -22 24 -26 0
6 -13 -14 -16 22 -24 -26 0
6 -13 -14 -16 22 24 26 0
6 -13 -14 16 -22 -24 -26 0
6 -13 -14 16 -22 24 26 0
6 -13 -14 16 22 -24 26 0
6 -13 -14 16 22 24 -26 0
6 -13 14 -16 -22 -24 -26 0
6 -13 14 -16 -22 24 26 0
6 -13 14 -16 22 -24 26 0
6 -13 14 -16 22 24 -26 0
6 -13 14 16 -22 -24 26 0
6 -13 14 16 -22 24 -26 0
6 -13 14 16 22 -24 -26 0
6 -13 14 16 22 24 26 0
6 13 -14 -16 -22 -24 -26 0
6 13 -14 -16 -22 24 26 0
6 13 -14 -16 22 -24 26 0
6 13 -14 -16 22 24 -26 0
6 13 -14 16 -22 -24 26 0
6 13 -14 16 -22 24 -26 0
6 13 -14 16 22 -24 -26 0
6 13 -14 16 22 24 26 0
6 13 14 -16 -22 -24 26 0
6 13 14 -16 -22 24 -26 0
6 13 14 -16 22 -24 -26 0
6 13 14 -16 22 24 26 0
6 13 14 16 -22 -24 -26 0
6 13 14 16 -22 24 26 0
6 13 14 16 22 -24 26 0
6 13 14 16 22 24 -26 0
8 -15 -20 -25 -26 -27 28 0
8 -15 -20 -25 -26 27 -28 0
8 -15 -20 -25 26 -27 -28 0
8 -15 -20 -25 26 27 28 0
8 -15 -20 25 -26 -27 -28 0
8 -15 -20 25 -26 27 28 0
8 -15 -20 25 26 -27 28 0
8 -15 -20 25 26 27 -28 0
8 -15 20 -25 -26 -27 -28 0
8 -15 20 -25 -26 27 28 0
8 -15 20 -25 26 -27 28 0
8 -15 20 -25 26 27 -28 0
8 -15 20 25 -26 -27 28 0
8 -15 20 25 -26 27 -28 0
8 -15 20 25 26 -27 -28 0
8 -15 20 25 26 27 28 0
8 15 -20 -25 -26 -27 -28 0
8 15 -20 -25 -26 27 28 0
8 15 -20 -25 26 -27 28 0
8 15 -20 -25 26 27 -28 0
8 15 -20 25 -26 -27 28 0
8 15 -20 25 -26 27 -28 0
8 15 -20 25 26 -27 -28 0
8 15 -20 25 26 27 28 0
8 15 20 -25 -26 -27 28 0
8 15 20 -25 -26 27 -28 0
8 15 20 -25 26 -27 -28 0
8 15 20 -25 26 27 28 0
8 15 20 25 -26 -27 -28 0
8 15 20 25 -26 27 28 0
8 15 20 25 26 -27 28 0
8 15 20 25 26 27 -28 0
