p cnf 15 96
-4 -6 -7 -10 -12 0
-4 -6 -7 10 12 0
-4 -6 7 -10 12 0
-4 -6 7 10 -12 0
-4 -5 -8 -14 -15 0
-4 -5 -8 14 15 0
-4 -5 8 -14 15 0
-4 -5 8 14 -15 0
-4 5 -8 -14 15 0
-4 5 -8 14 -15 0
-4 5 8 -14 -15 0
-4 5 8 14 15 0
-4 6 -7 -10 12 0
-4 6 -7 10 -12 0
-4 6 7 -10 -12 0
-4 6 7 10 12 0
-3 -5 -6 -9 -11 0
-3 -5 -6 9 11 0
-3 -5 6 -9 11 0
-3 -5 6 9 -11 0
-3 5 -6 -9 11 0
-3 5 -6 9 -11 0
-3 5 6 -9 -11 0
-3 5 6 9 11 0
-2 -3 -12 -13 -14 0
-2 -3 -12 13 14 0
-2 -3 12 -13 14 0
-2 -3 12 13 -14 0
-2 3 -12 -13 14 0
-2 3 -12 13 -14 0
-2 3 12 -13 -14 0
-2 3 12 13 14 0
-1 -10 -11 -13 -15 0
-1 -10 -11 13 15 0
-1 -10 11 -13 15 0
-1 -10 11 13 -15 0
-1 -2 -7 -8 -9 0
-1 -2 -7 8 9 0
-1 -2 7 -8 9 0
-1 -2 7 8 -9 0
-1 2 -7 -8 9 0
-1 2 -7 8 -9 0
-1 2 7 -8 -9 0
-1 2 7 8 9 0
-1 10 -11 -13 15 0
-1 10 -11 13 -15 0
-1 10 11 -13 -15 0
-1 10 11 13 15 0
1 -10 -11 -13 15 0
1 -10 -11 13 -15 0
1 -10 11 -13 -15 0
1 -10 11 13 15 0
1 -2 -7 -8 9 0
1 -2 -7 8 -9 0
1 -2 7 -8 -9 0
1 -2 7 8 9 0
1 2 -7 -8 -9 0
1 2 -7 8 9 0
1 2 7 -8 9 0
1 2 7 8 -9 0
1 10 -11 -13 -15 0
1 10 -11 13 15 0
1 10 11 -13 15 0
1 10 11 13 -15 0
2 -3 -12 -13 14 0
2 -3 -12 13 -14 0
2 -3 12 -13 -14 0
2 -3 12 13 14 0
2 3 -12 -13 -14 0
2 3 -12 13 14 0
2 3 12 -13 14 0
2 3 12 13 -14 0
3 -5 -6 -9 11 0
3 -5 -6 9 -11 0
3 -5 6 -9 -11 0
3 -5 6 9 11 0
3 5 -6 -9 -11 0
3 5 -6 9 11 0
3 5 6 -9 11 0
3 5 6 9 -11 0
4 -6 -7 -10 12 0
4 -6 -7 10 -12 0
4 -6 7 -10 -12 0
4 -6 7 10 12 0
4 -5 -8 -14 15 0
4 -5 -8 14 -15 0
4 -5 8 -14 -15 0
4 -5 8 14 15 0
4 5 -8 -14 -15 0
4 5 -8 14 15 0
4 5 8 -14 15 0
4 5 8 14 -15 0
4 6 -7 -10 -12 0
4 6 -7 10 12 0
4 6 7 -10 12 0
4 6 7 10 -12 0
