p cnf 21 224
-11 -14 -17 -18 -19 20 0
-11 -14 -17 -18 19 -20 0
-11 -14 -17 18 -19 -20 0
-11 -14 -17 18 19 20 0
-11 -14 17 -18 -19 -20 0
-11 -14 17 -18 19 20 0
-11 -14 17 18 -19 20 0
-11 -14 17 18 19 -20 0
-11 14 -17 -18 -19 -20 0
-11 14 -17 -18 19 20 0
-11 14 -17 18 -19 20 0
-11 14 -17 18 19 -20 0
-11 14 17 -18 -19 20 0
-11 14 17 -18 19 -20 0
-11 14 17 18 -19 -20 0
-11 14 17 18 19 20 0
-4 -5 -7 -16 -20 21 0
-4 -5 -7 -16 20 -21 0
-4 -5 -7 16 -20 -21 0
-4 -5 -7 16 20 21 0
-4 -5 7 -16 -20 -21 0
-4 -5 7 -16 20 21 0
-4 -5 7 16 -20 21 0
-4 -5 7 16 20 -21 0
-4 5 -7 -16 -20 -21 0
-4 5 -7 -16 20 21 0
-4 5 -7 16 -20 21 0
-4 5 -7 16 20 -21 0
-4 5 7 -16 -20 21 0
-4 5 7 -16 20 -21 0
-4 5 7 16 -20 -21 0
-4 5 7 16 20 21 0
-3 -5 -8 -9 -13 18 0
-3 -5 -8 -9 13 -18 0
-3 -5 -8 9 -13 -18 0
-3 -5 -8 9 13 18 0
-3 -5 8 -9 -13 -18 0
-3 -5 8 -9 13 18 0
-3 -5 8 9 -13 18 0
-3 -5 8 9 13 -18 0
-3 5 -8 -9 -13 -18 0
-3 5 -8 -9 13 18 0
-3 5 -8 9 -13 18 0
-3 5 -8 9 13 -18 0
-3 5 8 -9 -13 18 0
-3 5 8 -9 13 -18 0
-3 5 8 9 -13 -18 0
-3 5 8 9 13 18 0
-2 -7 -8 -10 -15 17 0
-2 -7 -8 -10 15 -17 0
-2 -7 -8 10 -15 -17 0
-2 -7 -8 10 15 17 0
-2 -7 8 -10 -15 -17 0
-2 -7 8 -10 15 17 0
-2 -7 8 10 -15 17 0
-2 -7 8 10 15 -17 0
-2 -3 -6 -12 -14 21 0
-2 -3 -6 -12 14 -21 0
-2 -3 -6 12 -14 -21 0
-2 -3 -6 12 14 21 0
-2 -3 6 -12 -14 -21 0
-2 -3 6 -12 14 21 0
-2 -3 6 12 -14 21 0
-2 -3 6 12 14 -21 0
-2 3 -6 -12 -14 -21 0
-2 3 -6 -12 14 21 0
-2 3 -6 12 -14 21 0
-2 3 -6 12 14 -21 0
-2 3 6 -12 -14 21 0
-2 3 6 -12 14 -21 0
-2 3 6 12 -14 -21 0
-2 3 6 12 14 21 0
-2 7 -8 -10 -15 -17 0
-2 7 -8 -10 15 17 0
-2 7 -8 10 -15 17 0
-2 7 -8 10 15 -17 0
-2 7 8 -10 -15 17 0
-2 7 8 -10 15 -17 0
-2 7 8 10 -15 -17 0
-2 7 8 10 15 17 0
-1 -6 -9 -15 -16 19 0
-1 -6 -9 -15 16 -19 0
-1 -6 -9 15 -16 -19 0
-1 -6 -9 15 16 19 0
-1 -6 9 -15 -16 -19 0
-1 -6 9 -15 16 19 0
-1 -6 9 15 -16 19 0
-1 -6 9 15 16 -19 0
-1 -4 -10 -11 -12 13 0
-1 -4 -10 -11 12 -13 0
-1 -4 -10 11 -12 -13 0
-1 -4 -10 11 12 13 0
-1 -4 10 -11 -12 -13 0
-1 -4 10 -11 12 13 0
-1 -4 10 11 -12 13 0
-1 -4 10 11 12 -13 0
-1 4 -10 -11 -12 -13 0
-1 4 -10 -11 12 13 0
-1 4 -10 11 -12 13 0
-1 4 -10 11 12 -13 0
-1 4 10 -11 -12 13 0
-1 4 10 -11 12 -13 0
-1 4 10 11 -12 -13 0
-1 4 10 11 12 13 0
-1 6 -9 -15 -16 -19 0
-1 6 -9 -15 16 19 0
-1 6 -9 15 -16 19 0
-1 6 -9 15 16 -19 0
-1 6 9 -15 -16 19 0
-1 6 9 -15 16 -19 0
-1 6 9 15 -16 -19 0
-1 6 9 15 16 19 0
1 -6 -9 -15 -16 -19 0
1 -6 -9 -15 16 19 0
1 -6 -9 15 -16 19 0
1 -6 -9 15 16 -19 0
1 -6 9 -15 -16 19 0
1 -6 9 -15 16 -19 0
1 -6 9 15 -16 -19 0
1 -6 9 15 16 19 0
1 -4 -10 -11 -12 -13 0
1 -4 -10 -11 12 13 0
1 -4 -10 11 -12 13 0
1 -4 -10 11 12 -13 0
1 -4 10 -11 -12 13 0
1 -4 10 -11 12 -13 0
1 -4 10 11 -12 -13 0
1 -4 10 11 12 13 0
1 4 -10 -11 -12 13 0
1 4 -10 -11 12 -13 0
1 4 -10 11 -12 -13 0
1 4 -10 11 12 13 0
1 4 10 -11 -12 -13 0
1 4 10 -11 12 13 0
1 4 10 11 -12 13 0
1 4 10 11 12 -13 0
1 6 -9 -15 -16 19 0
1 6 -9 -15 16 -19 0
1 6 -9 15 -16 -19 0
1 6 -9 15 16 19 0
1 6 9 -15 -16 -19 0
1 6 9 -15 16 19 0
1 6 9 15 -16 19 0
1 6 9 15 16 -19 0
2 -7 -8 -10 -15 -17 0
2 -7 -8 -10 15 17 0
2 -7 -8 10 -15 17 0
2 -7 -8 10 15 -17 0
2 -7 8 -10 -15 17 0
2 -7 8 -10 15 -17 0
2 -7 8 10 -15 -17 0
2 -7 8 10 15 17 0
2 -3 -6 -12 -14 -21 0
2 -3 -6 -12 14 21 0
2 -3 -6 12 -14 21 0
2 -3 -6 12 14 -21 0
2 -3 6 -12 -14 21 0
2 -3 6 -12 14 -21 0
2 -3 6 12 -14 -21 0
2 -3 6 12 14 21 0
2 3 -6 -12 -14 21 0
2 3 -6 -12 14 -21 0
2 3 -6 12 -14 -21 0
2 3 -6 12 14 21 0
2 3 6 -12 -14 -21 0
2 3 6 -12 14 21 0
2 3 6 12 -14 21 0
2 3 6 12 14 -21 0
2 7 -8 -10 -15 17 0
2 7 -8 -10 15 -17 0
2 7 -8 10 -15 -17 0
2 7 -8 10 15 17 0
2 7 8 -10 -15 -17 0
2 7 8 -10 15 17 0
2 7 8 10 -15 17 0
2 7 8 10 15 -17 0
3 -5 -8 -9 -13 -18 0
3 -5 -8 -9 13 18 0
3 -5 -8 9 -13 18 0
3 -5 -8 9 13 -18 0
3 -5 8 -9 -13 18 0
3 -5 8 -9 13 -18 0
3 -5 8 9 -13 -18 0
3 -5 8 9 13 18 0
3 5 -8 -9 -13 18 0
3 5 -8 -9 13 -18 0
3 5 -8 9 -13 -18 0
3 5 -8 9 13 18 0
3 5 8 -9 -13 -18 0
3 5 8 -9 13 18 0
3 5 8 9 -13 18 0
3 5 8 9 13 -18 0
4 -5 -7 -16 -20 -21 0
4 -5 -7 -16 20 21 0
4 -5 -7 16 -20 21 0
4 -5 -7 16 20 -21 0
4 -5 7 -16 -20 21 0
4 -5 7 -16 20 -21 0
4 -5 7 16 -20 -21 0
4 -5 7 16 20 21 0
4 5 -7 -16 -20 21 0
4 5 -7 -16 20 -21 0
4 5 -7 16 -20 -21 0
4 5 -7 16 20 21 0
4 5 7 -16 -20 -21 0
4 5 7 -16 20 21 0
4 5 7 16 -20 21 0
4 5 7 16 20 -21 0
11 -14 -17 -18 -19 -20 0
11 -14 -17 -18 19 20 0
11 -14 -17 18 -19 20 0
11 -14 -17 18 19 -20 0
11 -14 17 -18 -19 20 0
11 -14 17 -18 19 -20 0
11 -14 17 18 -19 -20 0
11 -14 17 18 19 20 0
11 14 -17 -18 -19 20 0
11 14 -17 -18 19 -20 0
11 14 -17 18 -19 -20 0
11 14 -17 18 19 20 0
11 14 17 -18 -19 -20 0
11 14 17 -18 19 20 0
11 14 17 18 -19 20 0
11 14 17 18 19 -20 0
