p cnf 10 40
-6 -7 -8 10 0
-6 -7 8 -10 0
-6 7 -8 -10 0
-6 7 8 10 0
-3 -5 -6 9 0
-3 -5 6 -9 0
-3 5 -6 -9 0
-3 5 6 9 0
-2 -3 -4 8 0
-2 -3 4 -8 0
-2 3 -4 -8 0
-2 3 4 8 0
-1 -4 -5 10 0
-1 -4 5 -10 0
-1 -2 -7 9 0
-1 -2 7 -9 0
-1 2 -7 -9 0
-1 2 7 9 0
-1 4 -5 -10 0
-1 4 5 10 0
1 -4 -5 -10 0
1 -4 5 10 0
1 -2 -7 -9 0
1 -2 7 9 0
1 2 -7 9 0
1 2 7 -9 0
1 4 -5 10 0
1 4 5 -10 0
2 -3 -4 -8 0
2 -3 4 8 0
2 3 -4 8 0
2 3 4 -8 0
3 -5 -6 -9 0
3 -5 6 9 0
3 5 -6 9 0
3 5 6 -9 0
6 -7 -8 -10 0
6 -7 8 10 0
6 7 -8 10 0
6 7 8 -10 0
