p cnf 28 512
-6 -10 -16 -21 -22 -26 -28 0
-6 -10 -16 -21 -22 26 28 0
-6 -10 -16 -21 22 -26 28 0
-6 -10 -16 -21 22 26 -28 0
-6 -10 -16 21 -22 -26 28 0
-6 -10 -16 21 -22 26 -28 0
-6 -10 -16 21 22 -26 -28 0
-6 -10 -16 21 22 26 28 0
-6 -10 16 -21 -22 -26 28 0
-6 -10 16 -21 -22 26 -28 0
-6 -10 16 -21 22 -26 -28 0
-6 -10 16 -21 22 26 28 0
-6 -10 16 21 -22 -26 -28 0
-6 -10 16 21 -22 26 28 0
-6 -10 16 21 22 -26 28 0
-6 -10 16 21 22 26 -28 0
-6 10 -16 -21 -22 -26 28 0
-6 10 -16 -21 -22 26 -28 0
-6 10 -16 -21 22 -26 -28 0
-6 10 -16 -21 22 26 28 0
-6 10 -16 21 -22 -26 -28 0
-6 10 -16 21 -22 26 28 0
-6 10 -16 21 22 -26 28 0
-6 10 -16 21 22 26 -28 0
-6 10 16 -21 -22 -26 -28 0
-6 10 16 -21 -22 26 28 0
-6 10 16 -21 22 -26 28 0
-6 10 16 -21 22 26 -28 0
-6 10 16 21 -22 -26 28 0
-6 10 16 21 -22 26 -28 0
-6 10 16 21 22 -26 -28 0
-6 10 16 21 22 26 28 0
-4 -6 -11 -15 -17 -23 -24 0
-4 -6 -11 -15 -17 23 24 0
-4 -6 -11 -15 17 -23 24 0
-4 -6 -11 -15 17 23 -24 0
-4 -6 -11 15 -17 -23 24 0
-4 -6 -11 15 -17 23 -24 0
-4 -6 -11 15 17 -23 -24 0
-4 -6 -11 15 17 23 24 0
-4 -6 11 -15 -17 -23 24 0
-4 -6 11 -15 -17 23 -24 0
-4 -6 11 -15 17 -23 -24 0
-4 -6 11 -15 17 23 24 0
-4 -6 11 15 -17 -23 -24 0
-4 -6 11 15 -17 23 24 0
-4 -6 11 15 17 -23 24 0
-4 -6 11 15 17 23 -24 0
-4 6 -11 -15 -17 -23 24 0
-4 6 -11 -15 -17 23 -24 0
-4 6 -11 -15 17 -23 -24 0
-4 6 -11 -15 17 23 24 0
-4 6 -11 15 -17 -23 -24 0
-4 6 -11 15 -17 23 24 0
-4 6 -11 15 17 -23 24 0
-4 6 -11 15 17 23 -24 0
-4 6 11 -15 -17 -23 -24 0
-4 6 11 -15 -17 23 24 0
-4 6 11 -15 17 -23 24 0
-4 6 11 -15 17 23 -24 0
-4 6 11 15 -17 -23 24 0
-4 6 11 15 -17 23 -24 0
-4 6 11 15 17 -23 -24 0
-4 6 11 15 17 23 24 0
-3 -8 -12 -18 -24 -25 -26 0
-3 -8 -12 -18 -24 25 26 0
-3 -8 -12 -18 24 -25 26 0
-3 -8 -12 -18 24 25 -26 0
-3 -8 -12 18 -24 -25 26 0
-3 -8 -12 18 -24 25 -26 0
-3 -8 -12 18 24 -25 -26 0
-3 -8 -12 18 24 25 26 0
-3 -8 12 -18 -24 -25 26 0
-3 -8 12 -18 -24 25 -26 0
-3 -8 12 -18 24 -25 -26 0
-3 -8 12 -18 24 25 26 0
-3 -8 12 18 -24 -25 -26 0
-3 -8 12 18 -24 25 26 0
-3 -8 12 18 24 -25 26 0
-3 -8 12 18 24 25 -26 0
-3 -5 -11 -13 -19 -20 -28 0
-3 -5 -11 -13 -19 20 28 0
-3 -5 -11 -13 19 -20 28 0
-3 -5 -11 -13 19 20 -28 0
-3 -5 -11 13 -19 -20 28 0
-3 -5 -11 13 -19 20 -28 0
-3 -5 -11 13 19 -20 -28 0
-3 -5 -11 13 19 20 28 0
-3 -5 11 -13 -19 -20 28 0
-3 -5 11 -13 -19 20 -28 0
-3 -5 11 -13 19 -20 -28 0
-3 -5 11 -13 19 20 28 0
-3 -5 11 13 -19 -20 -28 0
-3 -5 11 13 -19 20 28 0
-3 -5 11 13 19 -20 28 0
-3 -5 11 13 19 20 -28 0
-3 5 -11 -13 -19 -20 28 0
-3 5 -11 -13 -19 20 -28 0
-3 5 -11 -13 19 -20 -28 0
-3 5 -11 -13 19 20 28 0
-3 5 -11 13 -19 -20 -28 0
-3 5 -11 13 -19 20 28 0
-3 5 -11 13 19 -20 28 0
-3 5 -11 13 19 20 -28 0
-3 5 11 -13 -19 -20 -28 0
-3 5 11 -13 -19 20 28 0
-3 5 11 -13 19 -20 28 0
-3 5 11 -13 19 20 -28 0
-3 5 11 13 -19 -20 28 0
-3 5 11 13 -19 20 -28 0
-3 5 11 13 19 -20 -28 0
-3 5 11 13 19 20 28 0
-3 8 -12 -18 -24 -25 26 0
-3 8 -12 -18 -24 25 -26 0
-3 8 -12 -18 24 -25 -26 0
-3 8 -12 -18 24 25 26 0
-3 8 -12 18 -24 -25 -26 0
-3 8 -12 18 -24 25 26 0
-3 8 -12 18 24 -25 26 0
-3 8 -12 18 24 25 -26 0
-3 8 12 -18 -24 -25 -26 0
-3 8 12 -18 -24 25 26 0
-3 8 12 -18 24 -25 26 0
-3 8 12 -18 24 25 -26 0
-3 8 12 18 -24 -25 26 0
-3 8 12 18 -24 25 -26 0
-3 8 12 18 24 -25 -26 0
-3 8 12 18 24 25 26 0
-2 -7 -16 -19 -23 -25 -27 0
-2 -7 -16 -19 -23 25 27 0
-2 -7 -16 -19 23 -25 27 0
-2 -7 -16 -19 23 25 -27 0
-2 -7 -16 19 -23 -25 27 0
-2 -7 -16 19 -23 25 -27 0
-2 -7 -16 19 23 -25 -27 0
-2 -7 -16 19 23 25 27 0
-2 -7 16 -19 -23 -25 27 0
-2 -7 16 -19 -23 25 -27 0
-2 -7 16 -19 23 -25 -27 0
-2 -7 16 -19 23 25 27 0
-2 -7 16 19 -23 -25 -27 0
-2 -7 16 19 -23 25 27 0
-2 -7 16 19 23 -25 27 0
-2 -7 16 19 23 25 -27 0
-2 -5 -8 -9 -14 -17 -21 0
-2 -5 -8 -9 -14 17 21 0
-2 -5 -8 -9 14 -17 21 0
-2 -5 -8 -9 14 17 -21 0
-2 -5 -8 9 -14 -17 21 0
-2 -5 -8 9 -14 17 -21 0
-2 -5 -8 9 14 -17 -21 0
-2 -5 -8 9 14 17 21 0
-2 -5 8 -9 -14 -17 21 0
-2 -5 8 -9 -14 17 -21 0
-2 -5 8 -9 14 -17 -21 0
-2 -5 8 -9 14 17 21 0
-2 -5 8 9 -14 -17 -21 0
-2 -5 8 9 -14 17 21 0
-2 -5 8 9 14 -17 21 0
-2 -5 8 9 14 17 -21 0
-2 5 -8 -9 -14 -17 21 0
-2 5 -8 -9 -14 17 -21 0
-2 5 -8 -9 14 -17 -21 0
-2 5 -8 -9 14 17 21 0
-2 5 -8 9 -14 -17 -21 0
-2 5 -8 9 -14 17 21 0
-2 5 -8 9 14 -17 21 0
-2 5 -8 9 14 17 -21 0
-2 5 8 -9 -14 -17 -21 0
-2 5 8 -9 -14 17 21 0
-2 5 8 -9 14 -17 21 0
-2 5 8 -9 14 17 -21 0
-2 5 8 9 -14 -17 21 0
-2 5 8 9 -14 17 -21 0
-2 5 8 9 14 -17 -21 0
-2 5 8 9 14 17 21 0
-2 7 -16 -19 -23 -25 27 0
-2 7 -16 -19 -23 25 -27 0
-2 7 -16 -19 23 -25 -27 0
-2 7 -16 -19 23 25 27 0
-2 7 -16 19 -23 -25 -27 0
-2 7 -16 19 -23 25 27 0
-2 7 -16 19 23 -25 27 0
-2 7 -16 19 23 25 -27 0
-2 7 16 -19 -23 -25 -27 0
-2 7 16 -19 -23 25 27 0
-2 7 16 -19 23 -25 27 0
-2 7 16 -19 23 25 -27 0
-2 7 16 19 -23 -25 27 0
-2 7 16 19 -23 25 -27 0
-2 7 16 19 23 -25 -27 0
-2 7 16 19 23 25 27 0
-1 -7 -9 -12 -15 -20 -22 0
-1 -7 -9 -12 -15 20 22 0
-1 -7 -9 -12 15 -20 22 0
-1 -7 -9 -12 15 20 -22 0
-1 -7 -9 12 -15 -20 22 0
-1 -7 -9 12 -15 20 -22 0
-1 -7 -9 12 15 -20 -22 0
-1 -7 -9 12 15 20 22 0
-1 -7 9 -12 -15 -20 22 0
-1 -7 9 -12 -15 20 -22 0
-1 -7 9 -12 15 -20 -22 0
-1 -7 9 -12 15 20 22 0
-1 -7 9 12 -15 -20 -22 0
-1 -7 9 12 -15 20 22 0
-1 -7 9 12 15 -20 22 0
-1 -7 9 12 15 20 -22 0
-1 -4 -10 -13 -14 -18 -27 0
-1 -4 -10 -13 -14 18 27 0
-1 -4 -10 -13 14 -18 27 0
-1 -4 -10 -13 14 18 -27 0
-1 -4 -10 13 -14 -18 27 0
-1 -4 -10 13 -14 18 -27 0
-1 -4 -10 13 14 -18 -27 0
-1 -4 -10 13 14 18 27 0
-1 -4 10 -13 -14 -18 27 0
-1 -4 10 -13 -14 18 -27 0
-1 -4 10 -13 14 -18 -27 0
-1 -4 10 -13 14 18 27 0
-1 -4 10 13 -14 -18 -27 0
-1 -4 10 13 -14 18 27 0
-1 -4 10 13 14 -18 27 0
-1 -4 10 13 14 18 -27 0
-1 4 -10 -13 -14 -18 27 0
-1 4 -10 -13 -14 18 -27 0
-1 4 -10 -13 14 -18 -27 0
-1 4 -10 -13 14 18 27 0
-1 4 -10 13 -14 -18 -27 0
-1 4 -10 13 -14 18 27 0
-1 4 -10 13 14 -18 27 0
-1 4 -10 13 14 18 -27 0
-1 4 10 -13 -14 -18 -27 0
-1 4 10 -13 -14 18 27 0
-1 4 10 -13 14 -18 27 0
-1 4 10 -13 14 18 -27 0
-1 4 10 13 -14 -18 27 0
-1 4 10 13 -14 18 -27 0
-1 4 10 13 14 -18 -27 0
-1 4 10 13 14 18 27 0
-1 7 -9 -12 -15 -20 22 0
-1 7 -9 -12 -15 20 -22 0
-1 7 -9 -12 15 -20 -22 0
-1 7 -9 -12 15 20 22 0
-1 7 -9 12 -15 -20 -22 0
-1 7 -9 12 -15 20 22 0
-1 7 -9 12 15 -20 22 0
-1 7 -9 12 15 20 -22 0
-1 7 9 -12 -15 -20 -22 0
-1 7 9 -12 -15 20 22 0
-1 7 9 -12 15 -20 22 0
-1 7 9 -12 15 20 -22 0
-1 7 9 12 -15 -20 22 0
-1 7 9 12 -15 20 -22 0
-1 7 9 12 15 -20 -22 0
-1 7 9 12 15 20 22 0
1 -7 -9 -12 -15 -20 22 0
1 -7 -9 -12 -15 20 -22 0
1 -7 -9 -12 15 -20 -22 0
1 -7 -9 -12 15 20 22 0
1 -7 -9 12 -15 -20 -22 0
1 -7 -9 12 -15 20 22 0
1 -7 -9 12 15 -20 22 0
1 -7 -9 12 15 20 -22 0
1 -7 9 -12 -15 -20 -22 0
1 -7 9 -12 -15 20 22 0
1 -7 9 -12 15 -20 22 0
1 -7 9 -12 15 20 -22 0
1 -7 9 12 -15 -20 22 0
1 -7 9 12 -15 20 -22 0
1 -7 9 12 15 -20 -22 0
1 -7 9 12 15 20 22 0
1 -4 -10 -13 -14 -18 27 0
1 -4 -10 -13 -14 18 -27 0
1 -4 -10 -13 14 -18 -27 0
1 -4 -10 -13 14 18 27 0
1 -4 -10 13 -14 -18 -27 0
1 -4 -10 13 -14 18 27 0
1 -4 -10 13 14 -18 27 0
1 -4 -10 13 14 18 -27 0
1 -4 10 -13 -14 -18 -27 0
1 -4 10 -13 -14 18 27 0
1 -4 10 -13 14 -18 27 0
1 -4 10 -13 14 18 -27 0
1 -4 10 13 -14 -18 27 0
1 -4 10 13 -14 18 -27 0
1 -4 10 13 14 -18 -27 0
1 -4 10 13 14 18 27 0
1 4 -10 -13 -14 -18 -27 0
1 4 -10 -13 -14 18 27 0
1 4 -10 -13 14 -18 27 0
1 4 -10 -13 14 18 -27 0
1 4 -10 13 -14 -18 27 0
1 4 -10 13 -14 18 -27 0
1 4 -10 13 14 -18 -27 0
1 4 -10 13 14 18 27 0
1 4 10 -13 -14 -18 27 0
1 4 10 -13 -14 18 -27 0
1 4 10 -13 14 -18 -27 0
1 4 10 -13 14 18 27 0
1 4 10 13 -14 -18 -27 0
1 4 10 13 -14 18 27 0
1 4 10 13 14 -18 27 0
1 4 10 13 14 18 -27 0
1 7 -9 -12 -15 -20 -22 0
1 7 -9 -12 -15 20 22 0
1 7 -9 -12 15 -20 22 0
1 7 -9 -12 15 20 -22 0
1 7 -9 12 -15 -20 22 0
1 7 -9 12 -15 20 -22 0
1 7 -9 12 15 -20 -22 0
1 7 -9 12 15 20 22 0
1 7 9 -12 -15 -20 22 0
1 7 9 -12 -15 20 -22 0
1 7 9 -12 15 -20 -22 0
1 7 9 -12 15 20 22 0
1 7 9 12 -15 -20 -22 0
1 7 9 12 -15 20 22 0
1 7 9 12 15 -20 22 0
1 7 9 12 15 20 -22 0
2 -7 -16 -19 -23 -25 27 0
2 -7 -16 -19 -23 25 -27 0
2 -7 -16 -19 23 -25 -27 0
2 -7 -16 -19 23 25 27 0
2 -7 -16 19 -23 -25 -27 0
2 -7 -16 19 -23 25 27 0
2 -7 -16 19 23 -25 27 0
2 -7 -16 19 23 25 -27 0
2 -7 16 -19 -23 -25 -27 0
2 -7 16 -19 -23 25 27 0
2 -7 16 -19 23 -25 27 0
2 -7 16 -19 23 25 -27 0
2 -7 16 19 -23 -25 27 0
2 -7 16 19 -23 25 -27 0
2 -7 16 19 23 -25 -27 0
2 -7 16 19 23 25 27 0
2 -5 -8 -9 -14 -17 21 0
2 -5 -8 -9 -14 17 -21 0
2 -5 -8 -9 14 -17 -21 0
2 -5 -8 -9 14 17 21 0
2 -5 -8 9 -14 -17 -21 0
2 -5 -8 9 -14 17 21 0
2 -5 -8 9 14 -17 21 0
2 -5 -8 9 14 17 -21 0
2 -5 8 -9 -14 -17 -21 0
2 -5 8 -9 -14 17 21 0
2 -5 8 -9 14 -17 21 0
2 -5 8 -9 14 17 -21 0
2 -5 8 9 -14 -17 21 0
2 -5 8 9 -14 17 -21 0
2 -5 8 9 14 -17 -21 0
2 -5 8 9 14 17 21 0
2 5 -8 -9 -14 -17 -21 0
2 5 -8 -9 -14 17 21 0
2 5 -8 -9 14 -17 21 0
2 5 -8 -9 14 17 -21 0
2 5 -8 9 -14 -17 21 0
2 5 -8 9 -14 17 -21 0
2 5 -8 9 14 -17 -21 0
2 5 -8 9 14 17 21 0
2 5 8 -9 -14 -17 21 0
2 5 8 -9 -14 17 -21 0
2 5 8 -9 14 -17 -21 0
2 5 8 -9 14 17 21 0
2 5 8 9 -14 -17 -21 0
2 5 8 9 -14 17 21 0
2 5 8 9 14 -17 21 0
2 5 8 9 14 17 -21 0
2 7 -16 -19 -23 -25 -27 0
2 7 -16 -19 -23 25 27 0
2 7 -16 -19 23 -25 27 0
2 7 -16 -19 23 25 -27 0
2 7 -16 19 -23 -25 27 0
2 7 -16 19 -23 25 -27 0
2 7 -16 19 23 -25 -27 0
2 7 -16 19 23 25 27 0
2 7 16 -19 -23 -25 27 0
2 7 16 -19 -23 25 -27 0
2 7 16 -19 23 -25 -27 0
2 7 16 -19 23 25 27 0
2 7 16 19 -23 -25 -27 0
2 7 16 19 -23 25 27 0
2 7 16 19 23 -25 27 0
2 7 16 19 23 25 -27 0
3 -8 -12 -18 -24 -25 26 0
3 -8 -12 -18 -24 25 -26 0
3 -8 -12 -18 24 -25 -26 0
3 -8 -12 -18 24 25 26 0
3 -8 -12 18 -24 -25 -26 0
3 -8 -12 18 -24 25 26 0
3 -8 -12 18 24 -25 26 0
3 -8 -12 18 24 25 -26 0
3 -8 12 -18 -24 -25 -26 0
3 -8 12 -18 -24 25 26 0
3 -8 12 -18 24 -25 26 0
3 -8 12 -18 24 25 -26 0
3 -8 12 18 -24 -25 26 0
3 -8 12 18 -24 25 -26 0
3 -8 12 18 24 -25 -26 0
3 -8 12 18 24 25 26 0
3 -5 -11 -13 -19 -20 28 0
3 -5 -11 -13 -19 20 -28 0
3 -5 -11 -13 19 -20 -28 0
3 -5 -11 -13 19 20 28 0
3 -5 -11 13 -19 -20 -28 0
3 -5 -11 13 -19 20 28 0
3 -5 -11 13 19 -20 28 0
3 -5 -11 13 19 20 -28 0
3 -5 11 -13 -19 -20 -28 0
3 -5 11 -13 -19 20 28 0
3 -5 11 -13 19 -20 28 0
3 -5 11 -13 19 20 -28 0
3 -5 11 13 -19 -20 28 0
3 -5 11 13 -19 20 -28 0
3 -5 11 13 19 -20 -28 0
3 -5 11 13 19 20 28 0
3 5 -11 -13 -19 -20 -28 0
3 5 -11 -13 -19 20 28 0
3 5 -11 -13 19 -20 28 0
3 5 -11 -13 19 20 -28 0
3 5 -11 13 -19 -20 28 0
3 5 -11 13 -19 20 -28 0
3 5 -11 13 19 -20 -28 0
3 5 -11 13 19 20 28 0
3 5 11 -13 -19 -20 28 0
3 5 11 -13 -19 20 -28 0
3 5 11 -13 19 -20 -28 0
3 5 11 -13 19 20 28 0
3 5 11 13 -19 -20 -28 0
3 5 11 13 -19 20 28 0
3 5 11 13 19 -20 28 0
3 5 11 13 19 20 -28 0
3 8 -12 -18 -24 -25 -26 0
3 8 -12 -18 -24 25 26 0
3 8 -12 -18 24 -25 26 0
3 8 -12 -18 24 25 -26 0
3 8 -12 18 -24 -25 26 0
3 8 -12 18 -24 25 -26 0
3 8 -12 18 24 -25 -26 0
3 8 -12 18 24 25 26 0
3 8 12 -18 -24 -25 26 0
3 8 12 -18 -24 25 -26 0
3 8 12 -18 24 -25 -26 0
3 8 12 -18 24 25 26 0
3 8 12 18 -24 -25 -26 0
3 8 12 18 -24 25 26 0
3 8 12 18 24 -25 26 0
3 8 12 18 24 25 -26 0
4 -6 -11 -15 -17 -23 24 0
4 -6 -11 -15 -17 23 -24 0
4 -6 -11 -15 17 -23 -24 0
4 -6 -11 -15 17 23 24 0
4 -6 -11 15 -17 -23 -24 0
4 -6 -11 15 -17 23 24 0
4 -6 -11 15 17 -23 24 0
4 -6 -11 15 17 23 -24 0
4 -6 11 -15 -17 -23 -24 0
4 -6 11 -15 -17 23 24 0
4 -6 11 -15 17 -23 24 0
4 -6 11 -15 17 23 -24 0
4 -6 11 15 -17 -23 24 0
4 -6 11 15 -17 23 -24 0
4 -6 11 15 17 -23 -24 0
4 -6 11 15 17 23 24 0
4 6 -11 -15 -17 -23 -24 0
4 6 -11 -15 -17 23 24 0
4 6 -11 -15 17 -23 24 0
4 6 -11 -15 17 23 -24 0
4 6 -11 15 -17 -23 24 0
4 6 -11 15 -17 23 -24 0
4 6 -11 15 17 -23 -24 0
4 6 -11 15 17 23 24 0
4 6 11 -15 -17 -23 24 0
4 6 11 -15 -17 23 -24 0
4 6 11 -15 17 -23 -24 0
4 6 11 -15 17 23 24 0
4 6 11 15 -17 -23 -24 0
4 6 11 15 -17 23 24 0
4 6 11 15 17 -23 24 0
4 6 11 15 17 23 -24 0
6 -10 -16 -21 -22 -26 28 0
6 -10 -16 -21 -22 26 -28 0
6 -10 -16 -21 22 -26 -28 0
6 -10 -16 -21 22 26 28 0
6 -10 -16 21 -22 -26 -28 0
6 -10 -16 21 -22 26 28 0
6 -10 -16 21 22 -26 28 0
6 -10 -16 21 22 26 -28 0
6 -10 16 -21 -22 -26 -28 0
6 -10 16 -21 -22 26 28 0
6 -10 16 -21 22 -26 28 0
6 -10 16 -21 22 26 -28 0
6 -10 16 21 -22 -26 28 0
6 -10 16 21 -22 26 -28 0
6 -10 16 21 22 -26 -28 0
6 -10 16 21 22 26 28 0
6 10 -16 -21 -22 -26 -28 0
6 10 -16 -21 -22 26 28 0
6 10 -16 -21 22 -26 28 0
6 10 -16 -21 22 26 -28 0
6 10 -16 21 -22 -26 28 0
6 10 -16 21 -22 26 -28 0
6 10 -16 21 22 -26 -28 0
6 10 -16 21 22 26 28 0
6 10 16 -21 -22 -26 28 0
6 10 16 -21 -22 26 -28 0
6 10 16 -21 22 -26 -28 0
6 10 16 -21 22 26 28 0
6 10 16 21 -22 -26 -28 0
6 10 16 21 -22 26 28 0
6 10 16 21 22 -26 28 0
6 10 16 21 22 26 -28 0
