p cnf 36 1152
-15 -17 -18 -19 -22 -24 -30 35 0
-15 -17 -18 -19 -22 -24 30 -35 0
-15 -17 -18 -19 -22 24 -30 -35 0
-15 -17 -18 -19 -22 24 30 35 0
-15 -17 -18 -19 22 -24 -30 -35 0
-15 -17 -18 -19 22 -24 30 35 0
-15 -17 -18 -19 22 24 -30 35 0
-15 -17 -18 -19 22 24 30 -35 0
-15 -17 -18 19 -22 -24 -30 -35 0
-15 -17 -18 19 -22 -24 30 35 0
-15 -17 -18 19 -22 24 -30 35 0
-15 -17 -18 19 -22 24 30 -35 0
-15 -17 -18 19 22 -24 -30 35 0
-15 -17 -18 19 22 -24 30 -35 0
-15 -17 -18 19 22 24 -30 -35 0
-15 -17 -18 19 22 24 30 35 0
-15 -17 18 -19 -22 -24 -30 -35 0
-15 -17 18 -19 -22 -24 30 35 0
-15 -17 18 -19 -22 24 -30 35 0
-15 -17 18 -19 -22 24 30 -35 0
-15 -17 18 -19 22 -24 -30 35 0
-15 -17 18 -19 22 -24 30 -35 0
-15 -17 18 -19 22 24 -30 -35 0
-15 -17 18 -19 22 24 30 35 0
-15 -17 18 19 -22 -24 -30 35 0
-15 -17 18 19 -22 -24 30 -35 0
-15 -17 18 19 -22 24 -30 -35 0
-15 -17 18 19 -22 24 30 35 0
-15 -17 18 19 22 -24 -30 -35 0
-15 -17 18 19 22 -24 30 35 0
-15 -17 18 19 22 24 -30 35 0
-15 -17 18 19 22 24 30 -35 0
-15 17 -18 -19 -22 -24 -30 -35 0
-15 17 -18 -19 -22 -24 30 35 0
-15 17 -18 -19 -22 24 -30 35 0
-15 17 -18 -19 -22 24 30 -35 0
-15 17 -18 -19 22 -24 -30 35 0
-15 17 -18 -19 22 -24 30 -35 0
-15 17 -18 -19 22 24 -30 -35 0
-15 17 -18 -19 22 24 30 35 0
-15 17 -18 19 -22 -24 -30 35 0
-15 17 -18 19 -22 -24 30 -35 0
-15 17 -18 19 -22 24 -30 -35 0
-15 17 -18 19 -22 24 30 35 0
-15 17 -18 19 22 -24 -30 -35 0
-15 17 -18 19 22 -24 30 35 0
-15 17 -18 19 22 24 -30 35 0
-15 17 -18 19 22 24 30 -35 0
-15 17 18 -19 -22 -24 -30 35 0
-15 17 18 -19 -22 -24 30 -35 0
-15 17 18 -19 -22 24 -30 -35 0
-15 17 18 -19 -22 24 30 35 0
-15 17 18 -19 22 -24 -30 -35 0
-15 17 18 -19 22 -24 30 35 0
-15 17 18 -19 22 24 -30 35 0
-15 17 18 -19 22 24 30 -35 0
-15 17 18 19 -22 -24 -30 -35 0
-15 17 18 19 -22 -24 30 35 0
-15 17 18 19 -22 24 -30 35 0
-15 17 18 19 -22 24 30 -35 0
-15 17 18 19 22 -24 -30 35 0
-15 17 18 19 22 -24 30 -35 0
-15 17 18 19 22 24 -30 -35 0
-15 17 18 19 22 24 30 35 0
-13 -14 -20 -25 -28 -31 -35 36 0
-13 -14 -20 -25 -28 -31 35 -36 0
-13 -14 -20 -25 -28 31 -35 -36 0
-13 -14 -20 -25 -28 31 35 36 0
-13 -14 -20 -25 28 -31 -35 -36 0
-13 -14 -20 -25 28 -31 35 36 0
-13 -14 -20 -25 28 31 -35 36 0
-13 -14 -20 -25 28 31 35 -36 0
-13 -14 -20 25 -28 -31 -35 -36 0
-13 -14 -20 25 -28 -31 35 36 0
-13 -14 -20 25 -28 31 -35 36 0
-13 -14 -20 25 -28 31 35 -36 0
-13 -14 -20 25 28 -31 -35 36 0
-13 -14 -20 25 28 -31 35 -36 0
-13 -14 -20 25 28 31 -35 -36 0
-13 -14 -20 25 28 31 35 36 0
-13 -14 20 -25 -28 -31 -35 -36 0
-13 -14 20 -25 -28 -31 35 36 0
-13 -14 20 -25 -28 31 -35 36 0
-13 -14 20 -25 -28 31 35 -36 0
-13 -14 20 -25 28 -31 -35 36 0
-13 -14 20 -25 28 -31 35 -36 0
-13 -14 20 -25 28 31 -35 -36 0
-13 -14 20 -25 28 31 35 36 0
-13 -14 20 25 -28 -31 -35 36 0
-13 -14 20 25 -28 -31 35 -36 0
-13 -14 20 25 -28 31 -35 -36 0
-13 -14 20 25 -28 31 35 36 0
-13 -14 20 25 28 -31 -35 -36 0
-13 -14 20 25 28 -31 35 36 0
-13 -14 20 25 28 31 -35 36 0
-13 -14 20 25 28 31 35 -36 0
-13 14 -20 -25 -28 -31 -35 -36 0
-13 14 -20 -25 -28 -31 35 36 0
-13 14 -20 -25 -28 31 -35 36 0
-13 14 -20 -25 -28 31 35 -36 0
-13 14 -20 -25 28 -31 -35 36 0
-13 14 -20 -25 28 -31 35 -36 0
-13 14 -20 -25 28 31 -35 -36 0
-13 14 -20 -25 28 31 35 36 0
-13 14 -20 25 -28 -31 -35 36 0
-13 14 -20 25 -28 -31 35 -36 0
-13 14 -20 25 -28 31 -35 -36 0
-13 14 -20 25 -28 31 35 36 0
-13 14 -20 25 28 -31 -35 -36 0
-13 14 -20 25 28 -31 35 36 0
-13 14 -20 25 28 31 -35 36 0
-13 14 -20 25 28 31 35 -36 0
-13 14 20 -25 -28 -31 -35 36 0
-13 14 20 -25 -28 -31 35 -36 0
-13 14 20 -25 -28 31 -35 -36 0
-13 14 20 -25 -28 31 35 36 0
-13 14 20 -25 28 -31 -35 -36 0
-13 14 20 -25 28 -31 35 36 0
-13 14 20 -25 28 31 -35 36 0
-13 14 20 -25 28 31 35 -36 0
-13 14 20 25 -28 -31 -35 -36 0
-13 14 20 25 -28 -31 35 36 0
-13 14 20 25 -28 31 -35 36 0
-13 14 20 25 -28 31 35 -36 0
-13 14 20 25 28 -31 -35 36 0
-13 14 20 25 28 -31 35 -36 0
-13 14 20 25 28 31 -35 -36 0
-13 14 20 25 28 31 35 36 0
-7 -11 -17 -20 -23 -27 -32 33 0
-7 -11 -17 -20 -23 -27 32 -33 0
-7 -11 -17 -20 -23 27 -32 -33 0
-7 -11 -17 -20 -23 27 32 33 0
-7 -11 -17 -20 23 -27 -32 -33 0
-7 -11 -17 -20 23 -27 32 33 0
-7 -11 -17 -20 23 27 -32 33 0
-7 -11 -17 -20 23 27 32 -33 0
-7 -11 -17 20 -23 -27 -32 -33 0
-7 -11 -17 20 -23 -27 32 33 0
-7 -11 -17 20 -23 27 -32 33 0
-7 -11 -17 20 -23 27 32 -33 0
-7 -11 -17 20 23 -27 -32 33 0
-7 -11 -17 20 23 -27 32 -33 0
-7 -11 -17 20 23 27 -32 -33 0
-7 -11 -17 20 23 27 32 33 0
-7 -11 17 -20 -23 -27 -32 -33 0
-7 -11 17 -20 -23 -27 32 33 0
-7 -11 17 -20 -23 27 -32 33 0
-7 -11 17 -20 -23 27 32 -33 0
-7 -11 17 -20 23 -27 -32 33 0
-7 -11 17 -20 23 -27 32 -33 0
-7 -11 17 -20 23 27 -32 -33 0
-7 -11 17 -20 23 27 32 33 0
-7 -11 17 20 -23 -27 -32 33 0
-7 -11 17 20 -23 -27 32 -33 0
-7 -11 17 20 -23 27 -32 -33 0
-7 -11 17 20 -23 27 32 33 0
-7 -11 17 20 23 -27 -32 -33 0
-7 -11 17 20 23 -27 32 33 0
-7 -11 17 20 23 27 -32 33 0
-7 -11 17 20 23 27 32 -33 0
-7 11 -17 -20 -23 -27 -32 -33 0
-7 11 -17 -20 -23 -27 32 33 0
-7 11 -17 -20 -23 27 -32 33 0
-7 11 -17 -20 -23 27 32 -33 0
-7 11 -17 -20 23 -27 -32 33 0
-7 11 -17 -20 23 -27 32 -33 0
-7 11 -17 -20 23 27 -32 -33 0
-7 11 -17 -20 23 27 32 33 0
-7 11 -17 20 -23 -27 -32 33 0
-7 11 -17 20 -23 -27 32 -33 0
-7 11 -17 20 -23 27 -32 -33 0
-7 11 -17 20 -23 27 32 33 0
-7 11 -17 20 23 -27 -32 -33 0
-7 11 -17 20 23 -27 32 33 0
-7 11 -17 20 23 27 -32 33 0
-7 11 -17 20 23 27 32 -33 0
-7 11 17 -20 -23 -27 -32 33 0
-7 11 17 -20 -23 -27 32 -33 0
-7 11 17 -20 -23 27 -32 -33 0
-7 11 17 -20 -23 27 32 33 0
-7 11 17 -20 23 -27 -32 -33 0
-7 11 17 -20 23 -27 32 33 0
-7 11 17 -20 23 27 -32 33 0
-7 11 17 -20 23 27 32 -33 0
-7 11 17 20 -23 -27 -32 -33 0
-7 11 17 20 -23 -27 32 33 0
-7 11 17 20 -23 27 -32 33 0
-7 11 17 20 -23 27 32 -33 0
-7 11 17 20 23 -27 -32 33 0
-7 11 17 20 23 -27 32 -33 0
-7 11 17 20 23 27 -32 -33 0
-7 11 17 20 23 27 32 33 0
-4 -8 -21 -24 -26 -32 -34 36 0
-4 -8 -21 -24 -26 -32 34 -36 0
-4 -8 -21 -24 -26 32 -34 -36 0
-4 -8 -21 -24 -26 32 34 36 0
-4 -8 -21 -24 26 -32 -34 -36 0
-4 -8 -21 -24 26 -32 34 36 0
-4 -8 -21 -24 26 32 -34 36 0
-4 -8 -21 -24 26 32 34 -36 0
-4 -8 -21 24 -26 -32 -34 -36 0
-4 -8 -21 24 -26 -32 34 36 0
-4 -8 -21 24 -26 32 -34 36 0
-4 -8 -21 24 -26 32 34 -36 0
-4 -8 -21 24 26 -32 -34 36 0
-4 -8 -21 24 26 -32 34 -36 0
-4 -8 -21 24 26 32 -34 -36 0
-4 -8 -21 24 26 32 34 36 0
-4 -8 21 -24 -26 -32 -34 -36 0
-4 -8 21 -24 -26 -32 34 36 0
-4 -8 21 -24 -26 32 -34 36 0
-4 -8 21 -24 -26 32 34 -36 0
-4 -8 21 -24 26 -32 -34 36 0
-4 -8 21 -24 26 -32 34 -36 0
-4 -8 21 -24 26 32 -34 -36 0
-4 -8 21 -24 26 32 34 36 0
-4 -8 21 24 -26 -32 -34 36 0
-4 -8 21 24 -26 -32 34 -36 0
-4 -8 21 24 -26 32 -34 -36 0
-4 -8 21 24 -26 32 34 36 0
-4 -8 21 24 26 -32 -34 -36 0
-4 -8 21 24 26 -32 34 36 0
-4 -8 21 24 26 32 -34 36 0
-4 -8 21 24 26 32 34 -36 0
-4 8 -21 -24 -26 -32 -34 -36 0
-4 8 -21 -24 -26 -32 34 36 0
-4 8 -21 -24 -26 32 -34 36 0
-4 8 -21 -24 -26 32 34 -36 0
-4 8 -21 -24 26 -32 -34 36 0
-4 8 -21 -24 26 -32 34 -36 0
-4 8 -21 -24 26 32 -34 -36 0
-4 8 -21 -24 26 32 34 36 0
-4 8 -21 24 -26 -32 -34 36 0
-4 8 -21 24 -26 -32 34 -36 0
-4 8 -21 24 -26 32 -34 -36 0
-4 8 -21 24 -26 32 34 36 0
-4 8 -21 24 26 -32 -34 -36 0
-4 8 -21 24 26 -32 34 36 0
-4 8 -21 24 26 32 -34 36 0
-4 8 -21 24 26 32 34 -36 0
-4 8 21 -24 -26 -32 -34 36 0
-4 8 21 -24 -26 -32 34 -36 0
-4 8 21 -24 -26 32 -34 -36 0
-4 8 21 -24 -26 32 34 36 0
-4 8 21 -24 26 -32 -34 -36 0
-4 8 21 -24 26 -32 34 36 0
-4 8 21 -24 26 32 -34 36 0
-4 8 21 -24 26 32 34 -36 0
-4 8 21 24 -26 -32 -34 -36 0
-4 8 21 24 -26 -32 34 36 0
-4 8 21 24 -26 32 -34 36 0
-4 8 21 24 -26 32 34 -36 0
-4 8 21 24 26 -32 -34 36 0
-4 8 21 24 26 -32 34 -36 0
-4 8 21 24 26 32 -34 -36 0
-4 8 21 24 26 32 34 36 0
-3 -6 -12 -14 -15 -16 -27 34 0
-3 -6 -12 -14 -15 -16 27 -34 0
-3 -6 -12 -14 -15 16 -27 -34 0
-3 -6 -12 -14 -15 16 27 34 0
-3 -6 -12 -14 15 -16 -27 -34 0
-3 -6 -12 -14 15 -16 27 34 0
-3 -6 -12 -14 15 16 -27 34 0
-3 -6 -12 -14 15 16 27 -34 0
-3 -6 -12 14 -15 -16 -27 -34 0
-3 -6 -12 14 -15 -16 27 34 0
-3 -6 -12 14 -15 16 -27 34 0
-3 -6 -12 14 -15 16 27 -34 0
-3 -6 -12 14 15 -16 -27 34 0
-3 -6 -12 14 15 -16 27 -34 0
-3 -6 -12 14 15 16 -27 -34 0
-3 -6 -12 14 15 16 27 34 0
-3 -6 12 -14 -15 -16 -27 -34 0
-3 -6 12 -14 -15 -16 27 34 0
-3 -6 12 -14 -15 16 -27 34 0
-3 -6 12 -14 -15 16 27 -34 0
-3 -6 12 -14 15 -16 -27 34 0
-3 -6 12 -14 15 -16 27 -34 0
-3 -6 12 -14 15 16 -27 -34 0
-3 -6 12 -14 15 16 27 34 0
-3 -6 12 14 -15 -16 -27 34 0
-3 -6 12 14 -15 -16 27 -34 0
-3 -6 12 14 -15 16 -27 -34 0
-3 -6 12 14 -15 16 27 34 0
-3 -6 12 14 15 -16 -27 -34 0
-3 -6 12 14 15 -16 27 34 0
-3 -6 12 14 15 16 -27 34 0
-3 -6 12 14 15 16 27 -34 0
-3 6 -12 -14 -15 -16 -27 -34 0
-3 6 -12 -14 -15 -16 27 34 0
-3 6 -12 -14 -15 16 -27 34 0
-3 6 -12 -14 -15 16 27 -34 0
-3 6 -12 -14 15 -16 -27 34 0
-3 6 -12 -14 15 -16 27 -34 0
-3 6 -12 -14 15 16 -27 -34 0
-3 6 -12 -14 15 16 27 34 0
-3 6 -12 14 -15 -16 -27 34 0
-3 6 -12 14 -15 -16 27 -34 0
-3 6 -12 14 -15 16 -27 -34 0
-3 6 -12 14 -15 16 27 34 0
-3 6 -12 14 15 -16 -27 -34 0
-3 6 -12 14 15 -16 27 34 0
-3 6 -12 14 15 16 -27 34 0
-3 6 -12 14 15 16 27 -34 0
-3 6 12 -14 -15 -16 -27 34 0
-3 6 12 -14 -15 -16 27 -34 0
-3 6 12 -14 -15 16 -27 -34 0
-3 6 12 -14 -15 16 27 34 0
-3 6 12 -14 15 -16 -27 -34 0
-3 6 12 -14 15 -16 27 34 0
-3 6 12 -14 15 16 -27 34 0
-3 6 12 -14 15 16 27 -34 0
-3 6 12 14 -15 -16 -27 -34 0
-3 6 12 14 -15 -16 27 34 0
-3 6 12 14 -15 16 -27 34 0
-3 6 12 14 -15 16 27 -34 0
-3 6 12 14 15 -16 -27 34 0
-3 6 12 14 15 -16 27 -34 0
-3 6 12 14 15 16 -27 -34 0
-3 6 12 14 15 16 27 34 0
-2 -5 -8 -11 -12 -13 -19 29 0
-2 -5 -8 -11 -12 -13 19 -29 0
-2 -5 -8 -11 -12 13 -19 -29 0
-2 -5 -8 -11 -12 13 19 29 0
-2 -5 -8 -11 12 -13 -19 -29 0
-2 -5 -8 -11 12 -13 19 29 0
-2 -5 -8 -11 12 13 -19 29 0
-2 -5 -8 -11 12 13 19 -29 0
-2 -5 -8 11 -12 -13 -19 -29 0
-2 -5 -8 11 -12 -13 19 29 0
-2 -5 -8 11 -12 13 -19 29 0
-2 -5 -8 11 -12 13 19 -29 0
-2 -5 -8 11 12 -13 -19 29 0
-2 -5 -8 11 12 -13 19 -29 0
-2 -5 -8 11 12 13 -19 -29 0
-2 -5 -8 11 12 13 19 29 0
-2 -5 8 -11 -12 -13 -19 -29 0
-2 -5 8 -11 -12 -13 19 29 0
-2 -5 8 -11 -12 13 -19 29 0
-2 -5 8 -11 -12 13 19 -29 0
-2 -5 8 -11 12 -13 -19 29 0
-2 -5 8 -11 12 -13 19 -29 0
-2 -5 8 -11 12 13 -19 -29 0
-2 -5 8 -11 12 13 19 29 0
-2 -5 8 11 -12 -13 -19 29 0
-2 -5 8 11 -12 -13 19 -29 0
-2 -5 8 11 -12 13 -19 -29 0
-2 -5 8 11 -12 13 19 29 0
-2 -5 8 11 12 -13 -19 -29 0
-2 -5 8 11 12 -13 19 29 0
-2 -5 8 11 12 13 -19 29 0
-2 -5 8 11 12 13 19 -29 0
-2 -3 -4 -9 -10 -23 -30 -31 0
-2 -3 -4 -9 -10 -23 30 31 0
-2 -3 -4 -9 -10 23 -30 31 0
-2 -3 -4 -9 -10 23 30 -31 0
-2 -3 -4 -9 10 -23 -30 31 0
-2 -3 -4 -9 10 -23 30 -31 0
-2 -3 -4 -9 10 23 -30 -31 0
-2 -3 -4 -9 10 23 30 31 0
-2 -3 -4 9 -10 -23 -30 31 0
-2 -3 -4 9 -10 -23 30 -31 0
-2 -3 -4 9 -10 23 -30 -31 0
-2 -3 -4 9 -10 23 30 31 0
-2 -3 -4 9 10 -23 -30 -31 0
-2 -3 -4 9 10 -23 30 31 0
-2 -3 -4 9 10 23 -30 31 0
-2 -3 -4 9 10 23 30 -31 0
-2 -3 4 -9 -10 -23 -30 31 0
-2 -3 4 -9 -10 -23 30 -31 0
-2 -3 4 -9 -10 23 -30 -31 0
-2 -3 4 -9 -10 23 30 31 0
-2 -3 4 -9 10 -23 -30 -31 0
-2 -3 4 -9 10 -23 30 31 0
-2 -3 4 -9 10 23 -30 31 0
-2 -3 4 -9 10 23 30 -31 0
-2 -3 4 9 -10 -23 -30 -31 0
-2 -3 4 9 -10 -23 30 31 0
-2 -3 4 9 -10 23 -30 31 0
-2 -3 4 9 -10 23 30 -31 0
-2 -3 4 9 10 -23 -30 31 0
-2 -3 4 9 10 -23 30 -31 0
-2 -3 4 9 10 23 -30 -31 0
-2 -3 4 9 10 23 30 31 0
-2 3 -4 -9 -10 -23 -30 31 0
-2 3 -4 -9 -10 -23 30 -31 0
-2 3 -4 -9 -10 23 -30 -31 0
-2 3 -4 -9 -10 23 30 31 0
-2 3 -4 -9 10 -23 -30 -31 0
-2 3 -4 -9 10 -23 30 31 0
-2 3 -4 -9 10 23 -30 31 0
-2 3 -4 -9 10 23 30 -31 0
-2 3 -4 9 -10 -23 -30 -31 0
-2 3 -4 9 -10 -23 30 31 0
-2 3 -4 9 -10 23 -30 31 0
-2 3 -4 9 -10 23 30 -31 0
-2 3 -4 9 10 -23 -30 31 0
-2 3 -4 9 10 -23 30 -31 0
-2 3 -4 9 10 23 -30 -31 0
-2 3 -4 9 10 23 30 31 0
-2 3 4 -9 -10 -23 -30 -31 0
-2 3 4 -9 -10 -23 30 31 0
-2 3 4 -9 -10 23 -30 31 0
-2 3 4 -9 -10 23 30 -31 0
-2 3 4 -9 10 -23 -30 31 0
-2 3 4 -9 10 -23 30 -31 0
-2 3 4 -9 10 23 -30 -31 0
-2 3 4 -9 10 23 30 31 0
-2 3 4 9 -10 -23 -30 31 0
-2 3 4 9 -10 -23 30 -31 0
-2 3 4 9 -10 23 -30 -31 0
-2 3 4 9 -10 23 30 31 0
-2 3 4 9 10 -23 -30 -31 0
-2 3 4 9 10 -23 30 31 0
-2 3 4 9 10 23 -30 31 0
-2 3 4 9 10 23 30 -31 0
-2 5 -8 -11 -12 -13 -19 -29 0
-2 5 -8 -11 -12 -13 19 29 0
-2 5 -8 -11 -12 13 -19 29 0
-2 5 -8 -11 -12 13 19 -29 0
-2 5 -8 -11 12 -13 -19 29 0
-2 5 -8 -11 12 -13 19 -29 0
-2 5 -8 -11 12 13 -19 -29 0
-2 5 -8 -11 12 13 19 29 0
-2 5 -8 11 -12 -13 -19 29 0
-2 5 -8 11 -12 -13 19 -29 0
-2 5 -8 11 -12 13 -19 -29 0
-2 5 -8 11 -12 13 19 29 0
-2 5 -8 11 12 -13 -19 -29 0
-2 5 -8 11 12 -13 19 29 0
-2 5 -8 11 12 13 -19 29 0
-2 5 -8 11 12 13 19 -29 0
-2 5 8 -11 -12 -13 -19 29 0
-2 5 8 -11 -12 -13 19 -29 0
-2 5 8 -11 -12 13 -19 -29 0
-2 5 8 -11 -12 13 19 29 0
-2 5 8 -11 12 -13 -19 -29 0
-2 5 8 -11 12 -13 19 29 0
-2 5 8 -11 12 13 -19 29 0
-2 5 8 -11 12 13 19 -29 0
-2 5 8 11 -12 -13 -19 -29 0
-2 5 8 11 -12 -13 19 29 0
-2 5 8 11 -12 13 -19 29 0
-2 5 8 11 -12 13 19 -29 0
-2 5 8 11 12 -13 -19 29 0
-2 5 8 11 12 -13 19 -29 0
-2 5 8 11 12 13 -19 -29 0
-2 5 8 11 12 13 19 29 0
-1 -10 -16 -21 -22 -25 -29 33 0
-1 -10 -16 -21 -22 -25 29 -33 0
-1 -10 -16 -21 -22 25 -29 -33 0
-1 -10 -16 -21 -22 25 29 33 0
-1 -10 -16 -21 22 -25 -29 -33 0
-1 -10 -16 -21 22 -25 29 33 0
-1 -10 -16 -21 22 25 -29 33 0
-1 -10 -16 -21 22 25 29 -33 0
-1 -10 -16 21 -22 -25 -29 -33 0
-1 -10 -16 21 -22 -25 29 33 0
-1 -10 -16 21 -22 25 -29 33 0
-1 -10 -16 21 -22 25 29 -33 0
-1 -10 -16 21 22 -25 -29 33 0
-1 -10 -16 21 22 -25 29 -33 0
-1 -10 -16 21 22 25 -29 -33 0
-1 -10 -16 21 22 25 29 33 0
-1 -10 16 -21 -22 -25 -29 -33 0
-1 -10 16 -21 -22 -25 29 33 0
-1 -10 16 -21 -22 25 -29 33 0
-1 -10 16 -21 -22 25 29 -33 0
-1 -10 16 -21 22 -25 -29 33 0
-1 -10 16 -21 22 -25 29 -33 0
-1 -10 16 -21 22 25 -29 -33 0
-1 -10 16 -21 22 25 29 33 0
-1 -10 16 21 -22 -25 -29 33 0
-1 -10 16 21 -22 -25 29 -33 0
-1 -10 16 21 -22 25 -29 -33 0
-1 -10 16 21 -22 25 29 33 0
-1 -10 16 21 22 -25 -29 -33 0
-1 -10 16 21 22 -25 29 33 0
-1 -10 16 21 22 25 -29 33 0
-1 -10 16 21 22 25 29 -33 0
-1 -5 -6 -7 -9 -18 -26 28 0
-1 -5 -6 -7 -9 -18 26 -28 0
-1 -5 -6 -7 -9 18 -26 -28 0
-1 -5 -6 -7 -9 18 26 28 0
-1 -5 -6 -7 9 -18 -26 -28 0
-1 -5 -6 -7 9 -18 26 28 0
-1 -5 -6 -7 9 18 -26 28 0
-1 -5 -6 -7 9 18 26 -28 0
-1 -5 -6 7 -9 -18 -26 -28 0
-1 -5 -6 7 -9 -18 26 28 0
-1 -5 -6 7 -9 18 -26 28 0
-1 -5 -6 7 -9 18 26 -28 0
-1 -5 -6 7 9 -18 -26 28 0
-1 -5 -6 7 9 -18 26 -28 0
-1 -5 -6 7 9 18 -26 -28 0
-1 -5 -6 7 9 18 26 28 0
-1 -5 6 -7 -9 -18 -26 -28 0
-1 -5 6 -7 -9 -18 26 28 0
-1 -5 6 -7 -9 18 -26 28 0
-1 -5 6 -7 -9 18 26 -28 0
-1 -5 6 -7 9 -18 -26 28 0
-1 -5 6 -7 9 -18 26 -28 0
-1 -5 6 -7 9 18 -26 -28 0
-1 -5 6 -7 9 18 26 28 0
-1 -5 6 7 -9 -18 -26 28 0
-1 -5 6 7 -9 -18 26 -28 0
-1 -5 6 7 -9 18 -26 -28 0
-1 -5 6 7 -9 18 26 28 0
-1 -5 6 7 9 -18 -26 -28 0
-1 -5 6 7 9 -18 26 28 0
-1 -5 6 7 9 18 -26 28 0
-1 -5 6 7 9 18 26 -28 0
-1 5 -6 -7 -9 -18 -26 -28 0
-1 5 -6 -7 -9 -18 26 28 0
-1 5 -6 -7 -9 18 -26 28 0
-1 5 -6 -7 -9 18 26 -28 0
-1 5 -6 -7 9 -18 -26 28 0
-1 5 -6 -7 9 -18 26 -28 0
-1 5 -6 -7 9 18 -26 -28 0
-1 5 -6 -7 9 18 26 28 0
-1 5 -6 7 -9 -18 -26 28 0
-1 5 -6 7 -9 -18 26 -28 0
-1 5 -6 7 -9 18 -26 -28 0
-1 5 -6 7 -9 18 26 28 0
-1 5 -6 7 9 -18 -26 -28 0
-1 5 -6 7 9 -18 26 28 0
-1 5 -6 7 9 18 -26 28 0
-1 5 -6 7 9 18 26 -28 0
-1 5 6 -7 -9 -18 -26 28 0
-1 5 6 -7 -9 -18 26 -28 0
-1 5 6 -7 -9 18 -26 -28 0
-1 5 6 -7 -9 18 26 28 0
-1 5 6 -7 9 -18 -26 -28 0
-1 5 6 -7 9 -18 26 28 0
-1 5 6 -7 9 18 -26 28 0
-1 5 6 -7 9 18 26 -28 0
-1 5 6 7 -9 -18 -26 -28 0
-1 5 6 7 -9 -18 26 28 0
-1 5 6 7 -9 18 -26 28 0
-1 5 6 7 -9 18 26 -28 0
-1 5 6 7 9 -18 -26 28 0
-1 5 6 7 9 -18 26 -28 0
-1 5 6 7 9 18 -26 -28 0
-1 5 6 7 9 18 26 28 0
-1 10 -16 -21 -22 -25 -29 -33 0
-1 10 -16 -21 -22 -25 29 33 0
-1 10 -16 -21 -22 25 -29 33 0
-1 10 -16 -21 -22 25 29 -33 0
-1 10 -16 -21 22 -25 -29 33 0
-1 10 -16 -21 22 -25 29 -33 0
-1 10 -16 -21 22 25 -29 -33 0
-1 10 -16 -21 22 25 29 33 0
-1 10 -16 21 -22 -25 -29 33 0
-1 10 -16 21 -22 -25 29 -33 0
-1 10 -16 21 -22 25 -29 -33 0
-1 10 -16 21 -22 25 29 33 0
-1 10 -16 21 22 -25 -29 -33 0
-1 10 -16 21 22 -25 29 33 0
-1 10 -16 21 22 25 -29 33 0
-1 10 -16 21 22 25 29 -33 0
-1 10 16 -21 -22 -25 -29 33 0
-1 10 16 -21 -22 -25 29 -33 0
-1 10 16 -21 -22 25 -29 -33 0
-1 10 16 -21 -22 25 29 33 0
-1 10 16 -21 22 -25 -29 -33 0
-1 10 16 -21 22 -25 29 33 0
-1 10 16 -21 22 25 -29 33 0
-1 10 16 -21 22 25 29 -33 0
-1 10 16 21 -22 -25 -29 -33 0
-1 10 16 21 -22 -25 29 33 0
-1 10 16 21 -22 25 -29 33 0
-1 10 16 21 -22 25 29 -33 0
-1 10 16 21 22 -25 -29 33 0
-1 10 16 21 22 -25 29 -33 0
-1 10 16 21 22 25 -29 -33 0
-1 10 16 21 22 25 29 33 0
1 -10 -16 -21 -22 -25 -29 -33 0
1 -10 -16 -21 -22 -25 29 33 0
1 -10 -16 -21 -22 25 -29 33 0
1 -10 -16 -21 -22 25 29 -33 0
1 -10 -16 -21 22 -25 -29 33 0
1 -10 -16 -21 22 -25 29 -33 0
1 -10 -16 -21 22 25 -29 -33 0
1 -10 -16 -21 22 25 29 33 0
1 -10 -16 21 -22 -25 -29 33 0
1 -10 -16 21 -22 -25 29 -33 0
1 -10 -16 21 -22 25 -29 -33 0
1 -10 -16 21 -22 25 29 33 0
1 -10 -16 21 22 -25 -29 -33 0
1 -10 -16 21 22 -25 29 33 0
1 -10 -16 21 22 25 -29 33 0
1 -10 -16 21 22 25 29 -33 0
1 -10 16 -21 -22 -25 -29 33 0
1 -10 16 -21 -22 -25 29 -33 0
1 -10 16 -21 -22 25 -29 -33 0
1 -10 16 -21 -22 25 29 33 0
1 -10 16 -21 22 -25 -29 -33 0
1 -10 16 -21 22 -25 29 33 0
1 -10 16 -21 22 25 -29 33 0
1 -10 16 -21 22 25 29 -33 0
1 -10 16 21 -22 -25 -29 -33 0
1 -10 16 21 -22 -25 29 33 0
1 -10 16 21 -22 25 -29 33 0
1 -10 16 21 -22 25 29 -33 0
1 -10 16 21 22 -25 -29 33 0
1 -10 16 21 22 -25 29 -33 0
1 -10 16 21 22 25 -29 -33 0
1 -10 16 21 22 25 29 33 0
1 -5 -6 -7 -9 -18 -26 -28 0
1 -5 -6 -7 -9 -18 26 28 0
1 -5 -6 -7 -9 18 -26 28 0
1 -5 -6 -7 -9 18 26 -28 0
1 -5 -6 -7 9 -18 -26 28 0
1 -5 -6 -7 9 -18 26 -28 0
1 -5 -6 -7 9 18 -26 -28 0
1 -5 -6 -7 9 18 26 28 0
1 -5 -6 7 -9 -18 -26 28 0
1 -5 -6 7 -9 -18 26 -28 0
1 -5 -6 7 -9 18 -26 -28 0
1 -5 -6 7 -9 18 26 28 0
1 -5 -6 7 9 -18 -26 -28 0
1 -5 -6 7 9 -18 26 28 0
1 -5 -6 7 9 18 -26 28 0
1 -5 -6 7 9 18 26 -28 0
1 -5 6 -7 -9 -18 -26 28 0
1 -5 6 -7 -9 -18 26 -28 0
1 -5 6 -7 -9 18 -26 -28 0
1 -5 6 -7 -9 18 26 28 0
1 -5 6 -7 9 -18 -26 -28 0
1 -5 6 -7 9 -18 26 28 0
1 -5 6 -7 9 18 -26 28 0
1 -5 6 -7 9 18 26 -28 0
1 -5 6 7 -9 -18 -26 -28 0
1 -5 6 7 -9 -18 26 28 0
1 -5 6 7 -9 18 -26 28 0
1 -5 6 7 -9 18 26 -28 0
1 -5 6 7 9 -18 -26 28 0
1 -5 6 7 9 -18 26 -28 0
1 -5 6 7 9 18 -26 -28 0
1 -5 6 7 9 18 26 28 0
1 5 -6 -7 -9 -18 -26 28 0
1 5 -6 -7 -9 -18 26 -28 0
1 5 -6 -7 -9 18 -26 -28 0
1 5 -6 -7 -9 18 26 28 0
1 5 -6 -7 9 -18 -26 -28 0
1 5 -6 -7 9 -18 26 28 0
1 5 -6 -7 9 18 -26 28 0
1 5 -6 -7 9 18 26 -28 0
1 5 -6 7 -9 -18 -26 -28 0
1 5 -6 7 -9 -18 26 28 0
1 5 -6 7 -9 18 -26 28 0
1 5 -6 7 -9 18 26 -28 0
1 5 -6 7 9 -18 -26 28 0
1 5 -6 7 9 -18 26 -28 0
1 5 -6 7 9 18 -26 -28 0
1 5 -6 7 9 18 26 28 0
1 5 6 -7 -9 -18 -26 -28 0
1 5 6 -7 -9 -18 26 28 0
1 5 6 -7 -9 18 -26 28 0
1 5 6 -7 -9 18 26 -28 0
1 5 6 -7 9 -18 -26 28 0
1 5 6 -7 9 -18 26 -28 0
1 5 6 -7 9 18 -26 -28 0
1 5 6 -7 9 18 26 28 0
1 5 6 7 -9 -18 -26 28 0
1 5 6 7 -9 -18 26 -28 0
1 5 6 7 -9 18 -26 -28 0
1 5 6 7 -9 18 26 28 0
1 5 6 7 9 -18 -26 -28 0
1 5 6 7 9 -18 26 28 0
1 5 6 7 9 18 -26 28 0
1 5 6 7 9 18 26 -28 0
1 10 -16 -21 -22 -25 -29 33 0
1 10 -16 -21 -22 -25 29 -33 0
1 10 -16 -21 -22 25 -29 -33 0
1 10 -16 -21 -22 25 29 33 0
1 10 -16 -21 22 -25 -29 -33 0
1 10 -16 -21 22 -25 29 33 0
1 10 -16 -21 22 25 -29 33 0
1 10 -16 -21 22 25 29 -33 0
1 10 -16 21 -22 -25 -29 -33 0
1 10 -16 21 -22 -25 29 33 0
1 10 -16 21 -22 25 -29 33 0
1 10 -16 21 -22 25 29 -33 0
1 10 -16 21 22 -25 -29 33 0
1 10 -16 21 22 -25 29 -33 0
1 10 -16 21 22 25 -29 -33 0
1 10 -16 21 22 25 29 33 0
1 10 16 -21 -22 -25 -29 -33 0
1 10 16 -21 -22 -25 29 33 0
1 10 16 -21 -22 25 -29 33 0
1 10 16 -21 -22 25 29 -33 0
1 10 16 -21 22 -25 -29 33 0
1 10 16 -21 22 -25 29 -33 0
1 10 16 -21 22 25 -29 -33 0
1 10 16 -21 22 25 29 33 0
1 10 16 21 -22 -25 -29 33 0
1 10 16 21 -22 -25 29 -33 0
1 10 16 21 -22 25 -29 -33 0
1 10 16 21 -22 25 29 33 0
1 10 16 21 22 -25 -29 -33 0
1 10 16 21 22 -25 29 33 0
1 10 16 21 22 25 -29 33 0
1 10 16 21 22 25 29 -33 0
2 -5 -8 -11 -12 -13 -19 -29 0
2 -5 -8 -11 -12 -13 19 29 0
2 -5 -8 -11 -12 13 -19 29 0
2 -5 -8 -11 -12 13 19 -29 0
2 -5 -8 -11 12 -13 -19 29 0
2 -5 -8 -11 12 -13 19 -29 0
2 -5 -8 -11 12 13 -19 -29 0
2 -5 -8 -11 12 13 19 29 0
2 -5 -8 11 -12 -13 -19 29 0
2 -5 -8 11 -12 -13 19 -29 0
2 -5 -8 11 -12 13 -19 -29 0
2 -5 -8 11 -12 13 19 29 0
2 -5 -8 11 12 -13 -19 -29 0
2 -5 -8 11 12 -13 19 29 0
2 -5 -8 11 12 13 -19 29 0
2 -5 -8 11 12 13 19 -29 0
2 -5 8 -11 -12 -13 -19 29 0
2 -5 8 -11 -12 -13 19 -29 0
2 -5 8 -11 -12 13 -19 -29 0
2 -5 8 -11 -12 13 19 29 0
2 -5 8 -11 12 -13 -19 -29 0
2 -5 8 -11 12 -13 19 29 0
2 -5 8 -11 12 13 -19 29 0
2 -5 8 -11 12 13 19 -29 0
2 -5 8 11 -12 -13 -19 -29 0
2 -5 8 11 -12 -13 19 29 0
2 -5 8 11 -12 13 -19 29 0
2 -5 8 11 -12 13 19 -29 0
2 -5 8 11 12 -13 -19 29 0
2 -5 8 11 12 -13 19 -29 0
2 -5 8 11 12 13 -19 -29 0
2 -5 8 11 12 13 19 29 0
2 -3 -4 -9 -10 -23 -30 31 0
2 -3 -4 -9 -10 -23 30 -31 0
2 -3 -4 -9 -10 23 -30 -31 0
2 -3 -4 -9 -10 23 30 31 0
2 -3 -4 -9 10 -23 -30 -31 0
2 -3 -4 -9 10 -23 30 31 0
2 -3 -4 -9 10 23 -30 31 0
2 -3 -4 -9 10 23 30 -31 0
2 -3 -4 9 -10 -23 -30 -31 0
2 -3 -4 9 -10 -23 30 31 0
2 -3 -4 9 -10 23 -30 31 0
2 -3 -4 9 -10 23 30 -31 0
2 -3 -4 9 10 -23 -30 31 0
2 -3 -4 9 10 -23 30 -31 0
2 -3 -4 9 10 23 -30 -31 0
2 -3 -4 9 10 23 30 31 0
2 -3 4 -9 -10 -23 -30 -31 0
2 -3 4 -9 -10 -23 30 31 0
2 -3 4 -9 -10 23 -30 31 0
2 -3 4 -9 -10 23 30 -31 0
2 -3 4 -9 10 -23 -30 31 0
2 -3 4 -9 10 -23 30 -31 0
2 -3 4 -9 10 23 -30 -31 0
2 -3 4 -9 10 23 30 31 0
2 -3 4 9 -10 -23 -30 31 0
2 -3 4 9 -10 -23 30 -31 0
2 -3 4 9 -10 23 -30 -31 0
2 -3 4 9 -10 23 30 31 0
2 -3 4 9 10 -23 -30 -31 0
2 -3 4 9 10 -23 30 31 0
2 -3 4 9 10 23 -30 31 0
2 -3 4 9 10 23 30 -31 0
2 3 -4 -9 -10 -23 -30 -31 0
2 3 -4 -9 -10 -23 30 31 0
2 3 -4 -9 -10 23 -30 31 0
2 3 -4 -9 -10 23 30 -31 0
2 3 -4 -9 10 -23 -30 31 0
2 3 -4 -9 10 -23 30 -31 0
2 3 -4 -9 10 23 -30 -31 0
2 3 -4 -9 10 23 30 31 0
2 3 -4 9 -10 -23 -30 31 0
2 3 -4 9 -10 -23 30 -31 0
2 3 -4 9 -10 23 -30 -31 0
2 3 -4 9 -10 23 30 31 0
2 3 -4 9 10 -23 -30 -31 0
2 3 -4 9 10 -23 30 31 0
2 3 -4 9 10 23 -30 31 0
2 3 -4 9 10 23 30 -31 0
2 3 4 -9 -10 -23 -30 31 0
2 3 4 -9 -10 -23 30 -31 0
2 3 4 -9 -10 23 -30 -31 0
2 3 4 -9 -10 23 30 31 0
2 3 4 -9 10 -23 -30 -31 0
2 3 4 -9 10 -23 30 31 0
2 3 4 -9 10 23 -30 31 0
2 3 4 -9 10 23 30 -31 0
2 3 4 9 -10 -23 -30 -31 0
2 3 4 9 -10 -23 30 31 0
2 3 4 9 -10 23 -30 31 0
2 3 4 9 -10 23 30 -31 0
2 3 4 9 10 -23 -30 31 0
2 3 4 9 10 -23 30 -31 0
2 3 4 9 10 23 -30 -31 0
2 3 4 9 10 23 30 31 0
2 5 -8 -11 -12 -13 -19 29 0
2 5 -8 -11 -12 -13 19 -29 0
2 5 -8 -11 -12 13 -19 -29 0
2 5 -8 -11 -12 13 19 29 0
2 5 -8 -11 12 -13 -19 -29 0
2 5 -8 -11 12 -13 19 29 0
2 5 -8 -11 12 13 -19 29 0
2 5 -8 -11 12 13 19 -29 0
2 5 -8 11 -12 -13 -19 -29 0
2 5 -8 11 -12 -13 19 29 0
2 5 -8 11 -12 13 -19 29 0
2 5 -8 11 -12 13 19 -29 0
2 5 -8 11 12 -13 -19 29 0
2 5 -8 11 12 -13 19 -29 0
2 5 -8 11 12 13 -19 -29 0
2 5 -8 11 12 13 19 29 0
2 5 8 -11 -12 -13 -19 -29 0
2 5 8 -11 -12 -13 19 29 0
2 5 8 -11 -12 13 -19 29 0
2 5 8 -11 -12 13 19 -29 0
2 5 8 -11 12 -13 -19 29 0
2 5 8 -11 12 -13 19 -29 0
2 5 8 -11 12 13 -19 -29 0
2 5 8 -11 12 13 19 29 0
2 5 8 11 -12 -13 -19 29 0
2 5 8 11 -12 -13 19 -29 0
2 5 8 11 -12 13 -19 -29 0
2 5 8 11 -12 13 19 29 0
2 5 8 11 12 -13 -19 -29 0
2 5 8 11 12 -13 19 29 0
2 5 8 11 12 13 -19 29 0
2 5 8 11 12 13 19 -29 0
3 -6 -12 -14 -15 -16 -27 -34 0
3 -6 -12 -14 -15 -16 27 34 0
3 -6 -12 -14 -15 16 -27 34 0
3 -6 -12 -14 -15 16 27 -34 0
3 -6 -12 -14 15 -16 -27 34 0
3 -6 -12 -14 15 -16 27 -34 0
3 -6 -12 -14 15 16 -27 -34 0
3 -6 -12 -14 15 16 27 34 0
3 -6 -12 14 -15 -16 -27 34 0
3 -6 -12 14 -15 -16 27 -34 0
3 -6 -12 14 -15 16 -27 -34 0
3 -6 -12 14 -15 16 27 34 0
3 -6 -12 14 15 -16 -27 -34 0
3 -6 -12 14 15 -16 27 34 0
3 -6 -12 14 15 16 -27 34 0
3 -6 -12 14 15 16 27 -34 0
3 -6 12 -14 -15 -16 -27 34 0
3 -6 12 -14 -15 -16 27 -34 0
3 -6 12 -14 -15 16 -27 -34 0
3 -6 12 -14 -15 16 27 34 0
3 -6 12 -14 15 -16 -27 -34 0
3 -6 12 -14 15 -16 27 34 0
3 -6 12 -14 15 16 -27 34 0
3 -6 12 -14 15 16 27 -34 0
3 -6 12 14 -15 -16 -27 -34 0
3 -6 12 14 -15 -16 27 34 0
3 -6 12 14 -15 16 -27 34 0
3 -6 12 14 -15 16 27 -34 0
3 -6 12 14 15 -16 -27 34 0
3 -6 12 14 15 -16 27 -34 0
3 -6 12 14 15 16 -27 -34 0
3 -6 12 14 15 16 27 34 0
3 6 -12 -14 -15 -16 -27 34 0
3 6 -12 -14 -15 -16 27 -34 0
3 6 -12 -14 -15 16 -27 -34 0
3 6 -12 -14 -15 16 27 34 0
3 6 -12 -14 15 -16 -27 -34 0
3 6 -12 -14 15 -16 27 34 0
3 6 -12 -14 15 16 -27 34 0
3 6 -12 -14 15 16 27 -34 0
3 6 -12 14 -15 -16 -27 -34 0
3 6 -12 14 -15 -16 27 34 0
3 6 -12 14 -15 16 -27 34 0
3 6 -12 14 -15 16 27 -34 0
3 6 -12 14 15 -16 -27 34 0
3 6 -12 14 15 -16 27 -34 0
3 6 -12 14 15 16 -27 -34 0
3 6 -12 14 15 16 27 34 0
3 6 12 -14 -15 -16 -27 -34 0
3 6 12 -14 -15 -16 27 34 0
3 6 12 -14 -15 16 -27 34 0
3 6 12 -14 -15 16 27 -34 0
3 6 12 -14 15 -16 -27 34 0
3 6 12 -14 15 -16 27 -34 0
3 6 12 -14 15 16 -27 -34 0
3 6 12 -14 15 16 27 34 0
3 6 12 14 -15 -16 -27 34 0
3 6 12 14 -15 -16 27 -34 0
3 6 12 14 -15 16 -27 -34 0
3 6 12 14 -15 16 27 34 0
3 6 12 14 15 -16 -27 -34 0
3 6 12 14 15 -16 27 34 0
3 6 12 14 15 16 -27 34 0
3 6 12 14 15 16 27 -34 0
4 -8 -21 -24 -26 -32 -34 -36 0
4 -8 -21 -24 -26 -32 34 36 0
4 -8 -21 -24 -26 32 -34 36 0
4 -8 -21 -24 -26 32 34 -36 0
4 -8 -21 -24 26 -32 -34 36 0
4 -8 -21 -24 26 -32 34 -36 0
4 -8 -21 -24 26 32 -34 -36 0
4 -8 -21 -24 26 32 34 36 0
4 -8 -21 24 -26 -32 -34 36 0
4 -8 -21 24 -26 -32 34 -36 0
4 -8 -21 24 -26 32 -34 -36 0
4 -8 -21 24 -26 32 34 36 0
4 -8 -21 24 26 -32 -34 -36 0
4 -8 -21 24 26 -32 34 36 0
4 -8 -21 24 26 32 -34 36 0
4 -8 -21 24 26 32 34 -36 0
4 -8 21 -24 -26 -32 -34 36 0
4 -8 21 -24 -26 -32 34 -36 0
4 -8 21 -24 -26 32 -34 -36 0
4 -8 21 -24 -26 32 34 36 0
4 -8 21 -24 26 -32 -34 -36 0
4 -8 21 -24 26 -32 34 36 0
4 -8 21 -24 26 32 -34 36 0
4 -8 21 -24 26 32 34 -36 0
4 -8 21 24 -26 -32 -34 -36 0
4 -8 21 24 -26 -32 34 36 0
4 -8 21 24 -26 32 -34 36 0
4 -8 21 24 -26 32 34 -36 0
4 -8 21 24 26 -32 -34 36 0
4 -8 21 24 26 -32 34 -36 0
4 -8 21 24 26 32 -34 -36 0
4 -8 21 24 26 32 34 36 0
4 8 -21 -24 -26 -32 -34 36 0
4 8 -21 -24 -26 -32 34 -36 0
4 8 -21 -24 -26 32 -34 -36 0
4 8 -21 -24 -26 32 34 36 0
4 8 -21 -24 26 -32 -34 -36 0
4 8 -21 -24 26 -32 34 36 0
4 8 -21 -24 26 32 -34 36 0
4 8 -21 -24 26 32 34 -36 0
4 8 -21 24 -26 -32 -34 -36 0
4 8 -21 24 -26 -32 34 36 0
4 8 -21 24 -26 32 -34 36 0
4 8 -21 24 -26 32 34 -36 0
4 8 -21 24 26 -32 -34 36 0
4 8 -21 24 26 -32 34 -36 0
4 8 -21 24 26 32 -34 -36 0
4 8 -21 24 26 32 34 36 0
4 8 21 -24 -26 -32 -34 -36 0
4 8 21 -24 -26 -32 34 36 0
4 8 21 -24 -26 32 -34 36 0
4 8 21 -24 -26 32 34 -36 0
4 8 21 -24 26 -32 -34 36 0
4 8 21 -24 26 -32 34 -36 0
4 8 21 -24 26 32 -34 -36 0
4 8 21 -24 26 32 34 36 0
4 8 21 24 -26 -32 -34 36 0
4 8 21 24 -26 -32 34 -36 0
4 8 21 24 -26 32 -34 -36 0
4 8 21 24 -26 32 34 36 0
4 8 21 24 26 -32 -34 -36 0
4 8 21 24 26 -32 34 36 0
4 8 21 24 26 32 -34 36 0
4 8 21 24 26 32 34 -36 0
7 -11 -17 -20 -23 -27 -32 -33 0
7 -11 -17 -20 -23 -27 32 33 0
7 -11 -17 -20 -23 27 -32 33 0
7 -11 -17 -20 -23 27 32 -33 0
7 -11 -17 -20 23 -27 -32 33 0
7 -11 -17 -20 23 -27 32 -33 0
7 -11 -17 -20 23 27 -32 -33 0
7 -11 -17 -20 23 27 32 33 0
7 -11 -17 20 -23 -27 -32 33 0
7 -11 -17 20 -23 -27 32 -33 0
7 -11 -17 20 -23 27 -32 -33 0
7 -11 -17 20 -23 27 32 33 0
7 -11 -17 20 23 -27 -32 -33 0
7 -11 -17 20 23 -27 32 33 0
7 -11 -17 20 23 27 -32 33 0
7 -11 -17 20 23 27 32 -33 0
7 -11 17 -20 -23 -27 -32 33 0
7 -11 17 -20 -23 -27 32 -33 0
7 -11 17 -20 -23 27 -32 -33 0
7 -11 17 -20 -23 27 32 33 0
7 -11 17 -20 23 -27 -32 -33 0
7 -11 17 -20 23 -27 32 33 0
7 -11 17 -20 23 27 -32 33 0
7 -11 17 -20 23 27 32 -33 0
7 -11 17 20 -23 -27 -32 -33 0
7 -11 17 20 -23 -27 32 33 0
7 -11 17 20 -23 27 -32 33 0
7 -11 17 20 -23 27 32 -33 0
7 -11 17 20 23 -27 -32 33 0
7 -11 17 20 23 -27 32 -33 0
7 -11 17 20 23 27 -32 -33 0
7 -11 17 20 23 27 32 33 0
7 11 -17 -20 -23 -27 -32 33 0
7 11 -17 -20 -23 -27 32 -33 0
7 11 -17 -20 -23 27 -32 -33 0
7 11 -17 -20 -23 27 32 33 0
7 11 -17 -20 23 -27 -32 -33 0
7 11 -17 -20 23 -27 32 33 0
7 11 -17 -20 23 27 -32 33 0
7 11 -17 -20 23 27 32 -33 0
7 11 -17 20 -23 -27 -32 -33 0
7 11 -17 20 -23 -27 32 33 0
7 11 -17 20 -23 27 -32 33 0
7 11 -17 20 -23 27 32 -33 0
7 11 -17 20 23 -27 -32 33 0
7 11 -17 20 23 -27 32 -33 0
7 11 -17 20 23 27 -32 -33 0
7 11 -17 20 23 27 32 33 0
7 11 17 -20 -23 -27 -32 -33 0
7 11 17 -20 -23 -27 32 33 0
7 11 17 -20 -23 27 -32 33 0
7 11 17 -20 -23 27 32 -33 0
7 11 17 -20 23 -27 -32 33 0
7 11 17 -20 23 -27 32 -33 0
7 11 17 -20 23 27 -32 -33 0
7 11 17 -20 23 27 32 33 0
7 11 17 20 -23 -27 -32 33 0
7 11 17 20 -23 -27 32 -33 0
7 11 17 20 -23 27 -32 -33 0
7 11 17 20 -23 27 32 33 0
7 11 17 20 23 -27 -32 -33 0
7 11 17 20 23 -27 32 33 0
7 11 17 20 23 27 -32 33 0
7 11 17 20 23 27 32 -33 0
13 -14 -20 -25 -28 -31 -35 -36 0
13 -14 -20 -25 -28 -31 35 36 0
13 -14 -20 -25 -28 31 -35 36 0
13 -14 -20 -25 -28 31 35 -36 0
13 -14 -20 -25 28 -31 -35 36 0
13 -14 -20 -25 28 -31 35 -36 0
13 -14 -20 -25 28 31 -35 -36 0
13 -14 -20 -25 28 31 35 36 0
13 -14 -20 25 -28 -31 -35 36 0
13 -14 -20 25 -28 -31 35 -36 0
13 -14 -20 25 -28 31 -35 -36 0
13 -14 -20 25 -28 31 35 36 0
13 -14 -20 25 28 -31 -35 -36 0
13 -14 -20 25 28 -31 35 36 0
13 -14 -20 25 28 31 -35 36 0
13 -14 -20 25 28 31 35 -36 0
13 -14 20 -25 -28 -31 -35 36 0
13 -14 20 -25 -28 -31 35 -36 0
13 -14 20 -25 -28 31 -35 -36 0
13 -14 20 -25 -28 31 35 36 0
13 -14 20 -25 28 -31 -35 -36 0
13 -14 20 -25 28 -31 35 36 0
13 -14 20 -25 28 31 -35 36 0
13 -14 20 -25 28 31 35 -36 0
13 -14 20 25 -28 -31 -35 -36 0
13 -14 20 25 -28 -31 35 36 0
13 -14 20 25 -28 31 -35 36 0
13 -14 20 25 -28 31 35 -36 0
13 -14 20 25 28 -31 -35 36 0
13 -14 20 25 28 -31 35 -36 0
13 -14 20 25 28 31 -35 -36 0
13 -14 20 25 28 31 35 36 0
13 14 -20 -25 -28 -31 -35 36 0
13 14 -20 -25 -28 -31 35 -36 0
13 14 -20 -25 -28 31 -35 -36 0
13 14 -20 -25 -28 31 35 36 0
13 14 -20 -25 28 -31 -35 -36 0
13 14 -20 -25 28 -31 35 36 0
13 14 -20 -25 28 31 -35 36 0
13 14 -20 -25 28 31 35 -36 0
13 14 -20 25 -28 -31 -35 -36 0
13 14 -20 25 -28 -31 35 36 0
13 14 -20 25 -28 31 -35 36 0
13 14 -20 25 -28 31 35 -36 0
13 14 -20 25 28 -31 -35 36 0
13 14 -20 25 28 -31 35 -36 0
13 14 -20 25 28 31 -35 -36 0
13 14 -20 25 28 31 35 36 0
13 14 20 -25 -28 -31 -35 -36 0
13 14 20 -25 -28 -31 35 36 0
13 14 20 -25 -28 31 -35 36 0
13 14 20 -25 -28 31 35 -36 0
13 14 20 -25 28 -31 -35 36 0
13 14 20 -25 28 -31 35 -36 0
13 14 20 -25 28 31 -35 -36 0
13 14 20 -25 28 31 35 36 0
13 14 20 25 -28 -31 -35 36 0
13 14 20 25 -28 -31 35 -36 0
13 14 20 25 -28 31 -35 -36 0
13 14 20 25 -28 31 35 36 0
13 14 20 25 28 -31 -35 -36 0
13 14 20 25 28 -31 35 36 0
13 14 20 25 28 31 -35 36 0
13 14 20 25 28 31 35 -36 0
15 -17 -18 -19 -22 -24 -30 -35 0
15 -17 -18 -19 -22 -24 30 35 0
15 -17 -18 -19 -22 24 -30 35 0
15 -17 -18 -19 -22 24 30 -35 0
15 -17 -18 -19 22 -24 -30 35 0
15 -17 -18 -19 22 -24 30 -35 0
15 -17 -18 -19 22 24 -30 -35 0
15 -17 -18 -19 22 24 30 35 0
15 -17 -18 19 -22 -24 -30 35 0
15 -17 -18 19 -22 -24 30 -35 0
15 -17 -18 19 -22 24 -30 -35 0
15 -17 -18 19 -22 24 30 35 0
15 -17 -18 19 22 -24 -30 -35 0
15 -17 -18 19 22 -24 30 35 0
15 -17 -18 19 22 24 -30 35 0
15 -17 -18 19 22 24 30 -35 0
15 -17 18 -19 -22 -24 -30 35 0
15 -17 18 -19 -22 -24 30 -35 0
15 -17 18 -19 -22 24 -30 -35 0
15 -17 18 -19 -22 24 30 35 0
15 -17 18 -19 22 -24 -30 -35 0
15 -17 18 -19 22 -24 30 35 0
15 -17 18 -19 22 24 -30 35 0
15 -17 18 -19 22 24 30 -35 0
15 -17 18 19 -22 -24 -30 -35 0
15 -17 18 19 -22 -24 30 35 0
15 -17 18 19 -22 24 -30 35 0
15 -17 18 19 -22 24 30 -35 0
15 -17 18 19 22 -24 -30 35 0
15 -17 18 19 22 -24 30 -35 0
15 -17 18 19 22 24 -30 -35 0
15 -17 18 19 22 24 30 35 0
15 17 -18 -19 -22 -24 -30 35 0
15 17 -18 -19 -22 -24 30 -35 0
15 17 -18 -19 -22 24 -30 -35 0
15 17 -18 -19 -22 24 30 35 0
15 17 -18 -19 22 -24 -30 -35 0
15 17 -18 -19 22 -24 30 35 0
15 17 -18 -19 22 24 -30 35 0
15 17 -18 -19 22 24 30 -35 0
15 17 -18 19 -22 -24 -30 -35 0
15 17 -18 19 -22 -24 30 35 0
15 17 -18 19 -22 24 -30 35 0
15 17 -18 19 -22 24 30 -35 0
15 17 -18 19 22 -24 -30 35 0
15 17 -18 19 22 -24 30 -35 0
15 17 -18 19 22 24 -30 -35 0
15 17 -18 19 22 24 30 35 0
15 17 18 -19 -22 -24 -30 -35 0
15 17 18 -19 -22 -24 30 35 0
15 17 18 -19 -22 24 -30 35 0
15 17 18 -19 -22 24 30 -35 0
15 17 18 -19 22 -24 -30 35 0
15 17 18 -19 22 -24 30 -35 0
15 17 18 -19 22 24 -30 -35 0
15 17 18 -19 22 24 30 35 0
15 17 18 19 -22 -24 -30 35 0
15 17 18 19 -22 -24 30 -35 0
15 17 18 19 -22 24 -30 -35 0
15 17 18 19 -22 24 30 35 0
15 17 18 19 22 -24 -30 -35 0
15 17 18 19 22 -24 30 35 0
15 17 18 19 22 24 -30 35 0
15 17 18 19 22 24 30 -35 0
