p cnf 15 96
-5 -9 -12 -14 -15 0
-5 -9 -12 14 15 0
-5 -9 12 -14 15 0
-5 -9 12 14 -15 0
-5 9 -12 -14 15 0
-5 9 -12 14 -15 0
-5 9 12 -14 -15 0
-5 9 12 14 15 0
-4 -8 -11 -13 -15 0
-4 -8 -11 13 15 0
-4 -8 11 -13 15 0
-4 -8 11 13 -15 0
-4 8 -11 -13 15 0
-4 8 -11 13 -15 0
-4 8 11 -13 -15 0
-4 8 11 13 15 0
-3 -7 -10 -13 -14 0
-3 -7 -10 13 14 0
-3 -7 10 -13 14 0
-3 -7 10 13 -14 0
-3 7 -10 -13 14 0
-3 7 -10 13 -14 0
-3 7 10 -13 -14 0
-3 7 10 13 14 0
-2 -6 -10 -11 -12 0
-2 -6 -10 11 12 0
-2 -6 10 -11 12 0
-2 -6 10 11 -12 0
-2 6 -10 -11 12 0
-2 6 -10 11 -12 0
-2 6 10 -11 -12 0
-2 6 10 11 12 0
-1 -6 -7 -8 -9 0
-1 -6 -7 8 9 0
-1 -6 7 -8 9 0
-1 -6 7 8 -9 0
-1 -2 -3 -4 -5 0
-1 -2 -3 4 5 0
-1 -2 3 -4 5 0
-1 -2 3 4 -5 0
-1 2 -3 -4 5 0
-1 2 -3 4 -5 0
-1 2 3 -4 -5 0
-1 2 3 4 5 0
-1 6 -7 -8 9 0
-1 6 -7 8 -9 0
-1 6 7 -8 -9 0
-1 6 7 8 9 0
1 -6 -7 -8 9 0
1 -6 -7 8 -9 0
1 -6 7 -8 -9 0
1 -6 7 8 9 0
1 -2 -3 -4 5 0
1 -2 -3 4 -5 0
1 -2 3 -4 -5 0
1 -2 3 4 5 0
1 2 -3 -4 -5 0
1 2 -3 4 5 0
1 2 3 -4 5 0
1 2 3 4 -5 0
1 6 -7 -8 -9 0
1 6 -7 8 9 0
1 6 7 -8 9 0
1 6 7 8 -9 0
2 -6 -10 -11 12 0
2 -6 -10 11 -12 0
2 -6 10 -11 -12 0
2 -6 10 11 12 0
2 6 -10 -11 -12 0
2 6 -10 11 12 0
2 6 10 -11 12 0
2 6 10 11 -12 0
3 -7 -10 -13 14 0
3 -7 -10 13 -14 0
3 -7 10 -13 -14 0
3 -7 10 13 14 0
3 7 -10 -13 -14 0
3 7 -10 13 14 0
3 7 10 -13 14 0
3 7 10 13 -14 0
4 -8 -11 -13 15 0
4 -8 -11 13 -15 0
4 -8 11 -13 -15 0
4 -8 11 13 15 0
4 8 -11 -13 -15 0
4 8 -11 13 15 0
4 8 11 -13 15 0
4 8 11 13 -15 0
5 -9 -12 -14 15 0
5 -9 -12 14 -15 0
5 -9 12 -14 -15 0
5 -9 12 14 15 0
5 9 -12 -14 -15 0
5 9 -12 14 15 0
5 9 12 -14 15 0
5 9 12 14 -15 0
