p cnf 28 512
-7 -12 -13 -19 -20 -22 -24 0
-7 -12 -13 -19 -20 22 24 0
-7 -12 -13 -19 20 -22 24 0
-7 -12 -13 -19 20 22 -24 0
-7 -12 -13 19 -20 -22 24 0
-7 -12 -13 19 -20 22 -24 0
-7 -12 -13 19 20 -22 -24 0
-7 -12 -13 19 20 22 24 0
-7 -12 13 -19 -20 -22 24 0
-7 -12 13 -19 -20 22 -24 0
-7 -12 13 -19 20 -22 -24 0
-7 -12 13 -19 20 22 24 0
-7 -12 13 19 -20 -22 -24 0
-7 -12 13 19 -20 22 24 0
-7 -12 13 19 20 -22 24 0
-7 -12 13 19 20 22 -24 0
-7 12 -13 -19 -20 -22 24 0
-7 12 -13 -19 -20 22 -24 0
-7 12 -13 -19 20 -22 -24 0
-7 12 -13 -19 20 22 24 0
-7 12 -13 19 -20 -22 -24 0
-7 12 -13 19 -20 22 24 0
-7 12 -13 19 20 -22 24 0
-7 12 -13 19 20 22 -24 0
-7 12 13 -19 -20 -22 -24 0
-7 12 13 -19 -20 22 24 0
-7 12 13 -19 20 -22 24 0
-7 12 13 -19 20 22 -24 0
-7 12 13 19 -20 -22 24 0
-7 12 13 19 -20 22 -24 0
-7 12 13 19 20 -22 -24 0
-7 12 13 19 20 22 24 0
-6 -9 -17 -21 -23 -24 -25 0
-6 -9 -17 -21 -23 24 25 0
-6 -9 -17 -21 23 -24 25 0
-6 -9 -17 -21 23 24 -25 0
-6 -9 -17 21 -23 -24 25 0
-6 -9 -17 21 -23 24 -25 0
-6 -9 -17 21 23 -24 -25 0
-6 -9 -17 21 23 24 25 0
-6 -9 17 -21 -23 -24 25 0
-6 -9 17 -21 -23 24 -25 0
-6 -9 17 -21 23 -24 -25 0
-6 -9 17 -21 23 24 25 0
-6 -9 17 21 -23 -24 -25 0
-6 -9 17 21 -23 24 25 0
-6 -9 17 21 23 -24 25 0
-6 -9 17 21 23 24 -25 0
-6 9 -17 -21 -23 -24 25 0
-6 9 -17 -21 -23 24 -25 0
-6 9 -17 -21 23 -24 -25 0
-6 9 -17 -21 23 24 25 0
-6 9 -17 21 -23 -24 -25 0
-6 9 -17 21 -23 24 25 0
-6 9 -17 21 23 -24 25 0
-6 9 -17 21 23 24 -25 0
-6 9 17 -21 -23 -24 -25 0
-6 9 17 -21 -23 24 25 0
-6 9 17 -21 23 -24 25 0
-6 9 17 -21 23 24 -25 0
-6 9 17 21 -23 -24 25 0
-6 9 17 21 -23 24 -25 0
-6 9 17 21 23 -24 -25 0
-6 9 17 21 23 24 25 0
-4 -8 -13 -18 -25 -26 -27 0
-4 -8 -13 -18 -25 26 27 0
-4 -8 -13 -18 25 -26 27 0
-4 -8 -13 -18 25 26 -27 0
-4 -8 -13 18 -25 -26 27 0
-4 -8 -13 18 -25 26 -27 0
-4 -8 -13 18 25 -26 -27 0
-4 -8 -13 18 25 26 27 0
-4 -8 13 -18 -25 -26 27 0
-4 -8 13 -18 -25 26 -27 0
-4 -8 13 -18 25 -26 -27 0
-4 -8 13 -18 25 26 27 0
-4 -8 13 18 -25 -26 -27 0
-4 -8 13 18 -25 26 27 0
-4 -8 13 18 25 -26 27 0
-4 -8 13 18 25 26 -27 0
-4 8 -13 -18 -25 -26 27 0
-4 8 -13 -18 -25 26 -27 0
-4 8 -13 -18 25 -26 -27 0
-4 8 -13 -18 25 26 27 0
-4 8 -13 18 -25 -26 -27 0
-4 8 -13 18 -25 26 27 0
-4 8 -13 18 25 -26 27 0
-4 8 -13 18 25 26 -27 0
-4 8 13 -18 -25 -26 -27 0
-4 8 13 -18 -25 26 27 0
-4 8 13 -18 25 -26 27 0
-4 8 13 -18 25 26 -27 0
-4 8 13 18 -25 -26 27 0
-4 8 13 18 -25 26 -27 0
-4 8 13 18 25 -26 -27 0
-4 8 13 18 25 26 27 0
-3 -10 -11 -14 -17 -18 -19 0
-3 -10 -11 -14 -17 18 19 0
-3 -10 -11 -14 17 -18 19 0
-3 -10 -11 -14 17 18 -19 0
-3 -10 -11 14 -17 -18 19 0
-3 -10 -11 14 -17 18 -19 0
-3 -10 -11 14 17 -18 -19 0
-3 -10 -11 14 17 18 19 0
-3 -10 11 -14 -17 -18 19 0
-3 -10 11 -14 -17 18 -19 0
-3 -10 11 -14 17 -18 -19 0
-3 -10 11 -14 17 18 19 0
-3 -10 11 14 -17 -18 -19 0
-3 -10 11 14 -17 18 19 0
-3 -10 11 14 17 -18 19 0
-3 -10 11 14 17 18 -19 0
-3 -7 -9 -15 -16 -27 -28 0
-3 -7 -9 -15 -16 27 28 0
-3 -7 -9 -15 16 -27 28 0
-3 -7 -9 -15 16 27 -28 0
-3 -7 -9 15 -16 -27 28 0
-3 -7 -9 15 -16 27 -28 0
-3 -7 -9 15 16 -27 -28 0
-3 -7 -9 15 16 27 28 0
-3 -7 9 -15 -16 -27 28 0
-3 -7 9 -15 -16 27 -28 0
-3 -7 9 -15 16 -27 -28 0
-3 -7 9 -15 16 27 28 0
-3 -7 9 15 -16 -27 -28 0
-3 -7 9 15 -16 27 28 0
-3 -7 9 15 16 -27 28 0
-3 -7 9 15 16 27 -28 0
-3 7 -9 -15 -16 -27 28 0
-3 7 -9 -15 -16 27 -28 0
-3 7 -9 -15 16 -27 -28 0
-3 7 -9 -15 16 27 28 0
-3 7 -9 15 -16 -27 -28 0
-3 7 -9 15 -16 27 28 0
-3 7 -9 15 16 -27 28 0
-3 7 -9 15 16 27 -28 0
-3 7 9 -15 -16 -27 -28 0
-3 7 9 -15 -16 27 28 0
-3 7 9 -15 16 -27 28 0
-3 7 9 -15 16 27 -28 0
-3 7 9 15 -16 -27 28 0
-3 7 9 15 -16 27 -28 0
-3 7 9 15 16 -27 -28 0
-3 7 9 15 16 27 28 0
-3 10 -11 -14 -17 -18 19 0
-3 10 -11 -14 -17 18 -19 0
-3 10 -11 -14 17 -18 -19 0
-3 10 -11 -14 17 18 19 0
-3 10 -11 14 -17 -18 -19 0
-3 10 -11 14 -17 18 19 0
-3 10 -11 14 17 -18 19 0
-3 10 -11 14 17 18 -19 0
-3 10 11 -14 -17 -18 -19 0
-3 10 11 -14 -17 18 19 0
-3 10 11 -14 17 -18 19 0
-3 10 11 -14 17 18 -19 0
-3 10 11 14 -17 -18 19 0
-3 10 11 14 -17 18 -19 0
-3 10 11 14 17 -18 -19 0
-3 10 11 14 17 18 19 0
-2 -5 -6 -14 -15 -22 -26 0
-2 -5 -6 -14 -15 22 26 0
-2 -5 -6 -14 15 -22 26 0
-2 -5 -6 -14 15 22 -26 0
-2 -5 -6 14 -15 -22 26 0
-2 -5 -6 14 -15 22 -26 0
-2 -5 -6 14 15 -22 -26 0
-2 -5 -6 14 15 22 26 0
-2 -5 6 -14 -15 -22 26 0
-2 -5 6 -14 -15 22 -26 0
-2 -5 6 -14 15 -22 -26 0
-2 -5 6 -14 15 22 26 0
-2 -5 6 14 -15 -22 -26 0
-2 -5 6 14 -15 22 26 0
-2 -5 6 14 15 -22 26 0
-2 -5 6 14 15 22 -26 0
-2 5 -6 -14 -15 -22 26 0
-2 5 -6 -14 -15 22 -26 0
-2 5 -6 -14 15 -22 -26 0
-2 5 -6 -14 15 22 26 0
-2 5 -6 14 -15 -22 -26 0
-2 5 -6 14 -15 22 26 0
-2 5 -6 14 15 -22 26 0
-2 5 -6 14 15 22 -26 0
-2 5 6 -14 -15 -22 -26 0
-2 5 6 -14 -15 22 26 0
-2 5 6 -14 15 -22 26 0
-2 5 6 -14 15 22 -26 0
-2 5 6 14 -15 -22 26 0
-2 5 6 14 -15 22 -26 0
-2 5 6 14 15 -22 -26 0
-2 5 6 14 15 22 26 0
-1 -5 -8 -11 -12 -23 -28 0
-1 -5 -8 -11 -12 23 28 0
-1 -5 -8 -11 12 -23 28 0
-1 -5 -8 -11 12 23 -28 0
-1 -5 -8 11 -12 -23 28 0
-1 -5 -8 11 -12 23 -28 0
-1 -5 -8 11 12 -23 -28 0
-1 -5 -8 11 12 23 28 0
-1 -5 8 -11 -12 -23 28 0
-1 -5 8 -11 -12 23 -28 0
-1 -5 8 -11 12 -23 -28 0
-1 -5 8 -11 12 23 28 0
-1 -5 8 11 -12 -23 -28 0
-1 -5 8 11 -12 23 28 0
-1 -5 8 11 12 -23 28 0
-1 -5 8 11 12 23 -28 0
-1 -2 -4 -10 -16 -20 -21 0
-1 -2 -4 -10 -16 20 21 0
-1 -2 -4 -10 16 -20 21 0
-1 -2 -4 -10 16 20 -21 0
-1 -2 -4 10 -16 -20 21 0
-1 -2 -4 10 -16 20 -21 0
-1 -2 -4 10 16 -20 -21 0
-1 -2 -4 10 16 20 21 0
-1 -2 4 -10 -16 -20 21 0
-1 -2 4 -10 -16 20 -21 0
-1 -2 4 -10 16 -20 -21 0
-1 -2 4 -10 16 20 21 0
-1 -2 4 10 -16 -20 -21 0
-1 -2 4 10 -16 20 21 0
-1 -2 4 10 16 -20 21 0
-1 -2 4 10 16 20 -21 0
-1 2 -4 -10 -16 -20 21 0
-1 2 -4 -10 -16 20 -21 0
-1 2 -4 -10 16 -20 -21 0
-1 2 -4 -10 16 20 21 0
-1 2 -4 10 -16 -20 -21 0
-1 2 -4 10 -16 20 21 0
-1 2 -4 10 16 -20 21 0
-1 2 -4 10 16 20 -21 0
-1 2 4 -10 -16 -20 -21 0
-1 2 4 -10 -16 20 21 0
-1 2 4 -10 16 -20 21 0
-1 2 4 -10 16 20 -21 0
-1 2 4 10 -16 -20 21 0
-1 2 4 10 -16 20 -21 0
-1 2 4 10 16 -20 -21 0
-1 2 4 10 16 20 21 0
-1 5 -8 -11 -12 -23 28 0
-1 5 -8 -11 -12 23 -28 0
-1 5 -8 -11 12 -23 -28 0
-1 5 -8 -11 12 23 28 0
-1 5 -8 11 -12 -23 -28 0
-1 5 -8 11 -12 23 28 0
-1 5 -8 11 12 -23 28 0
-1 5 -8 11 12 23 -28 0
-1 5 8 -11 -12 -23 -28 0
-1 5 8 -11 -12 23 28 0
-1 5 8 -11 12 -23 28 0
-1 5 8 -11 12 23 -28 0
-1 5 8 11 -12 -23 28 0
-1 5 8 11 -12 23 -28 0
-1 5 8 11 12 -23 -28 0
-1 5 8 11 12 23 28 0
1 -5 -8 -11 -12 -23 28 0
1 -5 -8 -11 -12 23 -28 0
1 -5 -8 -11 12 -23 -28 0
1 -5 -8 -11 12 23 28 0
1 -5 -8 11 -12 -23 -28 0
1 -5 -8 11 -12 23 28 0
1 -5 -8 11 12 -23 28 0
1 -5 -8 11 12 23 -28 0
1 -5 8 -11 -12 -23 -28 0
1 -5 8 -11 -12 23 28 0
1 -5 8 -11 12 -23 28 0
1 -5 8 -11 12 23 -28 0
1 -5 8 11 -12 -23 28 0
1 -5 8 11 -12 23 -28 0
1 -5 8 11 12 -23 -28 0
1 -5 8 11 12 23 28 0
1 -2 -4 -10 -16 -20 21 0
1 -2 -4 -10 -16 20 -21 0
1 -2 -4 -10 16 -20 -21 0
1 -2 -4 -10 16 20 21 0
1 -2 -4 10 -16 -20 -21 0
1 -2 -4 10 -16 20 21 0
1 -2 -4 10 16 -20 21 0
1 -2 -4 10 16 20 -21 0
1 -2 4 -10 -16 -20 -21 0
1 -2 4 -10 -16 20 21 0
1 -2 4 -10 16 -20 21 0
1 -2 4 -10 16 20 -21 0
1 -2 4 10 -16 -20 21 0
1 -2 4 10 -16 20 -21 0
1 -2 4 10 16 -20 -21 0
1 -2 4 10 16 20 21 0
1 2 -4 -10 -16 -20 -21 0
1 2 -4 -10 -16 20 21 0
1 2 -4 -10 16 -20 21 0
1 2 -4 -10 16 20 -21 0
1 2 -4 10 -16 -20 21 0
1 2 -4 10 -16 20 -21 0
1 2 -4 10 16 -20 -21 0
1 2 -4 10 16 20 21 0
1 2 4 -10 -16 -20 21 0
1 2 4 -10 -16 20 -21 0
1 2 4 -10 16 -20 -21 0
1 2 4 -10 16 20 21 0
1 2 4 10 -16 -20 -21 0
1 2 4 10 -16 20 21 0
1 2 4 10 16 -20 21 0
1 2 4 10 16 20 -21 0
1 5 -8 -11 -12 -23 -28 0
1 5 -8 -11 -12 23 28 0
1 5 -8 -11 12 -23 28 0
1 5 -8 -11 12 23 -28 0
1 5 -8 11 -12 -23 28 0
1 5 -8 11 -12 23 -28 0
1 5 -8 11 12 -23 -28 0
1 5 -8 11 12 23 28 0
1 5 8 -11 -12 -23 28 0
1 5 8 -11 -12 23 -28 0
1 5 8 -11 12 -23 -28 0
1 5 8 -11 12 23 28 0
1 5 8 11 -12 -23 -28 0
1 5 8 11 -12 23 28 0
1 5 8 11 12 -23 28 0
1 5 8 11 12 23 -28 0
2 -5 -6 -14 -15 -22 26 0
2 -5 -6 -14 -15 22 -26 0
2 -5 -6 -14 15 -22 -26 0
2 -5 -6 -14 15 22 26 0
2 -5 -6 14 -15 -22 -26 0
2 -5 -6 14 -15 22 26 0
2 -5 -6 14 15 -22 26 0
2 -5 -6 14 15 22 -26 0
2 -5 6 -14 -15 -22 -26 0
2 -5 6 -14 -15 22 26 0
2 -5 6 -14 15 -22 26 0
2 -5 6 -14 15 22 -26 0
2 -5 6 14 -15 -22 26 0
2 -5 6 14 -15 22 -26 0
2 -5 6 14 15 -22 -26 0
2 -5 6 14 15 22 26 0
2 5 -6 -14 -15 -22 -26 0
2 5 -6 -14 -15 22 26 0
2 5 -6 -14 15 -22 26 0
2 5 -6 -14 15 22 -26 0
2 5 -6 14 -15 -22 26 0
2 5 -6 14 -15 22 -26 0
2 5 -6 14 15 -22 -26 0
2 5 -6 14 15 22 26 0
2 5 6 -14 -15 -22 26 0
2 5 6 -14 -15 22 -26 0
2 5 6 -14 15 -22 -26 0
2 5 6 -14 15 22 26 0
2 5 6 14 -15 -22 -26 0
2 5 6 14 -15 22 26 0
2 5 6 14 15 -22 26 0
2 5 6 14 15 22 -26 0
3 -10 -11 -14 -17 -18 19 0
3 -10 -11 -14 -17 18 -19 0
3 -10 -11 -14 17 -18 -19 0
3 -10 -11 -14 17 18 19 0
3 -10 -11 14 -17 -18 -19 0
3 -10 -11 14 -17 18 19 0
3 -10 -11 14 17 -18 19 0
3 -10 -11 14 17 18 -19 0
3 -10 11 -14 -17 -18 -19 0
3 -10 11 -14 -17 18 19 0
3 -10 11 -14 17 -18 19 0
3 -10 11 -14 17 18 -19 0
3 -10 11 14 -17 -18 19 0
3 -10 11 14 -17 18 -19 0
3 -10 11 14 17 -18 -19 0
3 -10 11 14 17 18 19 0
3 -7 -9 -15 -16 -27 28 0
3 -7 -9 -15 -16 27 -28 0
3 -7 -9 -15 16 -27 -28 0
3 -7 -9 -15 16 27 28 0
3 -7 -9 15 -16 -27 -28 0
3 -7 -9 15 -16 27 28 0
3 -7 -9 15 16 -27 28 0
3 -7 -9 15 16 27 -28 0
3 -7 9 -15 -16 -27 -28 0
3 -7 9 -15 -16 27 28 0
3 -7 9 -15 16 -27 28 0
3 -7 9 -15 16 27 -28 0
3 -7 9 15 -16 -27 28 0
3 -7 9 15 -16 27 -28 0
3 -7 9 15 16 -27 -28 0
3 -7 9 15 16 27 28 0
3 7 -9 -15 -16 -27 -28 0
3 7 -9 -15 -16 27 28 0
3 7 -9 -15 16 -27 28 0
3 7 -9 -15 16 27 -28 0
3 7 -9 15 -16 -27 28 0
3 7 -9 15 -16 27 -28 0
3 7 -9 15 16 -27 -28 0
3 7 -9 15 16 27 28 0
3 7 9 -15 -16 -27 28 0
3 7 9 -15 -16 27 -28 0
3 7 9 -15 16 -27 -28 0
3 7 9 -15 16 27 28 0
3 7 9 15 -16 -27 -28 0
3 7 9 15 -16 27 28 0
3 7 9 15 16 -27 28 0
3 7 9 15 16 27 -28 0
3 10 -11 -14 -17 -18 -19 0
3 10 -11 -14 -17 18 19 0
3 10 -11 -14 17 -18 19 0
3 10 -11 -14 17 18 -19 0
3 10 -11 14 -17 -18 19 0
3 10 -11 14 -17 18 -19 0
3 10 -11 14 17 -18 -19 0
3 10 -11 14 17 18 19 0
3 10 11 -14 -17 -18 19 0
3 10 11 -14 -17 18 -19 0
3 10 11 -14 17 -18 -19 0
3 10 11 -14 17 18 19 0
3 10 11 14 -17 -18 -19 0
3 10 11 14 -17 18 19 0
3 10 11 14 17 -18 19 0
3 10 11 14 17 18 -19 0
4 -8 -13 -18 -25 -26 27 0
4 -8 -13 -18 -25 26 -27 0
4 -8 -13 -18 25 -26 -27 0
4 -8 -13 -18 25 26 27 0
4 -8 -13 18 -25 -26 -27 0
4 -8 -13 18 -25 26 27 0
4 -8 -13 18 25 -26 27 0
4 -8 -13 18 25 26 -27 0
4 -8 13 -18 -25 -26 -27 0
4 -8 13 -18 -25 26 27 0
4 -8 13 -18 25 -26 27 0
4 -8 13 -18 25 26 -27 0
4 -8 13 18 -25 -26 27 0
4 -8 13 18 -25 26 -27 0
4 -8 13 18 25 -26 -27 0
4 -8 13 18 25 26 27 0
4 8 -13 -18 -25 -26 -27 0
4 8 -13 -18 -25 26 27 0
4 8 -13 -18 25 -26 27 0
4 8 -13 -18 25 26 -27 0
4 8 -13 18 -25 -26 27 0
4 8 -13 18 -25 26 -27 0
4 8 -13 18 25 -26 -27 0
4 8 -13 18 25 26 27 0
4 8 13 -18 -25 -26 27 0
4 8 13 -18 -25 26 -27 0
4 8 13 -18 25 -26 -27 0
4 8 13 -18 25 26 27 0
4 8 13 18 -25 -26 -27 0
4 8 13 18 -25 26 27 0
4 8 13 18 25 -26 27 0
4 8 13 18 25 26 -27 0
6 -9 -17 -21 -23 -24 25 0
6 -9 -17 -21 -23 24 -25 0
6 -9 -17 -21 23 -24 -25 0
6 -9 -17 -21 23 24 25 0
6 -9 -17 21 -23 -24 -25 0
6 -9 -17 21 -23 24 25 0
6 -9 -17 21 23 -24 25 0
6 -9 -17 21 23 24 -25 0
6 -9 17 -21 -23 -24 -25 0
6 -9 17 -21 -23 24 25 0
6 -9 17 -21 23 -24 25 0
6 -9 17 -21 23 24 -25 0
6 -9 17 21 -23 -24 25 0
6 -9 17 21 -23 24 -25 0
6 -9 17 21 23 -24 -25 0
6 -9 17 21 23 24 25 0
6 9 -17 -21 -23 -24 -25 0
6 9 -17 -21 -23 24 25 0
6 9 -17 -21 23 -24 25 0
6 9 -17 -21 23 24 -25 0
6 9 -17 21 -23 -24 25 0
6 9 -17 21 -23 24 -25 0
6 9 -17 21 23 -24 -25 0
6 9 -17 21 23 24 25 0
6 9 17 -21 -23 -24 25 0
6 9 17 -21 -23 24 -25 0
6 9 17 -21 23 -24 -25 0
6 9 17 -21 23 24 25 0
6 9 17 21 -23 -24 -25 0
6 9 17 21 -23 24 25 0
6 9 17 21 23 -24 25 0
6 9 17 21 23 24 -25 0
7 -12 -13 -19 -20 -22 24 0
7 -12 -13 -19 -20 22 -24 0
7 -12 -13 -19 20 -22 -24 0
7 -12 -13 -19 20 22 24 0
7 -12 -13 19 -20 -22 -24 0
7 -12 -13 19 -20 22 24 0
7 -12 -13 19 20 -22 24 0
7 -12 -13 19 20 22 -24 0
7 -12 13 -19 -20 -22 -24 0
7 -12 13 -19 -20 22 24 0
7 -12 13 -19 20 -22 24 0
7 -12 13 -19 20 22 -24 0
7 -12 13 19 -20 -22 24 0
7 -12 13 19 -20 22 -24 0
7 -12 13 19 20 -22 -24 0
7 -12 13 19 20 22 24 0
7 12 -13 -19 -20 -22 -24 0
7 12 -13 -19 -20 22 24 0
7 12 -13 -19 20 -22 24 0
7 12 -13 -19 20 22 -24 0
7 12 -13 19 -20 -22 24 0
7 12 -13 19 -20 22 -24 0
7 12 -13 19 20 -22 -24 0
7 12 -13 19 20 22 24 0
7 12 13 -19 -20 -22 24 0
7 12 13 -19 -20 22 -24 0
7 12 13 -19 20 -22 -24 0
7 12 13 -19 20 22 24 0
7 12 13 19 -20 -22 -24 0
7 12 13 19 -20 22 24 0
7 12 13 19 20 -22 24 0
7 12 13 19 20 22 -24 0
