p cnf 21 224
-10 -15 -16 -19 -20 21 0
-10 -15 -16 -19 20 -21 0
-10 -15 -16 19 -20 -21 0
-10 -15 -16 19 20 21 0
-10 -15 16 -19 -20 -21 0
-10 -15 16 -19 20 21 0
-10 -15 16 19 -20 21 0
-10 -15 16 19 20 -21 0
-10 15 -16 -19 -20 -21 0
-10 15 -16 -19 20 21 0
-10 15 -16 19 -20 21 0
-10 15 -16 19 20 -21 0
-10 15 16 -19 -20 21 0
-10 15 16 -19 20 -21 0
-10 15 16 19 -20 -21 0
-10 15 16 19 20 21 0
-6 -7 -8 -12 -13 16 0
-6 -7 -8 -12 13 -16 0
-6 -7 -8 12 -13 -16 0
-6 -7 -8 12 13 16 0
-6 -7 8 -12 -13 -16 0
-6 -7 8 -12 13 16 0
-6 -7 8 12 -13 16 0
-6 -7 8 12 13 -16 0
-6 7 -8 -12 -13 -16 0
-6 7 -8 -12 13 16 0
-6 7 -8 12 -13 16 0
-6 7 -8 12 13 -16 0
-6 7 8 -12 -13 16 0
-6 7 8 -12 13 -16 0
-6 7 8 12 -13 -16 0
-6 7 8 12 13 16 0
-4 -6 -9 -11 -18 20 0
-4 -6 -9 -11 18 -20 0
-4 -6 -9 11 -18 -20 0
-4 -6 -9 11 18 20 0
-4 -6 9 -11 -18 -20 0
-4 -6 9 -11 18 20 0
-4 -6 9 11 -18 20 0
-4 -6 9 11 18 -20 0
-4 6 -9 -11 -18 -20 0
-4 6 -9 -11 18 20 0
-4 6 -9 11 -18 20 0
-4 6 -9 11 18 -20 0
-4 6 9 -11 -18 20 0
-4 6 9 -11 18 -20 0
-4 6 9 11 -18 -20 0
-4 6 9 11 18 20 0
-3 -4 -5 -13 -15 17 0
-3 -4 -5 -13 15 -17 0
-3 -4 -5 13 -15 -17 0
-3 -4 -5 13 15 17 0
-3 -4 5 -13 -15 -17 0
-3 -4 5 -13 15 17 0
-3 -4 5 13 -15 17 0
-3 -4 5 13 15 -17 0
-3 4 -5 -13 -15 -17 0
-3 4 -5 -13 15 17 0
-3 4 -5 13 -15 17 0
-3 4 -5 13 15 -17 0
-3 4 5 -13 -15 17 0
-3 4 5 -13 15 -17 0
-3 4 5 13 -15 -17 0
-3 4 5 13 15 17 0
-2 -3 -9 -12 -14 21 0
-2 -3 -9 -12 14 -21 0
-2 -3 -9 12 -14 -21 0
-2 -3 -9 12 14 21 0
-2 -3 9 -12 -14 -21 0
-2 -3 9 -12 14 21 0
-2 -3 9 12 -14 21 0
-2 -3 9 12 14 -21 0
-2 3 -9 -12 -14 -21 0
-2 3 -9 -12 14 21 0
-2 3 -9 12 -14 21 0
-2 3 -9 12 14 -21 0
-2 3 9 -12 -14 21 0
-2 3 9 -12 14 -21 0
-2 3 9 12 -14 -21 0
-2 3 9 12 14 21 0
-1 -5 -8 -10 -14 18 0
-1 -5 -8 -10 14 -18 0
-1 -5 -8 10 -14 -18 0
-1 -5 -8 10 14 18 0
-1 -5 8 -10 -14 -18 0
-1 -5 8 -10 14 18 0
-1 -5 8 10 -14 18 0
-1 -5 8 10 14 -18 0
-1 -2 -7 -11 -17 19 0
-1 -2 -7 -11 17 -19 0
-1 -2 -7 11 -17 -19 0
-1 -2 -7 11 17 19 0
-1 -2 7 -11 -17 -19 0
-1 -2 7 -11 17 19 0
-1 -2 7 11 -17 19 0
-1 -2 7 11 17 -19 0
-1 2 -7 -11 -17 -19 0
-1 2 -7 -11 17 19 0
-1 2 -7 11 -17 19 0
-1 2 -7 11 17 -19 0
-1 2 7 -11 -17 19 0
-1 2 7 -11 17 -19 0
-1 2 7 11 -17 -19 0
-1 2 7 11 17 19 0
-1 5 -8 -10 -14 -18 0
-1 5 -8 -10 14 18 0
-1 5 -8 10 -14 18 0
-1 5 -8 10 14 -18 0
-1 5 8 -10 -14 18 0
-1 5 8 -10 14 -18 0
-1 5 8 10 -14 -18 0
-1 5 8 10 14 18 0
1 -5 -8 -10 -14 -18 0
1 -5 -8 -10 14 18 0
1 -5 -8 10 -14 18 0
1 -5 -8 10 14 -18 0
1 -5 8 -10 -14 18 0
1 -5 8 -10 14 -18 0
1 -5 8 10 -14 -18 0
1 -5 8 10 14 18 0
1 -2 -7 -11 -17 -19 0
1 -2 -7 -11 17 19 0
1 -2 -7 11 -17 19 0
1 -2 -7 11 17 -19 0
1 -2 7 -11 -17 19 0
1 -2 7 -11 17 -19 0
1 -2 7 11 -17 -19 0
1 -2 7 11 17 19 0
1 2 -7 -11 -17 19 0
1 2 -7 -11 17 -19 0
1 2 -7 11 -17 -19 0
1 2 -7 11 17 19 0
1 2 7 -11 -17 -19 0
1 2 7 -11 17 19 0
1 2 7 11 -17 19 0
1 2 7 11 17 -19 0
1 5 -8 -10 -14 18 0
1 5 -8 -10 14 -18 0
1 5 -8 10 -14 -18 0
1 5 -8 10 14 18 0
1 5 8 -10 -14 -18 0
1 5 8 -10 14 18 0
1 5 8 10 -14 18 0
1 5 8 10 14 -18 0
2 -3 -9 -12 -14 -21 0
2 -3 -9 -12 14 21 0
2 -3 -9 12 -14 21 0
2 -3 -9 12 14 -21 0
2 -3 9 -12 -14 21 0
2 -3 9 -12 14 -21 0
2 -3 9 12 -14 -21 0
2 -3 9 12 14 21 0
2 3 -9 -12 -14 21 0
2 3 -9 -12 14 -21 0
2 3 -9 12 -14 -21 0
2 3 -9 12 14 21 0
2 3 9 -12 -14 -21 0
2 3 9 -12 14 21 0
2 3 9 12 -14 21 0
2 3 9 12 14 -21 0
3 -4 -5 -13 -15 -17 0
3 -4 -5 -13 15 17 0
3 -4 -5 13 -15 17 0
3 -4 -5 13 15 -17 0
3 -4 5 -13 -15 17 0
3 -4 5 -13 15 -17 0
3 -4 5 13 -15 -17 0
3 -4 5 13 15 17 0
3 4 -5 -13 -15 17 0
3 4 -5 -13 15 -17 0
3 4 -5 13 -15 -17 0
3 4 -5 13 15 17 0
3 4 5 -13 -15 -17 0
3 4 5 -13 15 17 0
3 4 5 13 -15 17 0
3 4 5 13 15 -17 0
4 -6 -9 -11 -18 -20 0
4 -6 -9 -11 18 20 0
4 -6 -9 11 -18 20 0
4 -6 -9 11 18 -20 0
4 -6 9 -11 -18 20 0
4 -6 9 -11 18 -20 0
4 -6 9 11 -18 -20 0
4 -6 9 11 18 20 0
4 6 -9 -11 -18 20 0
4 6 -9 -11 18 -20 0
4 6 -9 11 -18 -20 0
4 6 -9 11 18 20 0
4 6 9 -11 -18 -20 0
4 6 9 -11 18 20 0
4 6 9 11 -18 20 0
4 6 9 11 18 -20 0
6 -7 -8 -12 -13 -16 0
6 -7 -8 -12 13 16 0
6 -7 -8 12 -13 16 0
6 -7 -8 12 13 -16 0
6 -7 8 -12 -13 16 0
6 -7 8 -12 13 -16 0
6 -7 8 12 -13 -16 0
6 -7 8 12 13 16 0
6 7 -8 -12 -13 16 0
6 7 -8 -12 13 -16 0
6 7 -8 12 -13 -16 0
6 7 -8 12 13 16 0
6 7 8 -12 -13 -16 0
6 7 8 -12 13 16 0
6 7 8 12 -13 16 0
6 7 8 12 13 -16 0
10 -15 -16 -19 -20 -21 0
10 -15 -16 -19 20 21 0
10 -15 -16 19 -20 21 0
10 -15 -16 19 20 -21 0
10 -15 16 -19 -20 21 0
10 -15 16 -19 20 -21 0
10 -15 16 19 -20 -21 0
10 -15 16 19 20 21 0
10 15 -16 -19 -20 21 0
10 15 -16 -19 20 -21 0
10 15 -16 19 -20 -21 0
10 15 -16 19 20 21 0
10 15 16 -19 -20 -21 0
10 15 16 -19 20 21 0
10 15 16 19 -20 21 0
10 15 16 19 20 -21 0
