p cnf 10 40
-4 -5 -7 10 0
-4 -5 7 -10 0
-4 5 -7 -10 0
-4 5 7 10 0
-2 -7 -8 9 0
-2 -7 8 -9 0
-2 -3 -6 10 0
-2 -3 6 -10 0
-2 3 -6 -10 0
-2 3 6 10 0
-2 7 -8 -9 0
-2 7 8 9 0
-1 -5 -6 9 0
-1 -5 6 -9 0
-1 -3 -4 8 0
-1 -3 4 -8 0
-1 3 -4 -8 0
-1 3 4 8 0
-1 5 -6 -9 0
-1 5 6 9 0
1 -5 -6 -9 0
1 -5 6 9 0
1 -3 -4 -8 0
1 -3 4 8 0
1 3 -4 8 0
1 3 4 -8 0
1 5 -6 9 0
1 5 6 -9 0
2 -7 -8 -9 0
2 -7 8 9 0
2 -3 -6 -10 0
2 -3 6 10 0
2 3 -6 10 0
2 3 6 -10 0
2 7 -8 9 0
2 7 8 -9 0
4 -5 -7 -10 0
4 -5 7 10 0
4 5 -7 10 0
4 5 7 -10 0
