p cnf 21 224
-5 -6 -7 -8 -19 20 0
-5 -6 -7 -8 19 -20 0
-5 -6 -7 8 -19 -20 0
-5 -6 -7 8 19 20 0
-5 -6 7 -8 -19 -20 0
-5 -6 7 -8 19 20 0
-5 -6 7 8 -19 20 0
-5 -6 7 8 19 -20 0
-5 6 -7 -8 -19 -20 0
-5 6 -7 -8 19 20 0
-5 6 -7 8 -19 20 0
-5 6 -7 8 19 -20 0
-5 6 7 -8 -19 20 0
-5 6 7 -8 19 -20 0
-5 6 7 8 -19 -20 0
-5 6 7 8 19 20 0
-4 -6 -10 -12 -14 18 0
-4 -6 -10 -12 14 -18 0
-4 -6 -10 12 -14 -18 0
-4 -6 -10 12 14 18 0
-4 -6 10 -12 -14 -18 0
-4 -6 10 -12 14 18 0
-4 -6 10 12 -14 18 0
-4 -6 10 12 14 -18 0
-4 6 -10 -12 -14 -18 0
-4 6 -10 -12 14 18 0
-4 6 -10 12 -14 18 0
-4 6 -10 12 14 -18 0
-4 6 10 -12 -14 18 0
-4 6 10 -12 14 -18 0
-4 6 10 12 -14 -18 0
-4 6 10 12 14 18 0
-3 -8 -9 -13 -17 18 0
-3 -8 -9 -13 17 -18 0
-3 -8 -9 13 -17 -18 0
-3 -8 -9 13 17 18 0
-3 -8 9 -13 -17 -18 0
-3 -8 9 -13 17 18 0
-3 -8 9 13 -17 18 0
-3 -8 9 13 17 -18 0
-3 -4 -11 -16 -20 21 0
-3 -4 -11 -16 20 -21 0
-3 -4 -11 16 -20 -21 0
-3 -4 -11 16 20 21 0
-3 -4 11 -16 -20 -21 0
-3 -4 11 -16 20 21 0
-3 -4 11 16 -20 21 0
-3 -4 11 16 20 -21 0
-3 4 -11 -16 -20 -21 0
-3 4 -11 -16 20 21 0
-3 4 -11 16 -20 21 0
-3 4 -11 16 20 -21 0
-3 4 11 -16 -20 21 0
-3 4 11 -16 20 -21 0
-3 4 11 16 -20 -21 0
-3 4 11 16 20 21 0
-3 8 -9 -13 -17 -18 0
-3 8 -9 -13 17 18 0
-3 8 -9 13 -17 18 0
-3 8 -9 13 17 -18 0
-3 8 9 -13 -17 18 0
-3 8 9 -13 17 -18 0
-3 8 9 13 -17 -18 0
-3 8 9 13 17 18 0
-2 -5 -10 -13 -15 16 0
-2 -5 -10 -13 15 -16 0
-2 -5 -10 13 -15 -16 0
-2 -5 -10 13 15 16 0
-2 -5 10 -13 -15 -16 0
-2 -5 10 -13 15 16 0
-2 -5 10 13 -15 16 0
-2 -5 10 13 15 -16 0
-2 5 -10 -13 -15 -16 0
-2 5 -10 -13 15 16 0
-2 5 -10 13 -15 16 0
-2 5 -10 13 15 -16 0
-2 5 10 -13 -15 16 0
-2 5 10 -13 15 -16 0
-2 5 10 13 -15 -16 0
-2 5 10 13 15 16 0
-1 -7 -14 -15 -17 21 0
-1 -7 -14 -15 17 -21 0
-1 -7 -14 15 -17 -21 0
-1 -7 -14 15 17 21 0
-1 -7 14 -15 -17 -21 0
-1 -7 14 -15 17 21 0
-1 -7 14 15 -17 21 0
-1 -7 14 15 17 -21 0
-1 -2 -9 -11 -12 19 0
-1 -2 -9 -11 12 -19 0
-1 -2 -9 11 -12 -19 0
-1 -2 -9 11 12 19 0
-1 -2 9 -11 -12 -19 0
-1 -2 9 -11 12 19 0
-1 -2 9 11 -12 19 0
-1 -2 9 11 12 -19 0
-1 2 -9 -11 -12 -19 0
-1 2 -9 -11 12 19 0
-1 2 -9 11 -12 19 0
-1 2 -9 11 12 -19 0
-1 2 9 -11 -12 19 0
-1 2 9 -11 12 -19 0
-1 2 9 11 -12 -19 0
-1 2 9 11 12 19 0
-1 7 -14 -15 -17 -21 0
-1 7 -14 -15 17 21 0
-1 7 -14 15 -17 21 0
-1 7 -14 15 17 -21 0
-1 7 14 -15 -17 21 0
-1 7 14 -15 17 -21 0
-1 7 14 15 -17 -21 0
-1 7 14 15 17 21 0
1 -7 -14 -15 -17 -21 0
1 -7 -14 -15 17 21 0
1 -7 -14 15 -17 21 0
1 -7 -14 15 17 -21 0
1 -7 14 -15 -17 21 0
1 -7 14 -15 17 -21 0
1 -7 14 15 -17 -21 0
1 -7 14 15 17 21 0
1 -2 -9 -11 -12 -19 0
1 -2 -9 -11 12 19 0
1 -2 -9 11 -12 19 0
1 -2 -9 11 12 -19 0
1 -2 9 -11 -12 19 0
1 -2 9 -11 12 -19 0
1 -2 9 11 -12 -19 0
1 -2 9 11 12 19 0
1 2 -9 -11 -12 19 0
1 2 -9 -11 12 -19 0
1 2 -9 11 -12 -19 0
1 2 -9 11 12 19 0
1 2 9 -11 -12 -19 0
1 2 9 -11 12 19 0
1 2 9 11 -12 19 0
1 2 9 11 12 -19 0
1 7 -14 -15 -17 21 0
1 7 -14 -15 17 -21 0
1 7 -14 15 -17 -21 0
1 7 -14 15 17 21 0
1 7 14 -15 -17 -21 0
1 7 14 -15 17 21 0
1 7 14 15 -17 21 0
1 7 14 15 17 -21 0
2 -5 -10 -13 -15 -16 0
2 -5 -10 -13 15 16 0
2 -5 -10 13 -15 16 0
2 -5 -10 13 15 -16 0
2 -5 10 -13 -15 16 0
2 -5 10 -13 15 -16 0
2 -5 10 13 -15 -16 0
2 -5 10 13 15 16 0
2 5 -10 -13 -15 16 0
2 5 -10 -13 15 -16 0
2 5 -10 13 -15 -16 0
2 5 -10 13 15 16 0
2 5 10 -13 -15 -16 0
2 5 10 -13 15 16 0
2 5 10 13 -15 16 0
2 5 10 13 15 -16 0
3 -8 -9 -13 -17 -18 0
3 -8 -9 -13 17 18 0
3 -8 -9 13 -17 18 0
3 -8 -9 13 17 -18 0
3 -8 9 -13 -17 18 0
3 -8 9 -13 17 -18 0
3 -8 9 13 -17 -18 0
3 -8 9 13 17 18 0
3 -4 -11 -16 -20 -21 0
3 -4 -11 -16 20 21 0
3 -4 -11 16 -20 21 0
3 -4 -11 16 20 -21 0
3 -4 11 -16 -20 21 0
3 -4 11 -16 20 -21 0
3 -4 11 16 -20 -21 0
3 -4 11 16 20 21 0
3 4 -11 -16 -20 21 0
3 4 -11 -16 20 -21 0
3 4 -11 16 -20 -21 0
3 4 -11 16 20 21 0
3 4 11 -16 -20 -21 0
3 4 11 -16 20 21 0
3 4 11 16 -20 21 0
3 4 11 16 20 -21 0
3 8 -9 -13 -17 18 0
3 8 -9 -13 17 -18 0
3 8 -9 13 -17 -18 0
3 8 -9 13 17 18 0
3 8 9 -13 -17 -18 0
3 8 9 -13 17 18 0
3 8 9 13 -17 18 0
3 8 9 13 17 -18 0
4 -6 -10 -12 -14 -18 0
4 -6 -10 -12 14 18 0
4 -6 -10 12 -14 18 0
4 -6 -10 12 14 -18 0
4 -6 10 -12 -14 18 0
4 -6 10 -12 14 -18 0
4 -6 10 12 -14 -18 0
4 -6 10 12 14 18 0
4 6 -10 -12 -14 18 0
4 6 -10 -12 14 -18 0
4 6 -10 12 -14 -18 0
4 6 -10 12 14 18 0
4 6 10 -12 -14 -18 0
4 6 10 -12 14 18 0
4 6 10 12 -14 18 0
4 6 10 12 14 -18 0
5 -6 -7 -8 -19 -20 0
5 -6 -7 -8 19 20 0
5 -6 -7 8 -19 20 0
5 -6 -7 8 19 -20 0
5 -6 7 -8 -19 20 0
5 -6 7 -8 19 -20 0
5 -6 7 8 -19 -20 0
5 -6 7 8 19 20 0
5 6 -7 -8 -19 20 0
5 6 -7 -8 19 -20 0
5 6 -7 8 -19 -20 0
5 6 -7 8 19 20 0
5 6 7 -8 -19 -20 0
5 6 7 -8 19 20 0
5 6 7 8 -19 20 0
5 6 7 8 19 -20 0
