p cnf 21 224
-9 -10 -14 -17 -18 21 0
-9 -10 -14 -17 18 -21 0
-9 -10 -14 17 -18 -21 0
-9 -10 -14 17 18 21 0
-9 -10 14 -17 -18 -21 0
-9 -10 14 -17 18 21 0
-9 -10 14 17 -18 21 0
-9 -10 14 17 18 -21 0
-9 10 -14 -17 -18 -21 0
-9 10 -14 -17 18 21 0
-9 10 -14 17 -18 21 0
-9 10 -14 17 18 -21 0
-9 10 14 -17 -18 21 0
-9 10 14 -17 18 -21 0
-9 10 14 17 -18 -21 0
-9 10 14 17 18 21 0
-5 -7 -8 -9 -15 19 0
-5 -7 -8 -9 15 -19 0
-5 -7 -8 9 -15 -19 0
-5 -7 -8 9 15 19 0
-5 -7 8 -9 -15 -19 0
-5 -7 8 -9 15 19 0
-5 -7 8 9 -15 19 0
-5 -7 8 9 15 -19 0
-5 7 -8 -9 -15 -19 0
-5 7 -8 -9 15 19 0
-5 7 -8 9 -15 19 0
-5 7 -8 9 15 -19 0
-5 7 8 -9 -15 19 0
-5 7 8 -9 15 -19 0
-5 7 8 9 -15 -19 0
-5 7 8 9 15 19 0
-3 -4 -5 -13 -16 18 0
-3 -4 -5 -13 16 -18 0
-3 -4 -5 13 -16 -18 0
-3 -4 -5 13 16 18 0
-3 -4 5 -13 -16 -18 0
-3 -4 5 -13 16 18 0
-3 -4 5 13 -16 18 0
-3 -4 5 13 16 -18 0
-3 4 -5 -13 -16 -18 0
-3 4 -5 -13 16 18 0
-3 4 -5 13 -16 18 0
-3 4 -5 13 16 -18 0
-3 4 5 -13 -16 18 0
-3 4 5 -13 16 -18 0
-3 4 5 13 -16 -18 0
-3 4 5 13 16 18 0
-2 -6 -11 -14 -15 16 0
-2 -6 -11 -14 15 -16 0
-2 -6 -11 14 -15 -16 0
-2 -6 -11 14 15 16 0
-2 -6 11 -14 -15 -16 0
-2 -6 11 -14 15 16 0
-2 -6 11 14 -15 16 0
-2 -6 11 14 15 -16 0
-2 -3 -7 -12 -20 21 0
-2 -3 -7 -12 20 -21 0
-2 -3 -7 12 -20 -21 0
-2 -3 -7 12 20 21 0
-2 -3 7 -12 -20 -21 0
-2 -3 7 -12 20 21 0
-2 -3 7 12 -20 21 0
-2 -3 7 12 20 -21 0
-2 3 -7 -12 -20 -21 0
-2 3 -7 -12 20 21 0
-2 3 -7 12 -20 21 0
-2 3 -7 12 20 -21 0
-2 3 7 -12 -20 21 0
-2 3 7 -12 20 -21 0
-2 3 7 12 -20 -21 0
-2 3 7 12 20 21 0
-2 6 -11 -14 -15 -16 0
-2 6 -11 -14 15 16 0
-2 6 -11 14 -15 16 0
-2 6 -11 14 15 -16 0
-2 6 11 -14 -15 16 0
-2 6 11 -14 15 -16 0
-2 6 11 14 -15 -16 0
-2 6 11 14 15 16 0
-1 -11 -12 -13 -17 19 0
-1 -11 -12 -13 17 -19 0
-1 -11 -12 13 -17 -19 0
-1 -11 -12 13 17 19 0
-1 -11 12 -13 -17 -19 0
-1 -11 12 -13 17 19 0
-1 -11 12 13 -17 19 0
-1 -11 12 13 17 -19 0
-1 -4 -6 -8 -10 20 0
-1 -4 -6 -8 10 -20 0
-1 -4 -6 8 -10 -20 0
-1 -4 -6 8 10 20 0
-1 -4 6 -8 -10 -20 0
-1 -4 6 -8 10 20 0
-1 -4 6 8 -10 20 0
-1 -4 6 8 10 -20 0
-1 4 -6 -8 -10 -20 0
-1 4 -6 -8 10 20 0
-1 4 -6 8 -10 20 0
-1 4 -6 8 10 -20 0
-1 4 6 -8 -10 20 0
-1 4 6 -8 10 -20 0
-1 4 6 8 -10 -20 0
-1 4 6 8 10 20 0
-1 11 -12 -13 -17 -19 0
-1 11 -12 -13 17 19 0
-1 11 -12 13 -17 19 0
-1 11 -12 13 17 -19 0
-1 11 12 -13 -17 19 0
-1 11 12 -13 17 -19 0
-1 11 12 13 -17 -19 0
-1 11 12 13 17 19 0
1 -11 -12 -13 -17 -19 0
1 -11 -12 -13 17 19 0
1 -11 -12 13 -17 19 0
1 -11 -12 13 17 -19 0
1 -11 12 -13 -17 19 0
1 -11 12 -13 17 -19 0
1 -11 12 13 -17 -19 0
1 -11 12 13 17 19 0
1 -4 -6 -8 -10 -20 0
1 -4 -6 -8 10 20 0
1 -4 -6 8 -10 20 0
1 -4 -6 8 10 -20 0
1 -4 6 -8 -10 20 0
1 -4 6 -8 10 -20 0
1 -4 6 8 -10 -20 0
1 -4 6 8 10 20 0
1 4 -6 -8 -10 20 0
1 4 -6 -8 10 -20 0
1 4 -6 8 -10 -20 0
1 4 -6 8 10 20 0
1 4 6 -8 -10 -20 0
1 4 6 -8 10 20 0
1 4 6 8 -10 20 0
1 4 6 8 10 -20 0
1 11 -12 -13 -17 19 0
1 11 -12 -13 17 -19 0
1 11 -12 13 -17 -19 0
1 11 -12 13 17 19 0
1 11 12 -13 -17 -19 0
1 11 12 -13 17 19 0
1 11 12 13 -17 19 0
1 11 12 13 17 -19 0
2 -6 -11 -14 -15 -16 0
2 -6 -11 -14 15 16 0
2 -6 -11 14 -15 16 0
2 -6 -11 14 15 -16 0
2 -6 11 -14 -15 16 0
2 -6 11 -14 15 -16 0
2 -6 11 14 -15 -16 0
2 -6 11 14 15 16 0
2 -3 -7 -12 -20 -21 0
2 -3 -7 -12 20 21 0
2 -3 -7 12 -20 21 0
2 -3 -7 12 20 -21 0
2 -3 7 -12 -20 21 0
2 -3 7 -12 20 -21 0
2 -3 7 12 -20 -21 0
2 -3 7 12 20 21 0
2 3 -7 -12 -20 21 0
2 3 -7 -12 20 -21 0
2 3 -7 12 -20 -21 0
2 3 -7 12 20 21 0
2 3 7 -12 -20 -21 0
2 3 7 -12 20 21 0
2 3 7 12 -20 21 0
2 3 7 12 20 -21 0
2 6 -11 -14 -15 16 0
2 6 -11 -14 15 -16 0
2 6 -11 14 -15 -16 0
2 6 -11 14 15 16 0
2 6 11 -14 -15 -16 0
2 6 11 -14 15 16 0
2 6 11 14 -15 16 0
2 6 11 14 15 -16 0
3 -4 -5 -13 -16 -18 0
3 -4 -5 -13 16 18 0
3 -4 -5 13 -16 18 0
3 -4 -5 13 16 -18 0
3 -4 5 -13 -16 18 0
3 -4 5 -13 16 -18 0
3 -4 5 13 -16 -18 0
3 -4 5 13 16 18 0
3 4 -5 -13 -16 18 0
3 4 -5 -13 16 -18 0
3 4 -5 13 -16 -18 0
3 4 -5 13 16 18 0
3 4 5 -13 -16 -18 0
3 4 5 -13 16 18 0
3 4 5 13 -16 18 0
3 4 5 13 16 -18 0
5 -7 -8 -9 -15 -19 0
5 -7 -8 -9 15 19 0
5 -7 -8 9 -15 19 0
5 -7 -8 9 15 -19 0
5 -7 8 -9 -15 19 0
5 -7 8 -9 15 -19 0
5 -7 8 9 -15 -19 0
5 -7 8 9 15 19 0
5 7 -8 -9 -15 19 0
5 7 -8 -9 15 -19 0
5 7 -8 9 -15 -19 0
5 7 -8 9 15 19 0
5 7 8 -9 -15 -19 0
5 7 8 -9 15 19 0
5 7 8 9 -15 19 0
5 7 8 9 15 -19 0
9 -10 -14 -17 -18 -21 0
9 -10 -14 -17 18 21 0
9 -10 -14 17 -18 21 0
9 -10 -14 17 18 -21 0
9 -10 14 -17 -18 21 0
9 -10 14 -17 18 -21 0
9 -10 14 17 -18 -21 0
9 -10 14 17 18 21 0
9 10 -14 -17 -18 21 0
9 10 -14 -17 18 -21 0
9 10 -14 17 -18 -21 0
9 10 -14 17 18 21 0
9 10 14 -17 -18 -21 0
9 10 14 -17 18 21 0
9 10 14 17 -18 21 0
9 10 14 17 18 -21 0
