p cnf 36 1152
-11 -13 -17 -18 -23 -24 -25 28 0
-11 -13 -17 -18 -23 -24 25 -28 0
-11 -13 -17 -18 -23 24 -25 -28 0
-11 -13 -17 -18 -23 24 25 28 0
-11 -13 -17 -18 23 -24 -25 -28 0
-11 -13 -17 -18 23 -24 25 28 0
-11 -13 -17 -18 23 24 -25 28 0
-11 -13 -17 -18 23 24 25 -28 0
-11 -13 -17 18 -23 -24 -25 -28 0
-11 -13 -17 18 -23 -24 25 28 0
-11 -13 -17 18 -23 24 -25 28 0
-11 -13 -17 18 -23 24 25 -28 0
-11 -13 -17 18 23 -24 -25 28 0
-11 -13 -17 18 23 -24 25 -28 0
-11 -13 -17 18 23 24 -25 -28 0
-11 -13 -17 18 23 24 25 28 0
-11 -13 17 -18 -23 -24 -25 -28 0
-11 -13 17 -18 -23 -24 25 28 0
-11 -13 17 -18 -23 24 -25 28 0
-11 -13 17 -18 -23 24 25 -28 0
-11 -13 17 -18 23 -24 -25 28 0
-11 -13 17 -18 23 -24 25 -28 0
-11 -13 17 -18 23 24 -25 -28 0
-11 -13 17 -18 23 24 25 28 0
-11 -13 17 18 -23 -24 -25 28 0
-11 -13 17 18 -23 -24 25 -28 0
-11 -13 17 18 -23 24 -25 -28 0
-11 -13 17 18 -23 24 25 28 0
-11 -13 17 18 23 -24 -25 -28 0
-11 -13 17 18 23 -24 25 28 0
-11 -13 17 18 23 24 -25 28 0
-11 -13 17 18 23 24 25 -28 0
-11 13 -17 -18 -23 -24 -25 -28 0
-11 13 -17 -18 -23 -24 25 28 0
-11 13 -17 -18 -23 24 -25 28 0
-11 13 -17 -18 -23 24 25 -28 0
-11 13 -17 -18 23 -24 -25 28 0
-11 13 -17 -18 23 -24 25 -28 0
-11 13 -17 -18 23 24 -25 -28 0
-11 13 -17 -18 23 24 25 28 0
-11 13 -17 18 -23 -24 -25 28 0
-11 13 -17 18 -23 -24 25 -28 0
-11 13 -17 18 -23 24 -25 -28 0
-11 13 -17 18 -23 24 25 28 0
-11 13 -17 18 23 -24 -25 -28 0
-11 13 -17 18 23 -24 25 28 0
-11 13 -17 18 23 24 -25 28 0
-11 13 -17 18 23 24 25 -28 0
-11 13 17 -18 -23 -24 -25 28 0
-11 13 17 -18 -23 -24 25 -28 0
-11 13 17 -18 -23 24 -25 -28 0
-11 13 17 -18 -23 24 25 28 0
-11 13 17 -18 23 -24 -25 -28 0
-11 13 17 -18 23 -24 25 28 0
-11 13 17 -18 23 24 -25 28 0
-11 13 17 -18 23 24 25 -28 0
-11 13 17 18 -23 -24 -25 -28 0
-11 13 17 18 -23 -24 25 28 0
-11 13 17 18 -23 24 -25 28 0
-11 13 17 18 -23 24 25 -28 0
-11 13 17 18 23 -24 -25 28 0
-11 13 17 18 23 -24 25 -28 0
-11 13 17 18 23 24 -25 -28 0
-11 13 17 18 23 24 25 28 0
-7 -8 -10 -21 -27 -28 -30 32 0
-7 -8 -10 -21 -27 -28 30 -32 0
-7 -8 -10 -21 -27 28 -30 -32 0
-7 -8 -10 -21 -27 28 30 32 0
-7 -8 -10 -21 27 -28 -30 -32 0
-7 -8 -10 -21 27 -28 30 32 0
-7 -8 -10 -21 27 28 -30 32 0
-7 -8 -10 -21 27 28 30 -32 0
-7 -8 -10 21 -27 -28 -30 -32 0
-7 -8 -10 21 -27 -28 30 32 0
-7 -8 -10 21 -27 28 -30 32 0
-7 -8 -10 21 -27 28 30 -32 0
-7 -8 -10 21 27 -28 -30 32 0
-7 -8 -10 21 27 -28 30 -32 0
-7 -8 -10 21 27 28 -30 -32 0
-7 -8 -10 21 27 28 30 32 0
-7 -8 10 -21 -27 -28 -30 -32 0
-7 -8 10 -21 -27 -28 30 32 0
-7 -8 10 -21 -27 28 -30 32 0
-7 -8 10 -21 -27 28 30 -32 0
-7 -8 10 -21 27 -28 -30 32 0
-7 -8 10 -21 27 -28 30 -32 0
-7 -8 10 -21 27 28 -30 -32 0
-7 -8 10 -21 27 28 30 32 0
-7 -8 10 21 -27 -28 -30 32 0
-7 -8 10 21 -27 -28 30 -32 0
-7 -8 10 21 -27 28 -30 -32 0
-7 -8 10 21 -27 28 30 32 0
-7 -8 10 21 27 -28 -30 -32 0
-7 -8 10 21 27 -28 30 32 0
-7 -8 10 21 27 28 -30 32 0
-7 -8 10 21 27 28 30 -32 0
-7 8 -10 -21 -27 -28 -30 -32 0
-7 8 -10 -21 -27 -28 30 32 0
-7 8 -10 -21 -27 28 -30 32 0
-7 8 -10 -21 -27 28 30 -32 0
-7 8 -10 -21 27 -28 -30 32 0
-7 8 -10 -21 27 -28 30 -32 0
-7 8 -10 -21 27 28 -30 -32 0
-7 8 -10 -21 27 28 30 32 0
-7 8 -10 21 -27 -28 -30 32 0
-7 8 -10 21 -27 -28 30 -32 0
-7 8 -10 21 -27 28 -30 -32 0
-7 8 -10 21 -27 28 30 32 0
-7 8 -10 21 27 -28 -30 -32 0
-7 8 -10 21 27 -28 30 32 0
-7 8 -10 21 27 28 -30 32 0
-7 8 -10 21 27 28 30 -32 0
-7 8 10 -21 -27 -28 -30 32 0
-7 8 10 -21 -27 -28 30 -32 0
-7 8 10 -21 -27 28 -30 -32 0
-7 8 10 -21 -27 28 30 32 0
-7 8 10 -21 27 -28 -30 -32 0
-7 8 10 -21 27 -28 30 32 0
-7 8 10 -21 27 28 -30 32 0
-7 8 10 -21 27 28 30 -32 0
-7 8 10 21 -27 -28 -30 -32 0
-7 8 10 21 -27 -28 30 32 0
-7 8 10 21 -27 28 -30 32 0
-7 8 10 21 -27 28 30 -32 0
-7 8 10 21 27 -28 -30 32 0
-7 8 10 21 27 -28 30 -32 0
-7 8 10 21 27 28 -30 -32 0
-7 8 10 21 27 28 30 32 0
-6 -11 -14 -19 -26 -29 -32 34 0
-6 -11 -14 -19 -26 -29 32 -34 0
-6 -11 -14 -19 -26 29 -32 -34 0
-6 -11 -14 -19 -26 29 32 34 0
-6 -11 -14 -19 26 -29 -32 -34 0
-6 -11 -14 -19 26 -29 32 34 0
-6 -11 -14 -19 26 29 -32 34 0
-6 -11 -14 -19 26 29 32 -34 0
-6 -11 -14 19 -26 -29 -32 -34 0
-6 -11 -14 19 -26 -29 32 34 0
-6 -11 -14 19 -26 29 -32 34 0
-6 -11 -14 19 -26 29 32 -34 0
-6 -11 -14 19 26 -29 -32 34 0
-6 -11 -14 19 26 -29 32 -34 0
-6 -11 -14 19 26 29 -32 -34 0
-6 -11 -14 19 26 29 32 34 0
-6 -11 14 -19 -26 -29 -32 -34 0
-6 -11 14 -19 -26 -29 32 34 0
-6 -11 14 -19 -26 29 -32 34 0
-6 -11 14 -19 -26 29 32 -34 0
-6 -11 14 -19 26 -29 -32 34 0
-6 -11 14 -19 26 -29 32 -34 0
-6 -11 14 -19 26 29 -32 -34 0
-6 -11 14 -19 26 29 32 34 0
-6 -11 14 19 -26 -29 -32 34 0
-6 -11 14 19 -26 -29 32 -34 0
-6 -11 14 19 -26 29 -32 -34 0
-6 -11 14 19 -26 29 32 34 0
-6 -11 14 19 26 -29 -32 -34 0
-6 -11 14 19 26 -29 32 34 0
-6 -11 14 19 26 29 -32 34 0
-6 -11 14 19 26 29 32 -34 0
-6 11 -14 -19 -26 -29 -32 -34 0
-6 11 -14 -19 -26 -29 32 34 0
-6 11 -14 -19 -26 29 -32 34 0
-6 11 -14 -19 -26 29 32 -34 0
-6 11 -14 -19 26 -29 -32 34 0
-6 11 -14 -19 26 -29 32 -34 0
-6 11 -14 -19 26 29 -32 -34 0
-6 11 -14 -19 26 29 32 34 0
-6 11 -14 19 -26 -29 -32 34 0
-6 11 -14 19 -26 -29 32 -34 0
-6 11 -14 19 -26 29 -32 -34 0
-6 11 -14 19 -26 29 32 34 0
-6 11 -14 19 26 -29 -32 -34 0
-6 11 -14 19 26 -29 32 34 0
-6 11 -14 19 26 29 -32 34 0
-6 11 -14 19 26 29 32 -34 0
-6 11 14 -19 -26 -29 -32 34 0
-6 11 14 -19 -26 -29 32 -34 0
-6 11 14 -19 -26 29 -32 -34 0
-6 11 14 -19 -26 29 32 34 0
-6 11 14 -19 26 -29 -32 -34 0
-6 11 14 -19 26 -29 32 34 0
-6 11 14 -19 26 29 -32 34 0
-6 11 14 -19 26 29 32 -34 0
-6 11 14 19 -26 -29 -32 -34 0
-6 11 14 19 -26 -29 32 34 0
-6 11 14 19 -26 29 -32 34 0
-6 11 14 19 -26 29 32 -34 0
-6 11 14 19 26 -29 -32 34 0
-6 11 14 19 26 -29 32 -34 0
-6 11 14 19 26 29 -32 -34 0
-6 11 14 19 26 29 32 34 0
-5 -7 -9 -16 -20 -25 -31 34 0
-5 -7 -9 -16 -20 -25 31 -34 0
-5 -7 -9 -16 -20 25 -31 -34 0
-5 -7 -9 -16 -20 25 31 34 0
-5 -7 -9 -16 20 -25 -31 -34 0
-5 -7 -9 -16 20 -25 31 34 0
-5 -7 -9 -16 20 25 -31 34 0
-5 -7 -9 -16 20 25 31 -34 0
-5 -7 -9 16 -20 -25 -31 -34 0
-5 -7 -9 16 -20 -25 31 34 0
-5 -7 -9 16 -20 25 -31 34 0
-5 -7 -9 16 -20 25 31 -34 0
-5 -7 -9 16 20 -25 -31 34 0
-5 -7 -9 16 20 -25 31 -34 0
-5 -7 -9 16 20 25 -31 -34 0
-5 -7 -9 16 20 25 31 34 0
-5 -7 9 -16 -20 -25 -31 -34 0
-5 -7 9 -16 -20 -25 31 34 0
-5 -7 9 -16 -20 25 -31 34 0
-5 -7 9 -16 -20 25 31 -34 0
-5 -7 9 -16 20 -25 -31 34 0
-5 -7 9 -16 20 -25 31 -34 0
-5 -7 9 -16 20 25 -31 -34 0
-5 -7 9 -16 20 25 31 34 0
-5 -7 9 16 -20 -25 -31 34 0
-5 -7 9 16 -20 -25 31 -34 0
-5 -7 9 16 -20 25 -31 -34 0
-5 -7 9 16 -20 25 31 34 0
-5 -7 9 16 20 -25 -31 -34 0
-5 -7 9 16 20 -25 31 34 0
-5 -7 9 16 20 25 -31 34 0
-5 -7 9 16 20 25 31 -34 0
-5 7 -9 -16 -20 -25 -31 -34 0
-5 7 -9 -16 -20 -25 31 34 0
-5 7 -9 -16 -20 25 -31 34 0
-5 7 -9 -16 -20 25 31 -34 0
-5 7 -9 -16 20 -25 -31 34 0
-5 7 -9 -16 20 -25 31 -34 0
-5 7 -9 -16 20 25 -31 -34 0
-5 7 -9 -16 20 25 31 34 0
-5 7 -9 16 -20 -25 -31 34 0
-5 7 -9 16 -20 -25 31 -34 0
-5 7 -9 16 -20 25 -31 -34 0
-5 7 -9 16 -20 25 31 34 0
-5 7 -9 16 20 -25 -31 -34 0
-5 7 -9 16 20 -25 31 34 0
-5 7 -9 16 20 25 -31 34 0
-5 7 -9 16 20 25 31 -34 0
-5 7 9 -16 -20 -25 -31 34 0
-5 7 9 -16 -20 -25 31 -34 0
-5 7 9 -16 -20 25 -31 -34 0
-5 7 9 -16 -20 25 31 34 0
-5 7 9 -16 20 -25 -31 -34 0
-5 7 9 -16 20 -25 31 34 0
-5 7 9 -16 20 25 -31 34 0
-5 7 9 -16 20 25 31 -34 0
-5 7 9 16 -20 -25 -31 -34 0
-5 7 9 16 -20 -25 31 34 0
-5 7 9 16 -20 25 -31 34 0
-5 7 9 16 -20 25 31 -34 0
-5 7 9 16 20 -25 -31 34 0
-5 7 9 16 20 -25 31 -34 0
-5 7 9 16 20 25 -31 -34 0
-5 7 9 16 20 25 31 34 0
-4 -9 -15 -19 -21 -22 -23 35 0
-4 -9 -15 -19 -21 -22 23 -35 0
-4 -9 -15 -19 -21 22 -23 -35 0
-4 -9 -15 -19 -21 22 23 35 0
-4 -9 -15 -19 21 -22 -23 -35 0
-4 -9 -15 -19 21 -22 23 35 0
-4 -9 -15 -19 21 22 -23 35 0
-4 -9 -15 -19 21 22 23 -35 0
-4 -9 -15 19 -21 -22 -23 -35 0
-4 -9 -15 19 -21 -22 23 35 0
-4 -9 -15 19 -21 22 -23 35 0
-4 -9 -15 19 -21 22 23 -35 0
-4 -9 -15 19 21 -22 -23 35 0
-4 -9 -15 19 21 -22 23 -35 0
-4 -9 -15 19 21 22 -23 -35 0
-4 -9 -15 19 21 22 23 35 0
-4 -9 15 -19 -21 -22 -23 -35 0
-4 -9 15 -19 -21 -22 23 35 0
-4 -9 15 -19 -21 22 -23 35 0
-4 -9 15 -19 -21 22 23 -35 0
-4 -9 15 -19 21 -22 -23 35 0
-4 -9 15 -19 21 -22 23 -35 0
-4 -9 15 -19 21 22 -23 -35 0
-4 -9 15 -19 21 22 23 35 0
-4 -9 15 19 -21 -22 -23 35 0
-4 -9 15 19 -21 -22 23 -35 0
-4 -9 15 19 -21 22 -23 -35 0
-4 -9 15 19 -21 22 23 35 0
-4 -9 15 19 21 -22 -23 -35 0
-4 -9 15 19 21 -22 23 35 0
-4 -9 15 19 21 22 -23 35 0
-4 -9 15 19 21 22 23 -35 0
-4 9 -15 -19 -21 -22 -23 -35 0
-4 9 -15 -19 -21 -22 23 35 0
-4 9 -15 -19 -21 22 -23 35 0
-4 9 -15 -19 -21 22 23 -35 0
-4 9 -15 -19 21 -22 -23 35 0
-4 9 -15 -19 21 -22 23 -35 0
-4 9 -15 -19 21 22 -23 -35 0
-4 9 -15 -19 21 22 23 35 0
-4 9 -15 19 -21 -22 -23 35 0
-4 9 -15 19 -21 -22 23 -35 0
-4 9 -15 19 -21 22 -23 -35 0
-4 9 -15 19 -21 22 23 35 0
-4 9 -15 19 21 -22 -23 -35 0
-4 9 -15 19 21 -22 23 35 0
-4 9 -15 19 21 22 -23 35 0
-4 9 -15 19 21 22 23 -35 0
-4 9 15 -19 -21 -22 -23 35 0
-4 9 15 -19 -21 -22 23 -35 0
-4 9 15 -19 -21 22 -23 -35 0
-4 9 15 -19 -21 22 23 35 0
-4 9 15 -19 21 -22 -23 -35 0
-4 9 15 -19 21 -22 23 35 0
-4 9 15 -19 21 22 -23 35 0
-4 9 15 -19 21 22 23 -35 0
-4 9 15 19 -21 -22 -23 -35 0
-4 9 15 19 -21 -22 23 35 0
-4 9 15 19 -21 22 -23 35 0
-4 9 15 19 -21 22 23 -35 0
-4 9 15 19 21 -22 -23 35 0
-4 9 15 19 21 -22 23 -35 0
-4 9 15 19 21 22 -23 -35 0
-4 9 15 19 21 22 23 35 0
-3 -12 -15 -17 -20 -26 -27 36 0
-3 -12 -15 -17 -20 -26 27 -36 0
-3 -12 -15 -17 -20 26 -27 -36 0
-3 -12 -15 -17 -20 26 27 36 0
-3 -12 -15 -17 20 -26 -27 -36 0
-3 -12 -15 -17 20 -26 27 36 0
-3 -12 -15 -17 20 26 -27 36 0
-3 -12 -15 -17 20 26 27 -36 0
-3 -12 -15 17 -20 -26 -27 -36 0
-3 -12 -15 17 -20 -26 27 36 0
-3 -12 -15 17 -20 26 -27 36 0
-3 -12 -15 17 -20 26 27 -36 0
-3 -12 -15 17 20 -26 -27 36 0
-3 -12 -15 17 20 -26 27 -36 0
-3 -12 -15 17 20 26 -27 -36 0
-3 -12 -15 17 20 26 27 36 0
-3 -12 15 -17 -20 -26 -27 -36 0
-3 -12 15 -17 -20 -26 27 36 0
-3 -12 15 -17 -20 26 -27 36 0
-3 -12 15 -17 -20 26 27 -36 0
-3 -12 15 -17 20 -26 -27 36 0
-3 -12 15 -17 20 -26 27 -36 0
-3 -12 15 -17 20 26 -27 -36 0
-3 -12 15 -17 20 26 27 36 0
-3 -12 15 17 -20 -26 -27 36 0
-3 -12 15 17 -20 -26 27 -36 0
-3 -12 15 17 -20 26 -27 -36 0
-3 -12 15 17 -20 26 27 36 0
-3 -12 15 17 20 -26 -27 -36 0
-3 -12 15 17 20 -26 27 36 0
-3 -12 15 17 20 26 -27 36 0
-3 -12 15 17 20 26 27 -36 0
-3 12 -15 -17 -20 -26 -27 -36 0
-3 12 -15 -17 -20 -26 27 36 0
-3 12 -15 -17 -20 26 -27 36 0
-3 12 -15 -17 -20 26 27 -36 0
-3 12 -15 -17 20 -26 -27 36 0
-3 12 -15 -17 20 -26 27 -36 0
-3 12 -15 -17 20 26 -27 -36 0
-3 12 -15 -17 20 26 27 36 0
-3 12 -15 17 -20 -26 -27 36 0
-3 12 -15 17 -20 -26 27 -36 0
-3 12 -15 17 -20 26 -27 -36 0
-3 12 -15 17 -20 26 27 36 0
-3 12 -15 17 20 -26 -27 -36 0
-3 12 -15 17 20 -26 27 36 0
-3 12 -15 17 20 26 -27 36 0
-3 12 -15 17 20 26 27 -36 0
-3 12 15 -17 -20 -26 -27 36 0
-3 12 15 -17 -20 -26 27 -36 0
-3 12 15 -17 -20 26 -27 -36 0
-3 12 15 -17 -20 26 27 36 0
-3 12 15 -17 20 -26 -27 -36 0
-3 12 15 -17 20 -26 27 36 0
-3 12 15 -17 20 26 -27 36 0
-3 12 15 -17 20 26 27 -36 0
-3 12 15 17 -20 -26 -27 -36 0
-3 12 15 17 -20 -26 27 36 0
-3 12 15 17 -20 26 -27 36 0
-3 12 15 17 -20 26 27 -36 0
-3 12 15 17 20 -26 -27 36 0
-3 12 15 17 20 -26 27 -36 0
-3 12 15 17 20 26 -27 -36 0
-3 12 15 17 20 26 27 36 0
-2 -10 -13 -22 -29 -31 -33 36 0
-2 -10 -13 -22 -29 -31 33 -36 0
-2 -10 -13 -22 -29 31 -33 -36 0
-2 -10 -13 -22 -29 31 33 36 0
-2 -10 -13 -22 29 -31 -33 -36 0
-2 -10 -13 -22 29 -31 33 36 0
-2 -10 -13 -22 29 31 -33 36 0
-2 -10 -13 -22 29 31 33 -36 0
-2 -10 -13 22 -29 -31 -33 -36 0
-2 -10 -13 22 -29 -31 33 36 0
-2 -10 -13 22 -29 31 -33 36 0
-2 -10 -13 22 -29 31 33 -36 0
-2 -10 -13 22 29 -31 -33 36 0
-2 -10 -13 22 29 -31 33 -36 0
-2 -10 -13 22 29 31 -33 -36 0
-2 -10 -13 22 29 31 33 36 0
-2 -10 13 -22 -29 -31 -33 -36 0
-2 -10 13 -22 -29 -31 33 36 0
-2 -10 13 -22 -29 31 -33 36 0
-2 -10 13 -22 -29 31 33 -36 0
-2 -10 13 -22 29 -31 -33 36 0
-2 -10 13 -22 29 -31 33 -36 0
-2 -10 13 -22 29 31 -33 -36 0
-2 -10 13 -22 29 31 33 36 0
-2 -10 13 22 -29 -31 -33 36 0
-2 -10 13 22 -29 -31 33 -36 0
-2 -10 13 22 -29 31 -33 -36 0
-2 -10 13 22 -29 31 33 36 0
-2 -10 13 22 29 -31 -33 -36 0
-2 -10 13 22 29 -31 33 36 0
-2 -10 13 22 29 31 -33 36 0
-2 -10 13 22 29 31 33 -36 0
-2 10 -13 -22 -29 -31 -33 -36 0
-2 10 -13 -22 -29 -31 33 36 0
-2 10 -13 -22 -29 31 -33 36 0
-2 10 -13 -22 -29 31 33 -36 0
-2 10 -13 -22 29 -31 -33 36 0
-2 10 -13 -22 29 -31 33 -36 0
-2 10 -13 -22 29 31 -33 -36 0
-2 10 -13 -22 29 31 33 36 0
-2 10 -13 22 -29 -31 -33 36 0
-2 10 -13 22 -29 -31 33 -36 0
-2 10 -13 22 -29 31 -33 -36 0
-2 10 -13 22 -29 31 33 36 0
-2 10 -13 22 29 -31 -33 -36 0
-2 10 -13 22 29 -31 33 36 0
-2 10 -13 22 29 31 -33 36 0
-2 10 -13 22 29 31 33 -36 0
-2 10 13 -22 -29 -31 -33 36 0
-2 10 13 -22 -29 -31 33 -36 0
-2 10 13 -22 -29 31 -33 -36 0
-2 10 13 -22 -29 31 33 36 0
-2 10 13 -22 29 -31 -33 -36 0
-2 10 13 -22 29 -31 33 36 0
-2 10 13 -22 29 31 -33 36 0
-2 10 13 -22 29 31 33 -36 0
-2 10 13 22 -29 -31 -33 -36 0
-2 10 13 22 -29 -31 33 36 0
-2 10 13 22 -29 31 -33 36 0
-2 10 13 22 -29 31 33 -36 0
-2 10 13 22 29 -31 -33 36 0
-2 10 13 22 29 -31 33 -36 0
-2 10 13 22 29 31 -33 -36 0
-2 10 13 22 29 31 33 36 0
-1 -3 -5 -14 -24 -30 -33 -35 0
-1 -3 -5 -14 -24 -30 33 35 0
-1 -3 -5 -14 -24 30 -33 35 0
-1 -3 -5 -14 -24 30 33 -35 0
-1 -3 -5 -14 24 -30 -33 35 0
-1 -3 -5 -14 24 -30 33 -35 0
-1 -3 -5 -14 24 30 -33 -35 0
-1 -3 -5 -14 24 30 33 35 0
-1 -3 -5 14 -24 -30 -33 35 0
-1 -3 -5 14 -24 -30 33 -35 0
-1 -3 -5 14 -24 30 -33 -35 0
-1 -3 -5 14 -24 30 33 35 0
-1 -3 -5 14 24 -30 -33 -35 0
-1 -3 -5 14 24 -30 33 35 0
-1 -3 -5 14 24 30 -33 35 0
-1 -3 -5 14 24 30 33 -35 0
-1 -3 5 -14 -24 -30 -33 35 0
-1 -3 5 -14 -24 -30 33 -35 0
-1 -3 5 -14 -24 30 -33 -35 0
-1 -3 5 -14 -24 30 33 35 0
-1 -3 5 -14 24 -30 -33 -35 0
-1 -3 5 -14 24 -30 33 35 0
-1 -3 5 -14 24 30 -33 35 0
-1 -3 5 -14 24 30 33 -35 0
-1 -3 5 14 -24 -30 -33 -35 0
-1 -3 5 14 -24 -30 33 35 0
-1 -3 5 14 -24 30 -33 35 0
-1 -3 5 14 -24 30 33 -35 0
-1 -3 5 14 24 -30 -33 35 0
-1 -3 5 14 24 -30 33 -35 0
-1 -3 5 14 24 30 -33 -35 0
-1 -3 5 14 24 30 33 35 0
-1 -2 -4 -6 -8 -12 -16 18 0
-1 -2 -4 -6 -8 -12 16 -18 0
-1 -2 -4 -6 -8 12 -16 -18 0
-1 -2 -4 -6 -8 12 16 18 0
-1 -2 -4 -6 8 -12 -16 -18 0
-1 -2 -4 -6 8 -12 16 18 0
-1 -2 -4 -6 8 12 -16 18 0
-1 -2 -4 -6 8 12 16 -18 0
-1 -2 -4 6 -8 -12 -16 -18 0
-1 -2 -4 6 -8 -12 16 18 0
-1 -2 -4 6 -8 12 -16 18 0
-1 -2 -4 6 -8 12 16 -18 0
-1 -2 -4 6 8 -12 -16 18 0
-1 -2 -4 6 8 -12 16 -18 0
-1 -2 -4 6 8 12 -16 -18 0
-1 -2 -4 6 8 12 16 18 0
-1 -2 4 -6 -8 -12 -16 -18 0
-1 -2 4 -6 -8 -12 16 18 0
-1 -2 4 -6 -8 12 -16 18 0
-1 -2 4 -6 -8 12 16 -18 0
-1 -2 4 -6 8 -12 -16 18 0
-1 -2 4 -6 8 -12 16 -18 0
-1 -2 4 -6 8 12 -16 -18 0
-1 -2 4 -6 8 12 16 18 0
-1 -2 4 6 -8 -12 -16 18 0
-1 -2 4 6 -8 -12 16 -18 0
-1 -2 4 6 -8 12 -16 -18 0
-1 -2 4 6 -8 12 16 18 0
-1 -2 4 6 8 -12 -16 -18 0
-1 -2 4 6 8 -12 16 18 0
-1 -2 4 6 8 12 -16 18 0
-1 -2 4 6 8 12 16 -18 0
-1 2 -4 -6 -8 -12 -16 -18 0
-1 2 -4 -6 -8 -12 16 18 0
-1 2 -4 -6 -8 12 -16 18 0
-1 2 -4 -6 -8 12 16 -18 0
-1 2 -4 -6 8 -12 -16 18 0
-1 2 -4 -6 8 -12 16 -18 0
-1 2 -4 -6 8 12 -16 -18 0
-1 2 -4 -6 8 12 16 18 0
-1 2 -4 6 -8 -12 -16 18 0
-1 2 -4 6 -8 -12 16 -18 0
-1 2 -4 6 -8 12 -16 -18 0
-1 2 -4 6 -8 12 16 18 0
-1 2 -4 6 8 -12 -16 -18 0
-1 2 -4 6 8 -12 16 18 0
-1 2 -4 6 8 12 -16 18 0
-1 2 -4 6 8 12 16 -18 0
-1 2 4 -6 -8 -12 -16 18 0
-1 2 4 -6 -8 -12 16 -18 0
-1 2 4 -6 -8 12 -16 -18 0
-1 2 4 -6 -8 12 16 18 0
-1 2 4 -6 8 -12 -16 -18 0
-1 2 4 -6 8 -12 16 18 0
-1 2 4 -6 8 12 -16 18 0
-1 2 4 -6 8 12 16 -18 0
-1 2 4 6 -8 -12 -16 -18 0
-1 2 4 6 -8 -12 16 18 0
-1 2 4 6 -8 12 -16 18 0
-1 2 4 6 -8 12 16 -18 0
-1 2 4 6 8 -12 -16 18 0
-1 2 4 6 8 -12 16 -18 0
-1 2 4 6 8 12 -16 -18 0
-1 2 4 6 8 12 16 18 0
-1 3 -5 -14 -24 -30 -33 35 0
-1 3 -5 -14 -24 -30 33 -35 0
-1 3 -5 -14 -24 30 -33 -35 0
-1 3 -5 -14 -24 30 33 35 0
-1 3 -5 -14 24 -30 -33 -35 0
-1 3 -5 -14 24 -30 33 35 0
-1 3 -5 -14 24 30 -33 35 0
-1 3 -5 -14 24 30 33 -35 0
-1 3 -5 14 -24 -30 -33 -35 0
-1 3 -5 14 -24 -30 33 35 0
-1 3 -5 14 -24 30 -33 35 0
-1 3 -5 14 -24 30 33 -35 0
-1 3 -5 14 24 -30 -33 35 0
-1 3 -5 14 24 -30 33 -35 0
-1 3 -5 14 24 30 -33 -35 0
-1 3 -5 14 24 30 33 35 0
-1 3 5 -14 -24 -30 -33 -35 0
-1 3 5 -14 -24 -30 33 35 0
-1 3 5 -14 -24 30 -33 35 0
-1 3 5 -14 -24 30 33 -35 0
-1 3 5 -14 24 -30 -33 35 0
-1 3 5 -14 24 -30 33 -35 0
-1 3 5 -14 24 30 -33 -35 0
-1 3 5 -14 24 30 33 35 0
-1 3 5 14 -24 -30 -33 35 0
-1 3 5 14 -24 -30 33 -35 0
-1 3 5 14 -24 30 -33 -35 0
-1 3 5 14 -24 30 33 35 0
-1 3 5 14 24 -30 -33 -35 0
-1 3 5 14 24 -30 33 35 0
-1 3 5 14 24 30 -33 35 0
-1 3 5 14 24 30 33 -35 0
1 -3 -5 -14 -24 -30 -33 35 0
1 -3 -5 -14 -24 -30 33 -35 0
1 -3 -5 -14 -24 30 -33 -35 0
1 -3 -5 -14 -24 30 33 35 0
1 -3 -5 -14 24 -30 -33 -35 0
1 -3 -5 -14 24 -30 33 35 0
1 -3 -5 -14 24 30 -33 35 0
1 -3 -5 -14 24 30 33 -35 0
1 -3 -5 14 -24 -30 -33 -35 0
1 -3 -5 14 -24 -30 33 35 0
1 -3 -5 14 -24 30 -33 35 0
1 -3 -5 14 -24 30 33 -35 0
1 -3 -5 14 24 -30 -33 35 0
1 -3 -5 14 24 -30 33 -35 0
1 -3 -5 14 24 30 -33 -35 0
1 -3 -5 14 24 30 33 35 0
1 -3 5 -14 -24 -30 -33 -35 0
1 -3 5 -14 -24 -30 33 35 0
1 -3 5 -14 -24 30 -33 35 0
1 -3 5 -14 -24 30 33 -35 0
1 -3 5 -14 24 -30 -33 35 0
1 -3 5 -14 24 -30 33 -35 0
1 -3 5 -14 24 30 -33 -35 0
1 -3 5 -14 24 30 33 35 0
1 -3 5 14 -24 -30 -33 35 0
1 -3 5 14 -24 -30 33 -35 0
1 -3 5 14 -24 30 -33 -35 0
1 -3 5 14 -24 30 33 35 0
1 -3 5 14 24 -30 -33 -35 0
1 -3 5 14 24 -30 33 35 0
1 -3 5 14 24 30 -33 35 0
1 -3 5 14 24 30 33 -35 0
1 -2 -4 -6 -8 -12 -16 -18 0
1 -2 -4 -6 -8 -12 16 18 0
1 -2 -4 -6 -8 12 -16 18 0
1 -2 -4 -6 -8 12 16 -18 0
1 -2 -4 -6 8 -12 -16 18 0
1 -2 -4 -6 8 -12 16 -18 0
1 -2 -4 -6 8 12 -16 -18 0
1 -2 -4 -6 8 12 16 18 0
1 -2 -4 6 -8 -12 -16 18 0
1 -2 -4 6 -8 -12 16 -18 0
1 -2 -4 6 -8 12 -16 -18 0
1 -2 -4 6 -8 12 16 18 0
1 -2 -4 6 8 -12 -16 -18 0
1 -2 -4 6 8 -12 16 18 0
1 -2 -4 6 8 12 -16 18 0
1 -2 -4 6 8 12 16 -18 0
1 -2 4 -6 -8 -12 -16 18 0
1 -2 4 -6 -8 -12 16 -18 0
1 -2 4 -6 -8 12 -16 -18 0
1 -2 4 -6 -8 12 16 18 0
1 -2 4 -6 8 -12 -16 -18 0
1 -2 4 -6 8 -12 16 18 0
1 -2 4 -6 8 12 -16 18 0
1 -2 4 -6 8 12 16 -18 0
1 -2 4 6 -8 -12 -16 -18 0
1 -2 4 6 -8 -12 16 18 0
1 -2 4 6 -8 12 -16 18 0
1 -2 4 6 -8 12 16 -18 0
1 -2 4 6 8 -12 -16 18 0
1 -2 4 6 8 -12 16 -18 0
1 -2 4 6 8 12 -16 -18 0
1 -2 4 6 8 12 16 18 0
1 2 -4 -6 -8 -12 -16 18 0
1 2 -4 -6 -8 -12 16 -18 0
1 2 -4 -6 -8 12 -16 -18 0
1 2 -4 -6 -8 12 16 18 0
1 2 -4 -6 8 -12 -16 -18 0
1 2 -4 -6 8 -12 16 18 0
1 2 -4 -6 8 12 -16 18 0
1 2 -4 -6 8 12 16 -18 0
1 2 -4 6 -8 -12 -16 -18 0
1 2 -4 6 -8 -12 16 18 0
1 2 -4 6 -8 12 -16 18 0
1 2 -4 6 -8 12 16 -18 0
1 2 -4 6 8 -12 -16 18 0
1 2 -4 6 8 -12 16 -18 0
1 2 -4 6 8 12 -16 -18 0
1 2 -4 6 8 12 16 18 0
1 2 4 -6 -8 -12 -16 -18 0
1 2 4 -6 -8 -12 16 18 0
1 2 4 -6 -8 12 -16 18 0
1 2 4 -6 -8 12 16 -18 0
1 2 4 -6 8 -12 -16 18 0
1 2 4 -6 8 -12 16 -18 0
1 2 4 -6 8 12 -16 -18 0
1 2 4 -6 8 12 16 18 0
1 2 4 6 -8 -12 -16 18 0
1 2 4 6 -8 -12 16 -18 0
1 2 4 6 -8 12 -16 -18 0
1 2 4 6 -8 12 16 18 0
1 2 4 6 8 -12 -16 -18 0
1 2 4 6 8 -12 16 18 0
1 2 4 6 8 12 -16 18 0
1 2 4 6 8 12 16 -18 0
1 3 -5 -14 -24 -30 -33 -35 0
1 3 -5 -14 -24 -30 33 35 0
1 3 -5 -14 -24 30 -33 35 0
1 3 -5 -14 -24 30 33 -35 0
1 3 -5 -14 24 -30 -33 35 0
1 3 -5 -14 24 -30 33 -35 0
1 3 -5 -14 24 30 -33 -35 0
1 3 -5 -14 24 30 33 35 0
1 3 -5 14 -24 -30 -33 35 0
1 3 -5 14 -24 -30 33 -35 0
1 3 -5 14 -24 30 -33 -35 0
1 3 -5 14 -24 30 33 35 0
1 3 -5 14 24 -30 -33 -35 0
1 3 -5 14 24 -30 33 35 0
1 3 -5 14 24 30 -33 35 0
1 3 -5 14 24 30 33 -35 0
1 3 5 -14 -24 -30 -33 35 0
1 3 5 -14 -24 -30 33 -35 0
1 3 5 -14 -24 30 -33 -35 0
1 3 5 -14 -24 30 33 35 0
1 3 5 -14 24 -30 -33 -35 0
1 3 5 -14 24 -30 33 35 0
1 3 5 -14 24 30 -33 35 0
1 3 5 -14 24 30 33 -35 0
1 3 5 14 -24 -30 -33 -35 0
1 3 5 14 -24 -30 33 35 0
1 3 5 14 -24 30 -33 35 0
1 3 5 14 -24 30 33 -35 0
1 3 5 14 24 -30 -33 35 0
1 3 5 14 24 -30 33 -35 0
1 3 5 14 24 30 -33 -35 0
1 3 5 14 24 30 33 35 0
2 -10 -13 -22 -29 -31 -33 -36 0
2 -10 -13 -22 -29 -31 33 36 0
2 -10 -13 -22 -29 31 -33 36 0
2 -10 -13 -22 -29 31 33 -36 0
2 -10 -13 -22 29 -31 -33 36 0
2 -10 -13 -22 29 -31 33 -36 0
2 -10 -13 -22 29 31 -33 -36 0
2 -10 -13 -22 29 31 33 36 0
2 -10 -13 22 -29 -31 -33 36 0
2 -10 -13 22 -29 -31 33 -36 0
2 -10 -13 22 -29 31 -33 -36 0
2 -10 -13 22 -29 31 33 36 0
2 -10 -13 22 29 -31 -33 -36 0
2 -10 -13 22 29 -31 33 36 0
2 -10 -13 22 29 31 -33 36 0
2 -10 -13 22 29 31 33 -36 0
2 -10 13 -22 -29 -31 -33 36 0
2 -10 13 -22 -29 -31 33 -36 0
2 -10 13 -22 -29 31 -33 -36 0
2 -10 13 -22 -29 31 33 36 0
2 -10 13 -22 29 -31 -33 -36 0
2 -10 13 -22 29 -31 33 36 0
2 -10 13 -22 29 31 -33 36 0
2 -10 13 -22 29 31 33 -36 0
2 -10 13 22 -29 -31 -33 -36 0
2 -10 13 22 -29 -31 33 36 0
2 -10 13 22 -29 31 -33 36 0
2 -10 13 22 -29 31 33 -36 0
2 -10 13 22 29 -31 -33 36 0
2 -10 13 22 29 -31 33 -36 0
2 -10 13 22 29 31 -33 -36 0
2 -10 13 22 29 31 33 36 0
2 10 -13 -22 -29 -31 -33 36 0
2 10 -13 -22 -29 -31 33 -36 0
2 10 -13 -22 -29 31 -33 -36 0
2 10 -13 -22 -29 31 33 36 0
2 10 -13 -22 29 -31 -33 -36 0
2 10 -13 -22 29 -31 33 36 0
2 10 -13 -22 29 31 -33 36 0
2 10 -13 -22 29 31 33 -36 0
2 10 -13 22 -29 -31 -33 -36 0
2 10 -13 22 -29 -31 33 36 0
2 10 -13 22 -29 31 -33 36 0
2 10 -13 22 -29 31 33 -36 0
2 10 -13 22 29 -31 -33 36 0
2 10 -13 22 29 -31 33 -36 0
2 10 -13 22 29 31 -33 -36 0
2 10 -13 22 29 31 33 36 0
2 10 13 -22 -29 -31 -33 -36 0
2 10 13 -22 -29 -31 33 36 0
2 10 13 -22 -29 31 -33 36 0
2 10 13 -22 -29 31 33 -36 0
2 10 13 -22 29 -31 -33 36 0
2 10 13 -22 29 -31 33 -36 0
2 10 13 -22 29 31 -33 -36 0
2 10 13 -22 29 31 33 36 0
2 10 13 22 -29 -31 -33 36 0
2 10 13 22 -29 -31 33 -36 0
2 10 13 22 -29 31 -33 -36 0
2 10 13 22 -29 31 33 36 0
2 10 13 22 29 -31 -33 -36 0
2 10 13 22 29 -31 33 36 0
2 10 13 22 29 31 -33 36 0
2 10 13 22 29 31 33 -36 0
3 -12 -15 -17 -20 -26 -27 -36 0
3 -12 -15 -17 -20 -26 27 36 0
3 -12 -15 -17 -20 26 -27 36 0
3 -12 -15 -17 -20 26 27 -36 0
3 -12 -15 -17 20 -26 -27 36 0
3 -12 -15 -17 20 -26 27 -36 0
3 -12 -15 -17 20 26 -27 -36 0
3 -12 -15 -17 20 26 27 36 0
3 -12 -15 17 -20 -26 -27 36 0
3 -12 -15 17 -20 -26 27 -36 0
3 -12 -15 17 -20 26 -27 -36 0
3 -12 -15 17 -20 26 27 36 0
3 -12 -15 17 20 -26 -27 -36 0
3 -12 -15 17 20 -26 27 36 0
3 -12 -15 17 20 26 -27 36 0
3 -12 -15 17 20 26 27 -36 0
3 -12 15 -17 -20 -26 -27 36 0
3 -12 15 -17 -20 -26 27 -36 0
3 -12 15 -17 -20 26 -27 -36 0
3 -12 15 -17 -20 26 27 36 0
3 -12 15 -17 20 -26 -27 -36 0
3 -12 15 -17 20 -26 27 36 0
3 -12 15 -17 20 26 -27 36 0
3 -12 15 -17 20 26 27 -36 0
3 -12 15 17 -20 -26 -27 -36 0
3 -12 15 17 -20 -26 27 36 0
3 -12 15 17 -20 26 -27 36 0
3 -12 15 17 -20 26 27 -36 0
3 -12 15 17 20 -26 -27 36 0
3 -12 15 17 20 -26 27 -36 0
3 -12 15 17 20 26 -27 -36 0
3 -12 15 17 20 26 27 36 0
3 12 -15 -17 -20 -26 -27 36 0
3 12 -15 -17 -20 -26 27 -36 0
3 12 -15 -17 -20 26 -27 -36 0
3 12 -15 -17 -20 26 27 36 0
3 12 -15 -17 20 -26 -27 -36 0
3 12 -15 -17 20 -26 27 36 0
3 12 -15 -17 20 26 -27 36 0
3 12 -15 -17 20 26 27 -36 0
3 12 -15 17 -20 -26 -27 -36 0
3 12 -15 17 -20 -26 27 36 0
3 12 -15 17 -20 26 -27 36 0
3 12 -15 17 -20 26 27 -36 0
3 12 -15 17 20 -26 -27 36 0
3 12 -15 17 20 -26 27 -36 0
3 12 -15 17 20 26 -27 -36 0
3 12 -15 17 20 26 27 36 0
3 12 15 -17 -20 -26 -27 -36 0
3 12 15 -17 -20 -26 27 36 0
3 12 15 -17 -20 26 -27 36 0
3 12 15 -17 -20 26 27 -36 0
3 12 15 -17 20 -26 -27 36 0
3 12 15 -17 20 -26 27 -36 0
3 12 15 -17 20 26 -27 -36 0
3 12 15 -17 20 26 27 36 0
3 12 15 17 -20 -26 -27 36 0
3 12 15 17 -20 -26 27 -36 0
3 12 15 17 -20 26 -27 -36 0
3 12 15 17 -20 26 27 36 0
3 12 15 17 20 -26 -27 -36 0
3 12 15 17 20 -26 27 36 0
3 12 15 17 20 26 -27 36 0
3 12 15 17 20 26 27 -36 0
4 -9 -15 -19 -21 -22 -23 -35 0
4 -9 -15 -19 -21 -22 23 35 0
4 -9 -15 -19 -21 22 -23 35 0
4 -9 -15 -19 -21 22 23 -35 0
4 -9 -15 -19 21 -22 -23 35 0
4 -9 -15 -19 21 -22 23 -35 0
4 -9 -15 -19 21 22 -23 -35 0
4 -9 -15 -19 21 22 23 35 0
4 -9 -15 19 -21 -22 -23 35 0
4 -9 -15 19 -21 -22 23 -35 0
4 -9 -15 19 -21 22 -23 -35 0
4 -9 -15 19 -21 22 23 35 0
4 -9 -15 19 21 -22 -23 -35 0
4 -9 -15 19 21 -22 23 35 0
4 -9 -15 19 21 22 -23 35 0
4 -9 -15 19 21 22 23 -35 0
4 -9 15 -19 -21 -22 -23 35 0
4 -9 15 -19 -21 -22 23 -35 0
4 -9 15 -19 -21 22 -23 -35 0
4 -9 15 -19 -21 22 23 35 0
4 -9 15 -19 21 -22 -23 -35 0
4 -9 15 -19 21 -22 23 35 0
4 -9 15 -19 21 22 -23 35 0
4 -9 15 -19 21 22 23 -35 0
4 -9 15 19 -21 -22 -23 -35 0
4 -9 15 19 -21 -22 23 35 0
4 -9 15 19 -21 22 -23 35 0
4 -9 15 19 -21 22 23 -35 0
4 -9 15 19 21 -22 -23 35 0
4 -9 15 19 21 -22 23 -35 0
4 -9 15 19 21 22 -23 -35 0
4 -9 15 19 21 22 23 35 0
4 9 -15 -19 -21 -22 -23 35 0
4 9 -15 -19 -21 -22 23 -35 0
4 9 -15 -19 -21 22 -23 -35 0
4 9 -15 -19 -21 22 23 35 0
4 9 -15 -19 21 -22 -23 -35 0
4 9 -15 -19 21 -22 23 35 0
4 9 -15 -19 21 22 -23 35 0
4 9 -15 -19 21 22 23 -35 0
4 9 -15 19 -21 -22 -23 -35 0
4 9 -15 19 -21 -22 23 35 0
4 9 -15 19 -21 22 -23 35 0
4 9 -15 19 -21 22 23 -35 0
4 9 -15 19 21 -22 -23 35 0
4 9 -15 19 21 -22 23 -35 0
4 9 -15 19 21 22 -23 -35 0
4 9 -15 19 21 22 23 35 0
4 9 15 -19 -21 -22 -23 -35 0
4 9 15 -19 -21 -22 23 35 0
4 9 15 -19 -21 22 -23 35 0
4 9 15 -19 -21 22 23 -35 0
4 9 15 -19 21 -22 -23 35 0
4 9 15 -19 21 -22 23 -35 0
4 9 15 -19 21 22 -23 -35 0
4 9 15 -19 21 22 23 35 0
4 9 15 19 -21 -22 -23 35 0
4 9 15 19 -21 -22 23 -35 0
4 9 15 19 -21 22 -23 -35 0
4 9 15 19 -21 22 23 35 0
4 9 15 19 21 -22 -23 -35 0
4 9 15 19 21 -22 23 35 0
4 9 15 19 21 22 -23 35 0
4 9 15 19 21 22 23 -35 0
5 -7 -9 -16 -20 -25 -31 -34 0
5 -7 -9 -16 -20 -25 31 34 0
5 -7 -9 -16 -20 25 -31 34 0
5 -7 -9 -16 -20 25 31 -34 0
5 -7 -9 -16 20 -25 -31 34 0
5 -7 -9 -16 20 -25 31 -34 0
5 -7 -9 -16 20 25 -31 -34 0
5 -7 -9 -16 20 25 31 34 0
5 -7 -9 16 -20 -25 -31 34 0
5 -7 -9 16 -20 -25 31 -34 0
5 -7 -9 16 -20 25 -31 -34 0
5 -7 -9 16 -20 25 31 34 0
5 -7 -9 16 20 -25 -31 -34 0
5 -7 -9 16 20 -25 31 34 0
5 -7 -9 16 20 25 -31 34 0
5 -7 -9 16 20 25 31 -34 0
5 -7 9 -16 -20 -25 -31 34 0
5 -7 9 -16 -20 -25 31 -34 0
5 -7 9 -16 -20 25 -31 -34 0
5 -7 9 -16 -20 25 31 34 0
5 -7 9 -16 20 -25 -31 -34 0
5 -7 9 -16 20 -25 31 34 0
5 -7 9 -16 20 25 -31 34 0
5 -7 9 -16 20 25 31 -34 0
5 -7 9 16 -20 -25 -31 -34 0
5 -7 9 16 -20 -25 31 34 0
5 -7 9 16 -20 25 -31 34 0
5 -7 9 16 -20 25 31 -34 0
5 -7 9 16 20 -25 -31 34 0
5 -7 9 16 20 -25 31 -34 0
5 -7 9 16 20 25 -31 -34 0
5 -7 9 16 20 25 31 34 0
5 7 -9 -16 -20 -25 -31 34 0
5 7 -9 -16 -20 -25 31 -34 0
5 7 -9 -16 -20 25 -31 -34 0
5 7 -9 -16 -20 25 31 34 0
5 7 -9 -16 20 -25 -31 -34 0
5 7 -9 -16 20 -25 31 34 0
5 7 -9 -16 20 25 -31 34 0
5 7 -9 -16 20 25 31 -34 0
5 7 -9 16 -20 -25 -31 -34 0
5 7 -9 16 -20 -25 31 34 0
5 7 -9 16 -20 25 -31 34 0
5 7 -9 16 -20 25 31 -34 0
5 7 -9 16 20 -25 -31 34 0
5 7 -9 16 20 -25 31 -34 0
5 7 -9 16 20 25 -31 -34 0
5 7 -9 16 20 25 31 34 0
5 7 9 -16 -20 -25 -31 -34 0
5 7 9 -16 -20 -25 31 34 0
5 7 9 -16 -20 25 -31 34 0
5 7 9 -16 -20 25 31 -34 0
5 7 9 -16 20 -25 -31 34 0
5 7 9 -16 20 -25 31 -34 0
5 7 9 -16 20 25 -31 -34 0
5 7 9 -16 20 25 31 34 0
5 7 9 16 -20 -25 -31 34 0
5 7 9 16 -20 -25 31 -34 0
5 7 9 16 -20 25 -31 -34 0
5 7 9 16 -20 25 31 34 0
5 7 9 16 20 -25 -31 -34 0
5 7 9 16 20 -25 31 34 0
5 7 9 16 20 25 -31 34 0
5 7 9 16 20 25 31 -34 0
6 -11 -14 -19 -26 -29 -32 -34 0
6 -11 -14 -19 -26 -29 32 34 0
6 -11 -14 -19 -26 29 -32 34 0
6 -11 -14 -19 -26 29 32 -34 0
6 -11 -14 -19 26 -29 -32 34 0
6 -11 -14 -19 26 -29 32 -34 0
6 -11 -14 -19 26 29 -32 -34 0
6 -11 -14 -19 26 29 32 34 0
6 -11 -14 19 -26 -29 -32 34 0
6 -11 -14 19 -26 -29 32 -34 0
6 -11 -14 19 -26 29 -32 -34 0
6 -11 -14 19 -26 29 32 34 0
6 -11 -14 19 26 -29 -32 -34 0
6 -11 -14 19 26 -29 32 34 0
6 -11 -14 19 26 29 -32 34 0
6 -11 -14 19 26 29 32 -34 0
6 -11 14 -19 -26 -29 -32 34 0
6 -11 14 -19 -26 -29 32 -34 0
6 -11 14 -19 -26 29 -32 -34 0
6 -11 14 -19 -26 29 32 34 0
6 -11 14 -19 26 -29 -32 -34 0
6 -11 14 -19 26 -29 32 34 0
6 -11 14 -19 26 29 -32 34 0
6 -11 14 -19 26 29 32 -34 0
6 -11 14 19 -26 -29 -32 -34 0
6 -11 14 19 -26 -29 32 34 0
6 -11 14 19 -26 29 -32 34 0
6 -11 14 19 -26 29 32 -34 0
6 -11 14 19 26 -29 -32 34 0
6 -11 14 19 26 -29 32 -34 0
6 -11 14 19 26 29 -32 -34 0
6 -11 14 19 26 29 32 34 0
6 11 -14 -19 -26 -29 -32 34 0
6 11 -14 -19 -26 -29 32 -34 0
6 11 -14 -19 -26 29 -32 -34 0
6 11 -14 -19 -26 29 32 34 0
6 11 -14 -19 26 -29 -32 -34 0
6 11 -14 -19 26 -29 32 34 0
6 11 -14 -19 26 29 -32 34 0
6 11 -14 -19 26 29 32 -34 0
6 11 -14 19 -26 -29 -32 -34 0
6 11 -14 19 -26 -29 32 34 0
6 11 -14 19 -26 29 -32 34 0
6 11 -14 19 -26 29 32 -34 0
6 11 -14 19 26 -29 -32 34 0
6 11 -14 19 26 -29 32 -34 0
6 11 -14 19 26 29 -32 -34 0
6 11 -14 19 26 29 32 34 0
6 11 14 -19 -26 -29 -32 -34 0
6 11 14 -19 -26 -29 32 34 0
6 11 14 -19 -26 29 -32 34 0
6 11 14 -19 -26 29 32 -34 0
6 11 14 -19 26 -29 -32 34 0
6 11 14 -19 26 -29 32 -34 0
6 11 14 -19 26 29 -32 -34 0
6 11 14 -19 26 29 32 34 0
6 11 14 19 -26 -29 -32 34 0
6 11 14 19 -26 -29 32 -34 0
6 11 14 19 -26 29 -32 -34 0
6 11 14 19 -26 29 32 34 0
6 11 14 19 26 -29 -32 -34 0
6 11 14 19 26 -29 32 34 0
6 11 14 19 26 29 -32 34 0
6 11 14 19 26 29 32 -34 0
7 -8 -10 -21 -27 -28 -30 -32 0
7 -8 -10 -21 -27 -28 30 32 0
7 -8 -10 -21 -27 28 -30 32 0
7 -8 -10 -21 -27 28 30 -32 0
7 -8 -10 -21 27 -28 -30 32 0
7 -8 -10 -21 27 -28 30 -32 0
7 -8 -10 -21 27 28 -30 -32 0
7 -8 -10 -21 27 28 30 32 0
7 -8 -10 21 -27 -28 -30 32 0
7 -8 -10 21 -27 -28 30 -32 0
7 -8 -10 21 -27 28 -30 -32 0
7 -8 -10 21 -27 28 30 32 0
7 -8 -10 21 27 -28 -30 -32 0
7 -8 -10 21 27 -28 30 32 0
7 -8 -10 21 27 28 -30 32 0
7 -8 -10 21 27 28 30 -32 0
7 -8 10 -21 -27 -28 -30 32 0
7 -8 10 -21 -27 -28 30 -32 0
7 -8 10 -21 -27 28 -30 -32 0
7 -8 10 -21 -27 28 30 32 0
7 -8 10 -21 27 -28 -30 -32 0
7 -8 10 -21 27 -28 30 32 0
7 -8 10 -21 27 28 -30 32 0
7 -8 10 -21 27 28 30 -32 0
7 -8 10 21 -27 -28 -30 -32 0
7 -8 10 21 -27 -28 30 32 0
7 -8 10 21 -27 28 -30 32 0
7 -8 10 21 -27 28 30 -32 0
7 -8 10 21 27 -28 -30 32 0
7 -8 10 21 27 -28 30 -32 0
7 -8 10 21 27 28 -30 -32 0
7 -8 10 21 27 28 30 32 0
7 8 -10 -21 -27 -28 -30 32 0
7 8 -10 -21 -27 -28 30 -32 0
7 8 -10 -21 -27 28 -30 -32 0
7 8 -10 -21 -27 28 30 32 0
7 8 -10 -21 27 -28 -30 -32 0
7 8 -10 -21 27 -28 30 32 0
7 8 -10 -21 27 28 -30 32 0
7 8 -10 -21 27 28 30 -32 0
7 8 -10 21 -27 -28 -30 -32 0
7 8 -10 21 -27 -28 30 32 0
7 8 -10 21 -27 28 -30 32 0
7 8 -10 21 -27 28 30 -32 0
7 8 -10 21 27 -28 -30 32 0
7 8 -10 21 27 -28 30 -32 0
7 8 -10 21 27 28 -30 -32 0
7 8 -10 21 27 28 30 32 0
7 8 10 -21 -27 -28 -30 -32 0
7 8 10 -21 -27 -28 30 32 0
7 8 10 -21 -27 28 -30 32 0
7 8 10 -21 -27 28 30 -32 0
7 8 10 -21 27 -28 -30 32 0
7 8 10 -21 27 -28 30 -32 0
7 8 10 -21 27 28 -30 -32 0
7 8 10 -21 27 28 30 32 0
7 8 10 21 -27 -28 -30 32 0
7 8 10 21 -27 -28 30 -32 0
7 8 10 21 -27 28 -30 -32 0
7 8 10 21 -27 28 30 32 0
7 8 10 21 27 -28 -30 -32 0
7 8 10 21 27 -28 30 32 0
7 8 10 21 27 28 -30 32 0
7 8 10 21 27 28 30 -32 0
11 -13 -17 -18 -23 -24 -25 -28 0
11 -13 -17 -18 -23 -24 25 28 0
11 -13 -17 -18 -23 24 -25 28 0
11 -13 -17 -18 -23 24 25 -28 0
11 -13 -17 -18 23 -24 -25 28 0
11 -13 -17 -18 23 -24 25 -28 0
11 -13 -17 -18 23 24 -25 -28 0
11 -13 -17 -18 23 24 25 28 0
11 -13 -17 18 -23 -24 -25 28 0
11 -13 -17 18 -23 -24 25 -28 0
11 -13 -17 18 -23 24 -25 -28 0
11 -13 -17 18 -23 24 25 28 0
11 -13 -17 18 23 -24 -25 -28 0
11 -13 -17 18 23 -24 25 28 0
11 -13 -17 18 23 24 -25 28 0
11 -13 -17 18 23 24 25 -28 0
11 -13 17 -18 -23 -24 -25 28 0
11 -13 17 -18 -23 -24 25 -28 0
11 -13 17 -18 -23 24 -25 -28 0
11 -13 17 -18 -23 24 25 28 0
11 -13 17 -18 23 -24 -25 -28 0
11 -13 17 -18 23 -24 25 28 0
11 -13 17 -18 23 24 -25 28 0
11 -13 17 -18 23 24 25 -28 0
11 -13 17 18 -23 -24 -25 -28 0
11 -13 17 18 -23 -24 25 28 0
11 -13 17 18 -23 24 -25 28 0
11 -13 17 18 -23 24 25 -28 0
11 -13 17 18 23 -24 -25 28 0
11 -13 17 18 23 -24 25 -28 0
11 -13 17 18 23 24 -25 -28 0
11 -13 17 18 23 24 25 28 0
11 13 -17 -18 -23 -24 -25 28 0
11 13 -17 -18 -23 -24 25 -28 0
11 13 -17 -18 -23 24 -25 -28 0
11 13 -17 -18 -23 24 25 28 0
11 13 -17 -18 23 -24 -25 -28 0
11 13 -17 -18 23 -24 25 28 0
11 13 -17 -18 23 24 -25 28 0
11 13 -17 -18 23 24 25 -28 0
11 13 -17 18 -23 -24 -25 -28 0
11 13 -17 18 -23 -24 25 28 0
11 13 -17 18 -23 24 -25 28 0
11 13 -17 18 -23 24 25 -28 0
11 13 -17 18 23 -24 -25 28 0
11 13 -17 18 23 -24 25 -28 0
11 13 -17 18 23 24 -25 -28 0
11 13 -17 18 23 24 25 28 0
11 13 17 -18 -23 -24 -25 -28 0
11 13 17 -18 -23 -24 25 28 0
11 13 17 -18 -23 24 -25 28 0
11 13 17 -18 -23 24 25 -28 0
11 13 17 -18 23 -24 -25 28 0
11 13 17 -18 23 -24 25 -28 0
11 13 17 -18 23 24 -25 -28 0
11 13 17 -18 23 24 25 28 0
11 13 17 18 -23 -24 -25 28 0
11 13 17 18 -23 -24 25 -28 0
11 13 17 18 -23 24 -25 -28 0
11 13 17 18 -23 24 25 28 0
11 13 17 18 23 -24 -25 -28 0
11 13 17 18 23 -24 25 28 0
11 13 17 18 23 24 -25 28 0
11 13 17 18 23 24 25 -28 0
