p cnf 10 40
-5 -7 -8 9 0
-5 -7 8 -9 0
-5 7 -8 -9 0
-5 7 8 9 0
-2 -4 -5 -6 0
-2 -4 5 6 0
-2 -3 -9 10 0
-2 -3 9 -10 0
-2 3 -9 -10 0
-2 3 9 10 0
-2 4 -5 6 0
-2 4 5 -6 0
-1 -6 -7 10 0
-1 -6 7 -10 0
-1 -3 -4 8 0
-1 -3 4 -8 0
-1 3 -4 -8 0
-1 3 4 8 0
-1 6 -7 -10 0
-1 6 7 10 0
1 -6 -7 -10 0
1 -6 7 10 0
1 -3 -4 -8 0
1 -3 4 8 0
1 3 -4 8 0
1 3 4 -8 0
1 6 -7 10 0
1 6 7 -10 0
2 -4 -5 6 0
2 -4 5 -6 0
2 -3 -9 -10 0
2 -3 9 10 0
2 3 -9 10 0
2 3 9 -10 0
2 4 -5 -6 0
2 4 5 6 0
5 -7 -8 -9 0
5 -7 8 9 0
5 7 -8 9 0
5 7 8 -9 0
