p cnf 28 512
-11 -12 -13 -15 -20 -25 -27 0
-11 -12 -13 -15 -20 25 27 0
-11 -12 -13 -15 20 -25 27 0
-11 -12 -13 -15 20 25 -27 0
-11 -12 -13 15 -20 -25 27 0
-11 -12 -13 15 -20 25 -27 0
-11 -12 -13 15 20 -25 -27 0
-11 -12 -13 15 20 25 27 0
-11 -12 13 -15 -20 -25 27 0
-11 -12 13 -15 -20 25 -27 0
-11 -12 13 -15 20 -25 -27 0
-11 -12 13 -15 20 25 27 0
-11 -12 13 15 -20 -25 -27 0
-11 -12 13 15 -20 25 27 0
-11 -12 13 15 20 -25 27 0
-11 -12 13 15 20 25 -27 0
-11 12 -13 -15 -20 -25 27 0
-11 12 -13 -15 -20 25 -27 0
-11 12 -13 -15 20 -25 -27 0
-11 12 -13 -15 20 25 27 0
-11 12 -13 15 -20 -25 -27 0
-11 12 -13 15 -20 25 27 0
-11 12 -13 15 20 -25 27 0
-11 12 -13 15 20 25 -27 0
-11 12 13 -15 -20 -25 -27 0
-11 12 13 -15 -20 25 27 0
-11 12 13 -15 20 -25 27 0
-11 12 13 -15 20 25 -27 0
-11 12 13 15 -20 -25 27 0
-11 12 13 15 -20 25 -27 0
-11 12 13 15 20 -25 -27 0
-11 12 13 15 20 25 27 0
-9 -10 -12 -17 -18 -24 -26 0
-9 -10 -12 -17 -18 24 26 0
-9 -10 -12 -17 18 -24 26 0
-9 -10 -12 -17 18 24 -26 0
-9 -10 -12 17 -18 -24 26 0
-9 -10 -12 17 -18 24 -26 0
-9 -10 -12 17 18 -24 -26 0
-9 -10 -12 17 18 24 26 0
-9 -10 12 -17 -18 -24 26 0
-9 -10 12 -17 -18 24 -26 0
-9 -10 12 -17 18 -24 -26 0
-9 -10 12 -17 18 24 26 0
-9 -10 12 17 -18 -24 -26 0
-9 -10 12 17 -18 24 26 0
-9 -10 12 17 18 -24 26 0
-9 -10 12 17 18 24 -26 0
-9 10 -12 -17 -18 -24 26 0
-9 10 -12 -17 -18 24 -26 0
-9 10 -12 -17 18 -24 -26 0
-9 10 -12 -17 18 24 26 0
-9 10 -12 17 -18 -24 -26 0
-9 10 -12 17 -18 24 26 0
-9 10 -12 17 18 -24 26 0
-9 10 -12 17 18 24 -26 0
-9 10 12 -17 -18 -24 -26 0
-9 10 12 -17 -18 24 26 0
-9 10 12 -17 18 -24 26 0
-9 10 12 -17 18 24 -26 0
-9 10 12 17 -18 -24 26 0
-9 10 12 17 -18 24 -26 0
-9 10 12 17 18 -24 -26 0
-9 10 12 17 18 24 26 0
-6 -8 -10 -19 -22 -25 -28 0
-6 -8 -10 -19 -22 25 28 0
-6 -8 -10 -19 22 -25 28 0
-6 -8 -10 -19 22 25 -28 0
-6 -8 -10 19 -22 -25 28 0
-6 -8 -10 19 -22 25 -28 0
-6 -8 -10 19 22 -25 -28 0
-6 -8 -10 19 22 25 28 0
-6 -8 10 -19 -22 -25 28 0
-6 -8 10 -19 -22 25 -28 0
-6 -8 10 -19 22 -25 -28 0
-6 -8 10 -19 22 25 28 0
-6 -8 10 19 -22 -25 -28 0
-6 -8 10 19 -22 25 28 0
-6 -8 10 19 22 -25 28 0
-6 -8 10 19 22 25 -28 0
-6 8 -10 -19 -22 -25 28 0
-6 8 -10 -19 -22 25 -28 0
-6 8 -10 -19 22 -25 -28 0
-6 8 -10 -19 22 25 28 0
-6 8 -10 19 -22 -25 -28 0
-6 8 -10 19 -22 25 28 0
-6 8 -10 19 22 -25 28 0
-6 8 -10 19 22 25 -28 0
-6 8 10 -19 -22 -25 -28 0
-6 8 10 -19 -22 25 28 0
-6 8 10 -19 22 -25 28 0
-6 8 10 -19 22 25 -28 0
-6 8 10 19 -22 -25 28 0
-6 8 10 19 -22 25 -28 0
-6 8 10 19 22 -25 -28 0
-6 8 10 19 22 25 28 0
-4 -7 -9 -13 -21 -22 -23 0
-4 -7 -9 -13 -21 22 23 0
-4 -7 -9 -13 21 -22 23 0
-4 -7 -9 -13 21 22 -23 0
-4 -7 -9 13 -21 -22 23 0
-4 -7 -9 13 -21 22 -23 0
-4 -7 -9 13 21 -22 -23 0
-4 -7 -9 13 21 22 23 0
-4 -7 9 -13 -21 -22 23 0
-4 -7 9 -13 -21 22 -23 0
-4 -7 9 -13 21 -22 -23 0
-4 -7 9 -13 21 22 23 0
-4 -7 9 13 -21 -22 -23 0
-4 -7 9 13 -21 22 23 0
-4 -7 9 13 21 -22 23 0
-4 -7 9 13 21 22 -23 0
-4 7 -9 -13 -21 -22 23 0
-4 7 -9 -13 -21 22 -23 0
-4 7 -9 -13 21 -22 -23 0
-4 7 -9 -13 21 22 23 0
-4 7 -9 13 -21 -22 -23 0
-4 7 -9 13 -21 22 23 0
-4 7 -9 13 21 -22 23 0
-4 7 -9 13 21 22 -23 0
-4 7 9 -13 -21 -22 -23 0
-4 7 9 -13 -21 22 23 0
-4 7 9 -13 21 -22 23 0
-4 7 9 -13 21 22 -23 0
-4 7 9 13 -21 -22 23 0
-4 7 9 13 -21 22 -23 0
-4 7 9 13 21 -22 -23 0
-4 7 9 13 21 22 23 0
-3 -8 -14 -15 -16 -21 26 0
-3 -8 -14 -15 -16 21 -26 0
-3 -8 -14 -15 16 -21 -26 0
-3 -8 -14 -15 16 21 26 0
-3 -8 -14 15 -16 -21 -26 0
-3 -8 -14 15 -16 21 26 0
-3 -8 -14 15 16 -21 26 0
-3 -8 -14 15 16 21 -26 0
-3 -8 14 -15 -16 -21 -26 0
-3 -8 14 -15 -16 21 26 0
-3 -8 14 -15 16 -21 26 0
-3 -8 14 -15 16 21 -26 0
-3 -8 14 15 -16 -21 26 0
-3 -8 14 15 -16 21 -26 0
-3 -8 14 15 16 -21 -26 0
-3 -8 14 15 16 21 26 0
-3 8 -14 -15 -16 -21 -26 0
-3 8 -14 -15 -16 21 26 0
-3 8 -14 -15 16 -21 26 0
-3 8 -14 -15 16 21 -26 0
-3 8 -14 15 -16 -21 26 0
-3 8 -14 15 -16 21 -26 0
-3 8 -14 15 16 -21 -26 0
-3 8 -14 15 16 21 26 0
-3 8 14 -15 -16 -21 26 0
-3 8 14 -15 -16 21 -26 0
-3 8 14 -15 16 -21 -26 0
-3 8 14 -15 16 21 26 0
-3 8 14 15 -16 -21 -26 0
-3 8 14 15 -16 21 26 0
-3 8 14 15 16 -21 26 0
-3 8 14 15 16 21 -26 0
-2 -5 -14 -18 -19 -23 -27 0
-2 -5 -14 -18 -19 23 27 0
-2 -5 -14 -18 19 -23 27 0
-2 -5 -14 -18 19 23 -27 0
-2 -5 -14 18 -19 -23 27 0
-2 -5 -14 18 -19 23 -27 0
-2 -5 -14 18 19 -23 -27 0
-2 -5 -14 18 19 23 27 0
-2 -5 14 -18 -19 -23 27 0
-2 -5 14 -18 -19 23 -27 0
-2 -5 14 -18 19 -23 -27 0
-2 -5 14 -18 19 23 27 0
-2 -5 14 18 -19 -23 -27 0
-2 -5 14 18 -19 23 27 0
-2 -5 14 18 19 -23 27 0
-2 -5 14 18 19 23 -27 0
-2 5 -14 -18 -19 -23 27 0
-2 5 -14 -18 -19 23 -27 0
-2 5 -14 -18 19 -23 -27 0
-2 5 -14 -18 19 23 27 0
-2 5 -14 18 -19 -23 -27 0
-2 5 -14 18 -19 23 27 0
-2 5 -14 18 19 -23 27 0
-2 5 -14 18 19 23 -27 0
-2 5 14 -18 -19 -23 -27 0
-2 5 14 -18 -19 23 27 0
-2 5 14 -18 19 -23 27 0
-2 5 14 -18 19 23 -27 0
-2 5 14 18 -19 -23 27 0
-2 5 14 18 -19 23 -27 0
-2 5 14 18 19 -23 -27 0
-2 5 14 18 19 23 27 0
-1 -4 -5 -6 -16 -17 -20 0
-1 -4 -5 -6 -16 17 20 0
-1 -4 -5 -6 16 -17 20 0
-1 -4 -5 -6 16 17 -20 0
-1 -4 -5 6 -16 -17 20 0
-1 -4 -5 6 -16 17 -20 0
-1 -4 -5 6 16 -17 -20 0
-1 -4 -5 6 16 17 20 0
-1 -4 5 -6 -16 -17 20 0
-1 -4 5 -6 -16 17 -20 0
-1 -4 5 -6 16 -17 -20 0
-1 -4 5 -6 16 17 20 0
-1 -4 5 6 -16 -17 -20 0
-1 -4 5 6 -16 17 20 0
-1 -4 5 6 16 -17 20 0
-1 -4 5 6 16 17 -20 0
-1 -2 -3 -7 -11 -24 -28 0
-1 -2 -3 -7 -11 24 28 0
-1 -2 -3 -7 11 -24 28 0
-1 -2 -3 -7 11 24 -28 0
-1 -2 -3 7 -11 -24 28 0
-1 -2 -3 7 -11 24 -28 0
-1 -2 -3 7 11 -24 -28 0
-1 -2 -3 7 11 24 28 0
-1 -2 3 -7 -11 -24 28 0
-1 -2 3 -7 -11 24 -28 0
-1 -2 3 -7 11 -24 -28 0
-1 -2 3 -7 11 24 28 0
-1 -2 3 7 -11 -24 -28 0
-1 -2 3 7 -11 24 28 0
-1 -2 3 7 11 -24 28 0
-1 -2 3 7 11 24 -28 0
-1 2 -3 -7 -11 -24 28 0
-1 2 -3 -7 -11 24 -28 0
-1 2 -3 -7 11 -24 -28 0
-1 2 -3 -7 11 24 28 0
-1 2 -3 7 -11 -24 -28 0
-1 2 -3 7 -11 24 28 0
-1 2 -3 7 11 -24 28 0
-1 2 -3 7 11 24 -28 0
-1 2 3 -7 -11 -24 -28 0
-1 2 3 -7 -11 24 28 0
-1 2 3 -7 11 -24 28 0
-1 2 3 -7 11 24 -28 0
-1 2 3 7 -11 -24 28 0
-1 2 3 7 -11 24 -28 0
-1 2 3 7 11 -24 -28 0
-1 2 3 7 11 24 28 0
-1 4 -5 -6 -16 -17 20 0
-1 4 -5 -6 -16 17 -20 0
-1 4 -5 -6 16 -17 -20 0
-1 4 -5 -6 16 17 20 0
-1 4 -5 6 -16 -17 -20 0
-1 4 -5 6 -16 17 20 0
-1 4 -5 6 16 -17 20 0
-1 4 -5 6 16 17 -20 0
-1 4 5 -6 -16 -17 -20 0
-1 4 5 -6 -16 17 20 0
-1 4 5 -6 16 -17 20 0
-1 4 5 -6 16 17 -20 0
-1 4 5 6 -16 -17 20 0
-1 4 5 6 -16 17 -20 0
-1 4 5 6 16 -17 -20 0
-1 4 5 6 16 17 20 0
1 -4 -5 -6 -16 -17 20 0
1 -4 -5 -6 -16 17 -20 0
1 -4 -5 -6 16 -17 -20 0
1 -4 -5 -6 16 17 20 0
1 -4 -5 6 -16 -17 -20 0
1 -4 -5 6 -16 17 20 0
1 -4 -5 6 16 -17 20 0
1 -4 -5 6 16 17 -20 0
1 -4 5 -6 -16 -17 -20 0
1 -4 5 -6 -16 17 20 0
1 -4 5 -6 16 -17 20 0
1 -4 5 -6 16 17 -20 0
1 -4 5 6 -16 -17 20 0
1 -4 5 6 -16 17 -20 0
1 -4 5 6 16 -17 -20 0
1 -4 5 6 16 17 20 0
1 -2 -3 -7 -11 -24 28 0
1 -2 -3 -7 -11 24 -28 0
1 -2 -3 -7 11 -24 -28 0
1 -2 -3 -7 11 24 28 0
1 -2 -3 7 -11 -24 -28 0
1 -2 -3 7 -11 24 28 0
1 -2 -3 7 11 -24 28 0
1 -2 -3 7 11 24 -28 0
1 -2 3 -7 -11 -24 -28 0
1 -2 3 -7 -11 24 28 0
1 -2 3 -7 11 -24 28 0
1 -2 3 -7 11 24 -28 0
1 -2 3 7 -11 -24 28 0
1 -2 3 7 -11 24 -28 0
1 -2 3 7 11 -24 -28 0
1 -2 3 7 11 24 28 0
1 2 -3 -7 -11 -24 -28 0
1 2 -3 -7 -11 24 28 0
1 2 -3 -7 11 -24 28 0
1 2 -3 -7 11 24 -28 0
1 2 -3 7 -11 -24 28 0
1 2 -3 7 -11 24 -28 0
1 2 -3 7 11 -24 -28 0
1 2 -3 7 11 24 28 0
1 2 3 -7 -11 -24 28 0
1 2 3 -7 -11 24 -28 0
1 2 3 -7 11 -24 -28 0
1 2 3 -7 11 24 28 0
1 2 3 7 -11 -24 -28 0
1 2 3 7 -11 24 28 0
1 2 3 7 11 -24 28 0
1 2 3 7 11 24 -28 0
1 4 -5 -6 -16 -17 -20 0
1 4 -5 -6 -16 17 20 0
1 4 -5 -6 16 -17 20 0
1 4 -5 -6 16 17 -20 0
1 4 -5 6 -16 -17 20 0
1 4 -5 6 -16 17 -20 0
1 4 -5 6 16 -17 -20 0
1 4 -5 6 16 17 20 0
1 4 5 -6 -16 -17 20 0
1 4 5 -6 -16 17 -20 0
1 4 5 -6 16 -17 -20 0
1 4 5 -6 16 17 20 0
1 4 5 6 -16 -17 -20 0
1 4 5 6 -16 17 20 0
1 4 5 6 16 -17 20 0
1 4 5 6 16 17 -20 0
2 -5 -14 -18 -19 -23 27 0
2 -5 -14 -18 -19 23 -27 0
2 -5 -14 -18 19 -23 -27 0
2 -5 -14 -18 19 23 27 0
2 -5 -14 18 -19 -23 -27 0
2 -5 -14 18 -19 23 27 0
2 -5 -14 18 19 -23 27 0
2 -5 -14 18 19 23 -27 0
2 -5 14 -18 -19 -23 -27 0
2 -5 14 -18 -19 23 27 0
2 -5 14 -18 19 -23 27 0
2 -5 14 -18 19 23 -27 0
2 -5 14 18 -19 -23 27 0
2 -5 14 18 -19 23 -27 0
2 -5 14 18 19 -23 -27 0
2 -5 14 18 19 23 27 0
2 5 -14 -18 -19 -23 -27 0
2 5 -14 -18 -19 23 27 0
2 5 -14 -18 19 -23 27 0
2 5 -14 -18 19 23 -27 0
2 5 -14 18 -19 -23 27 0
2 5 -14 18 -19 23 -27 0
2 5 -14 18 19 -23 -27 0
2 5 -14 18 19 23 27 0
2 5 14 -18 -19 -23 27 0
2 5 14 -18 -19 23 -27 0
2 5 14 -18 19 -23 -27 0
2 5 14 -18 19 23 27 0
2 5 14 18 -19 -23 -27 0
2 5 14 18 -19 23 27 0
2 5 14 18 19 -23 27 0
2 5 14 18 19 23 -27 0
3 -8 -14 -15 -16 -21 -26 0
3 -8 -14 -15 -16 21 26 0
3 -8 -14 -15 16 -21 26 0
3 -8 -14 -15 16 21 -26 0
3 -8 -14 15 -16 -21 26 0
3 -8 -14 15 -16 21 -26 0
3 -8 -14 15 16 -21 -26 0
3 -8 -14 15 16 21 26 0
3 -8 14 -15 -16 -21 26 0
3 -8 14 -15 -16 21 -26 0
3 -8 14 -15 16 -21 -26 0
3 -8 14 -15 16 21 26 0
3 -8 14 15 -16 -21 -26 0
3 -8 14 15 -16 21 26 0
3 -8 14 15 16 -21 26 0
3 -8 14 15 16 21 -26 0
3 8 -14 -15 -16 -21 26 0
3 8 -14 -15 -16 21 -26 0
3 8 -14 -15 16 -21 -26 0
3 8 -14 -15 16 21 26 0
3 8 -14 15 -16 -21 -26 0
3 8 -14 15 -16 21 26 0
3 8 -14 15 16 -21 26 0
3 8 -14 15 16 21 -26 0
3 8 14 -15 -16 -21 -26 0
3 8 14 -15 -16 21 26 0
3 8 14 -15 16 -21 26 0
3 8 14 -15 16 21 -26 0
3 8 14 15 -16 -21 26 0
3 8 14 15 -16 21 -26 0
3 8 14 15 16 -21 -26 0
3 8 14 15 16 21 26 0
4 -7 -9 -13 -21 -22 23 0
4 -7 -9 -13 -21 22 -23 0
4 -7 -9 -13 21 -22 -23 0
4 -7 -9 -13 21 22 23 0
4 -7 -9 13 -21 -22 -23 0
4 -7 -9 13 -21 22 23 0
4 -7 -9 13 21 -22 23 0
4 -7 -9 13 21 22 -23 0
4 -7 9 -13 -21 -22 -23 0
4 -7 9 -13 -21 22 23 0
4 -7 9 -13 21 -22 23 0
4 -7 9 -13 21 22 -23 0
4 -7 9 13 -21 -22 23 0
4 -7 9 13 -21 22 -23 0
4 -7 9 13 21 -22 -23 0
4 -7 9 13 21 22 23 0
4 7 -9 -13 -21 -22 -23 0
4 7 -9 -13 -21 22 23 0
4 7 -9 -13 21 -22 23 0
4 7 -9 -13 21 22 -23 0
4 7 -9 13 -21 -22 23 0
4 7 -9 13 -21 22 -23 0
4 7 -9 13 21 -22 -23 0
4 7 -9 13 21 22 23 0
4 7 9 -13 -21 -22 23 0
4 7 9 -13 -21 22 -23 0
4 7 9 -13 21 -22 -23 0
4 7 9 -13 21 22 23 0
4 7 9 13 -21 -22 -23 0
4 7 9 13 -21 22 23 0
4 7 9 13 21 -22 23 0
4 7 9 13 21 22 -23 0
6 -8 -10 -19 -22 -25 28 0
6 -8 -10 -19 -22 25 -28 0
6 -8 -10 -19 22 -25 -28 0
6 -8 -10 -19 22 25 28 0
6 -8 -10 19 -22 -25 -28 0
6 -8 -10 19 -22 25 28 0
6 -8 -10 19 22 -25 28 0
6 -8 -10 19 22 25 -28 0
6 -8 10 -19 -22 -25 -28 0
6 -8 10 -19 -22 25 28 0
6 -8 10 -19 22 -25 28 0
6 -8 10 -19 22 25 -28 0
6 -8 10 19 -22 -25 28 0
6 -8 10 19 -22 25 -28 0
6 -8 10 19 22 -25 -28 0
6 -8 10 19 22 25 28 0
6 8 -10 -19 -22 -25 -28 0
6 8 -10 -19 -22 25 28 0
6 8 -10 -19 22 -25 28 0
6 8 -10 -19 22 25 -28 0
6 8 -10 19 -22 -25 28 0
6 8 -10 19 -22 25 -28 0
6 8 -10 19 22 -25 -28 0
6 8 -10 19 22 25 28 0
6 8 10 -19 -22 -25 28 0
6 8 10 -19 -22 25 -28 0
6 8 10 -19 22 -25 -28 0
6 8 10 -19 22 25 28 0
6 8 10 19 -22 -25 -28 0
6 8 10 19 -22 25 28 0
6 8 10 19 22 -25 28 0
6 8 10 19 22 25 -28 0
9 -10 -12 -17 -18 -24 26 0
9 -10 -12 -17 -18 24 -26 0
9 -10 -12 -17 18 -24 -26 0
9 -10 -12 -17 18 24 26 0
9 -10 -12 17 -18 -24 -26 0
9 -10 -12 17 -18 24 26 0
9 -10 -12 17 18 -24 26 0
9 -10 -12 17 18 24 -26 0
9 -10 12 -17 -18 -24 -26 0
9 -10 12 -17 -18 24 26 0
9 -10 12 -17 18 -24 26 0
9 -10 12 -17 18 24 -26 0
9 -10 12 17 -18 -24 26 0
9 -10 12 17 -18 24 -26 0
9 -10 12 17 18 -24 -26 0
9 -10 12 17 18 24 26 0
9 10 -12 -17 -18 -24 -26 0
9 10 -12 -17 -18 24 26 0
9 10 -12 -17 18 -24 26 0
9 10 -12 -17 18 24 -26 0
9 10 -12 17 -18 -24 26 0
9 10 -12 17 -18 24 -26 0
9 10 -12 17 18 -24 -26 0
9 10 -12 17 18 24 26 0
9 10 12 -17 -18 -24 26 0
9 10 12 -17 -18 24 -26 0
9 10 12 -17 18 -24 -26 0
9 10 12 -17 18 24 26 0
9 10 12 17 -18 -24 -26 0
9 10 12 17 -18 24 26 0
9 10 12 17 18 -24 26 0
9 10 12 17 18 24 -26 0
11 -12 -13 -15 -20 -25 27 0
11 -12 -13 -15 -20 25 -27 0
11 -12 -13 -15 20 -25 -27 0
11 -12 -13 -15 20 25 27 0
11 -12 -13 15 -20 -25 -27 0
11 -12 -13 15 -20 25 27 0
11 -12 -13 15 20 -25 27 0
11 -12 -13 15 20 25 -27 0
11 -12 13 -15 -20 -25 -27 0
11 -12 13 -15 -20 25 27 0
11 -12 13 -15 20 -25 27 0
11 -12 13 -15 20 25 -27 0
11 -12 13 15 -20 -25 27 0
11 -12 13 15 -20 25 -27 0
11 -12 13 15 20 -25 -27 0
11 -12 13 15 20 25 27 0
11 12 -13 -15 -20 -25 -27 0
11 12 -13 -15 -20 25 27 0
11 12 -13 -15 20 -25 27 0
11 12 -13 -15 20 25 -27 0
11 12 -13 15 -20 -25 27 0
11 12 -13 15 -20 25 -27 0
11 12 -13 15 20 -25 -27 0
11 12 -13 15 20 25 27 0
11 12 13 -15 -20 -25 27 0
11 12 13 -15 -20 25 -27 0
11 12 13 -15 20 -25 -27 0
11 12 13 -15 20 25 27 0
11 12 13 15 -20 -25 -27 0
11 12 13 15 -20 25 27 0
11 12 13 15 20 -25 27 0
11 12 13 15 20 25 -27 0
