p cnf 28 512
-4 -10 -11 -12 -14 -22 -28 0
-4 -10 -11 -12 -14 22 28 0
-4 -10 -11 -12 14 -22 28 0
-4 -10 -11 -12 14 22 -28 0
-4 -10 -11 12 -14 -22 28 0
-4 -10 -11 12 -14 22 -28 0
-4 -10 -11 12 14 -22 -28 0
-4 -10 -11 12 14 22 28 0
-4 -10 11 -12 -14 -22 28 0
-4 -10 11 -12 -14 22 -28 0
-4 -10 11 -12 14 -22 -28 0
-4 -10 11 -12 14 22 28 0
-4 -10 11 12 -14 -22 -28 0
-4 -10 11 12 -14 22 28 0
-4 -10 11 12 14 -22 28 0
-4 -10 11 12 14 22 -28 0
-4 -5 -6 -16 -21 -24 -25 0
-4 -5 -6 -16 -21 24 25 0
-4 -5 -6 -16 21 -24 25 0
-4 -5 -6 -16 21 24 -25 0
-4 -5 -6 16 -21 -24 25 0
-4 -5 -6 16 -21 24 -25 0
-4 -5 -6 16 21 -24 -25 0
-4 -5 -6 16 21 24 25 0
-4 -5 6 -16 -21 -24 25 0
-4 -5 6 -16 -21 24 -25 0
-4 -5 6 -16 21 -24 -25 0
-4 -5 6 -16 21 24 25 0
-4 -5 6 16 -21 -24 -25 0
-4 -5 6 16 -21 24 25 0
-4 -5 6 16 21 -24 25 0
-4 -5 6 16 21 24 -25 0
-4 5 -6 -16 -21 -24 25 0
-4 5 -6 -16 -21 24 -25 0
-4 5 -6 -16 21 -24 -25 0
-4 5 -6 -16 21 24 25 0
-4 5 -6 16 -21 -24 -25 0
-4 5 -6 16 -21 24 25 0
-4 5 -6 16 21 -24 25 0
-4 5 -6 16 21 24 -25 0
-4 5 6 -16 -21 -24 -25 0
-4 5 6 -16 -21 24 25 0
-4 5 6 -16 21 -24 25 0
-4 5 6 -16 21 24 -25 0
-4 5 6 16 -21 -24 25 0
-4 5 6 16 -21 24 -25 0
-4 5 6 16 21 -24 -25 0
-4 5 6 16 21 24 25 0
-4 10 -11 -12 -14 -22 28 0
-4 10 -11 -12 -14 22 -28 0
-4 10 -11 -12 14 -22 -28 0
-4 10 -11 -12 14 22 28 0
-4 10 -11 12 -14 -22 -28 0
-4 10 -11 12 -14 22 28 0
-4 10 -11 12 14 -22 28 0
-4 10 -11 12 14 22 -28 0
-4 10 11 -12 -14 -22 -28 0
-4 10 11 -12 -14 22 28 0
-4 10 11 -12 14 -22 28 0
-4 10 11 -12 14 22 -28 0
-4 10 11 12 -14 -22 28 0
-4 10 11 12 -14 22 -28 0
-4 10 11 12 14 -22 -28 0
-4 10 11 12 14 22 28 0
-3 -8 -9 -10 -19 -23 -24 0
-3 -8 -9 -10 -19 23 24 0
-3 -8 -9 -10 19 -23 24 0
-3 -8 -9 -10 19 23 -24 0
-3 -8 -9 10 -19 -23 24 0
-3 -8 -9 10 -19 23 -24 0
-3 -8 -9 10 19 -23 -24 0
-3 -8 -9 10 19 23 24 0
-3 -8 9 -10 -19 -23 24 0
-3 -8 9 -10 -19 23 -24 0
-3 -8 9 -10 19 -23 -24 0
-3 -8 9 -10 19 23 24 0
-3 -8 9 10 -19 -23 -24 0
-3 -8 9 10 -19 23 24 0
-3 -8 9 10 19 -23 24 0
-3 -8 9 10 19 23 -24 0
-3 -7 -13 -15 -16 -18 -28 0
-3 -7 -13 -15 -16 18 28 0
-3 -7 -13 -15 16 -18 28 0
-3 -7 -13 -15 16 18 -28 0
-3 -7 -13 15 -16 -18 28 0
-3 -7 -13 15 -16 18 -28 0
-3 -7 -13 15 16 -18 -28 0
-3 -7 -13 15 16 18 28 0
-3 -7 13 -15 -16 -18 28 0
-3 -7 13 -15 -16 18 -28 0
-3 -7 13 -15 16 -18 -28 0
-3 -7 13 -15 16 18 28 0
-3 -7 13 15 -16 -18 -28 0
-3 -7 13 15 -16 18 28 0
-3 -7 13 15 16 -18 28 0
-3 -7 13 15 16 18 -28 0
-3 7 -13 -15 -16 -18 28 0
-3 7 -13 -15 -16 18 -28 0
-3 7 -13 -15 16 -18 -28 0
-3 7 -13 -15 16 18 28 0
-3 7 -13 15 -16 -18 -28 0
-3 7 -13 15 -16 18 28 0
-3 7 -13 15 16 -18 28 0
-3 7 -13 15 16 18 -28 0
-3 7 13 -15 -16 -18 -28 0
-3 7 13 -15 -16 18 28 0
-3 7 13 -15 16 -18 28 0
-3 7 13 -15 16 18 -28 0
-3 7 13 15 -16 -18 28 0
-3 7 13 15 -16 18 -28 0
-3 7 13 15 16 -18 -28 0
-3 7 13 15 16 18 28 0
-3 8 -9 -10 -19 -23 24 0
-3 8 -9 -10 -19 23 -24 0
-3 8 -9 -10 19 -23 -24 0
-3 8 -9 -10 19 23 24 0
-3 8 -9 10 -19 -23 -24 0
-3 8 -9 10 -19 23 24 0
-3 8 -9 10 19 -23 24 0
-3 8 -9 10 19 23 -24 0
-3 8 9 -10 -19 -23 -24 0
-3 8 9 -10 -19 23 24 0
-3 8 9 -10 19 -23 24 0
-3 8 9 -10 19 23 -24 0
-3 8 9 10 -19 -23 24 0
-3 8 9 10 -19 23 -24 0
-3 8 9 10 19 -23 -24 0
-3 8 9 10 19 23 24 0
-2 -8 -13 -17 -21 -22 -26 0
-2 -8 -13 -17 -21 22 26 0
-2 -8 -13 -17 21 -22 26 0
-2 -8 -13 -17 21 22 -26 0
-2 -8 -13 17 -21 -22 26 0
-2 -8 -13 17 -21 22 -26 0
-2 -8 -13 17 21 -22 -26 0
-2 -8 -13 17 21 22 26 0
-2 -8 13 -17 -21 -22 26 0
-2 -8 13 -17 -21 22 -26 0
-2 -8 13 -17 21 -22 -26 0
-2 -8 13 -17 21 22 26 0
-2 -8 13 17 -21 -22 -26 0
-2 -8 13 17 -21 22 26 0
-2 -8 13 17 21 -22 26 0
-2 -8 13 17 21 22 -26 0
-2 -6 -12 -18 -20 -23 -27 0
-2 -6 -12 -18 -20 23 27 0
-2 -6 -12 -18 20 -23 27 0
-2 -6 -12 -18 20 23 -27 0
-2 -6 -12 18 -20 -23 27 0
-2 -6 -12 18 -20 23 -27 0
-2 -6 -12 18 20 -23 -27 0
-2 -6 -12 18 20 23 27 0
-2 -6 12 -18 -20 -23 27 0
-2 -6 12 -18 -20 23 -27 0
-2 -6 12 -18 20 -23 -27 0
-2 -6 12 -18 20 23 27 0
-2 -6 12 18 -20 -23 -27 0
-2 -6 12 18 -20 23 27 0
-2 -6 12 18 20 -23 27 0
-2 -6 12 18 20 23 -27 0
-2 6 -12 -18 -20 -23 27 0
-2 6 -12 -18 -20 23 -27 0
-2 6 -12 -18 20 -23 -27 0
-2 6 -12 -18 20 23 27 0
-2 6 -12 18 -20 -23 -27 0
-2 6 -12 18 -20 23 27 0
-2 6 -12 18 20 -23 27 0
-2 6 -12 18 20 23 -27 0
-2 6 12 -18 -20 -23 -27 0
-2 6 12 -18 -20 23 27 0
-2 6 12 -18 20 -23 27 0
-2 6 12 -18 20 23 -27 0
-2 6 12 18 -20 -23 27 0
-2 6 12 18 -20 23 -27 0
-2 6 12 18 20 -23 -27 0
-2 6 12 18 20 23 27 0
-2 8 -13 -17 -21 -22 26 0
-2 8 -13 -17 -21 22 -26 0
-2 8 -13 -17 21 -22 -26 0
-2 8 -13 -17 21 22 26 0
-2 8 -13 17 -21 -22 -26 0
-2 8 -13 17 -21 22 26 0
-2 8 -13 17 21 -22 26 0
-2 8 -13 17 21 22 -26 0
-2 8 13 -17 -21 -22 -26 0
-2 8 13 -17 -21 22 26 0
-2 8 13 -17 21 -22 26 0
-2 8 13 -17 21 22 -26 0
-2 8 13 17 -21 -22 26 0
-2 8 13 17 -21 22 -26 0
-2 8 13 17 21 -22 -26 0
-2 8 13 17 21 22 26 0
-1 -7 -11 -17 -19 -20 -25 0
-1 -7 -11 -17 -19 20 25 0
-1 -7 -11 -17 19 -20 25 0
-1 -7 -11 -17 19 20 -25 0
-1 -7 -11 17 -19 -20 25 0
-1 -7 -11 17 -19 20 -25 0
-1 -7 -11 17 19 -20 -25 0
-1 -7 -11 17 19 20 25 0
-1 -7 11 -17 -19 -20 25 0
-1 -7 11 -17 -19 20 -25 0
-1 -7 11 -17 19 -20 -25 0
-1 -7 11 -17 19 20 25 0
-1 -7 11 17 -19 -20 -25 0
-1 -7 11 17 -19 20 25 0
-1 -7 11 17 19 -20 25 0
-1 -7 11 17 19 20 -25 0
-1 -5 -9 -14 -15 -26 -27 0
-1 -5 -9 -14 -15 26 27 0
-1 -5 -9 -14 15 -26 27 0
-1 -5 -9 -14 15 26 -27 0
-1 -5 -9 14 -15 -26 27 0
-1 -5 -9 14 -15 26 -27 0
-1 -5 -9 14 15 -26 -27 0
-1 -5 -9 14 15 26 27 0
-1 -5 9 -14 -15 -26 27 0
-1 -5 9 -14 -15 26 -27 0
-1 -5 9 -14 15 -26 -27 0
-1 -5 9 -14 15 26 27 0
-1 -5 9 14 -15 -26 -27 0
-1 -5 9 14 -15 26 27 0
-1 -5 9 14 15 -26 27 0
-1 -5 9 14 15 26 -27 0
-1 5 -9 -14 -15 -26 27 0
-1 5 -9 -14 -15 26 -27 0
-1 5 -9 -14 15 -26 -27 0
-1 5 -9 -14 15 26 27 0
-1 5 -9 14 -15 -26 -27 0
-1 5 -9 14 -15 26 27 0
-1 5 -9 14 15 -26 27 0
-1 5 -9 14 15 26 -27 0
-1 5 9 -14 -15 -26 -27 0
-1 5 9 -14 -15 26 27 0
-1 5 9 -14 15 -26 27 0
-1 5 9 -14 15 26 -27 0
-1 5 9 14 -15 -26 27 0
-1 5 9 14 -15 26 -27 0
-1 5 9 14 15 -26 -27 0
-1 5 9 14 15 26 27 0
-1 7 -11 -17 -19 -20 25 0
-1 7 -11 -17 -19 20 -25 0
-1 7 -11 -17 19 -20 -25 0
-1 7 -11 -17 19 20 25 0
-1 7 -11 17 -19 -20 -25 0
-1 7 -11 17 -19 20 25 0
-1 7 -11 17 19 -20 25 0
-1 7 -11 17 19 20 -25 0
-1 7 11 -17 -19 -20 -25 0
-1 7 11 -17 -19 20 25 0
-1 7 11 -17 19 -20 25 0
-1 7 11 -17 19 20 -25 0
-1 7 11 17 -19 -20 25 0
-1 7 11 17 -19 20 -25 0
-1 7 11 17 19 -20 -25 0
-1 7 11 17 19 20 25 0
1 -7 -11 -17 -19 -20 25 0
1 -7 -11 -17 -19 20 -25 0
1 -7 -11 -17 19 -20 -25 0
1 -7 -11 -17 19 20 25 0
1 -7 -11 17 -19 -20 -25 0
1 -7 -11 17 -19 20 25 0
1 -7 -11 17 19 -20 25 0
1 -7 -11 17 19 20 -25 0
1 -7 11 -17 -19 -20 -25 0
1 -7 11 -17 -19 20 25 0
1 -7 11 -17 19 -20 25 0
1 -7 11 -17 19 20 -25 0
1 -7 11 17 -19 -20 25 0
1 -7 11 17 -19 20 -25 0
1 -7 11 17 19 -20 -25 0
1 -7 11 17 19 20 25 0
1 -5 -9 -14 -15 -26 27 0
1 -5 -9 -14 -15 26 -27 0
1 -5 -9 -14 15 -26 -27 0
1 -5 -9 -14 15 26 27 0
1 -5 -9 14 -15 -26 -27 0
1 -5 -9 14 -15 26 27 0
1 -5 -9 14 15 -26 27 0
1 -5 -9 14 15 26 -27 0
1 -5 9 -14 -15 -26 -27 0
1 -5 9 -14 -15 26 27 0
1 -5 9 -14 15 -26 27 0
1 -5 9 -14 15 26 -27 0
1 -5 9 14 -15 -26 27 0
1 -5 9 14 -15 26 -27 0
1 -5 9 14 15 -26 -27 0
1 -5 9 14 15 26 27 0
1 5 -9 -14 -15 -26 -27 0
1 5 -9 -14 -15 26 27 0
1 5 -9 -14 15 -26 27 0
1 5 -9 -14 15 26 -27 0
1 5 -9 14 -15 -26 27 0
1 5 -9 14 -15 26 -27 0
1 5 -9 14 15 -26 -27 0
1 5 -9 14 15 26 27 0
1 5 9 -14 -15 -26 27 0
1 5 9 -14 -15 26 -27 0
1 5 9 -14 15 -26 -27 0
1 5 9 -14 15 26 27 0
1 5 9 14 -15 -26 -27 0
1 5 9 14 -15 26 27 0
1 5 9 14 15 -26 27 0
1 5 9 14 15 26 -27 0
1 7 -11 -17 -19 -20 -25 0
1 7 -11 -17 -19 20 25 0
1 7 -11 -17 19 -20 25 0
1 7 -11 -17 19 20 -25 0
1 7 -11 17 -19 -20 25 0
1 7 -11 17 -19 20 -25 0
1 7 -11 17 19 -20 -25 0
1 7 -11 17 19 20 25 0
1 7 11 -17 -19 -20 25 0
1 7 11 -17 -19 20 -25 0
1 7 11 -17 19 -20 -25 0
1 7 11 -17 19 20 25 0
1 7 11 17 -19 -20 -25 0
1 7 11 17 -19 20 25 0
1 7 11 17 19 -20 25 0
1 7 11 17 19 20 -25 0
2 -8 -13 -17 -21 -22 26 0
2 -8 -13 -17 -21 22 -26 0
2 -8 -13 -17 21 -22 -26 0
2 -8 -13 -17 21 22 26 0
2 -8 -13 17 -21 -22 -26 0
2 -8 -13 17 -21 22 26 0
2 -8 -13 17 21 -22 26 0
2 -8 -13 17 21 22 -26 0
2 -8 13 -17 -21 -22 -26 0
2 -8 13 -17 -21 22 26 0
2 -8 13 -17 21 -22 26 0
2 -8 13 -17 21 22 -26 0
2 -8 13 17 -21 -22 26 0
2 -8 13 17 -21 22 -26 0
2 -8 13 17 21 -22 -26 0
2 -8 13 17 21 22 26 0
2 -6 -12 -18 -20 -23 27 0
2 -6 -12 -18 -20 23 -27 0
2 -6 -12 -18 20 -23 -27 0
2 -6 -12 -18 20 23 27 0
2 -6 -12 18 -20 -23 -27 0
2 -6 -12 18 -20 23 27 0
2 -6 -12 18 20 -23 27 0
2 -6 -12 18 20 23 -27 0
2 -6 12 -18 -20 -23 -27 0
2 -6 12 -18 -20 23 27 0
2 -6 12 -18 20 -23 27 0
2 -6 12 -18 20 23 -27 0
2 -6 12 18 -20 -23 27 0
2 -6 12 18 -20 23 -27 0
2 -6 12 18 20 -23 -27 0
2 -6 12 18 20 23 27 0
2 6 -12 -18 -20 -23 -27 0
2 6 -12 -18 -20 23 27 0
2 6 -12 -18 20 -23 27 0
2 6 -12 -18 20 23 -27 0
2 6 -12 18 -20 -23 27 0
2 6 -12 18 -20 23 -27 0
2 6 -12 18 20 -23 -27 0
2 6 -12 18 20 23 27 0
2 6 12 -18 -20 -23 27 0
2 6 12 -18 -20 23 -27 0
2 6 12 -18 20 -23 -27 0
2 6 12 -18 20 23 27 0
2 6 12 18 -20 -23 -27 0
2 6 12 18 -20 23 27 0
2 6 12 18 20 -23 27 0
2 6 12 18 20 23 -27 0
2 8 -13 -17 -21 -22 -26 0
2 8 -13 -17 -21 22 26 0
2 8 -13 -17 21 -22 26 0
2 8 -13 -17 21 22 -26 0
2 8 -13 17 -21 -22 26 0
2 8 -13 17 -21 22 -26 0
2 8 -13 17 21 -22 -26 0
2 8 -13 17 21 22 26 0
2 8 13 -17 -21 -22 26 0
2 8 13 -17 -21 22 -26 0
2 8 13 -17 21 -22 -26 0
2 8 13 -17 21 22 26 0
2 8 13 17 -21 -22 -26 0
2 8 13 17 -21 22 26 0
2 8 13 17 21 -22 26 0
2 8 13 17 21 22 -26 0
3 -8 -9 -10 -19 -23 24 0
3 -8 -9 -10 -19 23 -24 0
3 -8 -9 -10 19 -23 -24 0
3 -8 -9 -10 19 23 24 0
3 -8 -9 10 -19 -23 -24 0
3 -8 -9 10 -19 23 24 0
3 -8 -9 10 19 -23 24 0
3 -8 -9 10 19 23 -24 0
3 -8 9 -10 -19 -23 -24 0
3 -8 9 -10 -19 23 24 0
3 -8 9 -10 19 -23 24 0
3 -8 9 -10 19 23 -24 0
3 -8 9 10 -19 -23 24 0
3 -8 9 10 -19 23 -24 0
3 -8 9 10 19 -23 -24 0
3 -8 9 10 19 23 24 0
3 -7 -13 -15 -16 -18 28 0
3 -7 -13 -15 -16 18 -28 0
3 -7 -13 -15 16 -18 -28 0
3 -7 -13 -15 16 18 28 0
3 -7 -13 15 -16 -18 -28 0
3 -7 -13 15 -16 18 28 0
3 -7 -13 15 16 -18 28 0
3 -7 -13 15 16 18 -28 0
3 -7 13 -15 -16 -18 -28 0
3 -7 13 -15 -16 18 28 0
3 -7 13 -15 16 -18 28 0
3 -7 13 -15 16 18 -28 0
3 -7 13 15 -16 -18 28 0
3 -7 13 15 -16 18 -28 0
3 -7 13 15 16 -18 -28 0
3 -7 13 15 16 18 28 0
3 7 -13 -15 -16 -18 -28 0
3 7 -13 -15 -16 18 28 0
3 7 -13 -15 16 -18 28 0
3 7 -13 -15 16 18 -28 0
3 7 -13 15 -16 -18 28 0
3 7 -13 15 -16 18 -28 0
3 7 -13 15 16 -18 -28 0
3 7 -13 15 16 18 28 0
3 7 13 -15 -16 -18 28 0
3 7 13 -15 -16 18 -28 0
3 7 13 -15 16 -18 -28 0
3 7 13 -15 16 18 28 0
3 7 13 15 -16 -18 -28 0
3 7 13 15 -16 18 28 0
3 7 13 15 16 -18 28 0
3 7 13 15 16 18 -28 0
3 8 -9 -10 -19 -23 -24 0
3 8 -9 -10 -19 23 24 0
3 8 -9 -10 19 -23 24 0
3 8 -9 -10 19 23 -24 0
3 8 -9 10 -19 -23 24 0
3 8 -9 10 -19 23 -24 0
3 8 -9 10 19 -23 -24 0
3 8 -9 10 19 23 24 0
3 8 9 -10 -19 -23 24 0
3 8 9 -10 -19 23 -24 0
3 8 9 -10 19 -23 -24 0
3 8 9 -10 19 23 24 0
3 8 9 10 -19 -23 -24 0
3 8 9 10 -19 23 24 0
3 8 9 10 19 -23 24 0
3 8 9 10 19 23 -24 0
4 -10 -11 -12 -14 -22 28 0
4 -10 -11 -12 -14 22 -28 0
4 -10 -11 -12 14 -22 -28 0
4 -10 -11 -12 14 22 28 0
4 -10 -11 12 -14 -22 -28 0
4 -10 -11 12 -14 22 28 0
4 -10 -11 12 14 -22 28 0
4 -10 -11 12 14 22 -28 0
4 -10 11 -12 -14 -22 -28 0
4 -10 11 -12 -14 22 28 0
4 -10 11 -12 14 -22 28 0
4 -10 11 -12 14 22 -28 0
4 -10 11 12 -14 -22 28 0
4 -10 11 12 -14 22 -28 0
4 -10 11 12 14 -22 -28 0
4 -10 11 12 14 22 28 0
4 -5 -6 -16 -21 -24 25 0
4 -5 -6 -16 -21 24 -25 0
4 -5 -6 -16 21 -24 -25 0
4 -5 -6 -16 21 24 25 0
4 -5 -6 16 -21 -24 -25 0
4 -5 -6 16 -21 24 25 0
4 -5 -6 16 21 -24 25 0
4 -5 -6 16 21 24 -25 0
4 -5 6 -16 -21 -24 -25 0
4 -5 6 -16 -21 24 25 0
4 -5 6 -16 21 -24 25 0
4 -5 6 -16 21 24 -25 0
4 -5 6 16 -21 -24 25 0
4 -5 6 16 -21 24 -25 0
4 -5 6 16 21 -24 -25 0
4 -5 6 16 21 24 25 0
4 5 -6 -16 -21 -24 -25 0
4 5 -6 -16 -21 24 25 0
4 5 -6 -16 21 -24 25 0
4 5 -6 -16 21 24 -25 0
4 5 -6 16 -21 -24 25 0
4 5 -6 16 -21 24 -25 0
4 5 -6 16 21 -24 -25 0
4 5 -6 16 21 24 25 0
4 5 6 -16 -21 -24 25 0
4 5 6 -16 -21 24 -25 0
4 5 6 -16 21 -24 -25 0
4 5 6 -16 21 24 25 0
4 5 6 16 -21 -24 -25 0
4 5 6 16 -21 24 25 0
4 5 6 16 21 -24 25 0
4 5 6 16 21 24 -25 0
4 10 -11 -12 -14 -22 -28 0
4 10 -11 -12 -14 22 28 0
4 10 -11 -12 14 -22 28 0
4 10 -11 -12 14 22 -28 0
4 10 -11 12 -14 -22 28 0
4 10 -11 12 -14 22 -28 0
4 10 -11 12 14 -22 -28 0
4 10 -11 12 14 22 28 0
4 10 11 -12 -14 -22 28 0
4 10 11 -12 -14 22 -28 0
4 10 11 -12 14 -22 -28 0
4 10 11 -12 14 22 28 0
4 10 11 12 -14 -22 -28 0
4 10 11 12 -14 22 28 0
4 10 11 12 14 -22 28 0
4 10 11 12 14 22 -28 0
