p cnf 36 1152
-8 -9 -14 -16 -20 -26 -31 -34 0
-8 -9 -14 -16 -20 -26 31 34 0
-8 -9 -14 -16 -20 26 -31 34 0
-8 -9 -14 -16 -20 26 31 -34 0
-8 -9 -14 -16 20 -26 -31 34 0
-8 -9 -14 -16 20 -26 31 -34 0
-8 -9 -14 -16 20 26 -31 -34 0
-8 -9 -14 -16 20 26 31 34 0
-8 -9 -14 16 -20 -26 -31 34 0
-8 -9 -14 16 -20 -26 31 -34 0
-8 -9 -14 16 -20 26 -31 -34 0
-8 -9 -14 16 -20 26 31 34 0
-8 -9 -14 16 20 -26 -31 -34 0
-8 -9 -14 16 20 -26 31 34 0
-8 -9 -14 16 20 26 -31 34 0
-8 -9 -14 16 20 26 31 -34 0
-8 -9 14 -16 -20 -26 -31 34 0
-8 -9 14 -16 -20 -26 31 -34 0
-8 -9 14 -16 -20 26 -31 -34 0
-8 -9 14 -16 -20 26 31 34 0
-8 -9 14 -16 20 -26 -31 -34 0
-8 -9 14 -16 20 -26 31 34 0
-8 -9 14 -16 20 26 -31 34 0
-8 -9 14 -16 20 26 31 -34 0
-8 -9 14 16 -20 -26 -31 -34 0
-8 -9 14 16 -20 -26 31 34 0
-8 -9 14 16 -20 26 -31 34 0
-8 -9 14 16 -20 26 31 -34 0
-8 -9 14 16 20 -26 -31 34 0
-8 -9 14 16 20 -26 31 -34 0
-8 -9 14 16 20 26 -31 -34 0
-8 -9 14 16 20 26 31 34 0
-8 9 -14 -16 -20 -26 -31 34 0
-8 9 -14 -16 -20 -26 31 -34 0
-8 9 -14 -16 -20 26 -31 -34 0
-8 9 -14 -16 -20 26 31 34 0
-8 9 -14 -16 20 -26 -31 -34 0
-8 9 -14 -16 20 -26 31 34 0
-8 9 -14 -16 20 26 -31 34 0
-8 9 -14 -16 20 26 31 -34 0
-8 9 -14 16 -20 -26 -31 -34 0
-8 9 -14 16 -20 -26 31 34 0
-8 9 -14 16 -20 26 -31 34 0
-8 9 -14 16 -20 26 31 -34 0
-8 9 -14 16 20 -26 -31 34 0
-8 9 -14 16 20 -26 31 -34 0
-8 9 -14 16 20 26 -31 -34 0
-8 9 -14 16 20 26 31 34 0
-8 9 14 -16 -20 -26 -31 -34 0
-8 9 14 -16 -20 -26 31 34 0
-8 9 14 -16 -20 26 -31 34 0
-8 9 14 -16 -20 26 31 -34 0
-8 9 14 -16 20 -26 -31 34 0
-8 9 14 -16 20 -26 31 -34 0
-8 9 14 -16 20 26 -31 -34 0
-8 9 14 -16 20 26 31 34 0
-8 9 14 16 -20 -26 -31 34 0
-8 9 14 16 -20 -26 31 -34 0
-8 9 14 16 -20 26 -31 -34 0
-8 9 14 16 -20 26 31 34 0
-8 9 14 16 20 -26 -31 -34 0
-8 9 14 16 20 -26 31 34 0
-8 9 14 16 20 26 -31 34 0
-8 9 14 16 20 26 31 -34 0
-4 -7 -10 -12 -23 -25 -32 34 0
-4 -7 -10 -12 -23 -25 32 -34 0
-4 -7 -10 -12 -23 25 -32 -34 0
-4 -7 -10 -12 -23 25 32 34 0
-4 -7 -10 -12 23 -25 -32 -34 0
-4 -7 -10 -12 23 -25 32 34 0
-4 -7 -10 -12 23 25 -32 34 0
-4 -7 -10 -12 23 25 32 -34 0
-4 -7 -10 12 -23 -25 -32 -34 0
-4 -7 -10 12 -23 -25 32 34 0
-4 -7 -10 12 -23 25 -32 34 0
-4 -7 -10 12 -23 25 32 -34 0
-4 -7 -10 12 23 -25 -32 34 0
-4 -7 -10 12 23 -25 32 -34 0
-4 -7 -10 12 23 25 -32 -34 0
-4 -7 -10 12 23 25 32 34 0
-4 -7 10 -12 -23 -25 -32 -34 0
-4 -7 10 -12 -23 -25 32 34 0
-4 -7 10 -12 -23 25 -32 34 0
-4 -7 10 -12 -23 25 32 -34 0
-4 -7 10 -12 23 -25 -32 34 0
-4 -7 10 -12 23 -25 32 -34 0
-4 -7 10 -12 23 25 -32 -34 0
-4 -7 10 -12 23 25 32 34 0
-4 -7 10 12 -23 -25 -32 34 0
-4 -7 10 12 -23 -25 32 -34 0
-4 -7 10 12 -23 25 -32 -34 0
-4 -7 10 12 -23 25 32 34 0
-4 -7 10 12 23 -25 -32 -34 0
-4 -7 10 12 23 -25 32 34 0
-4 -7 10 12 23 25 -32 34 0
-4 -7 10 12 23 25 32 -34 0
-4 -5 -15 -19 -30 -31 -33 36 0
-4 -5 -15 -19 -30 -31 33 -36 0
-4 -5 -15 -19 -30 31 -33 -36 0
-4 -5 -15 -19 -30 31 33 36 0
-4 -5 -15 -19 30 -31 -33 -36 0
-4 -5 -15 -19 30 -31 33 36 0
-4 -5 -15 -19 30 31 -33 36 0
-4 -5 -15 -19 30 31 33 -36 0
-4 -5 -15 19 -30 -31 -33 -36 0
-4 -5 -15 19 -30 -31 33 36 0
-4 -5 -15 19 -30 31 -33 36 0
-4 -5 -15 19 -30 31 33 -36 0
-4 -5 -15 19 30 -31 -33 36 0
-4 -5 -15 19 30 -31 33 -36 0
-4 -5 -15 19 30 31 -33 -36 0
-4 -5 -15 19 30 31 33 36 0
-4 -5 15 -19 -30 -31 -33 -36 0
-4 -5 15 -19 -30 -31 33 36 0
-4 -5 15 -19 -30 31 -33 36 0
-4 -5 15 -19 -30 31 33 -36 0
-4 -5 15 -19 30 -31 -33 36 0
-4 -5 15 -19 30 -31 33 -36 0
-4 -5 15 -19 30 31 -33 -36 0
-4 -5 15 -19 30 31 33 36 0
-4 -5 15 19 -30 -31 -33 36 0
-4 -5 15 19 -30 -31 33 -36 0
-4 -5 15 19 -30 31 -33 -36 0
-4 -5 15 19 -30 31 33 36 0
-4 -5 15 19 30 -31 -33 -36 0
-4 -5 15 19 30 -31 33 36 0
-4 -5 15 19 30 31 -33 36 0
-4 -5 15 19 30 31 33 -36 0
-4 5 -15 -19 -30 -31 -33 -36 0
-4 5 -15 -19 -30 -31 33 36 0
-4 5 -15 -19 -30 31 -33 36 0
-4 5 -15 -19 -30 31 33 -36 0
-4 5 -15 -19 30 -31 -33 36 0
-4 5 -15 -19 30 -31 33 -36 0
-4 5 -15 -19 30 31 -33 -36 0
-4 5 -15 -19 30 31 33 36 0
-4 5 -15 19 -30 -31 -33 36 0
-4 5 -15 19 -30 -31 33 -36 0
-4 5 -15 19 -30 31 -33 -36 0
-4 5 -15 19 -30 31 33 36 0
-4 5 -15 19 30 -31 -33 -36 0
-4 5 -15 19 30 -31 33 36 0
-4 5 -15 19 30 31 -33 36 0
-4 5 -15 19 30 31 33 -36 0
-4 5 15 -19 -30 -31 -33 36 0
-4 5 15 -19 -30 -31 33 -36 0
-4 5 15 -19 -30 31 -33 -36 0
-4 5 15 -19 -30 31 33 36 0
-4 5 15 -19 30 -31 -33 -36 0
-4 5 15 -19 30 -31 33 36 0
-4 5 15 -19 30 31 -33 36 0
-4 5 15 -19 30 31 33 -36 0
-4 5 15 19 -30 -31 -33 -36 0
-4 5 15 19 -30 -31 33 36 0
-4 5 15 19 -30 31 -33 36 0
-4 5 15 19 -30 31 33 -36 0
-4 5 15 19 30 -31 -33 36 0
-4 5 15 19 30 -31 33 -36 0
-4 5 15 19 30 31 -33 -36 0
-4 5 15 19 30 31 33 36 0
-4 7 -10 -12 -23 -25 -32 -34 0
-4 7 -10 -12 -23 -25 32 34 0
-4 7 -10 -12 -23 25 -32 34 0
-4 7 -10 -12 -23 25 32 -34 0
-4 7 -10 -12 23 -25 -32 34 0
-4 7 -10 -12 23 -25 32 -34 0
-4 7 -10 -12 23 25 -32 -34 0
-4 7 -10 -12 23 25 32 34 0
-4 7 -10 12 -23 -25 -32 34 0
-4 7 -10 12 -23 -25 32 -34 0
-4 7 -10 12 -23 25 -32 -34 0
-4 7 -10 12 -23 25 32 34 0
-4 7 -10 12 23 -25 -32 -34 0
-4 7 -10 12 23 -25 32 34 0
-4 7 -10 12 23 25 -32 34 0
-4 7 -10 12 23 25 32 -34 0
-4 7 10 -12 -23 -25 -32 34 0
-4 7 10 -12 -23 -25 32 -34 0
-4 7 10 -12 -23 25 -32 -34 0
-4 7 10 -12 -23 25 32 34 0
-4 7 10 -12 23 -25 -32 -34 0
-4 7 10 -12 23 -25 32 34 0
-4 7 10 -12 23 25 -32 34 0
-4 7 10 -12 23 25 32 -34 0
-4 7 10 12 -23 -25 -32 -34 0
-4 7 10 12 -23 -25 32 34 0
-4 7 10 12 -23 25 -32 34 0
-4 7 10 12 -23 25 32 -34 0
-4 7 10 12 23 -25 -32 34 0
-4 7 10 12 23 -25 32 -34 0
-4 7 10 12 23 25 -32 -34 0
-4 7 10 12 23 25 32 34 0
-3 -7 -8 -11 -17 -21 -22 36 0
-3 -7 -8 -11 -17 -21 22 -36 0
-3 -7 -8 -11 -17 21 -22 -36 0
-3 -7 -8 -11 -17 21 22 36 0
-3 -7 -8 -11 17 -21 -22 -36 0
-3 -7 -8 -11 17 -21 22 36 0
-3 -7 -8 -11 17 21 -22 36 0
-3 -7 -8 -11 17 21 22 -36 0
-3 -7 -8 11 -17 -21 -22 -36 0
-3 -7 -8 11 -17 -21 22 36 0
-3 -7 -8 11 -17 21 -22 36 0
-3 -7 -8 11 -17 21 22 -36 0
-3 -7 -8 11 17 -21 -22 36 0
-3 -7 -8 11 17 -21 22 -36 0
-3 -7 -8 11 17 21 -22 -36 0
-3 -7 -8 11 17 21 22 36 0
-3 -7 8 -11 -17 -21 -22 -36 0
-3 -7 8 -11 -17 -21 22 36 0
-3 -7 8 -11 -17 21 -22 36 0
-3 -7 8 -11 -17 21 22 -36 0
-3 -7 8 -11 17 -21 -22 36 0
-3 -7 8 -11 17 -21 22 -36 0
-3 -7 8 -11 17 21 -22 -36 0
-3 -7 8 -11 17 21 22 36 0
-3 -7 8 11 -17 -21 -22 36 0
-3 -7 8 11 -17 -21 22 -36 0
-3 -7 8 11 -17 21 -22 -36 0
-3 -7 8 11 -17 21 22 36 0
-3 -7 8 11 17 -21 -22 -36 0
-3 -7 8 11 17 -21 22 36 0
-3 -7 8 11 17 21 -22 36 0
-3 -7 8 11 17 21 22 -36 0
-3 -5 -6 -12 -18 -20 -28 35 0
-3 -5 -6 -12 -18 -20 28 -35 0
-3 -5 -6 -12 -18 20 -28 -35 0
-3 -5 -6 -12 -18 20 28 35 0
-3 -5 -6 -12 18 -20 -28 -35 0
-3 -5 -6 -12 18 -20 28 35 0
-3 -5 -6 -12 18 20 -28 35 0
-3 -5 -6 -12 18 20 28 -35 0
-3 -5 -6 12 -18 -20 -28 -35 0
-3 -5 -6 12 -18 -20 28 35 0
-3 -5 -6 12 -18 20 -28 35 0
-3 -5 -6 12 -18 20 28 -35 0
-3 -5 -6 12 18 -20 -28 35 0
-3 -5 -6 12 18 -20 28 -35 0
-3 -5 -6 12 18 20 -28 -35 0
-3 -5 -6 12 18 20 28 35 0
-3 -5 6 -12 -18 -20 -28 -35 0
-3 -5 6 -12 -18 -20 28 35 0
-3 -5 6 -12 -18 20 -28 35 0
-3 -5 6 -12 -18 20 28 -35 0
-3 -5 6 -12 18 -20 -28 35 0
-3 -5 6 -12 18 -20 28 -35 0
-3 -5 6 -12 18 20 -28 -35 0
-3 -5 6 -12 18 20 28 35 0
-3 -5 6 12 -18 -20 -28 35 0
-3 -5 6 12 -18 -20 28 -35 0
-3 -5 6 12 -18 20 -28 -35 0
-3 -5 6 12 -18 20 28 35 0
-3 -5 6 12 18 -20 -28 -35 0
-3 -5 6 12 18 -20 28 35 0
-3 -5 6 12 18 20 -28 35 0
-3 -5 6 12 18 20 28 -35 0
-3 5 -6 -12 -18 -20 -28 -35 0
-3 5 -6 -12 -18 -20 28 35 0
-3 5 -6 -12 -18 20 -28 35 0
-3 5 -6 -12 -18 20 28 -35 0
-3 5 -6 -12 18 -20 -28 35 0
-3 5 -6 -12 18 -20 28 -35 0
-3 5 -6 -12 18 20 -28 -35 0
-3 5 -6 -12 18 20 28 35 0
-3 5 -6 12 -18 -20 -28 35 0
-3 5 -6 12 -18 -20 28 -35 0
-3 5 -6 12 -18 20 -28 -35 0
-3 5 -6 12 -18 20 28 35 0
-3 5 -6 12 18 -20 -28 -35 0
-3 5 -6 12 18 -20 28 35 0
-3 5 -6 12 18 20 -28 35 0
-3 5 -6 12 18 20 28 -35 0
-3 5 6 -12 -18 -20 -28 35 0
-3 5 6 -12 -18 -20 28 -35 0
-3 5 6 -12 -18 20 -28 -35 0
-3 5 6 -12 -18 20 28 35 0
-3 5 6 -12 18 -20 -28 -35 0
-3 5 6 -12 18 -20 28 35 0
-3 5 6 -12 18 20 -28 35 0
-3 5 6 -12 18 20 28 -35 0
-3 5 6 12 -18 -20 -28 -35 0
-3 5 6 12 -18 -20 28 35 0
-3 5 6 12 -18 20 -28 35 0
-3 5 6 12 -18 20 28 -35 0
-3 5 6 12 18 -20 -28 35 0
-3 5 6 12 18 -20 28 -35 0
-3 5 6 12 18 20 -28 -35 0
-3 5 6 12 18 20 28 35 0
-3 7 -8 -11 -17 -21 -22 -36 0
-3 7 -8 -11 -17 -21 22 36 0
-3 7 -8 -11 -17 21 -22 36 0
-3 7 -8 -11 -17 21 22 -36 0
-3 7 -8 -11 17 -21 -22 36 0
-3 7 -8 -11 17 -21 22 -36 0
-3 7 -8 -11 17 21 -22 -36 0
-3 7 -8 -11 17 21 22 36 0
-3 7 -8 11 -17 -21 -22 36 0
-3 7 -8 11 -17 -21 22 -36 0
-3 7 -8 11 -17 21 -22 -36 0
-3 7 -8 11 -17 21 22 36 0
-3 7 -8 11 17 -21 -22 -36 0
-3 7 -8 11 17 -21 22 36 0
-3 7 -8 11 17 21 -22 36 0
-3 7 -8 11 17 21 22 -36 0
-3 7 8 -11 -17 -21 -22 36 0
-3 7 8 -11 -17 -21 22 -36 0
-3 7 8 -11 -17 21 -22 -36 0
-3 7 8 -11 -17 21 22 36 0
-3 7 8 -11 17 -21 -22 -36 0
-3 7 8 -11 17 -21 22 36 0
-3 7 8 -11 17 21 -22 36 0
-3 7 8 -11 17 21 22 -36 0
-3 7 8 11 -17 -21 -22 -36 0
-3 7 8 11 -17 -21 22 36 0
-3 7 8 11 -17 21 -22 36 0
-3 7 8 11 -17 21 22 -36 0
-3 7 8 11 17 -21 -22 36 0
-3 7 8 11 17 -21 22 -36 0
-3 7 8 11 17 21 -22 -36 0
-3 7 8 11 17 21 22 36 0
-2 -15 -16 -21 -27 -29 -32 35 0
-2 -15 -16 -21 -27 -29 32 -35 0
-2 -15 -16 -21 -27 29 -32 -35 0
-2 -15 -16 -21 -27 29 32 35 0
-2 -15 -16 -21 27 -29 -32 -35 0
-2 -15 -16 -21 27 -29 32 35 0
-2 -15 -16 -21 27 29 -32 35 0
-2 -15 -16 -21 27 29 32 -35 0
-2 -15 -16 21 -27 -29 -32 -35 0
-2 -15 -16 21 -27 -29 32 35 0
-2 -15 -16 21 -27 29 -32 35 0
-2 -15 -16 21 -27 29 32 -35 0
-2 -15 -16 21 27 -29 -32 35 0
-2 -15 -16 21 27 -29 32 -35 0
-2 -15 -16 21 27 29 -32 -35 0
-2 -15 -16 21 27 29 32 35 0
-2 -15 16 -21 -27 -29 -32 -35 0
-2 -15 16 -21 -27 -29 32 35 0
-2 -15 16 -21 -27 29 -32 35 0
-2 -15 16 -21 -27 29 32 -35 0
-2 -15 16 -21 27 -29 -32 35 0
-2 -15 16 -21 27 -29 32 -35 0
-2 -15 16 -21 27 29 -32 -35 0
-2 -15 16 -21 27 29 32 35 0
-2 -15 16 21 -27 -29 -32 35 0
-2 -15 16 21 -27 -29 32 -35 0
-2 -15 16 21 -27 29 -32 -35 0
-2 -15 16 21 -27 29 32 35 0
-2 -15 16 21 27 -29 -32 -35 0
-2 -15 16 21 27 -29 32 35 0
-2 -15 16 21 27 29 -32 35 0
-2 -15 16 21 27 29 32 -35 0
-2 -6 -13 -22 -23 -24 -26 30 0
-2 -6 -13 -22 -23 -24 26 -30 0
-2 -6 -13 -22 -23 24 -26 -30 0
-2 -6 -13 -22 -23 24 26 30 0
-2 -6 -13 -22 23 -24 -26 -30 0
-2 -6 -13 -22 23 -24 26 30 0
-2 -6 -13 -22 23 24 -26 30 0
-2 -6 -13 -22 23 24 26 -30 0
-2 -6 -13 22 -23 -24 -26 -30 0
-2 -6 -13 22 -23 -24 26 30 0
-2 -6 -13 22 -23 24 -26 30 0
-2 -6 -13 22 -23 24 26 -30 0
-2 -6 -13 22 23 -24 -26 30 0
-2 -6 -13 22 23 -24 26 -30 0
-2 -6 -13 22 23 24 -26 -30 0
-2 -6 -13 22 23 24 26 30 0
-2 -6 13 -22 -23 -24 -26 -30 0
-2 -6 13 -22 -23 -24 26 30 0
-2 -6 13 -22 -23 24 -26 30 0
-2 -6 13 -22 -23 24 26 -30 0
-2 -6 13 -22 23 -24 -26 30 0
-2 -6 13 -22 23 -24 26 -30 0
-2 -6 13 -22 23 24 -26 -30 0
-2 -6 13 -22 23 24 26 30 0
-2 -6 13 22 -23 -24 -26 30 0
-2 -6 13 22 -23 -24 26 -30 0
-2 -6 13 22 -23 24 -26 -30 0
-2 -6 13 22 -23 24 26 30 0
-2 -6 13 22 23 -24 -26 -30 0
-2 -6 13 22 23 -24 26 30 0
-2 -6 13 22 23 24 -26 30 0
-2 -6 13 22 23 24 26 -30 0
-2 6 -13 -22 -23 -24 -26 -30 0
-2 6 -13 -22 -23 -24 26 30 0
-2 6 -13 -22 -23 24 -26 30 0
-2 6 -13 -22 -23 24 26 -30 0
-2 6 -13 -22 23 -24 -26 30 0
-2 6 -13 -22 23 -24 26 -30 0
-2 6 -13 -22 23 24 -26 -30 0
-2 6 -13 -22 23 24 26 30 0
-2 6 -13 22 -23 -24 -26 30 0
-2 6 -13 22 -23 -24 26 -30 0
-2 6 -13 22 -23 24 -26 -30 0
-2 6 -13 22 -23 24 26 30 0
-2 6 -13 22 23 -24 -26 -30 0
-2 6 -13 22 23 -24 26 30 0
-2 6 -13 22 23 24 -26 30 0
-2 6 -13 22 23 24 26 -30 0
-2 6 13 -22 -23 -24 -26 30 0
-2 6 13 -22 -23 -24 26 -30 0
-2 6 13 -22 -23 24 -26 -30 0
-2 6 13 -22 -23 24 26 30 0
-2 6 13 -22 23 -24 -26 -30 0
-2 6 13 -22 23 -24 26 30 0
-2 6 13 -22 23 24 -26 30 0
-2 6 13 -22 23 24 26 -30 0
-2 6 13 22 -23 -24 -26 -30 0
-2 6 13 22 -23 -24 26 30 0
-2 6 13 22 -23 24 -26 30 0
-2 6 13 22 -23 24 26 -30 0
-2 6 13 22 23 -24 -26 30 0
-2 6 13 22 23 -24 26 -30 0
-2 6 13 22 23 24 -26 -30 0
-2 6 13 22 23 24 26 30 0
-2 15 -16 -21 -27 -29 -32 -35 0
-2 15 -16 -21 -27 -29 32 35 0
-2 15 -16 -21 -27 29 -32 35 0
-2 15 -16 -21 -27 29 32 -35 0
-2 15 -16 -21 27 -29 -32 35 0
-2 15 -16 -21 27 -29 32 -35 0
-2 15 -16 -21 27 29 -32 -35 0
-2 15 -16 -21 27 29 32 35 0
-2 15 -16 21 -27 -29 -32 35 0
-2 15 -16 21 -27 -29 32 -35 0
-2 15 -16 21 -27 29 -32 -35 0
-2 15 -16 21 -27 29 32 35 0
-2 15 -16 21 27 -29 -32 -35 0
-2 15 -16 21 27 -29 32 35 0
-2 15 -16 21 27 29 -32 35 0
-2 15 -16 21 27 29 32 -35 0
-2 15 16 -21 -27 -29 -32 35 0
-2 15 16 -21 -27 -29 32 -35 0
-2 15 16 -21 -27 29 -32 -35 0
-2 15 16 -21 -27 29 32 35 0
-2 15 16 -21 27 -29 -32 -35 0
-2 15 16 -21 27 -29 32 35 0
-2 15 16 -21 27 29 -32 35 0
-2 15 16 -21 27 29 32 -35 0
-2 15 16 21 -27 -29 -32 -35 0
-2 15 16 21 -27 -29 32 35 0
-2 15 16 21 -27 29 -32 35 0
-2 15 16 21 -27 29 32 -35 0
-2 15 16 21 27 -29 -32 35 0
-2 15 16 21 27 -29 32 -35 0
-2 15 16 21 27 29 -32 -35 0
-2 15 16 21 27 29 32 35 0
-1 -10 -14 -17 -18 -24 -29 33 0
-1 -10 -14 -17 -18 -24 29 -33 0
-1 -10 -14 -17 -18 24 -29 -33 0
-1 -10 -14 -17 -18 24 29 33 0
-1 -10 -14 -17 18 -24 -29 -33 0
-1 -10 -14 -17 18 -24 29 33 0
-1 -10 -14 -17 18 24 -29 33 0
-1 -10 -14 -17 18 24 29 -33 0
-1 -10 -14 17 -18 -24 -29 -33 0
-1 -10 -14 17 -18 -24 29 33 0
-1 -10 -14 17 -18 24 -29 33 0
-1 -10 -14 17 -18 24 29 -33 0
-1 -10 -14 17 18 -24 -29 33 0
-1 -10 -14 17 18 -24 29 -33 0
-1 -10 -14 17 18 24 -29 -33 0
-1 -10 -14 17 18 24 29 33 0
-1 -10 14 -17 -18 -24 -29 -33 0
-1 -10 14 -17 -18 -24 29 33 0
-1 -10 14 -17 -18 24 -29 33 0
-1 -10 14 -17 -18 24 29 -33 0
-1 -10 14 -17 18 -24 -29 33 0
-1 -10 14 -17 18 -24 29 -33 0
-1 -10 14 -17 18 24 -29 -33 0
-1 -10 14 -17 18 24 29 33 0
-1 -10 14 17 -18 -24 -29 33 0
-1 -10 14 17 -18 -24 29 -33 0
-1 -10 14 17 -18 24 -29 -33 0
-1 -10 14 17 -18 24 29 33 0
-1 -10 14 17 18 -24 -29 -33 0
-1 -10 14 17 18 -24 29 33 0
-1 -10 14 17 18 24 -29 33 0
-1 -10 14 17 18 24 29 -33 0
-1 -9 -11 -13 -19 -25 -27 28 0
-1 -9 -11 -13 -19 -25 27 -28 0
-1 -9 -11 -13 -19 25 -27 -28 0
-1 -9 -11 -13 -19 25 27 28 0
-1 -9 -11 -13 19 -25 -27 -28 0
-1 -9 -11 -13 19 -25 27 28 0
-1 -9 -11 -13 19 25 -27 28 0
-1 -9 -11 -13 19 25 27 -28 0
-1 -9 -11 13 -19 -25 -27 -28 0
-1 -9 -11 13 -19 -25 27 28 0
-1 -9 -11 13 -19 25 -27 28 0
-1 -9 -11 13 -19 25 27 -28 0
-1 -9 -11 13 19 -25 -27 28 0
-1 -9 -11 13 19 -25 27 -28 0
-1 -9 -11 13 19 25 -27 -28 0
-1 -9 -11 13 19 25 27 28 0
-1 -9 11 -13 -19 -25 -27 -28 0
-1 -9 11 -13 -19 -25 27 28 0
-1 -9 11 -13 -19 25 -27 28 0
-1 -9 11 -13 -19 25 27 -28 0
-1 -9 11 -13 19 -25 -27 28 0
-1 -9 11 -13 19 -25 27 -28 0
-1 -9 11 -13 19 25 -27 -28 0
-1 -9 11 -13 19 25 27 28 0
-1 -9 11 13 -19 -25 -27 28 0
-1 -9 11 13 -19 -25 27 -28 0
-1 -9 11 13 -19 25 -27 -28 0
-1 -9 11 13 -19 25 27 28 0
-1 -9 11 13 19 -25 -27 -28 0
-1 -9 11 13 19 -25 27 28 0
-1 -9 11 13 19 25 -27 28 0
-1 -9 11 13 19 25 27 -28 0
-1 9 -11 -13 -19 -25 -27 -28 0
-1 9 -11 -13 -19 -25 27 28 0
-1 9 -11 -13 -19 25 -27 28 0
-1 9 -11 -13 -19 25 27 -28 0
-1 9 -11 -13 19 -25 -27 28 0
-1 9 -11 -13 19 -25 27 -28 0
-1 9 -11 -13 19 25 -27 -28 0
-1 9 -11 -13 19 25 27 28 0
-1 9 -11 13 -19 -25 -27 28 0
-1 9 -11 13 -19 -25 27 -28 0
-1 9 -11 13 -19 25 -27 -28 0
-1 9 -11 13 -19 25 27 28 0
-1 9 -11 13 19 -25 -27 -28 0
-1 9 -11 13 19 -25 27 28 0
-1 9 -11 13 19 25 -27 28 0
-1 9 -11 13 19 25 27 -28 0
-1 9 11 -13 -19 -25 -27 28 0
-1 9 11 -13 -19 -25 27 -28 0
-1 9 11 -13 -19 25 -27 -28 0
-1 9 11 -13 -19 25 27 28 0
-1 9 11 -13 19 -25 -27 -28 0
-1 9 11 -13 19 -25 27 28 0
-1 9 11 -13 19 25 -27 28 0
-1 9 11 -13 19 25 27 -28 0
-1 9 11 13 -19 -25 -27 -28 0
-1 9 11 13 -19 -25 27 28 0
-1 9 11 13 -19 25 -27 28 0
-1 9 11 13 -19 25 27 -28 0
-1 9 11 13 19 -25 -27 28 0
-1 9 11 13 19 -25 27 -28 0
-1 9 11 13 19 25 -27 -28 0
-1 9 11 13 19 25 27 28 0
-1 10 -14 -17 -18 -24 -29 -33 0
-1 10 -14 -17 -18 -24 29 33 0
-1 10 -14 -17 -18 24 -29 33 0
-1 10 -14 -17 -18 24 29 -33 0
-1 10 -14 -17 18 -24 -29 33 0
-1 10 -14 -17 18 -24 29 -33 0
-1 10 -14 -17 18 24 -29 -33 0
-1 10 -14 -17 18 24 29 33 0
-1 10 -14 17 -18 -24 -29 33 0
-1 10 -14 17 -18 -24 29 -33 0
-1 10 -14 17 -18 24 -29 -33 0
-1 10 -14 17 -18 24 29 33 0
-1 10 -14 17 18 -24 -29 -33 0
-1 10 -14 17 18 -24 29 33 0
-1 10 -14 17 18 24 -29 33 0
-1 10 -14 17 18 24 29 -33 0
-1 10 14 -17 -18 -24 -29 33 0
-1 10 14 -17 -18 -24 29 -33 0
-1 10 14 -17 -18 24 -29 -33 0
-1 10 14 -17 -18 24 29 33 0
-1 10 14 -17 18 -24 -29 -33 0
-1 10 14 -17 18 -24 29 33 0
-1 10 14 -17 18 24 -29 33 0
-1 10 14 -17 18 24 29 -33 0
-1 10 14 17 -18 -24 -29 -33 0
-1 10 14 17 -18 -24 29 33 0
-1 10 14 17 -18 24 -29 33 0
-1 10 14 17 -18 24 29 -33 0
-1 10 14 17 18 -24 -29 33 0
-1 10 14 17 18 -24 29 -33 0
-1 10 14 17 18 24 -29 -33 0
-1 10 14 17 18 24 29 33 0
1 -10 -14 -17 -18 -24 -29 -33 0
1 -10 -14 -17 -18 -24 29 33 0
1 -10 -14 -17 -18 24 -29 33 0
1 -10 -14 -17 -18 24 29 -33 0
1 -10 -14 -17 18 -24 -29 33 0
1 -10 -14 -17 18 -24 29 -33 0
1 -10 -14 -17 18 24 -29 -33 0
1 -10 -14 -17 18 24 29 33 0
1 -10 -14 17 -18 -24 -29 33 0
1 -10 -14 17 -18 -24 29 -33 0
1 -10 -14 17 -18 24 -29 -33 0
1 -10 -14 17 -18 24 29 33 0
1 -10 -14 17 18 -24 -29 -33 0
1 -10 -14 17 18 -24 29 33 0
1 -10 -14 17 18 24 -29 33 0
1 -10 -14 17 18 24 29 -33 0
1 -10 14 -17 -18 -24 -29 33 0
1 -10 14 -17 -18 -24 29 -33 0
1 -10 14 -17 -18 24 -29 -33 0
1 -10 14 -17 -18 24 29 33 0
1 -10 14 -17 18 -24 -29 -33 0
1 -10 14 -17 18 -24 29 33 0
1 -10 14 -17 18 24 -29 33 0
1 -10 14 -17 18 24 29 -33 0
1 -10 14 17 -18 -24 -29 -33 0
1 -10 14 17 -18 -24 29 33 0
1 -10 14 17 -18 24 -29 33 0
1 -10 14 17 -18 24 29 -33 0
1 -10 14 17 18 -24 -29 33 0
1 -10 14 17 18 -24 29 -33 0
1 -10 14 17 18 24 -29 -33 0
1 -10 14 17 18 24 29 33 0
1 -9 -11 -13 -19 -25 -27 -28 0
1 -9 -11 -13 -19 -25 27 28 0
1 -9 -11 -13 -19 25 -27 28 0
1 -9 -11 -13 -19 25 27 -28 0
1 -9 -11 -13 19 -25 -27 28 0
1 -9 -11 -13 19 -25 27 -28 0
1 -9 -11 -13 19 25 -27 -28 0
1 -9 -11 -13 19 25 27 28 0
1 -9 -11 13 -19 -25 -27 28 0
1 -9 -11 13 -19 -25 27 -28 0
1 -9 -11 13 -19 25 -27 -28 0
1 -9 -11 13 -19 25 27 28 0
1 -9 -11 13 19 -25 -27 -28 0
1 -9 -11 13 19 -25 27 28 0
1 -9 -11 13 19 25 -27 28 0
1 -9 -11 13 19 25 27 -28 0
1 -9 11 -13 -19 -25 -27 28 0
1 -9 11 -13 -19 -25 27 -28 0
1 -9 11 -13 -19 25 -27 -28 0
1 -9 11 -13 -19 25 27 28 0
1 -9 11 -13 19 -25 -27 -28 0
1 -9 11 -13 19 -25 27 28 0
1 -9 11 -13 19 25 -27 28 0
1 -9 11 -13 19 25 27 -28 0
1 -9 11 13 -19 -25 -27 -28 0
1 -9 11 13 -19 -25 27 28 0
1 -9 11 13 -19 25 -27 28 0
1 -9 11 13 -19 25 27 -28 0
1 -9 11 13 19 -25 -27 28 0
1 -9 11 13 19 -25 27 -28 0
1 -9 11 13 19 25 -27 -28 0
1 -9 11 13 19 25 27 28 0
1 9 -11 -13 -19 -25 -27 28 0
1 9 -11 -13 -19 -25 27 -28 0
1 9 -11 -13 -19 25 -27 -28 0
1 9 -11 -13 -19 25 27 28 0
1 9 -11 -13 19 -25 -27 -28 0
1 9 -11 -13 19 -25 27 28 0
1 9 -11 -13 19 25 -27 28 0
1 9 -11 -13 19 25 27 -28 0
1 9 -11 13 -19 -25 -27 -28 0
1 9 -11 13 -19 -25 27 28 0
1 9 -11 13 -19 25 -27 28 0
1 9 -11 13 -19 25 27 -28 0
1 9 -11 13 19 -25 -27 28 0
1 9 -11 13 19 -25 27 -28 0
1 9 -11 13 19 25 -27 -28 0
1 9 -11 13 19 25 27 28 0
1 9 11 -13 -19 -25 -27 -28 0
1 9 11 -13 -19 -25 27 28 0
1 9 11 -13 -19 25 -27 28 0
1 9 11 -13 -19 25 27 -28 0
1 9 11 -13 19 -25 -27 28 0
1 9 11 -13 19 -25 27 -28 0
1 9 11 -13 19 25 -27 -28 0
1 9 11 -13 19 25 27 28 0
1 9 11 13 -19 -25 -27 28 0
1 9 11 13 -19 -25 27 -28 0
1 9 11 13 -19 25 -27 -28 0
1 9 11 13 -19 25 27 28 0
1 9 11 13 19 -25 -27 -28 0
1 9 11 13 19 -25 27 28 0
1 9 11 13 19 25 -27 28 0
1 9 11 13 19 25 27 -28 0
1 10 -14 -17 -18 -24 -29 33 0
1 10 -14 -17 -18 -24 29 -33 0
1 10 -14 -17 -18 24 -29 -33 0
1 10 -14 -17 -18 24 29 33 0
1 10 -14 -17 18 -24 -29 -33 0
1 10 -14 -17 18 -24 29 33 0
1 10 -14 -17 18 24 -29 33 0
1 10 -14 -17 18 24 29 -33 0
1 10 -14 17 -18 -24 -29 -33 0
1 10 -14 17 -18 -24 29 33 0
1 10 -14 17 -18 24 -29 33 0
1 10 -14 17 -18 24 29 -33 0
1 10 -14 17 18 -24 -29 33 0
1 10 -14 17 18 -24 29 -33 0
1 10 -14 17 18 24 -29 -33 0
1 10 -14 17 18 24 29 33 0
1 10 14 -17 -18 -24 -29 -33 0
1 10 14 -17 -18 -24 29 33 0
1 10 14 -17 -18 24 -29 33 0
1 10 14 -17 -18 24 29 -33 0
1 10 14 -17 18 -24 -29 33 0
1 10 14 -17 18 -24 29 -33 0
1 10 14 -17 18 24 -29 -33 0
1 10 14 -17 18 24 29 33 0
1 10 14 17 -18 -24 -29 33 0
1 10 14 17 -18 -24 29 -33 0
1 10 14 17 -18 24 -29 -33 0
1 10 14 17 -18 24 29 33 0
1 10 14 17 18 -24 -29 -33 0
1 10 14 17 18 -24 29 33 0
1 10 14 17 18 24 -29 33 0
1 10 14 17 18 24 29 -33 0
2 -15 -16 -21 -27 -29 -32 -35 0
2 -15 -16 -21 -27 -29 32 35 0
2 -15 -16 -21 -27 29 -32 35 0
2 -15 -16 -21 -27 29 32 -35 0
2 -15 -16 -21 27 -29 -32 35 0
2 -15 -16 -21 27 -29 32 -35 0
2 -15 -16 -21 27 29 -32 -35 0
2 -15 -16 -21 27 29 32 35 0
2 -15 -16 21 -27 -29 -32 35 0
2 -15 -16 21 -27 -29 32 -35 0
2 -15 -16 21 -27 29 -32 -35 0
2 -15 -16 21 -27 29 32 35 0
2 -15 -16 21 27 -29 -32 -35 0
2 -15 -16 21 27 -29 32 35 0
2 -15 -16 21 27 29 -32 35 0
2 -15 -16 21 27 29 32 -35 0
2 -15 16 -21 -27 -29 -32 35 0
2 -15 16 -21 -27 -29 32 -35 0
2 -15 16 -21 -27 29 -32 -35 0
2 -15 16 -21 -27 29 32 35 0
2 -15 16 -21 27 -29 -32 -35 0
2 -15 16 -21 27 -29 32 35 0
2 -15 16 -21 27 29 -32 35 0
2 -15 16 -21 27 29 32 -35 0
2 -15 16 21 -27 -29 -32 -35 0
2 -15 16 21 -27 -29 32 35 0
2 -15 16 21 -27 29 -32 35 0
2 -15 16 21 -27 29 32 -35 0
2 -15 16 21 27 -29 -32 35 0
2 -15 16 21 27 -29 32 -35 0
2 -15 16 21 27 29 -32 -35 0
2 -15 16 21 27 29 32 35 0
2 -6 -13 -22 -23 -24 -26 -30 0
2 -6 -13 -22 -23 -24 26 30 0
2 -6 -13 -22 -23 24 -26 30 0
2 -6 -13 -22 -23 24 26 -30 0
2 -6 -13 -22 23 -24 -26 30 0
2 -6 -13 -22 23 -24 26 -30 0
2 -6 -13 -22 23 24 -26 -30 0
2 -6 -13 -22 23 24 26 30 0
2 -6 -13 22 -23 -24 -26 30 0
2 -6 -13 22 -23 -24 26 -30 0
2 -6 -13 22 -23 24 -26 -30 0
2 -6 -13 22 -23 24 26 30 0
2 -6 -13 22 23 -24 -26 -30 0
2 -6 -13 22 23 -24 26 30 0
2 -6 -13 22 23 24 -26 30 0
2 -6 -13 22 23 24 26 -30 0
2 -6 13 -22 -23 -24 -26 30 0
2 -6 13 -22 -23 -24 26 -30 0
2 -6 13 -22 -23 24 -26 -30 0
2 -6 13 -22 -23 24 26 30 0
2 -6 13 -22 23 -24 -26 -30 0
2 -6 13 -22 23 -24 26 30 0
2 -6 13 -22 23 24 -26 30 0
2 -6 13 -22 23 24 26 -30 0
2 -6 13 22 -23 -24 -26 -30 0
2 -6 13 22 -23 -24 26 30 0
2 -6 13 22 -23 24 -26 30 0
2 -6 13 22 -23 24 26 -30 0
2 -6 13 22 23 -24 -26 30 0
2 -6 13 22 23 -24 26 -30 0
2 -6 13 22 23 24 -26 -30 0
2 -6 13 22 23 24 26 30 0
2 6 -13 -22 -23 -24 -26 30 0
2 6 -13 -22 -23 -24 26 -30 0
2 6 -13 -22 -23 24 -26 -30 0
2 6 -13 -22 -23 24 26 30 0
2 6 -13 -22 23 -24 -26 -30 0
2 6 -13 -22 23 -24 26 30 0
2 6 -13 -22 23 24 -26 30 0
2 6 -13 -22 23 24 26 -30 0
2 6 -13 22 -23 -24 -26 -30 0
2 6 -13 22 -23 -24 26 30 0
2 6 -13 22 -23 24 -26 30 0
2 6 -13 22 -23 24 26 -30 0
2 6 -13 22 23 -24 -26 30 0
2 6 -13 22 23 -24 26 -30 0
2 6 -13 22 23 24 -26 -30 0
2 6 -13 22 23 24 26 30 0
2 6 13 -22 -23 -24 -26 -30 0
2 6 13 -22 -23 -24 26 30 0
2 6 13 -22 -23 24 -26 30 0
2 6 13 -22 -23 24 26 -30 0
2 6 13 -22 23 -24 -26 30 0
2 6 13 -22 23 -24 26 -30 0
2 6 13 -22 23 24 -26 -30 0
2 6 13 -22 23 24 26 30 0
2 6 13 22 -23 -24 -26 30 0
2 6 13 22 -23 -24 26 -30 0
2 6 13 22 -23 24 -26 -30 0
2 6 13 22 -23 24 26 30 0
2 6 13 22 23 -24 -26 -30 0
2 6 13 22 23 -24 26 30 0
2 6 13 22 23 24 -26 30 0
2 6 13 22 23 24 26 -30 0
2 15 -16 -21 -27 -29 -32 35 0
2 15 -16 -21 -27 -29 32 -35 0
2 15 -16 -21 -27 29 -32 -35 0
2 15 -16 -21 -27 29 32 35 0
2 15 -16 -21 27 -29 -32 -35 0
2 15 -16 -21 27 -29 32 35 0
2 15 -16 -21 27 29 -32 35 0
2 15 -16 -21 27 29 32 -35 0
2 15 -16 21 -27 -29 -32 -35 0
2 15 -16 21 -27 -29 32 35 0
2 15 -16 21 -27 29 -32 35 0
2 15 -16 21 -27 29 32 -35 0
2 15 -16 21 27 -29 -32 35 0
2 15 -16 21 27 -29 32 -35 0
2 15 -16 21 27 29 -32 -35 0
2 15 -16 21 27 29 32 35 0
2 15 16 -21 -27 -29 -32 -35 0
2 15 16 -21 -27 -29 32 35 0
2 15 16 -21 -27 29 -32 35 0
2 15 16 -21 -27 29 32 -35 0
2 15 16 -21 27 -29 -32 35 0
2 15 16 -21 27 -29 32 -35 0
2 15 16 -21 27 29 -32 -35 0
2 15 16 -21 27 29 32 35 0
2 15 16 21 -27 -29 -32 35 0
2 15 16 21 -27 -29 32 -35 0
2 15 16 21 -27 29 -32 -35 0
2 15 16 21 -27 29 32 35 0
2 15 16 21 27 -29 -32 -35 0
2 15 16 21 27 -29 32 35 0
2 15 16 21 27 29 -32 35 0
2 15 16 21 27 29 32 -35 0
3 -7 -8 -11 -17 -21 -22 -36 0
3 -7 -8 -11 -17 -21 22 36 0
3 -7 -8 -11 -17 21 -22 36 0
3 -7 -8 -11 -17 21 22 -36 0
3 -7 -8 -11 17 -21 -22 36 0
3 -7 -8 -11 17 -21 22 -36 0
3 -7 -8 -11 17 21 -22 -36 0
3 -7 -8 -11 17 21 22 36 0
3 -7 -8 11 -17 -21 -22 36 0
3 -7 -8 11 -17 -21 22 -36 0
3 -7 -8 11 -17 21 -22 -36 0
3 -7 -8 11 -17 21 22 36 0
3 -7 -8 11 17 -21 -22 -36 0
3 -7 -8 11 17 -21 22 36 0
3 -7 -8 11 17 21 -22 36 0
3 -7 -8 11 17 21 22 -36 0
3 -7 8 -11 -17 -21 -22 36 0
3 -7 8 -11 -17 -21 22 -36 0
3 -7 8 -11 -17 21 -22 -36 0
3 -7 8 -11 -17 21 22 36 0
3 -7 8 -11 17 -21 -22 -36 0
3 -7 8 -11 17 -21 22 36 0
3 -7 8 -11 17 21 -22 36 0
3 -7 8 -11 17 21 22 -36 0
3 -7 8 11 -17 -21 -22 -36 0
3 -7 8 11 -17 -21 22 36 0
3 -7 8 11 -17 21 -22 36 0
3 -7 8 11 -17 21 22 -36 0
3 -7 8 11 17 -21 -22 36 0
3 -7 8 11 17 -21 22 -36 0
3 -7 8 11 17 21 -22 -36 0
3 -7 8 11 17 21 22 36 0
3 -5 -6 -12 -18 -20 -28 -35 0
3 -5 -6 -12 -18 -20 28 35 0
3 -5 -6 -12 -18 20 -28 35 0
3 -5 -6 -12 -18 20 28 -35 0
3 -5 -6 -12 18 -20 -28 35 0
3 -5 -6 -12 18 -20 28 -35 0
3 -5 -6 -12 18 20 -28 -35 0
3 -5 -6 -12 18 20 28 35 0
3 -5 -6 12 -18 -20 -28 35 0
3 -5 -6 12 -18 -20 28 -35 0
3 -5 -6 12 -18 20 -28 -35 0
3 -5 -6 12 -18 20 28 35 0
3 -5 -6 12 18 -20 -28 -35 0
3 -5 -6 12 18 -20 28 35 0
3 -5 -6 12 18 20 -28 35 0
3 -5 -6 12 18 20 28 -35 0
3 -5 6 -12 -18 -20 -28 35 0
3 -5 6 -12 -18 -20 28 -35 0
3 -5 6 -12 -18 20 -28 -35 0
3 -5 6 -12 -18 20 28 35 0
3 -5 6 -12 18 -20 -28 -35 0
3 -5 6 -12 18 -20 28 35 0
3 -5 6 -12 18 20 -28 35 0
3 -5 6 -12 18 20 28 -35 0
3 -5 6 12 -18 -20 -28 -35 0
3 -5 6 12 -18 -20 28 35 0
3 -5 6 12 -18 20 -28 35 0
3 -5 6 12 -18 20 28 -35 0
3 -5 6 12 18 -20 -28 35 0
3 -5 6 12 18 -20 28 -35 0
3 -5 6 12 18 20 -28 -35 0
3 -5 6 12 18 20 28 35 0
3 5 -6 -12 -18 -20 -28 35 0
3 5 -6 -12 -18 -20 28 -35 0
3 5 -6 -12 -18 20 -28 -35 0
3 5 -6 -12 -18 20 28 35 0
3 5 -6 -12 18 -20 -28 -35 0
3 5 -6 -12 18 -20 28 35 0
3 5 -6 -12 18 20 -28 35 0
3 5 -6 -12 18 20 28 -35 0
3 5 -6 12 -18 -20 -28 -35 0
3 5 -6 12 -18 -20 28 35 0
3 5 -6 12 -18 20 -28 35 0
3 5 -6 12 -18 20 28 -35 0
3 5 -6 12 18 -20 -28 35 0
3 5 -6 12 18 -20 28 -35 0
3 5 -6 12 18 20 -28 -35 0
3 5 -6 12 18 20 28 35 0
3 5 6 -12 -18 -20 -28 -35 0
3 5 6 -12 -18 -20 28 35 0
3 5 6 -12 -18 20 -28 35 0
3 5 6 -12 -18 20 28 -35 0
3 5 6 -12 18 -20 -28 35 0
3 5 6 -12 18 -20 28 -35 0
3 5 6 -12 18 20 -28 -35 0
3 5 6 -12 18 20 28 35 0
3 5 6 12 -18 -20 -28 35 0
3 5 6 12 -18 -20 28 -35 0
3 5 6 12 -18 20 -28 -35 0
3 5 6 12 -18 20 28 35 0
3 5 6 12 18 -20 -28 -35 0
3 5 6 12 18 -20 28 35 0
3 5 6 12 18 20 -28 35 0
3 5 6 12 18 20 28 -35 0
3 7 -8 -11 -17 -21 -22 36 0
3 7 -8 -11 -17 -21 22 -36 0
3 7 -8 -11 -17 21 -22 -36 0
3 7 -8 -11 -17 21 22 36 0
3 7 -8 -11 17 -21 -22 -36 0
3 7 -8 -11 17 -21 22 36 0
3 7 -8 -11 17 21 -22 36 0
3 7 -8 -11 17 21 22 -36 0
3 7 -8 11 -17 -21 -22 -36 0
3 7 -8 11 -17 -21 22 36 0
3 7 -8 11 -17 21 -22 36 0
3 7 -8 11 -17 21 22 -36 0
3 7 -8 11 17 -21 -22 36 0
3 7 -8 11 17 -21 22 -36 0
3 7 -8 11 17 21 -22 -36 0
3 7 -8 11 17 21 22 36 0
3 7 8 -11 -17 -21 -22 -36 0
3 7 8 -11 -17 -21 22 36 0
3 7 8 -11 -17 21 -22 36 0
3 7 8 -11 -17 21 22 -36 0
3 7 8 -11 17 -21 -22 36 0
3 7 8 -11 17 -21 22 -36 0
3 7 8 -11 17 21 -22 -36 0
3 7 8 -11 17 21 22 36 0
3 7 8 11 -17 -21 -22 36 0
3 7 8 11 -17 -21 22 -36 0
3 7 8 11 -17 21 -22 -36 0
3 7 8 11 -17 21 22 36 0
3 7 8 11 17 -21 -22 -36 0
3 7 8 11 17 -21 22 36 0
3 7 8 11 17 21 -22 36 0
3 7 8 11 17 21 22 -36 0
4 -7 -10 -12 -23 -25 -32 -34 0
4 -7 -10 -12 -23 -25 32 34 0
4 -7 -10 -12 -23 25 -32 34 0
4 -7 -10 -12 -23 25 32 -34 0
4 -7 -10 -12 23 -25 -32 34 0
4 -7 -10 -12 23 -25 32 -34 0
4 -7 -10 -12 23 25 -32 -34 0
4 -7 -10 -12 23 25 32 34 0
4 -7 -10 12 -23 -25 -32 34 0
4 -7 -10 12 -23 -25 32 -34 0
4 -7 -10 12 -23 25 -32 -34 0
4 -7 -10 12 -23 25 32 34 0
4 -7 -10 12 23 -25 -32 -34 0
4 -7 -10 12 23 -25 32 34 0
4 -7 -10 12 23 25 -32 34 0
4 -7 -10 12 23 25 32 -34 0
4 -7 10 -12 -23 -25 -32 34 0
4 -7 10 -12 -23 -25 32 -34 0
4 -7 10 -12 -23 25 -32 -34 0
4 -7 10 -12 -23 25 32 34 0
4 -7 10 -12 23 -25 -32 -34 0
4 -7 10 -12 23 -25 32 34 0
4 -7 10 -12 23 25 -32 34 0
4 -7 10 -12 23 25 32 -34 0
4 -7 10 12 -23 -25 -32 -34 0
4 -7 10 12 -23 -25 32 34 0
4 -7 10 12 -23 25 -32 34 0
4 -7 10 12 -23 25 32 -34 0
4 -7 10 12 23 -25 -32 34 0
4 -7 10 12 23 -25 32 -34 0
4 -7 10 12 23 25 -32 -34 0
4 -7 10 12 23 25 32 34 0
4 -5 -15 -19 -30 -31 -33 -36 0
4 -5 -15 -19 -30 -31 33 36 0
4 -5 -15 -19 -30 31 -33 36 0
4 -5 -15 -19 -30 31 33 -36 0
4 -5 -15 -19 30 -31 -33 36 0
4 -5 -15 -19 30 -31 33 -36 0
4 -5 -15 -19 30 31 -33 -36 0
4 -5 -15 -19 30 31 33 36 0
4 -5 -15 19 -30 -31 -33 36 0
4 -5 -15 19 -30 -31 33 -36 0
4 -5 -15 19 -30 31 -33 -36 0
4 -5 -15 19 -30 31 33 36 0
4 -5 -15 19 30 -31 -33 -36 0
4 -5 -15 19 30 -31 33 36 0
4 -5 -15 19 30 31 -33 36 0
4 -5 -15 19 30 31 33 -36 0
4 -5 15 -19 -30 -31 -33 36 0
4 -5 15 -19 -30 -31 33 -36 0
4 -5 15 -19 -30 31 -33 -36 0
4 -5 15 -19 -30 31 33 36 0
4 -5 15 -19 30 -31 -33 -36 0
4 -5 15 -19 30 -31 33 36 0
4 -5 15 -19 30 31 -33 36 0
4 -5 15 -19 30 31 33 -36 0
4 -5 15 19 -30 -31 -33 -36 0
4 -5 15 19 -30 -31 33 36 0
4 -5 15 19 -30 31 -33 36 0
4 -5 15 19 -30 31 33 -36 0
4 -5 15 19 30 -31 -33 36 0
4 -5 15 19 30 -31 33 -36 0
4 -5 15 19 30 31 -33 -36 0
4 -5 15 19 30 31 33 36 0
4 5 -15 -19 -30 -31 -33 36 0
4 5 -15 -19 -30 -31 33 -36 0
4 5 -15 -19 -30 31 -33 -36 0
4 5 -15 -19 -30 31 33 36 0
4 5 -15 -19 30 -31 -33 -36 0
4 5 -15 -19 30 -31 33 36 0
4 5 -15 -19 30 31 -33 36 0
4 5 -15 -19 30 31 33 -36 0
4 5 -15 19 -30 -31 -33 -36 0
4 5 -15 19 -30 -31 33 36 0
4 5 -15 19 -30 31 -33 36 0
4 5 -15 19 -30 31 33 -36 0
4 5 -15 19 30 -31 -33 36 0
4 5 -15 19 30 -31 33 -36 0
4 5 -15 19 30 31 -33 -36 0
4 5 -15 19 30 31 33 36 0
4 5 15 -19 -30 -31 -33 -36 0
4 5 15 -19 -30 -31 33 36 0
4 5 15 -19 -30 31 -33 36 0
4 5 15 -19 -30 31 33 -36 0
4 5 15 -19 30 -31 -33 36 0
4 5 15 -19 30 -31 33 -36 0
4 5 15 -19 30 31 -33 -36 0
4 5 15 -19 30 31 33 36 0
4 5 15 19 -30 -31 -33 36 0
4 5 15 19 -30 -31 33 -36 0
4 5 15 19 -30 31 -33 -36 0
4 5 15 19 -30 31 33 36 0
4 5 15 19 30 -31 -33 -36 0
4 5 15 19 30 -31 33 36 0
4 5 15 19 30 31 -33 36 0
4 5 15 19 30 31 33 -36 0
4 7 -10 -12 -23 -25 -32 34 0
4 7 -10 -12 -23 -25 32 -34 0
4 7 -10 -12 -23 25 -32 -34 0
4 7 -10 -12 -23 25 32 34 0
4 7 -10 -12 23 -25 -32 -34 0
4 7 -10 -12 23 -25 32 34 0
4 7 -10 -12 23 25 -32 34 0
4 7 -10 -12 23 25 32 -34 0
4 7 -10 12 -23 -25 -32 -34 0
4 7 -10 12 -23 -25 32 34 0
4 7 -10 12 -23 25 -32 34 0
4 7 -10 12 -23 25 32 -34 0
4 7 -10 12 23 -25 -32 34 0
4 7 -10 12 23 -25 32 -34 0
4 7 -10 12 23 25 -32 -34 0
4 7 -10 12 23 25 32 34 0
4 7 10 -12 -23 -25 -32 -34 0
4 7 10 -12 -23 -25 32 34 0
4 7 10 -12 -23 25 -32 34 0
4 7 10 -12 -23 25 32 -34 0
4 7 10 -12 23 -25 -32 34 0
4 7 10 -12 23 -25 32 -34 0
4 7 10 -12 23 25 -32 -34 0
4 7 10 -12 23 25 32 34 0
4 7 10 12 -23 -25 -32 34 0
4 7 10 12 -23 -25 32 -34 0
4 7 10 12 -23 25 -32 -34 0
4 7 10 12 -23 25 32 34 0
4 7 10 12 23 -25 -32 -34 0
4 7 10 12 23 -25 32 34 0
4 7 10 12 23 25 -32 34 0
4 7 10 12 23 25 32 -34 0
8 -9 -14 -16 -20 -26 -31 34 0
8 -9 -14 -16 -20 -26 31 -34 0
8 -9 -14 -16 -20 26 -31 -34 0
8 -9 -14 -16 -20 26 31 34 0
8 -9 -14 -16 20 -26 -31 -34 0
8 -9 -14 -16 20 -26 31 34 0
8 -9 -14 -16 20 26 -31 34 0
8 -9 -14 -16 20 26 31 -34 0
8 -9 -14 16 -20 -26 -31 -34 0
8 -9 -14 16 -20 -26 31 34 0
8 -9 -14 16 -20 26 -31 34 0
8 -9 -14 16 -20 26 31 -34 0
8 -9 -14 16 20 -26 -31 34 0
8 -9 -14 16 20 -26 31 -34 0
8 -9 -14 16 20 26 -31 -34 0
8 -9 -14 16 20 26 31 34 0
8 -9 14 -16 -20 -26 -31 -34 0
8 -9 14 -16 -20 -26 31 34 0
8 -9 14 -16 -20 26 -31 34 0
8 -9 14 -16 -20 26 31 -34 0
8 -9 14 -16 20 -26 -31 34 0
8 -9 14 -16 20 -26 31 -34 0
8 -9 14 -16 20 26 -31 -34 0
8 -9 14 -16 20 26 31 34 0
8 -9 14 16 -20 -26 -31 34 0
8 -9 14 16 -20 -26 31 -34 0
8 -9 14 16 -20 26 -31 -34 0
8 -9 14 16 -20 26 31 34 0
8 -9 14 16 20 -26 -31 -34 0
8 -9 14 16 20 -26 31 34 0
8 -9 14 16 20 26 -31 34 0
8 -9 14 16 20 26 31 -34 0
8 9 -14 -16 -20 -26 -31 -34 0
8 9 -14 -16 -20 -26 31 34 0
8 9 -14 -16 -20 26 -31 34 0
8 9 -14 -16 -20 26 31 -34 0
8 9 -14 -16 20 -26 -31 34 0
8 9 -14 -16 20 -26 31 -34 0
8 9 -14 -16 20 26 -31 -34 0
8 9 -14 -16 20 26 31 34 0
8 9 -14 16 -20 -26 -31 34 0
8 9 -14 16 -20 -26 31 -34 0
8 9 -14 16 -20 26 -31 -34 0
8 9 -14 16 -20 26 31 34 0
8 9 -14 16 20 -26 -31 -34 0
8 9 -14 16 20 -26 31 34 0
8 9 -14 16 20 26 -31 34 0
8 9 -14 16 20 26 31 -34 0
8 9 14 -16 -20 -26 -31 34 0
8 9 14 -16 -20 -26 31 -34 0
8 9 14 -16 -20 26 -31 -34 0
8 9 14 -16 -20 26 31 34 0
8 9 14 -16 20 -26 -31 -34 0
8 9 14 -16 20 -26 31 34 0
8 9 14 -16 20 26 -31 34 0
8 9 14 -16 20 26 31 -34 0
8 9 14 16 -20 -26 -31 -34 0
8 9 14 16 -20 -26 31 34 0
8 9 14 16 -20 26 -31 34 0
8 9 14 16 -20 26 31 -34 0
8 9 14 16 20 -26 -31 34 0
8 9 14 16 20 -26 31 -34 0
8 9 14 16 20 26 -31 -34 0
8 9 14 16 20 26 31 34 0
