p cnf 21 224
-6 -7 -10 -11 -18 19 0
-6 -7 -10 -11 18 -19 0
-6 -7 -10 11 -18 -19 0
-6 -7 -10 11 18 19 0
-6 -7 10 -11 -18 -19 0
-6 -7 10 -11 18 19 0
-6 -7 10 11 -18 19 0
-6 -7 10 11 18 -19 0
-6 7 -10 -11 -18 -19 0
-6 7 -10 -11 18 19 0
-6 7 -10 11 -18 19 0
-6 7 -10 11 18 -19 0
-6 7 10 -11 -18 19 0
-6 7 10 -11 18 -19 0
-6 7 10 11 -18 -19 0
-6 7 10 11 18 19 0
-3 -6 -9 -12 -13 20 0
-3 -6 -9 -12 13 -20 0
-3 -6 -9 12 -13 -20 0
-3 -6 -9 12 13 20 0
-3 -6 9 -12 -13 -20 0
-3 -6 9 -12 13 20 0
-3 -6 9 12 -13 20 0
-3 -6 9 12 13 -20 0
-3 -5 -11 -15 -16 -17 0
-3 -5 -11 -15 16 17 0
-3 -5 -11 15 -16 17 0
-3 -5 -11 15 16 -17 0
-3 -5 11 -15 -16 17 0
-3 -5 11 -15 16 -17 0
-3 -5 11 15 -16 -17 0
-3 -5 11 15 16 17 0
-3 5 -11 -15 -16 17 0
-3 5 -11 -15 16 -17 0
-3 5 -11 15 -16 -17 0
-3 5 -11 15 16 17 0
-3 5 11 -15 -16 -17 0
-3 5 11 -15 16 17 0
-3 5 11 15 -16 17 0
-3 5 11 15 16 -17 0
-3 6 -9 -12 -13 -20 0
-3 6 -9 -12 13 20 0
-3 6 -9 12 -13 20 0
-3 6 -9 12 13 -20 0
-3 6 9 -12 -13 20 0
-3 6 9 -12 13 -20 0
-3 6 9 12 -13 -20 0
-3 6 9 12 13 20 0
-2 -14 -17 -19 -20 21 0
-2 -14 -17 -19 20 -21 0
-2 -14 -17 19 -20 -21 0
-2 -14 -17 19 20 21 0
-2 -14 17 -19 -20 -21 0
-2 -14 17 -19 20 21 0
-2 -14 17 19 -20 21 0
-2 -14 17 19 20 -21 0
-2 -4 -8 -9 -10 15 0
-2 -4 -8 -9 10 -15 0
-2 -4 -8 9 -10 -15 0
-2 -4 -8 9 10 15 0
-2 -4 8 -9 -10 -15 0
-2 -4 8 -9 10 15 0
-2 -4 8 9 -10 15 0
-2 -4 8 9 10 -15 0
-2 4 -8 -9 -10 -15 0
-2 4 -8 -9 10 15 0
-2 4 -8 9 -10 15 0
-2 4 -8 9 10 -15 0
-2 4 8 -9 -10 15 0
-2 4 8 -9 10 -15 0
-2 4 8 9 -10 -15 0
-2 4 8 9 10 15 0
-2 14 -17 -19 -20 -21 0
-2 14 -17 -19 20 21 0
-2 14 -17 19 -20 21 0
-2 14 -17 19 20 -21 0
-2 14 17 -19 -20 21 0
-2 14 17 -19 20 -21 0
-2 14 17 19 -20 -21 0
-2 14 17 19 20 21 0
-1 -5 -8 -12 -18 21 0
-1 -5 -8 -12 18 -21 0
-1 -5 -8 12 -18 -21 0
-1 -5 -8 12 18 21 0
-1 -5 8 -12 -18 -21 0
-1 -5 8 -12 18 21 0
-1 -5 8 12 -18 21 0
-1 -5 8 12 18 -21 0
-1 -4 -7 -13 -14 16 0
-1 -4 -7 -13 14 -16 0
-1 -4 -7 13 -14 -16 0
-1 -4 -7 13 14 16 0
-1 -4 7 -13 -14 -16 0
-1 -4 7 -13 14 16 0
-1 -4 7 13 -14 16 0
-1 -4 7 13 14 -16 0
-1 4 -7 -13 -14 -16 0
-1 4 -7 -13 14 16 0
-1 4 -7 13 -14 16 0
-1 4 -7 13 14 -16 0
-1 4 7 -13 -14 16 0
-1 4 7 -13 14 -16 0
-1 4 7 13 -14 -16 0
-1 4 7 13 14 16 0
-1 5 -8 -12 -18 -21 0
-1 5 -8 -12 18 21 0
-1 5 -8 12 -18 21 0
-1 5 -8 12 18 -21 0
-1 5 8 -12 -18 21 0
-1 5 8 -12 18 -21 0
-1 5 8 12 -18 -21 0
-1 5 8 12 18 21 0
1 -5 -8 -12 -18 -21 0
1 -5 -8 -12 18 21 0
1 -5 -8 12 -18 21 0
1 -5 -8 12 18 -21 0
1 -5 8 -12 -18 21 0
1 -5 8 -12 18 -21 0
1 -5 8 12 -18 -21 0
1 -5 8 12 18 21 0
1 -4 -7 -13 -14 -16 0
1 -4 -7 -13 14 16 0
1 -4 -7 13 -14 16 0
1 -4 -7 13 14 -16 0
1 -4 7 -13 -14 16 0
1 -4 7 -13 14 -16 0
1 -4 7 13 -14 -16 0
1 -4 7 13 14 16 0
1 4 -7 -13 -14 16 0
1 4 -7 -13 14 -16 0
1 4 -7 13 -14 -16 0
1 4 -7 13 14 16 0
1 4 7 -13 -14 -16 0
1 4 7 -13 14 16 0
1 4 7 13 -14 16 0
1 4 7 13 14 -16 0
1 5 -8 -12 -18 21 0
1 5 -8 -12 18 -21 0
1 5 -8 12 -18 -21 0
1 5 -8 12 18 21 0
1 5 8 -12 -18 -21 0
1 5 8 -12 18 21 0
1 5 8 12 -18 21 0
1 5 8 12 18 -21 0
2 -14 -17 -19 -20 -21 0
2 -14 -17 -19 20 21 0
2 -14 -17 19 -20 21 0
2 -14 -17 19 20 -21 0
2 -14 17 -19 -20 21 0
2 -14 17 -19 20 -21 0
2 -14 17 19 -20 -21 0
2 -14 17 19 20 21 0
2 -4 -8 -9 -10 -15 0
2 -4 -8 -9 10 15 0
2 -4 -8 9 -10 15 0
2 -4 -8 9 10 -15 0
2 -4 8 -9 -10 15 0
2 -4 8 -9 10 -15 0
2 -4 8 9 -10 -15 0
2 -4 8 9 10 15 0
2 4 -8 -9 -10 15 0
2 4 -8 -9 10 -15 0
2 4 -8 9 -10 -15 0
2 4 -8 9 10 15 0
2 4 8 -9 -10 -15 0
2 4 8 -9 10 15 0
2 4 8 9 -10 15 0
2 4 8 9 10 -15 0
2 14 -17 -19 -20 21 0
2 14 -17 -19 20 -21 0
2 14 -17 19 -20 -21 0
2 14 -17 19 20 21 0
2 14 17 -19 -20 -21 0
2 14 17 -19 20 21 0
2 14 17 19 -20 21 0
2 14 17 19 20 -21 0
3 -6 -9 -12 -13 -20 0
3 -6 -9 -12 13 20 0
3 -6 -9 12 -13 20 0
3 -6 -9 12 13 -20 0
3 -6 9 -12 -13 20 0
3 -6 9 -12 13 -20 0
3 -6 9 12 -13 -20 0
3 -6 9 12 13 20 0
3 -5 -11 -15 -16 17 0
3 -5 -11 -15 16 -17 0
3 -5 -11 15 -16 -17 0
3 -5 -11 15 16 17 0
3 -5 11 -15 -16 -17 0
3 -5 11 -15 16 17 0
3 -5 11 15 -16 17 0
3 -5 11 15 16 -17 0
3 5 -11 -15 -16 -17 0
3 5 -11 -15 16 17 0
3 5 -11 15 -16 17 0
3 5 -11 15 16 -17 0
3 5 11 -15 -16 17 0
3 5 11 -15 16 -17 0
3 5 11 15 -16 -17 0
3 5 11 15 16 17 0
3 6 -9 -12 -13 20 0
3 6 -9 -12 13 -20 0
3 6 -9 12 -13 -20 0
3 6 -9 12 13 20 0
3 6 9 -12 -13 -20 0
3 6 9 -12 13 20 0
3 6 9 12 -13 20 0
3 6 9 12 13 -20 0
6 -7 -10 -11 -18 -19 0
6 -7 -10 -11 18 19 0
6 -7 -10 11 -18 19 0
6 -7 -10 11 18 -19 0
6 -7 10 -11 -18 19 0
6 -7 10 -11 18 -19 0
6 -7 10 11 -18 -19 0
6 -7 10 11 18 19 0
6 7 -10 -11 -18 19 0
6 7 -10 -11 18 -19 0
6 7 -10 11 -18 -19 0
6 7 -10 11 18 19 0
6 7 10 -11 -18 -19 0
6 7 10 -11 18 19 0
6 7 10 11 -18 19 0
6 7 10 11 18 -19 0
