p cnf 28 512
-5 -10 -11 -13 -16 -24 -27 0
-5 -10 -11 -13 -16 24 27 0
-5 -10 -11 -13 16 -24 27 0
-5 -10 -11 -13 16 24 -27 0
-5 -10 -11 13 -16 -24 27 0
-5 -10 -11 13 -16 24 -27 0
-5 -10 -11 13 16 -24 -27 0
-5 -10 -11 13 16 24 27 0
-5 -10 11 -13 -16 -24 27 0
-5 -10 11 -13 -16 24 -27 0
-5 -10 11 -13 16 -24 -27 0
-5 -10 11 -13 16 24 27 0
-5 -10 11 13 -16 -24 -27 0
-5 -10 11 13 -16 24 27 0
-5 -10 11 13 16 -24 27 0
-5 -10 11 13 16 24 -27 0
-5 -8 -12 -14 -21 -22 -26 0
-5 -8 -12 -14 -21 22 26 0
-5 -8 -12 -14 21 -22 26 0
-5 -8 -12 -14 21 22 -26 0
-5 -8 -12 14 -21 -22 26 0
-5 -8 -12 14 -21 22 -26 0
-5 -8 -12 14 21 -22 -26 0
-5 -8 -12 14 21 22 26 0
-5 -8 12 -14 -21 -22 26 0
-5 -8 12 -14 -21 22 -26 0
-5 -8 12 -14 21 -22 -26 0
-5 -8 12 -14 21 22 26 0
-5 -8 12 14 -21 -22 -26 0
-5 -8 12 14 -21 22 26 0
-5 -8 12 14 21 -22 26 0
-5 -8 12 14 21 22 -26 0
-5 8 -12 -14 -21 -22 26 0
-5 8 -12 -14 -21 22 -26 0
-5 8 -12 -14 21 -22 -26 0
-5 8 -12 -14 21 22 26 0
-5 8 -12 14 -21 -22 -26 0
-5 8 -12 14 -21 22 26 0
-5 8 -12 14 21 -22 26 0
-5 8 -12 14 21 22 -26 0
-5 8 12 -14 -21 -22 -26 0
-5 8 12 -14 -21 22 26 0
-5 8 12 -14 21 -22 26 0
-5 8 12 -14 21 22 -26 0
-5 8 12 14 -21 -22 26 0
-5 8 12 14 -21 22 -26 0
-5 8 12 14 21 -22 -26 0
-5 8 12 14 21 22 26 0
-5 10 -11 -13 -16 -24 27 0
-5 10 -11 -13 -16 24 -27 0
-5 10 -11 -13 16 -24 -27 0
-5 10 -11 -13 16 24 27 0
-5 10 -11 13 -16 -24 -27 0
-5 10 -11 13 -16 24 27 0
-5 10 -11 13 16 -24 27 0
-5 10 -11 13 16 24 -27 0
-5 10 11 -13 -16 -24 -27 0
-5 10 11 -13 -16 24 27 0
-5 10 11 -13 16 -24 27 0
-5 10 11 -13 16 24 -27 0
-5 10 11 13 -16 -24 27 0
-5 10 11 13 -16 24 -27 0
-5 10 11 13 16 -24 -27 0
-5 10 11 13 16 24 27 0
-4 -6 -9 -14 -19 -23 -24 0
-4 -6 -9 -14 -19 23 24 0
-4 -6 -9 -14 19 -23 24 0
-4 -6 -9 -14 19 23 -24 0
-4 -6 -9 14 -19 -23 24 0
-4 -6 -9 14 -19 23 -24 0
-4 -6 -9 14 19 -23 -24 0
-4 -6 -9 14 19 23 24 0
-4 -6 9 -14 -19 -23 24 0
-4 -6 9 -14 -19 23 -24 0
-4 -6 9 -14 19 -23 -24 0
-4 -6 9 -14 19 23 24 0
-4 -6 9 14 -19 -23 -24 0
-4 -6 9 14 -19 23 24 0
-4 -6 9 14 19 -23 24 0
-4 -6 9 14 19 23 -24 0
-4 6 -9 -14 -19 -23 24 0
-4 6 -9 -14 -19 23 -24 0
-4 6 -9 -14 19 -23 -24 0
-4 6 -9 -14 19 23 24 0
-4 6 -9 14 -19 -23 -24 0
-4 6 -9 14 -19 23 24 0
-4 6 -9 14 19 -23 24 0
-4 6 -9 14 19 23 -24 0
-4 6 9 -14 -19 -23 -24 0
-4 6 9 -14 -19 23 24 0
-4 6 9 -14 19 -23 24 0
-4 6 9 -14 19 23 -24 0
-4 6 9 14 -19 -23 24 0
-4 6 9 14 -19 23 -24 0
-4 6 9 14 19 -23 -24 0
-4 6 9 14 19 23 24 0
-3 -6 -7 -13 -15 -18 -21 0
-3 -6 -7 -13 -15 18 21 0
-3 -6 -7 -13 15 -18 21 0
-3 -6 -7 -13 15 18 -21 0
-3 -6 -7 13 -15 -18 21 0
-3 -6 -7 13 -15 18 -21 0
-3 -6 -7 13 15 -18 -21 0
-3 -6 -7 13 15 18 21 0
-3 -6 7 -13 -15 -18 21 0
-3 -6 7 -13 -15 18 -21 0
-3 -6 7 -13 15 -18 -21 0
-3 -6 7 -13 15 18 21 0
-3 -6 7 13 -15 -18 -21 0
-3 -6 7 13 -15 18 21 0
-3 -6 7 13 15 -18 21 0
-3 -6 7 13 15 18 -21 0
-3 6 -7 -13 -15 -18 21 0
-3 6 -7 -13 -15 18 -21 0
-3 6 -7 -13 15 -18 -21 0
-3 6 -7 -13 15 18 21 0
-3 6 -7 13 -15 -18 -21 0
-3 6 -7 13 -15 18 21 0
-3 6 -7 13 15 -18 21 0
-3 6 -7 13 15 18 -21 0
-3 6 7 -13 -15 -18 -21 0
-3 6 7 -13 -15 18 21 0
-3 6 7 -13 15 -18 21 0
-3 6 7 -13 15 18 -21 0
-3 6 7 13 -15 -18 21 0
-3 6 7 13 -15 18 -21 0
-3 6 7 13 15 -18 -21 0
-3 6 7 13 15 18 21 0
-2 -4 -10 -12 -15 -17 -28 0
-2 -4 -10 -12 -15 17 28 0
-2 -4 -10 -12 15 -17 28 0
-2 -4 -10 -12 15 17 -28 0
-2 -4 -10 12 -15 -17 28 0
-2 -4 -10 12 -15 17 -28 0
-2 -4 -10 12 15 -17 -28 0
-2 -4 -10 12 15 17 28 0
-2 -4 10 -12 -15 -17 28 0
-2 -4 10 -12 -15 17 -28 0
-2 -4 10 -12 15 -17 -28 0
-2 -4 10 -12 15 17 28 0
-2 -4 10 12 -15 -17 -28 0
-2 -4 10 12 -15 17 28 0
-2 -4 10 12 15 -17 28 0
-2 -4 10 12 15 17 -28 0
-2 -3 -16 -19 -20 -22 -25 0
-2 -3 -16 -19 -20 22 25 0
-2 -3 -16 -19 20 -22 25 0
-2 -3 -16 -19 20 22 -25 0
-2 -3 -16 19 -20 -22 25 0
-2 -3 -16 19 -20 22 -25 0
-2 -3 -16 19 20 -22 -25 0
-2 -3 -16 19 20 22 25 0
-2 -3 16 -19 -20 -22 25 0
-2 -3 16 -19 -20 22 -25 0
-2 -3 16 -19 20 -22 -25 0
-2 -3 16 -19 20 22 25 0
-2 -3 16 19 -20 -22 -25 0
-2 -3 16 19 -20 22 25 0
-2 -3 16 19 20 -22 25 0
-2 -3 16 19 20 22 -25 0
-2 3 -16 -19 -20 -22 25 0
-2 3 -16 -19 -20 22 -25 0
-2 3 -16 -19 20 -22 -25 0
-2 3 -16 -19 20 22 25 0
-2 3 -16 19 -20 -22 -25 0
-2 3 -16 19 -20 22 25 0
-2 3 -16 19 20 -22 25 0
-2 3 -16 19 20 22 -25 0
-2 3 16 -19 -20 -22 -25 0
-2 3 16 -19 -20 22 25 0
-2 3 16 -19 20 -22 25 0
-2 3 16 -19 20 22 -25 0
-2 3 16 19 -20 -22 25 0
-2 3 16 19 -20 22 -25 0
-2 3 16 19 20 -22 -25 0
-2 3 16 19 20 22 25 0
-2 4 -10 -12 -15 -17 28 0
-2 4 -10 -12 -15 17 -28 0
-2 4 -10 -12 15 -17 -28 0
-2 4 -10 -12 15 17 28 0
-2 4 -10 12 -15 -17 -28 0
-2 4 -10 12 -15 17 28 0
-2 4 -10 12 15 -17 28 0
-2 4 -10 12 15 17 -28 0
-2 4 10 -12 -15 -17 -28 0
-2 4 10 -12 -15 17 28 0
-2 4 10 -12 15 -17 28 0
-2 4 10 -12 15 17 -28 0
-2 4 10 12 -15 -17 28 0
-2 4 10 12 -15 17 -28 0
-2 4 10 12 15 -17 -28 0
-2 4 10 12 15 17 28 0
-1 -9 -11 -17 -18 -25 -26 0
-1 -9 -11 -17 -18 25 26 0
-1 -9 -11 -17 18 -25 26 0
-1 -9 -11 -17 18 25 -26 0
-1 -9 -11 17 -18 -25 26 0
-1 -9 -11 17 -18 25 -26 0
-1 -9 -11 17 18 -25 -26 0
-1 -9 -11 17 18 25 26 0
-1 -9 11 -17 -18 -25 26 0
-1 -9 11 -17 -18 25 -26 0
-1 -9 11 -17 18 -25 -26 0
-1 -9 11 -17 18 25 26 0
-1 -9 11 17 -18 -25 -26 0
-1 -9 11 17 -18 25 26 0
-1 -9 11 17 18 -25 26 0
-1 -9 11 17 18 25 -26 0
-1 -7 -8 -20 -23 -27 -28 0
-1 -7 -8 -20 -23 27 28 0
-1 -7 -8 -20 23 -27 28 0
-1 -7 -8 -20 23 27 -28 0
-1 -7 -8 20 -23 -27 28 0
-1 -7 -8 20 -23 27 -28 0
-1 -7 -8 20 23 -27 -28 0
-1 -7 -8 20 23 27 28 0
-1 -7 8 -20 -23 -27 28 0
-1 -7 8 -20 -23 27 -28 0
-1 -7 8 -20 23 -27 -28 0
-1 -7 8 -20 23 27 28 0
-1 -7 8 20 -23 -27 -28 0
-1 -7 8 20 -23 27 28 0
-1 -7 8 20 23 -27 28 0
-1 -7 8 20 23 27 -28 0
-1 7 -8 -20 -23 -27 28 0
-1 7 -8 -20 -23 27 -28 0
-1 7 -8 -20 23 -27 -28 0
-1 7 -8 -20 23 27 28 0
-1 7 -8 20 -23 -27 -28 0
-1 7 -8 20 -23 27 28 0
-1 7 -8 20 23 -27 28 0
-1 7 -8 20 23 27 -28 0
-1 7 8 -20 -23 -27 -28 0
-1 7 8 -20 -23 27 28 0
-1 7 8 -20 23 -27 28 0
-1 7 8 -20 23 27 -28 0
-1 7 8 20 -23 -27 28 0
-1 7 8 20 -23 27 -28 0
-1 7 8 20 23 -27 -28 0
-1 7 8 20 23 27 28 0
-1 9 -11 -17 -18 -25 26 0
-1 9 -11 -17 -18 25 -26 0
-1 9 -11 -17 18 -25 -26 0
-1 9 -11 -17 18 25 26 0
-1 9 -11 17 -18 -25 -26 0
-1 9 -11 17 -18 25 26 0
-1 9 -11 17 18 -25 26 0
-1 9 -11 17 18 25 -26 0
-1 9 11 -17 -18 -25 -26 0
-1 9 11 -17 -18 25 26 0
-1 9 11 -17 18 -25 26 0
-1 9 11 -17 18 25 -26 0
-1 9 11 17 -18 -25 26 0
-1 9 11 17 -18 25 -26 0
-1 9 11 17 18 -25 -26 0
-1 9 11 17 18 25 26 0
1 -9 -11 -17 -18 -25 26 0
1 -9 -11 -17 -18 25 -26 0
1 -9 -11 -17 18 -25 -26 0
1 -9 -11 -17 18 25 26 0
1 -9 -11 17 -18 -25 -26 0
1 -9 -11 17 -18 25 26 0
1 -9 -11 17 18 -25 26 0
1 -9 -11 17 18 25 -26 0
1 -9 11 -17 -18 -25 -26 0
1 -9 11 -17 -18 25 26 0
1 -9 11 -17 18 -25 26 0
1 -9 11 -17 18 25 -26 0
1 -9 11 17 -18 -25 26 0
1 -9 11 17 -18 25 -26 0
1 -9 11 17 18 -25 -26 0
1 -9 11 17 18 25 26 0
1 -7 -8 -20 -23 -27 28 0
1 -7 -8 -20 -23 27 -28 0
1 -7 -8 -20 23 -27 -28 0
1 -7 -8 -20 23 27 28 0
1 -7 -8 20 -23 -27 -28 0
1 -7 -8 20 -23 27 28 0
1 -7 -8 20 23 -27 28 0
1 -7 -8 20 23 27 -28 0
1 -7 8 -20 -23 -27 -28 0
1 -7 8 -20 -23 27 28 0
1 -7 8 -20 23 -27 28 0
1 -7 8 -20 23 27 -28 0
1 -7 8 20 -23 -27 28 0
1 -7 8 20 -23 27 -28 0
1 -7 8 20 23 -27 -28 0
1 -7 8 20 23 27 28 0
1 7 -8 -20 -23 -27 -28 0
1 7 -8 -20 -23 27 28 0
1 7 -8 -20 23 -27 28 0
1 7 -8 -20 23 27 -28 0
1 7 -8 20 -23 -27 28 0
1 7 -8 20 -23 27 -28 0
1 7 -8 20 23 -27 -28 0
1 7 -8 20 23 27 28 0
1 7 8 -20 -23 -27 28 0
1 7 8 -20 -23 27 -28 0
1 7 8 -20 23 -27 -28 0
1 7 8 -20 23 27 28 0
1 7 8 20 -23 -27 -28 0
1 7 8 20 -23 27 28 0
1 7 8 20 23 -27 28 0
1 7 8 20 23 27 -28 0
1 9 -11 -17 -18 -25 -26 0
1 9 -11 -17 -18 25 26 0
1 9 -11 -17 18 -25 26 0
1 9 -11 -17 18 25 -26 0
1 9 -11 17 -18 -25 26 0
1 9 -11 17 -18 25 -26 0
1 9 -11 17 18 -25 -26 0
1 9 -11 17 18 25 26 0
1 9 11 -17 -18 -25 26 0
1 9 11 -17 -18 25 -26 0
1 9 11 -17 18 -25 -26 0
1 9 11 -17 18 25 26 0
1 9 11 17 -18 -25 -26 0
1 9 11 17 -18 25 26 0
1 9 11 17 18 -25 26 0
1 9 11 17 18 25 -26 0
2 -4 -10 -12 -15 -17 28 0
2 -4 -10 -12 -15 17 -28 0
2 -4 -10 -12 15 -17 -28 0
2 -4 -10 -12 15 17 28 0
2 -4 -10 12 -15 -17 -28 0
2 -4 -10 12 -15 17 28 0
2 -4 -10 12 15 -17 28 0
2 -4 -10 12 15 17 -28 0
2 -4 10 -12 -15 -17 -28 0
2 -4 10 -12 -15 17 28 0
2 -4 10 -12 15 -17 28 0
2 -4 10 -12 15 17 -28 0
2 -4 10 12 -15 -17 28 0
2 -4 10 12 -15 17 -28 0
2 -4 10 12 15 -17 -28 0
2 -4 10 12 15 17 28 0
2 -3 -16 -19 -20 -22 25 0
2 -3 -16 -19 -20 22 -25 0
2 -3 -16 -19 20 -22 -25 0
2 -3 -16 -19 20 22 25 0
2 -3 -16 19 -20 -22 -25 0
2 -3 -16 19 -20 22 25 0
2 -3 -16 19 20 -22 25 0
2 -3 -16 19 20 22 -25 0
2 -3 16 -19 -20 -22 -25 0
2 -3 16 -19 -20 22 25 0
2 -3 16 -19 20 -22 25 0
2 -3 16 -19 20 22 -25 0
2 -3 16 19 -20 -22 25 0
2 -3 16 19 -20 22 -25 0
2 -3 16 19 20 -22 -25 0
2 -3 16 19 20 22 25 0
2 3 -16 -19 -20 -22 -25 0
2 3 -16 -19 -20 22 25 0
2 3 -16 -19 20 -22 25 0
2 3 -16 -19 20 22 -25 0
2 3 -16 19 -20 -22 25 0
2 3 -16 19 -20 22 -25 0
2 3 -16 19 20 -22 -25 0
2 3 -16 19 20 22 25 0
2 3 16 -19 -20 -22 25 0
2 3 16 -19 -20 22 -25 0
2 3 16 -19 20 -22 -25 0
2 3 16 -19 20 22 25 0
2 3 16 19 -20 -22 -25 0
2 3 16 19 -20 22 25 0
2 3 16 19 20 -22 25 0
2 3 16 19 20 22 -25 0
2 4 -10 -12 -15 -17 -28 0
2 4 -10 -12 -15 17 28 0
2 4 -10 -12 15 -17 28 0
2 4 -10 -12 15 17 -28 0
2 4 -10 12 -15 -17 28 0
2 4 -10 12 -15 17 -28 0
2 4 -10 12 15 -17 -28 0
2 4 -10 12 15 17 28 0
2 4 10 -12 -15 -17 28 0
2 4 10 -12 -15 17 -28 0
2 4 10 -12 15 -17 -28 0
2 4 10 -12 15 17 28 0
2 4 10 12 -15 -17 -28 0
2 4 10 12 -15 17 28 0
2 4 10 12 15 -17 28 0
2 4 10 12 15 17 -28 0
3 -6 -7 -13 -15 -18 21 0
3 -6 -7 -13 -15 18 -21 0
3 -6 -7 -13 15 -18 -21 0
3 -6 -7 -13 15 18 21 0
3 -6 -7 13 -15 -18 -21 0
3 -6 -7 13 -15 18 21 0
3 -6 -7 13 15 -18 21 0
3 -6 -7 13 15 18 -21 0
3 -6 7 -13 -15 -18 -21 0
3 -6 7 -13 -15 18 21 0
3 -6 7 -13 15 -18 21 0
3 -6 7 -13 15 18 -21 0
3 -6 7 13 -15 -18 21 0
3 -6 7 13 -15 18 -21 0
3 -6 7 13 15 -18 -21 0
3 -6 7 13 15 18 21 0
3 6 -7 -13 -15 -18 -21 0
3 6 -7 -13 -15 18 21 0
3 6 -7 -13 15 -18 21 0
3 6 -7 -13 15 18 -21 0
3 6 -7 13 -15 -18 21 0
3 6 -7 13 -15 18 -21 0
3 6 -7 13 15 -18 -21 0
3 6 -7 13 15 18 21 0
3 6 7 -13 -15 -18 21 0
3 6 7 -13 -15 18 -21 0
3 6 7 -13 15 -18 -21 0
3 6 7 -13 15 18 21 0
3 6 7 13 -15 -18 -21 0
3 6 7 13 -15 18 21 0
3 6 7 13 15 -18 21 0
3 6 7 13 15 18 -21 0
4 -6 -9 -14 -19 -23 24 0
4 -6 -9 -14 -19 23 -24 0
4 -6 -9 -14 19 -23 -24 0
4 -6 -9 -14 19 23 24 0
4 -6 -9 14 -19 -23 -24 0
4 -6 -9 14 -19 23 24 0
4 -6 -9 14 19 -23 24 0
4 -6 -9 14 19 23 -24 0
4 -6 9 -14 -19 -23 -24 0
4 -6 9 -14 -19 23 24 0
4 -6 9 -14 19 -23 24 0
4 -6 9 -14 19 23 -24 0
4 -6 9 14 -19 -23 24 0
4 -6 9 14 -19 23 -24 0
4 -6 9 14 19 -23 -24 0
4 -6 9 14 19 23 24 0
4 6 -9 -14 -19 -23 -24 0
4 6 -9 -14 -19 23 24 0
4 6 -9 -14 19 -23 24 0
4 6 -9 -14 19 23 -24 0
4 6 -9 14 -19 -23 24 0
4 6 -9 14 -19 23 -24 0
4 6 -9 14 19 -23 -24 0
4 6 -9 14 19 23 24 0
4 6 9 -14 -19 -23 24 0
4 6 9 -14 -19 23 -24 0
4 6 9 -14 19 -23 -24 0
4 6 9 -14 19 23 24 0
4 6 9 14 -19 -23 -24 0
4 6 9 14 -19 23 24 0
4 6 9 14 19 -23 24 0
4 6 9 14 19 23 -24 0
5 -10 -11 -13 -16 -24 27 0
5 -10 -11 -13 -16 24 -27 0
5 -10 -11 -13 16 -24 -27 0
5 -10 -11 -13 16 24 27 0
5 -10 -11 13 -16 -24 -27 0
5 -10 -11 13 -16 24 27 0
5 -10 -11 13 16 -24 27 0
5 -10 -11 13 16 24 -27 0
5 -10 11 -13 -16 -24 -27 0
5 -10 11 -13 -16 24 27 0
5 -10 11 -13 16 -24 27 0
5 -10 11 -13 16 24 -27 0
5 -10 11 13 -16 -24 27 0
5 -10 11 13 -16 24 -27 0
5 -10 11 13 16 -24 -27 0
5 -10 11 13 16 24 27 0
5 -8 -12 -14 -21 -22 26 0
5 -8 -12 -14 -21 22 -26 0
5 -8 -12 -14 21 -22 -26 0
5 -8 -12 -14 21 22 26 0
5 -8 -12 14 -21 -22 -26 0
5 -8 -12 14 -21 22 26 0
5 -8 -12 14 21 -22 26 0
5 -8 -12 14 21 22 -26 0
5 -8 12 -14 -21 -22 -26 0
5 -8 12 -14 -21 22 26 0
5 -8 12 -14 21 -22 26 0
5 -8 12 -14 21 22 -26 0
5 -8 12 14 -21 -22 26 0
5 -8 12 14 -21 22 -26 0
5 -8 12 14 21 -22 -26 0
5 -8 12 14 21 22 26 0
5 8 -12 -14 -21 -22 -26 0
5 8 -12 -14 -21 22 26 0
5 8 -12 -14 21 -22 26 0
5 8 -12 -14 21 22 -26 0
5 8 -12 14 -21 -22 26 0
5 8 -12 14 -21 22 -26 0
5 8 -12 14 21 -22 -26 0
5 8 -12 14 21 22 26 0
5 8 12 -14 -21 -22 26 0
5 8 12 -14 -21 22 -26 0
5 8 12 -14 21 -22 -26 0
5 8 12 -14 21 22 26 0
5 8 12 14 -21 -22 -26 0
5 8 12 14 -21 22 26 0
5 8 12 14 21 -22 26 0
5 8 12 14 21 22 -26 0
5 10 -11 -13 -16 -24 -27 0
5 10 -11 -13 -16 24 27 0
5 10 -11 -13 16 -24 27 0
5 10 -11 -13 16 24 -27 0
5 10 -11 13 -16 -24 27 0
5 10 -11 13 -16 24 -27 0
5 10 -11 13 16 -24 -27 0
5 10 -11 13 16 24 27 0
5 10 11 -13 -16 -24 27 0
5 10 11 -13 -16 24 -27 0
5 10 11 -13 16 -24 -27 0
5 10 11 -13 16 24 27 0
5 10 11 13 -16 -24 -27 0
5 10 11 13 -16 24 27 0
5 10 11 13 16 -24 27 0
5 10 11 13 16 24 -27 0
