p cnf 10 40
-4 -5 -7 10 0
-4 -5 7 -10 0
-4 5 -7 -10 0
-4 5 7 10 0
-3 -5 -6 8 0
-3 -5 6 -8 0
-3 5 -6 -8 0
-3 5 6 8 0
-2 -4 -8 9 0
-2 -4 8 -9 0
-2 4 -8 -9 0
-2 4 8 9 0
-1 -3 -9 -10 0
-1 -3 9 10 0
-1 -2 -6 7 0
-1 -2 6 -7 0
-1 2 -6 -7 0
-1 2 6 7 0
-1 3 -9 10 0
-1 3 9 -10 0
1 -3 -9 10 0
1 -3 9 -10 0
1 -2 -6 -7 0
1 -2 6 7 0
1 2 -6 7 0
1 2 6 -7 0
1 3 -9 -10 0
1 3 9 10 0
2 -4 -8 -9 0
2 -4 8 9 0
2 4 -8 9 0
2 4 8 -9 0
3 -5 -6 -8 0
3 -5 6 8 0
3 5 -6 8 0
3 5 6 -8 0
4 -5 -7 -10 0
4 -5 7 10 0
4 5 -7 10 0
4 5 7 -10 0
