p cnf 21 224
-6 -7 -9 -11 -15 20 0
-6 -7 -9 -11 15 -20 0
-6 -7 -9 11 -15 -20 0
-6 -7 -9 11 15 20 0
-6 -7 9 -11 -15 -20 0
-6 -7 9 -11 15 20 0
-6 -7 9 11 -15 20 0
-6 -7 9 11 15 -20 0
-6 7 -9 -11 -15 -20 0
-6 7 -9 -11 15 20 0
-6 7 -9 11 -15 20 0
-6 7 -9 11 15 -20 0
-6 7 9 -11 -15 20 0
-6 7 9 -11 15 -20 0
-6 7 9 11 -15 -20 0
-6 7 9 11 15 20 0
-5 -10 -12 -15 -17 21 0
-5 -10 -12 -15 17 -21 0
-5 -10 -12 15 -17 -21 0
-5 -10 -12 15 17 21 0
-5 -10 12 -15 -17 -21 0
-5 -10 12 -15 17 21 0
-5 -10 12 15 -17 21 0
-5 -10 12 15 17 -21 0
-5 10 -12 -15 -17 -21 0
-5 10 -12 -15 17 21 0
-5 10 -12 15 -17 21 0
-5 10 -12 15 17 -21 0
-5 10 12 -15 -17 21 0
-5 10 12 -15 17 -21 0
-5 10 12 15 -17 -21 0
-5 10 12 15 17 21 0
-4 -7 -10 -14 -16 19 0
-4 -7 -10 -14 16 -19 0
-4 -7 -10 14 -16 -19 0
-4 -7 -10 14 16 19 0
-4 -7 10 -14 -16 -19 0
-4 -7 10 -14 16 19 0
-4 -7 10 14 -16 19 0
-4 -7 10 14 16 -19 0
-4 7 -10 -14 -16 -19 0
-4 7 -10 -14 16 19 0
-4 7 -10 14 -16 19 0
-4 7 -10 14 16 -19 0
-4 7 10 -14 -16 19 0
-4 7 10 -14 16 -19 0
-4 7 10 14 -16 -19 0
-4 7 10 14 16 19 0
-3 -4 -5 -8 -11 18 0
-3 -4 -5 -8 11 -18 0
-3 -4 -5 8 -11 -18 0
-3 -4 -5 8 11 18 0
-3 -4 5 -8 -11 -18 0
-3 -4 5 -8 11 18 0
-3 -4 5 8 -11 18 0
-3 -4 5 8 11 -18 0
-3 4 -5 -8 -11 -18 0
-3 4 -5 -8 11 18 0
-3 4 -5 8 -11 18 0
-3 4 -5 8 11 -18 0
-3 4 5 -8 -11 18 0
-3 4 5 -8 11 -18 0
-3 4 5 8 -11 -18 0
-3 4 5 8 11 18 0
-2 -13 -16 -18 -20 21 0
-2 -13 -16 -18 20 -21 0
-2 -13 -16 18 -20 -21 0
-2 -13 -16 18 20 21 0
-2 -13 16 -18 -20 -21 0
-2 -13 16 -18 20 21 0
-2 -13 16 18 -20 21 0
-2 -13 16 18 20 -21 0
-2 13 -16 -18 -20 -21 0
-2 13 -16 -18 20 21 0
-2 13 -16 18 -20 21 0
-2 13 -16 18 20 -21 0
-2 13 16 -18 -20 21 0
-2 13 16 -18 20 -21 0
-2 13 16 18 -20 -21 0
-2 13 16 18 20 21 0
-1 -6 -8 -12 -13 -14 0
-1 -6 -8 -12 13 14 0
-1 -6 -8 12 -13 14 0
-1 -6 -8 12 13 -14 0
-1 -6 8 -12 -13 14 0
-1 -6 8 -12 13 -14 0
-1 -6 8 12 -13 -14 0
-1 -6 8 12 13 14 0
-1 -2 -3 -9 -17 19 0
-1 -2 -3 -9 17 -19 0
-1 -2 -3 9 -17 -19 0
-1 -2 -3 9 17 19 0
-1 -2 3 -9 -17 -19 0
-1 -2 3 -9 17 19 0
-1 -2 3 9 -17 19 0
-1 -2 3 9 17 -19 0
-1 2 -3 -9 -17 -19 0
-1 2 -3 -9 17 19 0
-1 2 -3 9 -17 19 0
-1 2 -3 9 17 -19 0
-1 2 3 -9 -17 19 0
-1 2 3 -9 17 -19 0
-1 2 3 9 -17 -19 0
-1 2 3 9 17 19 0
-1 6 -8 -12 -13 14 0
-1 6 -8 -12 13 -14 0
-1 6 -8 12 -13 -14 0
-1 6 -8 12 13 14 0
-1 6 8 -12 -13 -14 0
-1 6 8 -12 13 14 0
-1 6 8 12 -13 14 0
-1 6 8 12 13 -14 0
1 -6 -8 -12 -13 14 0
1 -6 -8 -12 13 -14 0
1 -6 -8 12 -13 -14 0
1 -6 -8 12 13 14 0
1 -6 8 -12 -13 -14 0
1 -6 8 -12 13 14 0
1 -6 8 12 -13 14 0
1 -6 8 12 13 -14 0
1 -2 -3 -9 -17 -19 0
1 -2 -3 -9 17 19 0
1 -2 -3 9 -17 19 0
1 -2 -3 9 17 -19 0
1 -2 3 -9 -17 19 0
1 -2 3 -9 17 -19 0
1 -2 3 9 -17 -19 0
1 -2 3 9 17 19 0
1 2 -3 -9 -17 19 0
1 2 -3 -9 17 -19 0
1 2 -3 9 -17 -19 0
1 2 -3 9 17 19 0
1 2 3 -9 -17 -19 0
1 2 3 -9 17 19 0
1 2 3 9 -17 19 0
1 2 3 9 17 -19 0
1 6 -8 -12 -13 -14 0
1 6 -8 -12 13 14 0
1 6 -8 12 -13 14 0
1 6 -8 12 13 -14 0
1 6 8 -12 -13 14 0
1 6 8 -12 13 -14 0
1 6 8 12 -13 -14 0
1 6 8 12 13 14 0
2 -13 -16 -18 -20 -21 0
2 -13 -16 -18 20 21 0
2 -13 -16 18 -20 21 0
2 -13 -16 18 20 -21 0
2 -13 16 -18 -20 21 0
2 -13 16 -18 20 -21 0
2 -13 16 18 -20 -21 0
2 -13 16 18 20 21 0
2 13 -16 -18 -20 21 0
2 13 -16 -18 20 -21 0
2 13 -16 18 -20 -21 0
2 13 -16 18 20 21 0
2 13 16 -18 -20 -21 0
2 13 16 -18 20 21 0
2 13 16 18 -20 21 0
2 13 16 18 20 -21 0
3 -4 -5 -8 -11 -18 0
3 -4 -5 -8 11 18 0
3 -4 -5 8 -11 18 0
3 -4 -5 8 11 -18 0
3 -4 5 -8 -11 18 0
3 -4 5 -8 11 -18 0
3 -4 5 8 -11 -18 0
3 -4 5 8 11 18 0
3 4 -5 -8 -11 18 0
3 4 -5 -8 11 -18 0
3 4 -5 8 -11 -18 0
3 4 -5 8 11 18 0
3 4 5 -8 -11 -18 0
3 4 5 -8 11 18 0
3 4 5 8 -11 18 0
3 4 5 8 11 -18 0
4 -7 -10 -14 -16 -19 0
4 -7 -10 -14 16 19 0
4 -7 -10 14 -16 19 0
4 -7 -10 14 16 -19 0
4 -7 10 -14 -16 19 0
4 -7 10 -14 16 -19 0
4 -7 10 14 -16 -19 0
4 -7 10 14 16 19 0
4 7 -10 -14 -16 19 0
4 7 -10 -14 16 -19 0
4 7 -10 14 -16 -19 0
4 7 -10 14 16 19 0
4 7 10 -14 -16 -19 0
4 7 10 -14 16 19 0
4 7 10 14 -16 19 0
4 7 10 14 16 -19 0
5 -10 -12 -15 -17 -21 0
5 -10 -12 -15 17 21 0
5 -10 -12 15 -17 21 0
5 -10 -12 15 17 -21 0
5 -10 12 -15 -17 21 0
5 -10 12 -15 17 -21 0
5 -10 12 15 -17 -21 0
5 -10 12 15 17 21 0
5 10 -12 -15 -17 21 0
5 10 -12 -15 17 -21 0
5 10 -12 15 -17 -21 0
5 10 -12 15 17 21 0
5 10 12 -15 -17 -21 0
5 10 12 -15 17 21 0
5 10 12 15 -17 21 0
5 10 12 15 17 -21 0
6 -7 -9 -11 -15 -20 0
6 -7 -9 -11 15 20 0
6 -7 -9 11 -15 20 0
6 -7 -9 11 15 -20 0
6 -7 9 -11 -15 20 0
6 -7 9 -11 15 -20 0
6 -7 9 11 -15 -20 0
6 -7 9 11 15 20 0
6 7 -9 -11 -15 20 0
6 7 -9 -11 15 -20 0
6 7 -9 11 -15 -20 0
6 7 -9 11 15 20 0
6 7 9 -11 -15 -20 0
6 7 9 -11 15 20 0
6 7 9 11 -15 20 0
6 7 9 11 15 -20 0
