p cnf 36 1152
-8 -11 -15 -17 -19 -24 -28 30 0
-8 -11 -15 -17 -19 -24 28 -30 0
-8 -11 -15 -17 -19 24 -28 -30 0
-8 -11 -15 -17 -19 24 28 30 0
-8 -11 -15 -17 19 -24 -28 -30 0
-8 -11 -15 -17 19 -24 28 30 0
-8 -11 -15 -17 19 24 -28 30 0
-8 -11 -15 -17 19 24 28 -30 0
-8 -11 -15 17 -19 -24 -28 -30 0
-8 -11 -15 17 -19 -24 28 30 0
-8 -11 -15 17 -19 24 -28 30 0
-8 -11 -15 17 -19 24 28 -30 0
-8 -11 -15 17 19 -24 -28 30 0
-8 -11 -15 17 19 -24 28 -30 0
-8 -11 -15 17 19 24 -28 -30 0
-8 -11 -15 17 19 24 28 30 0
-8 -11 15 -17 -19 -24 -28 -30 0
-8 -11 15 -17 -19 -24 28 30 0
-8 -11 15 -17 -19 24 -28 30 0
-8 -11 15 -17 -19 24 28 -30 0
-8 -11 15 -17 19 -24 -28 30 0
-8 -11 15 -17 19 -24 28 -30 0
-8 -11 15 -17 19 24 -28 -30 0
-8 -11 15 -17 19 24 28 30 0
-8 -11 15 17 -19 -24 -28 30 0
-8 -11 15 17 -19 -24 28 -30 0
-8 -11 15 17 -19 24 -28 -30 0
-8 -11 15 17 -19 24 28 30 0
-8 -11 15 17 19 -24 -28 -30 0
-8 -11 15 17 19 -24 28 30 0
-8 -11 15 17 19 24 -28 30 0
-8 -11 15 17 19 24 28 -30 0
-8 11 -15 -17 -19 -24 -28 -30 0
-8 11 -15 -17 -19 -24 28 30 0
-8 11 -15 -17 -19 24 -28 30 0
-8 11 -15 -17 -19 24 28 -30 0
-8 11 -15 -17 19 -24 -28 30 0
-8 11 -15 -17 19 -24 28 -30 0
-8 11 -15 -17 19 24 -28 -30 0
-8 11 -15 -17 19 24 28 30 0
-8 11 -15 17 -19 -24 -28 30 0
-8 11 -15 17 -19 -24 28 -30 0
-8 11 -15 17 -19 24 -28 -30 0
-8 11 -15 17 -19 24 28 30 0
-8 11 -15 17 19 -24 -28 -30 0
-8 11 -15 17 19 -24 28 30 0
-8 11 -15 17 19 24 -28 30 0
-8 11 -15 17 19 24 28 -30 0
-8 11 15 -17 -19 -24 -28 30 0
-8 11 15 -17 -19 -24 28 -30 0
-8 11 15 -17 -19 24 -28 -30 0
-8 11 15 -17 -19 24 28 30 0
-8 11 15 -17 19 -24 -28 -30 0
-8 11 15 -17 19 -24 28 30 0
-8 11 15 -17 19 24 -28 30 0
-8 11 15 -17 19 24 28 -30 0
-8 11 15 17 -19 -24 -28 -30 0
-8 11 15 17 -19 -24 28 30 0
-8 11 15 17 -19 24 -28 30 0
-8 11 15 17 -19 24 28 -30 0
-8 11 15 17 19 -24 -28 30 0
-8 11 15 17 19 -24 28 -30 0
-8 11 15 17 19 24 -28 -30 0
-8 11 15 17 19 24 28 30 0
-7 -10 -13 -16 -20 -23 -24 25 0
-7 -10 -13 -16 -20 -23 24 -25 0
-7 -10 -13 -16 -20 23 -24 -25 0
-7 -10 -13 -16 -20 23 24 25 0
-7 -10 -13 -16 20 -23 -24 -25 0
-7 -10 -13 -16 20 -23 24 25 0
-7 -10 -13 -16 20 23 -24 25 0
-7 -10 -13 -16 20 23 24 -25 0
-7 -10 -13 16 -20 -23 -24 -25 0
-7 -10 -13 16 -20 -23 24 25 0
-7 -10 -13 16 -20 23 -24 25 0
-7 -10 -13 16 -20 23 24 -25 0
-7 -10 -13 16 20 -23 -24 25 0
-7 -10 -13 16 20 -23 24 -25 0
-7 -10 -13 16 20 23 -24 -25 0
-7 -10 -13 16 20 23 24 25 0
-7 -10 13 -16 -20 -23 -24 -25 0
-7 -10 13 -16 -20 -23 24 25 0
-7 -10 13 -16 -20 23 -24 25 0
-7 -10 13 -16 -20 23 24 -25 0
-7 -10 13 -16 20 -23 -24 25 0
-7 -10 13 -16 20 -23 24 -25 0
-7 -10 13 -16 20 23 -24 -25 0
-7 -10 13 -16 20 23 24 25 0
-7 -10 13 16 -20 -23 -24 25 0
-7 -10 13 16 -20 -23 24 -25 0
-7 -10 13 16 -20 23 -24 -25 0
-7 -10 13 16 -20 23 24 25 0
-7 -10 13 16 20 -23 -24 -25 0
-7 -10 13 16 20 -23 24 25 0
-7 -10 13 16 20 23 -24 25 0
-7 -10 13 16 20 23 24 -25 0
-7 10 -13 -16 -20 -23 -24 -25 0
-7 10 -13 -16 -20 -23 24 25 0
-7 10 -13 -16 -20 23 -24 25 0
-7 10 -13 -16 -20 23 24 -25 0
-7 10 -13 -16 20 -23 -24 25 0
-7 10 -13 -16 20 -23 24 -25 0
-7 10 -13 -16 20 23 -24 -25 0
-7 10 -13 -16 20 23 24 25 0
-7 10 -13 16 -20 -23 -24 25 0
-7 10 -13 16 -20 -23 24 -25 0
-7 10 -13 16 -20 23 -24 -25 0
-7 10 -13 16 -20 23 24 25 0
-7 10 -13 16 20 -23 -24 -25 0
-7 10 -13 16 20 -23 24 25 0
-7 10 -13 16 20 23 -24 25 0
-7 10 -13 16 20 23 24 -25 0
-7 10 13 -16 -20 -23 -24 25 0
-7 10 13 -16 -20 -23 24 -25 0
-7 10 13 -16 -20 23 -24 -25 0
-7 10 13 -16 -20 23 24 25 0
-7 10 13 -16 20 -23 -24 -25 0
-7 10 13 -16 20 -23 24 25 0
-7 10 13 -16 20 23 -24 25 0
-7 10 13 -16 20 23 24 -25 0
-7 10 13 16 -20 -23 -24 -25 0
-7 10 13 16 -20 -23 24 25 0
-7 10 13 16 -20 23 -24 25 0
-7 10 13 16 -20 23 24 -25 0
-7 10 13 16 20 -23 -24 25 0
-7 10 13 16 20 -23 24 -25 0
-7 10 13 16 20 23 -24 -25 0
-7 10 13 16 20 23 24 25 0
-6 -14 -16 -19 -26 -29 -33 34 0
-6 -14 -16 -19 -26 -29 33 -34 0
-6 -14 -16 -19 -26 29 -33 -34 0
-6 -14 -16 -19 -26 29 33 34 0
-6 -14 -16 -19 26 -29 -33 -34 0
-6 -14 -16 -19 26 -29 33 34 0
-6 -14 -16 -19 26 29 -33 34 0
-6 -14 -16 -19 26 29 33 -34 0
-6 -14 -16 19 -26 -29 -33 -34 0
-6 -14 -16 19 -26 -29 33 34 0
-6 -14 -16 19 -26 29 -33 34 0
-6 -14 -16 19 -26 29 33 -34 0
-6 -14 -16 19 26 -29 -33 34 0
-6 -14 -16 19 26 -29 33 -34 0
-6 -14 -16 19 26 29 -33 -34 0
-6 -14 -16 19 26 29 33 34 0
-6 -14 16 -19 -26 -29 -33 -34 0
-6 -14 16 -19 -26 -29 33 34 0
-6 -14 16 -19 -26 29 -33 34 0
-6 -14 16 -19 -26 29 33 -34 0
-6 -14 16 -19 26 -29 -33 34 0
-6 -14 16 -19 26 -29 33 -34 0
-6 -14 16 -19 26 29 -33 -34 0
-6 -14 16 -19 26 29 33 34 0
-6 -14 16 19 -26 -29 -33 34 0
-6 -14 16 19 -26 -29 33 -34 0
-6 -14 16 19 -26 29 -33 -34 0
-6 -14 16 19 -26 29 33 34 0
-6 -14 16 19 26 -29 -33 -34 0
-6 -14 16 19 26 -29 33 34 0
-6 -14 16 19 26 29 -33 34 0
-6 -14 16 19 26 29 33 -34 0
-6 14 -16 -19 -26 -29 -33 -34 0
-6 14 -16 -19 -26 -29 33 34 0
-6 14 -16 -19 -26 29 -33 34 0
-6 14 -16 -19 -26 29 33 -34 0
-6 14 -16 -19 26 -29 -33 34 0
-6 14 -16 -19 26 -29 33 -34 0
-6 14 -16 -19 26 29 -33 -34 0
-6 14 -16 -19 26 29 33 34 0
-6 14 -16 19 -26 -29 -33 34 0
-6 14 -16 19 -26 -29 33 -34 0
-6 14 -16 19 -26 29 -33 -34 0
-6 14 -16 19 -26 29 33 34 0
-6 14 -16 19 26 -29 -33 -34 0
-6 14 -16 19 26 -29 33 34 0
-6 14 -16 19 26 29 -33 34 0
-6 14 -16 19 26 29 33 -34 0
-6 14 16 -19 -26 -29 -33 34 0
-6 14 16 -19 -26 -29 33 -34 0
-6 14 16 -19 -26 29 -33 -34 0
-6 14 16 -19 -26 29 33 34 0
-6 14 16 -19 26 -29 -33 -34 0
-6 14 16 -19 26 -29 33 34 0
-6 14 16 -19 26 29 -33 34 0
-6 14 16 -19 26 29 33 -34 0
-6 14 16 19 -26 -29 -33 -34 0
-6 14 16 19 -26 -29 33 34 0
-6 14 16 19 -26 29 -33 34 0
-6 14 16 19 -26 29 33 -34 0
-6 14 16 19 26 -29 -33 34 0
-6 14 16 19 26 -29 33 -34 0
-6 14 16 19 26 29 -33 -34 0
-6 14 16 19 26 29 33 34 0
-4 -12 -13 -27 -28 -29 -32 35 0
-4 -12 -13 -27 -28 -29 32 -35 0
-4 -12 -13 -27 -28 29 -32 -35 0
-4 -12 -13 -27 -28 29 32 35 0
-4 -12 -13 -27 28 -29 -32 -35 0
-4 -12 -13 -27 28 -29 32 35 0
-4 -12 -13 -27 28 29 -32 35 0
-4 -12 -13 -27 28 29 32 -35 0
-4 -12 -13 27 -28 -29 -32 -35 0
-4 -12 -13 27 -28 -29 32 35 0
-4 -12 -13 27 -28 29 -32 35 0
-4 -12 -13 27 -28 29 32 -35 0
-4 -12 -13 27 28 -29 -32 35 0
-4 -12 -13 27 28 -29 32 -35 0
-4 -12 -13 27 28 29 -32 -35 0
-4 -12 -13 27 28 29 32 35 0
-4 -12 13 -27 -28 -29 -32 -35 0
-4 -12 13 -27 -28 -29 32 35 0
-4 -12 13 -27 -28 29 -32 35 0
-4 -12 13 -27 -28 29 32 -35 0
-4 -12 13 -27 28 -29 -32 35 0
-4 -12 13 -27 28 -29 32 -35 0
-4 -12 13 -27 28 29 -32 -35 0
-4 -12 13 -27 28 29 32 35 0
-4 -12 13 27 -28 -29 -32 35 0
-4 -12 13 27 -28 -29 32 -35 0
-4 -12 13 27 -28 29 -32 -35 0
-4 -12 13 27 -28 29 32 35 0
-4 -12 13 27 28 -29 -32 -35 0
-4 -12 13 27 28 -29 32 35 0
-4 -12 13 27 28 29 -32 35 0
-4 -12 13 27 28 29 32 -35 0
-4 -7 -8 -9 -21 -26 -31 36 0
-4 -7 -8 -9 -21 -26 31 -36 0
-4 -7 -8 -9 -21 26 -31 -36 0
-4 -7 -8 -9 -21 26 31 36 0
-4 -7 -8 -9 21 -26 -31 -36 0
-4 -7 -8 -9 21 -26 31 36 0
-4 -7 -8 -9 21 26 -31 36 0
-4 -7 -8 -9 21 26 31 -36 0
-4 -7 -8 9 -21 -26 -31 -36 0
-4 -7 -8 9 -21 -26 31 36 0
-4 -7 -8 9 -21 26 -31 36 0
-4 -7 -8 9 -21 26 31 -36 0
-4 -7 -8 9 21 -26 -31 36 0
-4 -7 -8 9 21 -26 31 -36 0
-4 -7 -8 9 21 26 -31 -36 0
-4 -7 -8 9 21 26 31 36 0
-4 -7 8 -9 -21 -26 -31 -36 0
-4 -7 8 -9 -21 -26 31 36 0
-4 -7 8 -9 -21 26 -31 36 0
-4 -7 8 -9 -21 26 31 -36 0
-4 -7 8 -9 21 -26 -31 36 0
-4 -7 8 -9 21 -26 31 -36 0
-4 -7 8 -9 21 26 -31 -36 0
-4 -7 8 -9 21 26 31 36 0
-4 -7 8 9 -21 -26 -31 36 0
-4 -7 8 9 -21 -26 31 -36 0
-4 -7 8 9 -21 26 -31 -36 0
-4 -7 8 9 -21 26 31 36 0
-4 -7 8 9 21 -26 -31 -36 0
-4 -7 8 9 21 -26 31 36 0
-4 -7 8 9 21 26 -31 36 0
-4 -7 8 9 21 26 31 -36 0
-4 7 -8 -9 -21 -26 -31 -36 0
-4 7 -8 -9 -21 -26 31 36 0
-4 7 -8 -9 -21 26 -31 36 0
-4 7 -8 -9 -21 26 31 -36 0
-4 7 -8 -9 21 -26 -31 36 0
-4 7 -8 -9 21 -26 31 -36 0
-4 7 -8 -9 21 26 -31 -36 0
-4 7 -8 -9 21 26 31 36 0
-4 7 -8 9 -21 -26 -31 36 0
-4 7 -8 9 -21 -26 31 -36 0
-4 7 -8 9 -21 26 -31 -36 0
-4 7 -8 9 -21 26 31 36 0
-4 7 -8 9 21 -26 -31 -36 0
-4 7 -8 9 21 -26 31 36 0
-4 7 -8 9 21 26 -31 36 0
-4 7 -8 9 21 26 31 -36 0
-4 7 8 -9 -21 -26 -31 36 0
-4 7 8 -9 -21 -26 31 -36 0
-4 7 8 -9 -21 26 -31 -36 0
-4 7 8 -9 -21 26 31 36 0
-4 7 8 -9 21 -26 -31 -36 0
-4 7 8 -9 21 -26 31 36 0
-4 7 8 -9 21 26 -31 36 0
-4 7 8 -9 21 26 31 -36 0
-4 7 8 9 -21 -26 -31 -36 0
-4 7 8 9 -21 -26 31 36 0
-4 7 8 9 -21 26 -31 36 0
-4 7 8 9 -21 26 31 -36 0
-4 7 8 9 21 -26 -31 36 0
-4 7 8 9 21 -26 31 -36 0
-4 7 8 9 21 26 -31 -36 0
-4 7 8 9 21 26 31 36 0
-4 12 -13 -27 -28 -29 -32 -35 0
-4 12 -13 -27 -28 -29 32 35 0
-4 12 -13 -27 -28 29 -32 35 0
-4 12 -13 -27 -28 29 32 -35 0
-4 12 -13 -27 28 -29 -32 35 0
-4 12 -13 -27 28 -29 32 -35 0
-4 12 -13 -27 28 29 -32 -35 0
-4 12 -13 -27 28 29 32 35 0
-4 12 -13 27 -28 -29 -32 35 0
-4 12 -13 27 -28 -29 32 -35 0
-4 12 -13 27 -28 29 -32 -35 0
-4 12 -13 27 -28 29 32 35 0
-4 12 -13 27 28 -29 -32 -35 0
-4 12 -13 27 28 -29 32 35 0
-4 12 -13 27 28 29 -32 35 0
-4 12 -13 27 28 29 32 -35 0
-4 12 13 -27 -28 -29 -32 35 0
-4 12 13 -27 -28 -29 32 -35 0
-4 12 13 -27 -28 29 -32 -35 0
-4 12 13 -27 -28 29 32 35 0
-4 12 13 -27 28 -29 -32 -35 0
-4 12 13 -27 28 -29 32 35 0
-4 12 13 -27 28 29 -32 35 0
-4 12 13 -27 28 29 32 -35 0
-4 12 13 27 -28 -29 -32 -35 0
-4 12 13 27 -28 -29 32 35 0
-4 12 13 27 -28 29 -32 35 0
-4 12 13 27 -28 29 32 -35 0
-4 12 13 27 28 -29 -32 35 0
-4 12 13 27 28 -29 32 -35 0
-4 12 13 27 28 29 -32 -35 0
-4 12 13 27 28 29 32 35 0
-2 -5 -14 -15 -18 -25 -27 36 0
-2 -5 -14 -15 -18 -25 27 -36 0
-2 -5 -14 -15 -18 25 -27 -36 0
-2 -5 -14 -15 -18 25 27 36 0
-2 -5 -14 -15 18 -25 -27 -36 0
-2 -5 -14 -15 18 -25 27 36 0
-2 -5 -14 -15 18 25 -27 36 0
-2 -5 -14 -15 18 25 27 -36 0
-2 -5 -14 15 -18 -25 -27 -36 0
-2 -5 -14 15 -18 -25 27 36 0
-2 -5 -14 15 -18 25 -27 36 0
-2 -5 -14 15 -18 25 27 -36 0
-2 -5 -14 15 18 -25 -27 36 0
-2 -5 -14 15 18 -25 27 -36 0
-2 -5 -14 15 18 25 -27 -36 0
-2 -5 -14 15 18 25 27 36 0
-2 -5 14 -15 -18 -25 -27 -36 0
-2 -5 14 -15 -18 -25 27 36 0
-2 -5 14 -15 -18 25 -27 36 0
-2 -5 14 -15 -18 25 27 -36 0
-2 -5 14 -15 18 -25 -27 36 0
-2 -5 14 -15 18 -25 27 -36 0
-2 -5 14 -15 18 25 -27 -36 0
-2 -5 14 -15 18 25 27 36 0
-2 -5 14 15 -18 -25 -27 36 0
-2 -5 14 15 -18 -25 27 -36 0
-2 -5 14 15 -18 25 -27 -36 0
-2 -5 14 15 -18 25 27 36 0
-2 -5 14 15 18 -25 -27 -36 0
-2 -5 14 15 18 -25 27 36 0
-2 -5 14 15 18 25 -27 36 0
-2 -5 14 15 18 25 27 -36 0
-2 -3 -9 -11 -12 -22 -23 -33 0
-2 -3 -9 -11 -12 -22 23 33 0
-2 -3 -9 -11 -12 22 -23 33 0
-2 -3 -9 -11 -12 22 23 -33 0
-2 -3 -9 -11 12 -22 -23 33 0
-2 -3 -9 -11 12 -22 23 -33 0
-2 -3 -9 -11 12 22 -23 -33 0
-2 -3 -9 -11 12 22 23 33 0
-2 -3 -9 11 -12 -22 -23 33 0
-2 -3 -9 11 -12 -22 23 -33 0
-2 -3 -9 11 -12 22 -23 -33 0
-2 -3 -9 11 -12 22 23 33 0
-2 -3 -9 11 12 -22 -23 -33 0
-2 -3 -9 11 12 -22 23 33 0
-2 -3 -9 11 12 22 -23 33 0
-2 -3 -9 11 12 22 23 -33 0
-2 -3 9 -11 -12 -22 -23 33 0
-2 -3 9 -11 -12 -22 23 -33 0
-2 -3 9 -11 -12 22 -23 -33 0
-2 -3 9 -11 -12 22 23 33 0
-2 -3 9 -11 12 -22 -23 -33 0
-2 -3 9 -11 12 -22 23 33 0
-2 -3 9 -11 12 22 -23 33 0
-2 -3 9 -11 12 22 23 -33 0
-2 -3 9 11 -12 -22 -23 -33 0
-2 -3 9 11 -12 -22 23 33 0
-2 -3 9 11 -12 22 -23 33 0
-2 -3 9 11 -12 22 23 -33 0
-2 -3 9 11 12 -22 -23 33 0
-2 -3 9 11 12 -22 23 -33 0
-2 -3 9 11 12 22 -23 -33 0
-2 -3 9 11 12 22 23 33 0
-2 3 -9 -11 -12 -22 -23 33 0
-2 3 -9 -11 -12 -22 23 -33 0
-2 3 -9 -11 -12 22 -23 -33 0
-2 3 -9 -11 -12 22 23 33 0
-2 3 -9 -11 12 -22 -23 -33 0
-2 3 -9 -11 12 -22 23 33 0
-2 3 -9 -11 12 22 -23 33 0
-2 3 -9 -11 12 22 23 -33 0
-2 3 -9 11 -12 -22 -23 -33 0
-2 3 -9 11 -12 -22 23 33 0
-2 3 -9 11 -12 22 -23 33 0
-2 3 -9 11 -12 22 23 -33 0
-2 3 -9 11 12 -22 -23 33 0
-2 3 -9 11 12 -22 23 -33 0
-2 3 -9 11 12 22 -23 -33 0
-2 3 -9 11 12 22 23 33 0
-2 3 9 -11 -12 -22 -23 -33 0
-2 3 9 -11 -12 -22 23 33 0
-2 3 9 -11 -12 22 -23 33 0
-2 3 9 -11 -12 22 23 -33 0
-2 3 9 -11 12 -22 -23 33 0
-2 3 9 -11 12 -22 23 -33 0
-2 3 9 -11 12 22 -23 -33 0
-2 3 9 -11 12 22 23 33 0
-2 3 9 11 -12 -22 -23 33 0
-2 3 9 11 -12 -22 23 -33 0
-2 3 9 11 -12 22 -23 -33 0
-2 3 9 11 -12 22 23 33 0
-2 3 9 11 12 -22 -23 -33 0
-2 3 9 11 12 -22 23 33 0
-2 3 9 11 12 22 -23 33 0
-2 3 9 11 12 22 23 -33 0
-2 5 -14 -15 -18 -25 -27 -36 0
-2 5 -14 -15 -18 -25 27 36 0
-2 5 -14 -15 -18 25 -27 36 0
-2 5 -14 -15 -18 25 27 -36 0
-2 5 -14 -15 18 -25 -27 36 0
-2 5 -14 -15 18 -25 27 -36 0
-2 5 -14 -15 18 25 -27 -36 0
-2 5 -14 -15 18 25 27 36 0
-2 5 -14 15 -18 -25 -27 36 0
-2 5 -14 15 -18 -25 27 -36 0
-2 5 -14 15 -18 25 -27 -36 0
-2 5 -14 15 -18 25 27 36 0
-2 5 -14 15 18 -25 -27 -36 0
-2 5 -14 15 18 -25 27 36 0
-2 5 -14 15 18 25 -27 36 0
-2 5 -14 15 18 25 27 -36 0
-2 5 14 -15 -18 -25 -27 36 0
-2 5 14 -15 -18 -25 27 -36 0
-2 5 14 -15 -18 25 -27 -36 0
-2 5 14 -15 -18 25 27 36 0
-2 5 14 -15 18 -25 -27 -36 0
-2 5 14 -15 18 -25 27 36 0
-2 5 14 -15 18 25 -27 36 0
-2 5 14 -15 18 25 27 -36 0
-2 5 14 15 -18 -25 -27 -36 0
-2 5 14 15 -18 -25 27 36 0
-2 5 14 15 -18 25 -27 36 0
-2 5 14 15 -18 25 27 -36 0
-2 5 14 15 18 -25 -27 36 0
-2 5 14 15 18 -25 27 -36 0
-2 5 14 15 18 25 -27 -36 0
-2 5 14 15 18 25 27 36 0
-1 -5 -6 -10 -17 -21 -22 32 0
-1 -5 -6 -10 -17 -21 22 -32 0
-1 -5 -6 -10 -17 21 -22 -32 0
-1 -5 -6 -10 -17 21 22 32 0
-1 -5 -6 -10 17 -21 -22 -32 0
-1 -5 -6 -10 17 -21 22 32 0
-1 -5 -6 -10 17 21 -22 32 0
-1 -5 -6 -10 17 21 22 -32 0
-1 -5 -6 10 -17 -21 -22 -32 0
-1 -5 -6 10 -17 -21 22 32 0
-1 -5 -6 10 -17 21 -22 32 0
-1 -5 -6 10 -17 21 22 -32 0
-1 -5 -6 10 17 -21 -22 32 0
-1 -5 -6 10 17 -21 22 -32 0
-1 -5 -6 10 17 21 -22 -32 0
-1 -5 -6 10 17 21 22 32 0
-1 -5 6 -10 -17 -21 -22 -32 0
-1 -5 6 -10 -17 -21 22 32 0
-1 -5 6 -10 -17 21 -22 32 0
-1 -5 6 -10 -17 21 22 -32 0
-1 -5 6 -10 17 -21 -22 32 0
-1 -5 6 -10 17 -21 22 -32 0
-1 -5 6 -10 17 21 -22 -32 0
-1 -5 6 -10 17 21 22 32 0
-1 -5 6 10 -17 -21 -22 32 0
-1 -5 6 10 -17 -21 22 -32 0
-1 -5 6 10 -17 21 -22 -32 0
-1 -5 6 10 -17 21 22 32 0
-1 -5 6 10 17 -21 -22 -32 0
-1 -5 6 10 17 -21 22 32 0
-1 -5 6 10 17 21 -22 32 0
-1 -5 6 10 17 21 22 -32 0
-1 -3 -18 -20 -30 -31 -34 35 0
-1 -3 -18 -20 -30 -31 34 -35 0
-1 -3 -18 -20 -30 31 -34 -35 0
-1 -3 -18 -20 -30 31 34 35 0
-1 -3 -18 -20 30 -31 -34 -35 0
-1 -3 -18 -20 30 -31 34 35 0
-1 -3 -18 -20 30 31 -34 35 0
-1 -3 -18 -20 30 31 34 -35 0
-1 -3 -18 20 -30 -31 -34 -35 0
-1 -3 -18 20 -30 -31 34 35 0
-1 -3 -18 20 -30 31 -34 35 0
-1 -3 -18 20 -30 31 34 -35 0
-1 -3 -18 20 30 -31 -34 35 0
-1 -3 -18 20 30 -31 34 -35 0
-1 -3 -18 20 30 31 -34 -35 0
-1 -3 -18 20 30 31 34 35 0
-1 -3 18 -20 -30 -31 -34 -35 0
-1 -3 18 -20 -30 -31 34 35 0
-1 -3 18 -20 -30 31 -34 35 0
-1 -3 18 -20 -30 31 34 -35 0
-1 -3 18 -20 30 -31 -34 35 0
-1 -3 18 -20 30 -31 34 -35 0
-1 -3 18 -20 30 31 -34 -35 0
-1 -3 18 -20 30 31 34 35 0
-1 -3 18 20 -30 -31 -34 35 0
-1 -3 18 20 -30 -31 34 -35 0
-1 -3 18 20 -30 31 -34 -35 0
-1 -3 18 20 -30 31 34 35 0
-1 -3 18 20 30 -31 -34 -35 0
-1 -3 18 20 30 -31 34 35 0
-1 -3 18 20 30 31 -34 35 0
-1 -3 18 20 30 31 34 -35 0
-1 3 -18 -20 -30 -31 -34 -35 0
-1 3 -18 -20 -30 -31 34 35 0
-1 3 -18 -20 -30 31 -34 35 0
-1 3 -18 -20 -30 31 34 -35 0
-1 3 -18 -20 30 -31 -34 35 0
-1 3 -18 -20 30 -31 34 -35 0
-1 3 -18 -20 30 31 -34 -35 0
-1 3 -18 -20 30 31 34 35 0
-1 3 -18 20 -30 -31 -34 35 0
-1 3 -18 20 -30 -31 34 -35 0
-1 3 -18 20 -30 31 -34 -35 0
-1 3 -18 20 -30 31 34 35 0
-1 3 -18 20 30 -31 -34 -35 0
-1 3 -18 20 30 -31 34 35 0
-1 3 -18 20 30 31 -34 35 0
-1 3 -18 20 30 31 34 -35 0
-1 3 18 -20 -30 -31 -34 35 0
-1 3 18 -20 -30 -31 34 -35 0
-1 3 18 -20 -30 31 -34 -35 0
-1 3 18 -20 -30 31 34 35 0
-1 3 18 -20 30 -31 -34 -35 0
-1 3 18 -20 30 -31 34 35 0
-1 3 18 -20 30 31 -34 35 0
-1 3 18 -20 30 31 34 -35 0
-1 3 18 20 -30 -31 -34 -35 0
-1 3 18 20 -30 -31 34 35 0
-1 3 18 20 -30 31 -34 35 0
-1 3 18 20 -30 31 34 -35 0
-1 3 18 20 30 -31 -34 35 0
-1 3 18 20 30 -31 34 -35 0
-1 3 18 20 30 31 -34 -35 0
-1 3 18 20 30 31 34 35 0
-1 5 -6 -10 -17 -21 -22 -32 0
-1 5 -6 -10 -17 -21 22 32 0
-1 5 -6 -10 -17 21 -22 32 0
-1 5 -6 -10 -17 21 22 -32 0
-1 5 -6 -10 17 -21 -22 32 0
-1 5 -6 -10 17 -21 22 -32 0
-1 5 -6 -10 17 21 -22 -32 0
-1 5 -6 -10 17 21 22 32 0
-1 5 -6 10 -17 -21 -22 32 0
-1 5 -6 10 -17 -21 22 -32 0
-1 5 -6 10 -17 21 -22 -32 0
-1 5 -6 10 -17 21 22 32 0
-1 5 -6 10 17 -21 -22 -32 0
-1 5 -6 10 17 -21 22 32 0
-1 5 -6 10 17 21 -22 32 0
-1 5 -6 10 17 21 22 -32 0
-1 5 6 -10 -17 -21 -22 32 0
-1 5 6 -10 -17 -21 22 -32 0
-1 5 6 -10 -17 21 -22 -32 0
-1 5 6 -10 -17 21 22 32 0
-1 5 6 -10 17 -21 -22 -32 0
-1 5 6 -10 17 -21 22 32 0
-1 5 6 -10 17 21 -22 32 0
-1 5 6 -10 17 21 22 -32 0
-1 5 6 10 -17 -21 -22 -32 0
-1 5 6 10 -17 -21 22 32 0
-1 5 6 10 -17 21 -22 32 0
-1 5 6 10 -17 21 22 -32 0
-1 5 6 10 17 -21 -22 32 0
-1 5 6 10 17 -21 22 -32 0
-1 5 6 10 17 21 -22 -32 0
-1 5 6 10 17 21 22 32 0
1 -5 -6 -10 -17 -21 -22 -32 0
1 -5 -6 -10 -17 -21 22 32 0
1 -5 -6 -10 -17 21 -22 32 0
1 -5 -6 -10 -17 21 22 -32 0
1 -5 -6 -10 17 -21 -22 32 0
1 -5 -6 -10 17 -21 22 -32 0
1 -5 -6 -10 17 21 -22 -32 0
1 -5 -6 -10 17 21 22 32 0
1 -5 -6 10 -17 -21 -22 32 0
1 -5 -6 10 -17 -21 22 -32 0
1 -5 -6 10 -17 21 -22 -32 0
1 -5 -6 10 -17 21 22 32 0
1 -5 -6 10 17 -21 -22 -32 0
1 -5 -6 10 17 -21 22 32 0
1 -5 -6 10 17 21 -22 32 0
1 -5 -6 10 17 21 22 -32 0
1 -5 6 -10 -17 -21 -22 32 0
1 -5 6 -10 -17 -21 22 -32 0
1 -5 6 -10 -17 21 -22 -32 0
1 -5 6 -10 -17 21 22 32 0
1 -5 6 -10 17 -21 -22 -32 0
1 -5 6 -10 17 -21 22 32 0
1 -5 6 -10 17 21 -22 32 0
1 -5 6 -10 17 21 22 -32 0
1 -5 6 10 -17 -21 -22 -32 0
1 -5 6 10 -17 -21 22 32 0
1 -5 6 10 -17 21 -22 32 0
1 -5 6 10 -17 21 22 -32 0
1 -5 6 10 17 -21 -22 32 0
1 -5 6 10 17 -21 22 -32 0
1 -5 6 10 17 21 -22 -32 0
1 -5 6 10 17 21 22 32 0
1 -3 -18 -20 -30 -31 -34 -35 0
1 -3 -18 -20 -30 -31 34 35 0
1 -3 -18 -20 -30 31 -34 35 0
1 -3 -18 -20 -30 31 34 -35 0
1 -3 -18 -20 30 -31 -34 35 0
1 -3 -18 -20 30 -31 34 -35 0
1 -3 -18 -20 30 31 -34 -35 0
1 -3 -18 -20 30 31 34 35 0
1 -3 -18 20 -30 -31 -34 35 0
1 -3 -18 20 -30 -31 34 -35 0
1 -3 -18 20 -30 31 -34 -35 0
1 -3 -18 20 -30 31 34 35 0
1 -3 -18 20 30 -31 -34 -35 0
1 -3 -18 20 30 -31 34 35 0
1 -3 -18 20 30 31 -34 35 0
1 -3 -18 20 30 31 34 -35 0
1 -3 18 -20 -30 -31 -34 35 0
1 -3 18 -20 -30 -31 34 -35 0
1 -3 18 -20 -30 31 -34 -35 0
1 -3 18 -20 -30 31 34 35 0
1 -3 18 -20 30 -31 -34 -35 0
1 -3 18 -20 30 -31 34 35 0
1 -3 18 -20 30 31 -34 35 0
1 -3 18 -20 30 31 34 -35 0
1 -3 18 20 -30 -31 -34 -35 0
1 -3 18 20 -30 -31 34 35 0
1 -3 18 20 -30 31 -34 35 0
1 -3 18 20 -30 31 34 -35 0
1 -3 18 20 30 -31 -34 35 0
1 -3 18 20 30 -31 34 -35 0
1 -3 18 20 30 31 -34 -35 0
1 -3 18 20 30 31 34 35 0
1 3 -18 -20 -30 -31 -34 35 0
1 3 -18 -20 -30 -31 34 -35 0
1 3 -18 -20 -30 31 -34 -35 0
1 3 -18 -20 -30 31 34 35 0
1 3 -18 -20 30 -31 -34 -35 0
1 3 -18 -20 30 -31 34 35 0
1 3 -18 -20 30 31 -34 35 0
1 3 -18 -20 30 31 34 -35 0
1 3 -18 20 -30 -31 -34 -35 0
1 3 -18 20 -30 -31 34 35 0
1 3 -18 20 -30 31 -34 35 0
1 3 -18 20 -30 31 34 -35 0
1 3 -18 20 30 -31 -34 35 0
1 3 -18 20 30 -31 34 -35 0
1 3 -18 20 30 31 -34 -35 0
1 3 -18 20 30 31 34 35 0
1 3 18 -20 -30 -31 -34 -35 0
1 3 18 -20 -30 -31 34 35 0
1 3 18 -20 -30 31 -34 35 0
1 3 18 -20 -30 31 34 -35 0
1 3 18 -20 30 -31 -34 35 0
1 3 18 -20 30 -31 34 -35 0
1 3 18 -20 30 31 -34 -35 0
1 3 18 -20 30 31 34 35 0
1 3 18 20 -30 -31 -34 35 0
1 3 18 20 -30 -31 34 -35 0
1 3 18 20 -30 31 -34 -35 0
1 3 18 20 -30 31 34 35 0
1 3 18 20 30 -31 -34 -35 0
1 3 18 20 30 -31 34 35 0
1 3 18 20 30 31 -34 35 0
1 3 18 20 30 31 34 -35 0
1 5 -6 -10 -17 -21 -22 32 0
1 5 -6 -10 -17 -21 22 -32 0
1 5 -6 -10 -17 21 -22 -32 0
1 5 -6 -10 -17 21 22 32 0
1 5 -6 -10 17 -21 -22 -32 0
1 5 -6 -10 17 -21 22 32 0
1 5 -6 -10 17 21 -22 32 0
1 5 -6 -10 17 21 22 -32 0
1 5 -6 10 -17 -21 -22 -32 0
1 5 -6 10 -17 -21 22 32 0
1 5 -6 10 -17 21 -22 32 0
1 5 -6 10 -17 21 22 -32 0
1 5 -6 10 17 -21 -22 32 0
1 5 -6 10 17 -21 22 -32 0
1 5 -6 10 17 21 -22 -32 0
1 5 -6 10 17 21 22 32 0
1 5 6 -10 -17 -21 -22 -32 0
1 5 6 -10 -17 -21 22 32 0
1 5 6 -10 -17 21 -22 32 0
1 5 6 -10 -17 21 22 -32 0
1 5 6 -10 17 -21 -22 32 0
1 5 6 -10 17 -21 22 -32 0
1 5 6 -10 17 21 -22 -32 0
1 5 6 -10 17 21 22 32 0
1 5 6 10 -17 -21 -22 32 0
1 5 6 10 -17 -21 22 -32 0
1 5 6 10 -17 21 -22 -32 0
1 5 6 10 -17 21 22 32 0
1 5 6 10 17 -21 -22 -32 0
1 5 6 10 17 -21 22 32 0
1 5 6 10 17 21 -22 32 0
1 5 6 10 17 21 22 -32 0
2 -5 -14 -15 -18 -25 -27 -36 0
2 -5 -14 -15 -18 -25 27 36 0
2 -5 -14 -15 -18 25 -27 36 0
2 -5 -14 -15 -18 25 27 -36 0
2 -5 -14 -15 18 -25 -27 36 0
2 -5 -14 -15 18 -25 27 -36 0
2 -5 -14 -15 18 25 -27 -36 0
2 -5 -14 -15 18 25 27 36 0
2 -5 -14 15 -18 -25 -27 36 0
2 -5 -14 15 -18 -25 27 -36 0
2 -5 -14 15 -18 25 -27 -36 0
2 -5 -14 15 -18 25 27 36 0
2 -5 -14 15 18 -25 -27 -36 0
2 -5 -14 15 18 -25 27 36 0
2 -5 -14 15 18 25 -27 36 0
2 -5 -14 15 18 25 27 -36 0
2 -5 14 -15 -18 -25 -27 36 0
2 -5 14 -15 -18 -25 27 -36 0
2 -5 14 -15 -18 25 -27 -36 0
2 -5 14 -15 -18 25 27 36 0
2 -5 14 -15 18 -25 -27 -36 0
2 -5 14 -15 18 -25 27 36 0
2 -5 14 -15 18 25 -27 36 0
2 -5 14 -15 18 25 27 -36 0
2 -5 14 15 -18 -25 -27 -36 0
2 -5 14 15 -18 -25 27 36 0
2 -5 14 15 -18 25 -27 36 0
2 -5 14 15 -18 25 27 -36 0
2 -5 14 15 18 -25 -27 36 0
2 -5 14 15 18 -25 27 -36 0
2 -5 14 15 18 25 -27 -36 0
2 -5 14 15 18 25 27 36 0
2 -3 -9 -11 -12 -22 -23 33 0
2 -3 -9 -11 -12 -22 23 -33 0
2 -3 -9 -11 -12 22 -23 -33 0
2 -3 -9 -11 -12 22 23 33 0
2 -3 -9 -11 12 -22 -23 -33 0
2 -3 -9 -11 12 -22 23 33 0
2 -3 -9 -11 12 22 -23 33 0
2 -3 -9 -11 12 22 23 -33 0
2 -3 -9 11 -12 -22 -23 -33 0
2 -3 -9 11 -12 -22 23 33 0
2 -3 -9 11 -12 22 -23 33 0
2 -3 -9 11 -12 22 23 -33 0
2 -3 -9 11 12 -22 -23 33 0
2 -3 -9 11 12 -22 23 -33 0
2 -3 -9 11 12 22 -23 -33 0
2 -3 -9 11 12 22 23 33 0
2 -3 9 -11 -12 -22 -23 -33 0
2 -3 9 -11 -12 -22 23 33 0
2 -3 9 -11 -12 22 -23 33 0
2 -3 9 -11 -12 22 23 -33 0
2 -3 9 -11 12 -22 -23 33 0
2 -3 9 -11 12 -22 23 -33 0
2 -3 9 -11 12 22 -23 -33 0
2 -3 9 -11 12 22 23 33 0
2 -3 9 11 -12 -22 -23 33 0
2 -3 9 11 -12 -22 23 -33 0
2 -3 9 11 -12 22 -23 -33 0
2 -3 9 11 -12 22 23 33 0
2 -3 9 11 12 -22 -23 -33 0
2 -3 9 11 12 -22 23 33 0
2 -3 9 11 12 22 -23 33 0
2 -3 9 11 12 22 23 -33 0
2 3 -9 -11 -12 -22 -23 -33 0
2 3 -9 -11 -12 -22 23 33 0
2 3 -9 -11 -12 22 -23 33 0
2 3 -9 -11 -12 22 23 -33 0
2 3 -9 -11 12 -22 -23 33 0
2 3 -9 -11 12 -22 23 -33 0
2 3 -9 -11 12 22 -23 -33 0
2 3 -9 -11 12 22 23 33 0
2 3 -9 11 -12 -22 -23 33 0
2 3 -9 11 -12 -22 23 -33 0
2 3 -9 11 -12 22 -23 -33 0
2 3 -9 11 -12 22 23 33 0
2 3 -9 11 12 -22 -23 -33 0
2 3 -9 11 12 -22 23 33 0
2 3 -9 11 12 22 -23 33 0
2 3 -9 11 12 22 23 -33 0
2 3 9 -11 -12 -22 -23 33 0
2 3 9 -11 -12 -22 23 -33 0
2 3 9 -11 -12 22 -23 -33 0
2 3 9 -11 -12 22 23 33 0
2 3 9 -11 12 -22 -23 -33 0
2 3 9 -11 12 -22 23 33 0
2 3 9 -11 12 22 -23 33 0
2 3 9 -11 12 22 23 -33 0
2 3 9 11 -12 -22 -23 -33 0
2 3 9 11 -12 -22 23 33 0
2 3 9 11 -12 22 -23 33 0
2 3 9 11 -12 22 23 -33 0
2 3 9 11 12 -22 -23 33 0
2 3 9 11 12 -22 23 -33 0
2 3 9 11 12 22 -23 -33 0
2 3 9 11 12 22 23 33 0
2 5 -14 -15 -18 -25 -27 36 0
2 5 -14 -15 -18 -25 27 -36 0
2 5 -14 -15 -18 25 -27 -36 0
2 5 -14 -15 -18 25 27 36 0
2 5 -14 -15 18 -25 -27 -36 0
2 5 -14 -15 18 -25 27 36 0
2 5 -14 -15 18 25 -27 36 0
2 5 -14 -15 18 25 27 -36 0
2 5 -14 15 -18 -25 -27 -36 0
2 5 -14 15 -18 -25 27 36 0
2 5 -14 15 -18 25 -27 36 0
2 5 -14 15 -18 25 27 -36 0
2 5 -14 15 18 -25 -27 36 0
2 5 -14 15 18 -25 27 -36 0
2 5 -14 15 18 25 -27 -36 0
2 5 -14 15 18 25 27 36 0
2 5 14 -15 -18 -25 -27 -36 0
2 5 14 -15 -18 -25 27 36 0
2 5 14 -15 -18 25 -27 36 0
2 5 14 -15 -18 25 27 -36 0
2 5 14 -15 18 -25 -27 36 0
2 5 14 -15 18 -25 27 -36 0
2 5 14 -15 18 25 -27 -36 0
2 5 14 -15 18 25 27 36 0
2 5 14 15 -18 -25 -27 36 0
2 5 14 15 -18 -25 27 -36 0
2 5 14 15 -18 25 -27 -36 0
2 5 14 15 -18 25 27 36 0
2 5 14 15 18 -25 -27 -36 0
2 5 14 15 18 -25 27 36 0
2 5 14 15 18 25 -27 36 0
2 5 14 15 18 25 27 -36 0
4 -12 -13 -27 -28 -29 -32 -35 0
4 -12 -13 -27 -28 -29 32 35 0
4 -12 -13 -27 -28 29 -32 35 0
4 -12 -13 -27 -28 29 32 -35 0
4 -12 -13 -27 28 -29 -32 35 0
4 -12 -13 -27 28 -29 32 -35 0
4 -12 -13 -27 28 29 -32 -35 0
4 -12 -13 -27 28 29 32 35 0
4 -12 -13 27 -28 -29 -32 35 0
4 -12 -13 27 -28 -29 32 -35 0
4 -12 -13 27 -28 29 -32 -35 0
4 -12 -13 27 -28 29 32 35 0
4 -12 -13 27 28 -29 -32 -35 0
4 -12 -13 27 28 -29 32 35 0
4 -12 -13 27 28 29 -32 35 0
4 -12 -13 27 28 29 32 -35 0
4 -12 13 -27 -28 -29 -32 35 0
4 -12 13 -27 -28 -29 32 -35 0
4 -12 13 -27 -28 29 -32 -35 0
4 -12 13 -27 -28 29 32 35 0
4 -12 13 -27 28 -29 -32 -35 0
4 -12 13 -27 28 -29 32 35 0
4 -12 13 -27 28 29 -32 35 0
4 -12 13 -27 28 29 32 -35 0
4 -12 13 27 -28 -29 -32 -35 0
4 -12 13 27 -28 -29 32 35 0
4 -12 13 27 -28 29 -32 35 0
4 -12 13 27 -28 29 32 -35 0
4 -12 13 27 28 -29 -32 35 0
4 -12 13 27 28 -29 32 -35 0
4 -12 13 27 28 29 -32 -35 0
4 -12 13 27 28 29 32 35 0
4 -7 -8 -9 -21 -26 -31 -36 0
4 -7 -8 -9 -21 -26 31 36 0
4 -7 -8 -9 -21 26 -31 36 0
4 -7 -8 -9 -21 26 31 -36 0
4 -7 -8 -9 21 -26 -31 36 0
4 -7 -8 -9 21 -26 31 -36 0
4 -7 -8 -9 21 26 -31 -36 0
4 -7 -8 -9 21 26 31 36 0
4 -7 -8 9 -21 -26 -31 36 0
4 -7 -8 9 -21 -26 31 -36 0
4 -7 -8 9 -21 26 -31 -36 0
4 -7 -8 9 -21 26 31 36 0
4 -7 -8 9 21 -26 -31 -36 0
4 -7 -8 9 21 -26 31 36 0
4 -7 -8 9 21 26 -31 36 0
4 -7 -8 9 21 26 31 -36 0
4 -7 8 -9 -21 -26 -31 36 0
4 -7 8 -9 -21 -26 31 -36 0
4 -7 8 -9 -21 26 -31 -36 0
4 -7 8 -9 -21 26 31 36 0
4 -7 8 -9 21 -26 -31 -36 0
4 -7 8 -9 21 -26 31 36 0
4 -7 8 -9 21 26 -31 36 0
4 -7 8 -9 21 26 31 -36 0
4 -7 8 9 -21 -26 -31 -36 0
4 -7 8 9 -21 -26 31 36 0
4 -7 8 9 -21 26 -31 36 0
4 -7 8 9 -21 26 31 -36 0
4 -7 8 9 21 -26 -31 36 0
4 -7 8 9 21 -26 31 -36 0
4 -7 8 9 21 26 -31 -36 0
4 -7 8 9 21 26 31 36 0
4 7 -8 -9 -21 -26 -31 36 0
4 7 -8 -9 -21 -26 31 -36 0
4 7 -8 -9 -21 26 -31 -36 0
4 7 -8 -9 -21 26 31 36 0
4 7 -8 -9 21 -26 -31 -36 0
4 7 -8 -9 21 -26 31 36 0
4 7 -8 -9 21 26 -31 36 0
4 7 -8 -9 21 26 31 -36 0
4 7 -8 9 -21 -26 -31 -36 0
4 7 -8 9 -21 -26 31 36 0
4 7 -8 9 -21 26 -31 36 0
4 7 -8 9 -21 26 31 -36 0
4 7 -8 9 21 -26 -31 36 0
4 7 -8 9 21 -26 31 -36 0
4 7 -8 9 21 26 -31 -36 0
4 7 -8 9 21 26 31 36 0
4 7 8 -9 -21 -26 -31 -36 0
4 7 8 -9 -21 -26 31 36 0
4 7 8 -9 -21 26 -31 36 0
4 7 8 -9 -21 26 31 -36 0
4 7 8 -9 21 -26 -31 36 0
4 7 8 -9 21 -26 31 -36 0
4 7 8 -9 21 26 -31 -36 0
4 7 8 -9 21 26 31 36 0
4 7 8 9 -21 -26 -31 36 0
4 7 8 9 -21 -26 31 -36 0
4 7 8 9 -21 26 -31 -36 0
4 7 8 9 -21 26 31 36 0
4 7 8 9 21 -26 -31 -36 0
4 7 8 9 21 -26 31 36 0
4 7 8 9 21 26 -31 36 0
4 7 8 9 21 26 31 -36 0
4 12 -13 -27 -28 -29 -32 35 0
4 12 -13 -27 -28 -29 32 -35 0
4 12 -13 -27 -28 29 -32 -35 0
4 12 -13 -27 -28 29 32 35 0
4 12 -13 -27 28 -29 -32 -35 0
4 12 -13 -27 28 -29 32 35 0
4 12 -13 -27 28 29 -32 35 0
4 12 -13 -27 28 29 32 -35 0
4 12 -13 27 -28 -29 -32 -35 0
4 12 -13 27 -28 -29 32 35 0
4 12 -13 27 -28 29 -32 35 0
4 12 -13 27 -28 29 32 -35 0
4 12 -13 27 28 -29 -32 35 0
4 12 -13 27 28 -29 32 -35 0
4 12 -13 27 28 29 -32 -35 0
4 12 -13 27 28 29 32 35 0
4 12 13 -27 -28 -29 -32 -35 0
4 12 13 -27 -28 -29 32 35 0
4 12 13 -27 -28 29 -32 35 0
4 12 13 -27 -28 29 32 -35 0
4 12 13 -27 28 -29 -32 35 0
4 12 13 -27 28 -29 32 -35 0
4 12 13 -27 28 29 -32 -35 0
4 12 13 -27 28 29 32 35 0
4 12 13 27 -28 -29 -32 35 0
4 12 13 27 -28 -29 32 -35 0
4 12 13 27 -28 29 -32 -35 0
4 12 13 27 -28 29 32 35 0
4 12 13 27 28 -29 -32 -35 0
4 12 13 27 28 -29 32 35 0
4 12 13 27 28 29 -32 35 0
4 12 13 27 28 29 32 -35 0
6 -14 -16 -19 -26 -29 -33 -34 0
6 -14 -16 -19 -26 -29 33 34 0
6 -14 -16 -19 -26 29 -33 34 0
6 -14 -16 -19 -26 29 33 -34 0
6 -14 -16 -19 26 -29 -33 34 0
6 -14 -16 -19 26 -29 33 -34 0
6 -14 -16 -19 26 29 -33 -34 0
6 -14 -16 -19 26 29 33 34 0
6 -14 -16 19 -26 -29 -33 34 0
6 -14 -16 19 -26 -29 33 -34 0
6 -14 -16 19 -26 29 -33 -34 0
6 -14 -16 19 -26 29 33 34 0
6 -14 -16 19 26 -29 -33 -34 0
6 -14 -16 19 26 -29 33 34 0
6 -14 -16 19 26 29 -33 34 0
6 -14 -16 19 26 29 33 -34 0
6 -14 16 -19 -26 -29 -33 34 0
6 -14 16 -19 -26 -29 33 -34 0
6 -14 16 -19 -26 29 -33 -34 0
6 -14 16 -19 -26 29 33 34 0
6 -14 16 -19 26 -29 -33 -34 0
6 -14 16 -19 26 -29 33 34 0
6 -14 16 -19 26 29 -33 34 0
6 -14 16 -19 26 29 33 -34 0
6 -14 16 19 -26 -29 -33 -34 0
6 -14 16 19 -26 -29 33 34 0
6 -14 16 19 -26 29 -33 34 0
6 -14 16 19 -26 29 33 -34 0
6 -14 16 19 26 -29 -33 34 0
6 -14 16 19 26 -29 33 -34 0
6 -14 16 19 26 29 -33 -34 0
6 -14 16 19 26 29 33 34 0
6 14 -16 -19 -26 -29 -33 34 0
6 14 -16 -19 -26 -29 33 -34 0
6 14 -16 -19 -26 29 -33 -34 0
6 14 -16 -19 -26 29 33 34 0
6 14 -16 -19 26 -29 -33 -34 0
6 14 -16 -19 26 -29 33 34 0
6 14 -16 -19 26 29 -33 34 0
6 14 -16 -19 26 29 33 -34 0
6 14 -16 19 -26 -29 -33 -34 0
6 14 -16 19 -26 -29 33 34 0
6 14 -16 19 -26 29 -33 34 0
6 14 -16 19 -26 29 33 -34 0
6 14 -16 19 26 -29 -33 34 0
6 14 -16 19 26 -29 33 -34 0
6 14 -16 19 26 29 -33 -34 0
6 14 -16 19 26 29 33 34 0
6 14 16 -19 -26 -29 -33 -34 0
6 14 16 -19 -26 -29 33 34 0
6 14 16 -19 -26 29 -33 34 0
6 14 16 -19 -26 29 33 -34 0
6 14 16 -19 26 -29 -33 34 0
6 14 16 -19 26 -29 33 -34 0
6 14 16 -19 26 29 -33 -34 0
6 14 16 -19 26 29 33 34 0
6 14 16 19 -26 -29 -33 34 0
6 14 16 19 -26 -29 33 -34 0
6 14 16 19 -26 29 -33 -34 0
6 14 16 19 -26 29 33 34 0
6 14 16 19 26 -29 -33 -34 0
6 14 16 19 26 -29 33 34 0
6 14 16 19 26 29 -33 34 0
6 14 16 19 26 29 33 -34 0
7 -10 -13 -16 -20 -23 -24 -25 0
7 -10 -13 -16 -20 -23 24 25 0
7 -10 -13 -16 -20 23 -24 25 0
7 -10 -13 -16 -20 23 24 -25 0
7 -10 -13 -16 20 -23 -24 25 0
7 -10 -13 -16 20 -23 24 -25 0
7 -10 -13 -16 20 23 -24 -25 0
7 -10 -13 -16 20 23 24 25 0
7 -10 -13 16 -20 -23 -24 25 0
7 -10 -13 16 -20 -23 24 -25 0
7 -10 -13 16 -20 23 -24 -25 0
7 -10 -13 16 -20 23 24 25 0
7 -10 -13 16 20 -23 -24 -25 0
7 -10 -13 16 20 -23 24 25 0
7 -10 -13 16 20 23 -24 25 0
7 -10 -13 16 20 23 24 -25 0
7 -10 13 -16 -20 -23 -24 25 0
7 -10 13 -16 -20 -23 24 -25 0
7 -10 13 -16 -20 23 -24 -25 0
7 -10 13 -16 -20 23 24 25 0
7 -10 13 -16 20 -23 -24 -25 0
7 -10 13 -16 20 -23 24 25 0
7 -10 13 -16 20 23 -24 25 0
7 -10 13 -16 20 23 24 -25 0
7 -10 13 16 -20 -23 -24 -25 0
7 -10 13 16 -20 -23 24 25 0
7 -10 13 16 -20 23 -24 25 0
7 -10 13 16 -20 23 24 -25 0
7 -10 13 16 20 -23 -24 25 0
7 -10 13 16 20 -23 24 -25 0
7 -10 13 16 20 23 -24 -25 0
7 -10 13 16 20 23 24 25 0
7 10 -13 -16 -20 -23 -24 25 0
7 10 -13 -16 -20 -23 24 -25 0
7 10 -13 -16 -20 23 -24 -25 0
7 10 -13 -16 -20 23 24 25 0
7 10 -13 -16 20 -23 -24 -25 0
7 10 -13 -16 20 -23 24 25 0
7 10 -13 -16 20 23 -24 25 0
7 10 -13 -16 20 23 24 -25 0
7 10 -13 16 -20 -23 -24 -25 0
7 10 -13 16 -20 -23 24 25 0
7 10 -13 16 -20 23 -24 25 0
7 10 -13 16 -20 23 24 -25 0
7 10 -13 16 20 -23 -24 25 0
7 10 -13 16 20 -23 24 -25 0
7 10 -13 16 20 23 -24 -25 0
7 10 -13 16 20 23 24 25 0
7 10 13 -16 -20 -23 -24 -25 0
7 10 13 -16 -20 -23 24 25 0
7 10 13 -16 -20 23 -24 25 0
7 10 13 -16 -20 23 24 -25 0
7 10 13 -16 20 -23 -24 25 0
7 10 13 -16 20 -23 24 -25 0
7 10 13 -16 20 23 -24 -25 0
7 10 13 -16 20 23 24 25 0
7 10 13 16 -20 -23 -24 25 0
7 10 13 16 -20 -23 24 -25 0
7 10 13 16 -20 23 -24 -25 0
7 10 13 16 -20 23 24 25 0
7 10 13 16 20 -23 -24 -25 0
7 10 13 16 20 -23 24 25 0
7 10 13 16 20 23 -24 25 0
7 10 13 16 20 23 24 -25 0
8 -11 -15 -17 -19 -24 -28 -30 0
8 -11 -15 -17 -19 -24 28 30 0
8 -11 -15 -17 -19 24 -28 30 0
8 -11 -15 -17 -19 24 28 -30 0
8 -11 -15 -17 19 -24 -28 30 0
8 -11 -15 -17 19 -24 28 -30 0
8 -11 -15 -17 19 24 -28 -30 0
8 -11 -15 -17 19 24 28 30 0
8 -11 -15 17 -19 -24 -28 30 0
8 -11 -15 17 -19 -24 28 -30 0
8 -11 -15 17 -19 24 -28 -30 0
8 -11 -15 17 -19 24 28 30 0
8 -11 -15 17 19 -24 -28 -30 0
8 -11 -15 17 19 -24 28 30 0
8 -11 -15 17 19 24 -28 30 0
8 -11 -15 17 19 24 28 -30 0
8 -11 15 -17 -19 -24 -28 30 0
8 -11 15 -17 -19 -24 28 -30 0
8 -11 15 -17 -19 24 -28 -30 0
8 -11 15 -17 -19 24 28 30 0
8 -11 15 -17 19 -24 -28 -30 0
8 -11 15 -17 19 -24 28 30 0
8 -11 15 -17 19 24 -28 30 0
8 -11 15 -17 19 24 28 -30 0
8 -11 15 17 -19 -24 -28 -30 0
8 -11 15 17 -19 -24 28 30 0
8 -11 15 17 -19 24 -28 30 0
8 -11 15 17 -19 24 28 -30 0
8 -11 15 17 19 -24 -28 30 0
8 -11 15 17 19 -24 28 -30 0
8 -11 15 17 19 24 -28 -30 0
8 -11 15 17 19 24 28 30 0
8 11 -15 -17 -19 -24 -28 30 0
8 11 -15 -17 -19 -24 28 -30 0
8 11 -15 -17 -19 24 -28 -30 0
8 11 -15 -17 -19 24 28 30 0
8 11 -15 -17 19 -24 -28 -30 0
8 11 -15 -17 19 -24 28 30 0
8 11 -15 -17 19 24 -28 30 0
8 11 -15 -17 19 24 28 -30 0
8 11 -15 17 -19 -24 -28 -30 0
8 11 -15 17 -19 -24 28 30 0
8 11 -15 17 -19 24 -28 30 0
8 11 -15 17 -19 24 28 -30 0
8 11 -15 17 19 -24 -28 30 0
8 11 -15 17 19 -24 28 -30 0
8 11 -15 17 19 24 -28 -30 0
8 11 -15 17 19 24 28 30 0
8 11 15 -17 -19 -24 -28 -30 0
8 11 15 -17 -19 -24 28 30 0
8 11 15 -17 -19 24 -28 30 0
8 11 15 -17 -19 24 28 -30 0
8 11 15 -17 19 -24 -28 30 0
8 11 15 -17 19 -24 28 -30 0
8 11 15 -17 19 24 -28 -30 0
8 11 15 -17 19 24 28 30 0
8 11 15 17 -19 -24 -28 30 0
8 11 15 17 -19 -24 28 -30 0
8 11 15 17 -19 24 -28 -30 0
8 11 15 17 -19 24 28 30 0
8 11 15 17 19 -24 -28 -30 0
8 11 15 17 19 -24 28 30 0
8 11 15 17 19 24 -28 30 0
8 11 15 17 19 24 28 -30 0
