p cnf 15 96
-4 -6 -9 -11 -12 0
-4 -6 -9 11 12 0
-4 -6 9 -11 12 0
-4 -6 9 11 -12 0
-4 6 -9 -11 12 0
-4 6 -9 11 -12 0
-4 6 9 -11 -12 0
-4 6 9 11 12 0
-3 -5 -7 -9 -10 0
-3 -5 -7 9 10 0
-3 -5 7 -9 10 0
-3 -5 7 9 -10 0
-3 5 -7 -9 10 0
-3 5 -7 9 -10 0
-3 5 7 -9 -10 0
-3 5 7 9 10 0
-2 -5 -11 -13 -15 0
-2 -5 -11 13 15 0
-2 -5 11 -13 15 0
-2 -5 11 13 -15 0
-2 -3 -4 -8 -14 0
-2 -3 -4 8 14 0
-2 -3 4 -8 14 0
-2 -3 4 8 -14 0
-2 3 -4 -8 14 0
-2 3 -4 8 -14 0
-2 3 4 -8 -14 0
-2 3 4 8 14 0
-2 5 -11 -13 15 0
-2 5 -11 13 -15 0
-2 5 11 -13 -15 0
-2 5 11 13 15 0
-1 -8 -10 -12 -15 0
-1 -8 -10 12 15 0
-1 -8 10 -12 15 0
-1 -8 10 12 -15 0
-1 -6 -7 -13 -14 0
-1 -6 -7 13 14 0
-1 -6 7 -13 14 0
-1 -6 7 13 -14 0
-1 6 -7 -13 14 0
-1 6 -7 13 -14 0
-1 6 7 -13 -14 0
-1 6 7 13 14 0
-1 8 -10 -12 15 0
-1 8 -10 12 -15 0
-1 8 10 -12 -15 0
-1 8 10 12 15 0
1 -8 -10 -12 15 0
1 -8 -10 12 -15 0
1 -8 10 -12 -15 0
1 -8 10 12 15 0
1 -6 -7 -13 14 0
1 -6 -7 13 -14 0
1 -6 7 -13 -14 0
1 -6 7 13 14 0
1 6 -7 -13 -14 0
1 6 -7 13 14 0
1 6 7 -13 14 0
1 6 7 13 -14 0
1 8 -10 -12 -15 0
1 8 -10 12 15 0
1 8 10 -12 15 0
1 8 10 12 -15 0
2 -5 -11 -13 15 0
2 -5 -11 13 -15 0
2 -5 11 -13 -15 0
2 -5 11 13 15 0
2 -3 -4 -8 14 0
2 -3 -4 8 -14 0
2 -3 4 -8 -14 0
2 -3 4 8 14 0
2 3 -4 -8 -14 0
2 3 -4 8 14 0
2 3 4 -8 14 0
2 3 4 8 -14 0
2 5 -11 -13 -15 0
2 5 -11 13 15 0
2 5 11 -13 15 0
2 5 11 13 -15 0
3 -5 -7 -9 10 0
3 -5 -7 9 -10 0
3 -5 7 -9 -10 0
3 -5 7 9 10 0
3 5 -7 -9 -10 0
3 5 -7 9 10 0
3 5 7 -9 10 0
3 5 7 9 -10 0
4 -6 -9 -11 12 0
4 -6 -9 11 -12 0
4 -6 9 -11 -12 0
4 -6 9 11 12 0
4 6 -9 -11 -12 0
4 6 -9 11 12 0
4 6 9 -11 12 0
4 6 9 11 -12 0
