p cnf 36 1152
-8 -10 -16 -22 -24 -25 -27 28 0
-8 -10 -16 -22 -24 -25 27 -28 0
-8 -10 -16 -22 -24 25 -27 -28 0
-8 -10 -16 -22 -24 25 27 28 0
-8 -10 -16 -22 24 -25 -27 -28 0
-8 -10 -16 -22 24 -25 27 28 0
-8 -10 -16 -22 24 25 -27 28 0
-8 -10 -16 -22 24 25 27 -28 0
-8 -10 -16 22 -24 -25 -27 -28 0
-8 -10 -16 22 -24 -25 27 28 0
-8 -10 -16 22 -24 25 -27 28 0
-8 -10 -16 22 -24 25 27 -28 0
-8 -10 -16 22 24 -25 -27 28 0
-8 -10 -16 22 24 -25 27 -28 0
-8 -10 -16 22 24 25 -27 -28 0
-8 -10 -16 22 24 25 27 28 0
-8 -10 16 -22 -24 -25 -27 -28 0
-8 -10 16 -22 -24 -25 27 28 0
-8 -10 16 -22 -24 25 -27 28 0
-8 -10 16 -22 -24 25 27 -28 0
-8 -10 16 -22 24 -25 -27 28 0
-8 -10 16 -22 24 -25 27 -28 0
-8 -10 16 -22 24 25 -27 -28 0
-8 -10 16 -22 24 25 27 28 0
-8 -10 16 22 -24 -25 -27 28 0
-8 -10 16 22 -24 -25 27 -28 0
-8 -10 16 22 -24 25 -27 -28 0
-8 -10 16 22 -24 25 27 28 0
-8 -10 16 22 24 -25 -27 -28 0
-8 -10 16 22 24 -25 27 28 0
-8 -10 16 22 24 25 -27 28 0
-8 -10 16 22 24 25 27 -28 0
-8 10 -16 -22 -24 -25 -27 -28 0
-8 10 -16 -22 -24 -25 27 28 0
-8 10 -16 -22 -24 25 -27 28 0
-8 10 -16 -22 -24 25 27 -28 0
-8 10 -16 -22 24 -25 -27 28 0
-8 10 -16 -22 24 -25 27 -28 0
-8 10 -16 -22 24 25 -27 -28 0
-8 10 -16 -22 24 25 27 28 0
-8 10 -16 22 -24 -25 -27 28 0
-8 10 -16 22 -24 -25 27 -28 0
-8 10 -16 22 -24 25 -27 -28 0
-8 10 -16 22 -24 25 27 28 0
-8 10 -16 22 24 -25 -27 -28 0
-8 10 -16 22 24 -25 27 28 0
-8 10 -16 22 24 25 -27 28 0
-8 10 -16 22 24 25 27 -28 0
-8 10 16 -22 -24 -25 -27 28 0
-8 10 16 -22 -24 -25 27 -28 0
-8 10 16 -22 -24 25 -27 -28 0
-8 10 16 -22 -24 25 27 28 0
-8 10 16 -22 24 -25 -27 -28 0
-8 10 16 -22 24 -25 27 28 0
-8 10 16 -22 24 25 -27 28 0
-8 10 16 -22 24 25 27 -28 0
-8 10 16 22 -24 -25 -27 -28 0
-8 10 16 22 -24 -25 27 28 0
-8 10 16 22 -24 25 -27 28 0
-8 10 16 22 -24 25 27 -28 0
-8 10 16 22 24 -25 -27 28 0
-8 10 16 22 24 -25 27 -28 0
-8 10 16 22 24 25 -27 -28 0
-8 10 16 22 24 25 27 28 0
-7 -8 -11 -12 -14 -15 -32 34 0
-7 -8 -11 -12 -14 -15 32 -34 0
-7 -8 -11 -12 -14 15 -32 -34 0
-7 -8 -11 -12 -14 15 32 34 0
-7 -8 -11 -12 14 -15 -32 -34 0
-7 -8 -11 -12 14 -15 32 34 0
-7 -8 -11 -12 14 15 -32 34 0
-7 -8 -11 -12 14 15 32 -34 0
-7 -8 -11 12 -14 -15 -32 -34 0
-7 -8 -11 12 -14 -15 32 34 0
-7 -8 -11 12 -14 15 -32 34 0
-7 -8 -11 12 -14 15 32 -34 0
-7 -8 -11 12 14 -15 -32 34 0
-7 -8 -11 12 14 -15 32 -34 0
-7 -8 -11 12 14 15 -32 -34 0
-7 -8 -11 12 14 15 32 34 0
-7 -8 11 -12 -14 -15 -32 -34 0
-7 -8 11 -12 -14 -15 32 34 0
-7 -8 11 -12 -14 15 -32 34 0
-7 -8 11 -12 -14 15 32 -34 0
-7 -8 11 -12 14 -15 -32 34 0
-7 -8 11 -12 14 -15 32 -34 0
-7 -8 11 -12 14 15 -32 -34 0
-7 -8 11 -12 14 15 32 34 0
-7 -8 11 12 -14 -15 -32 34 0
-7 -8 11 12 -14 -15 32 -34 0
-7 -8 11 12 -14 15 -32 -34 0
-7 -8 11 12 -14 15 32 34 0
-7 -8 11 12 14 -15 -32 -34 0
-7 -8 11 12 14 -15 32 34 0
-7 -8 11 12 14 15 -32 34 0
-7 -8 11 12 14 15 32 -34 0
-7 8 -11 -12 -14 -15 -32 -34 0
-7 8 -11 -12 -14 -15 32 34 0
-7 8 -11 -12 -14 15 -32 34 0
-7 8 -11 -12 -14 15 32 -34 0
-7 8 -11 -12 14 -15 -32 34 0
-7 8 -11 -12 14 -15 32 -34 0
-7 8 -11 -12 14 15 -32 -34 0
-7 8 -11 -12 14 15 32 34 0
-7 8 -11 12 -14 -15 -32 34 0
-7 8 -11 12 -14 -15 32 -34 0
-7 8 -11 12 -14 15 -32 -34 0
-7 8 -11 12 -14 15 32 34 0
-7 8 -11 12 14 -15 -32 -34 0
-7 8 -11 12 14 -15 32 34 0
-7 8 -11 12 14 15 -32 34 0
-7 8 -11 12 14 15 32 -34 0
-7 8 11 -12 -14 -15 -32 34 0
-7 8 11 -12 -14 -15 32 -34 0
-7 8 11 -12 -14 15 -32 -34 0
-7 8 11 -12 -14 15 32 34 0
-7 8 11 -12 14 -15 -32 -34 0
-7 8 11 -12 14 -15 32 34 0
-7 8 11 -12 14 15 -32 34 0
-7 8 11 -12 14 15 32 -34 0
-7 8 11 12 -14 -15 -32 -34 0
-7 8 11 12 -14 -15 32 34 0
-7 8 11 12 -14 15 -32 34 0
-7 8 11 12 -14 15 32 -34 0
-7 8 11 12 14 -15 -32 34 0
-7 8 11 12 14 -15 32 -34 0
-7 8 11 12 14 15 -32 -34 0
-7 8 11 12 14 15 32 34 0
-5 -16 -17 -19 -26 -29 -34 35 0
-5 -16 -17 -19 -26 -29 34 -35 0
-5 -16 -17 -19 -26 29 -34 -35 0
-5 -16 -17 -19 -26 29 34 35 0
-5 -16 -17 -19 26 -29 -34 -35 0
-5 -16 -17 -19 26 -29 34 35 0
-5 -16 -17 -19 26 29 -34 35 0
-5 -16 -17 -19 26 29 34 -35 0
-5 -16 -17 19 -26 -29 -34 -35 0
-5 -16 -17 19 -26 -29 34 35 0
-5 -16 -17 19 -26 29 -34 35 0
-5 -16 -17 19 -26 29 34 -35 0
-5 -16 -17 19 26 -29 -34 35 0
-5 -16 -17 19 26 -29 34 -35 0
-5 -16 -17 19 26 29 -34 -35 0
-5 -16 -17 19 26 29 34 35 0
-5 -16 17 -19 -26 -29 -34 -35 0
-5 -16 17 -19 -26 -29 34 35 0
-5 -16 17 -19 -26 29 -34 35 0
-5 -16 17 -19 -26 29 34 -35 0
-5 -16 17 -19 26 -29 -34 35 0
-5 -16 17 -19 26 -29 34 -35 0
-5 -16 17 -19 26 29 -34 -35 0
-5 -16 17 -19 26 29 34 35 0
-5 -16 17 19 -26 -29 -34 35 0
-5 -16 17 19 -26 -29 34 -35 0
-5 -16 17 19 -26 29 -34 -35 0
-5 -16 17 19 -26 29 34 35 0
-5 -16 17 19 26 -29 -34 -35 0
-5 -16 17 19 26 -29 34 35 0
-5 -16 17 19 26 29 -34 35 0
-5 -16 17 19 26 29 34 -35 0
-5 16 -17 -19 -26 -29 -34 -35 0
-5 16 -17 -19 -26 -29 34 35 0
-5 16 -17 -19 -26 29 -34 35 0
-5 16 -17 -19 -26 29 34 -35 0
-5 16 -17 -19 26 -29 -34 35 0
-5 16 -17 -19 26 -29 34 -35 0
-5 16 -17 -19 26 29 -34 -35 0
-5 16 -17 -19 26 29 34 35 0
-5 16 -17 19 -26 -29 -34 35 0
-5 16 -17 19 -26 -29 34 -35 0
-5 16 -17 19 -26 29 -34 -35 0
-5 16 -17 19 -26 29 34 35 0
-5 16 -17 19 26 -29 -34 -35 0
-5 16 -17 19 26 -29 34 35 0
-5 16 -17 19 26 29 -34 35 0
-5 16 -17 19 26 29 34 -35 0
-5 16 17 -19 -26 -29 -34 35 0
-5 16 17 -19 -26 -29 34 -35 0
-5 16 17 -19 -26 29 -34 -35 0
-5 16 17 -19 -26 29 34 35 0
-5 16 17 -19 26 -29 -34 -35 0
-5 16 17 -19 26 -29 34 35 0
-5 16 17 -19 26 29 -34 35 0
-5 16 17 -19 26 29 34 -35 0
-5 16 17 19 -26 -29 -34 -35 0
-5 16 17 19 -26 -29 34 35 0
-5 16 17 19 -26 29 -34 35 0
-5 16 17 19 -26 29 34 -35 0
-5 16 17 19 26 -29 -34 35 0
-5 16 17 19 26 -29 34 -35 0
-5 16 17 19 26 29 -34 -35 0
-5 16 17 19 26 29 34 35 0
-4 -13 -19 -20 -23 -24 -32 36 0
-4 -13 -19 -20 -23 -24 32 -36 0
-4 -13 -19 -20 -23 24 -32 -36 0
-4 -13 -19 -20 -23 24 32 36 0
-4 -13 -19 -20 23 -24 -32 -36 0
-4 -13 -19 -20 23 -24 32 36 0
-4 -13 -19 -20 23 24 -32 36 0
-4 -13 -19 -20 23 24 32 -36 0
-4 -13 -19 20 -23 -24 -32 -36 0
-4 -13 -19 20 -23 -24 32 36 0
-4 -13 -19 20 -23 24 -32 36 0
-4 -13 -19 20 -23 24 32 -36 0
-4 -13 -19 20 23 -24 -32 36 0
-4 -13 -19 20 23 -24 32 -36 0
-4 -13 -19 20 23 24 -32 -36 0
-4 -13 -19 20 23 24 32 36 0
-4 -13 19 -20 -23 -24 -32 -36 0
-4 -13 19 -20 -23 -24 32 36 0
-4 -13 19 -20 -23 24 -32 36 0
-4 -13 19 -20 -23 24 32 -36 0
-4 -13 19 -20 23 -24 -32 36 0
-4 -13 19 -20 23 -24 32 -36 0
-4 -13 19 -20 23 24 -32 -36 0
-4 -13 19 -20 23 24 32 36 0
-4 -13 19 20 -23 -24 -32 36 0
-4 -13 19 20 -23 -24 32 -36 0
-4 -13 19 20 -23 24 -32 -36 0
-4 -13 19 20 -23 24 32 36 0
-4 -13 19 20 23 -24 -32 -36 0
-4 -13 19 20 23 -24 32 36 0
-4 -13 19 20 23 24 -32 36 0
-4 -13 19 20 23 24 32 -36 0
-4 13 -19 -20 -23 -24 -32 -36 0
-4 13 -19 -20 -23 -24 32 36 0
-4 13 -19 -20 -23 24 -32 36 0
-4 13 -19 -20 -23 24 32 -36 0
-4 13 -19 -20 23 -24 -32 36 0
-4 13 -19 -20 23 -24 32 -36 0
-4 13 -19 -20 23 24 -32 -36 0
-4 13 -19 -20 23 24 32 36 0
-4 13 -19 20 -23 -24 -32 36 0
-4 13 -19 20 -23 -24 32 -36 0
-4 13 -19 20 -23 24 -32 -36 0
-4 13 -19 20 -23 24 32 36 0
-4 13 -19 20 23 -24 -32 -36 0
-4 13 -19 20 23 -24 32 36 0
-4 13 -19 20 23 24 -32 36 0
-4 13 -19 20 23 24 32 -36 0
-4 13 19 -20 -23 -24 -32 36 0
-4 13 19 -20 -23 -24 32 -36 0
-4 13 19 -20 -23 24 -32 -36 0
-4 13 19 -20 -23 24 32 36 0
-4 13 19 -20 23 -24 -32 -36 0
-4 13 19 -20 23 -24 32 36 0
-4 13 19 -20 23 24 -32 36 0
-4 13 19 -20 23 24 32 -36 0
-4 13 19 20 -23 -24 -32 -36 0
-4 13 19 20 -23 -24 32 36 0
-4 13 19 20 -23 24 -32 36 0
-4 13 19 20 -23 24 32 -36 0
-4 13 19 20 23 -24 -32 36 0
-4 13 19 20 23 -24 32 -36 0
-4 13 19 20 23 24 -32 -36 0
-4 13 19 20 23 24 32 36 0
-3 -6 -10 -15 -17 -18 -21 23 0
-3 -6 -10 -15 -17 -18 21 -23 0
-3 -6 -10 -15 -17 18 -21 -23 0
-3 -6 -10 -15 -17 18 21 23 0
-3 -6 -10 -15 17 -18 -21 -23 0
-3 -6 -10 -15 17 -18 21 23 0
-3 -6 -10 -15 17 18 -21 23 0
-3 -6 -10 -15 17 18 21 -23 0
-3 -6 -10 15 -17 -18 -21 -23 0
-3 -6 -10 15 -17 -18 21 23 0
-3 -6 -10 15 -17 18 -21 23 0
-3 -6 -10 15 -17 18 21 -23 0
-3 -6 -10 15 17 -18 -21 23 0
-3 -6 -10 15 17 -18 21 -23 0
-3 -6 -10 15 17 18 -21 -23 0
-3 -6 -10 15 17 18 21 23 0
-3 -6 10 -15 -17 -18 -21 -23 0
-3 -6 10 -15 -17 -18 21 23 0
-3 -6 10 -15 -17 18 -21 23 0
-3 -6 10 -15 -17 18 21 -23 0
-3 -6 10 -15 17 -18 -21 23 0
-3 -6 10 -15 17 -18 21 -23 0
-3 -6 10 -15 17 18 -21 -23 0
-3 -6 10 -15 17 18 21 23 0
-3 -6 10 15 -17 -18 -21 23 0
-3 -6 10 15 -17 -18 21 -23 0
-3 -6 10 15 -17 18 -21 -23 0
-3 -6 10 15 -17 18 21 23 0
-3 -6 10 15 17 -18 -21 -23 0
-3 -6 10 15 17 -18 21 23 0
-3 -6 10 15 17 18 -21 23 0
-3 -6 10 15 17 18 21 -23 0
-3 6 -10 -15 -17 -18 -21 -23 0
-3 6 -10 -15 -17 -18 21 23 0
-3 6 -10 -15 -17 18 -21 23 0
-3 6 -10 -15 -17 18 21 -23 0
-3 6 -10 -15 17 -18 -21 23 0
-3 6 -10 -15 17 -18 21 -23 0
-3 6 -10 -15 17 18 -21 -23 0
-3 6 -10 -15 17 18 21 23 0
-3 6 -10 15 -17 -18 -21 23 0
-3 6 -10 15 -17 -18 21 -23 0
-3 6 -10 15 -17 18 -21 -23 0
-3 6 -10 15 -17 18 21 23 0
-3 6 -10 15 17 -18 -21 -23 0
-3 6 -10 15 17 -18 21 23 0
-3 6 -10 15 17 18 -21 23 0
-3 6 -10 15 17 18 21 -23 0
-3 6 10 -15 -17 -18 -21 23 0
-3 6 10 -15 -17 -18 21 -23 0
-3 6 10 -15 -17 18 -21 -23 0
-3 6 10 -15 -17 18 21 23 0
-3 6 10 -15 17 -18 -21 -23 0
-3 6 10 -15 17 -18 21 23 0
-3 6 10 -15 17 18 -21 23 0
-3 6 10 -15 17 18 21 -23 0
-3 6 10 15 -17 -18 -21 -23 0
-3 6 10 15 -17 -18 21 23 0
-3 6 10 15 -17 18 -21 23 0
-3 6 10 15 -17 18 21 -23 0
-3 6 10 15 17 -18 -21 23 0
-3 6 10 15 17 -18 21 -23 0
-3 6 10 15 17 18 -21 -23 0
-3 6 10 15 17 18 21 23 0
-2 -6 -7 -22 -30 -33 -35 36 0
-2 -6 -7 -22 -30 -33 35 -36 0
-2 -6 -7 -22 -30 33 -35 -36 0
-2 -6 -7 -22 -30 33 35 36 0
-2 -6 -7 -22 30 -33 -35 -36 0
-2 -6 -7 -22 30 -33 35 36 0
-2 -6 -7 -22 30 33 -35 36 0
-2 -6 -7 -22 30 33 35 -36 0
-2 -6 -7 22 -30 -33 -35 -36 0
-2 -6 -7 22 -30 -33 35 36 0
-2 -6 -7 22 -30 33 -35 36 0
-2 -6 -7 22 -30 33 35 -36 0
-2 -6 -7 22 30 -33 -35 36 0
-2 -6 -7 22 30 -33 35 -36 0
-2 -6 -7 22 30 33 -35 -36 0
-2 -6 -7 22 30 33 35 36 0
-2 -6 7 -22 -30 -33 -35 -36 0
-2 -6 7 -22 -30 -33 35 36 0
-2 -6 7 -22 -30 33 -35 36 0
-2 -6 7 -22 -30 33 35 -36 0
-2 -6 7 -22 30 -33 -35 36 0
-2 -6 7 -22 30 -33 35 -36 0
-2 -6 7 -22 30 33 -35 -36 0
-2 -6 7 -22 30 33 35 36 0
-2 -6 7 22 -30 -33 -35 36 0
-2 -6 7 22 -30 -33 35 -36 0
-2 -6 7 22 -30 33 -35 -36 0
-2 -6 7 22 -30 33 35 36 0
-2 -6 7 22 30 -33 -35 -36 0
-2 -6 7 22 30 -33 35 36 0
-2 -6 7 22 30 33 -35 36 0
-2 -6 7 22 30 33 35 -36 0
-2 -4 -5 -9 -11 -21 -27 31 0
-2 -4 -5 -9 -11 -21 27 -31 0
-2 -4 -5 -9 -11 21 -27 -31 0
-2 -4 -5 -9 -11 21 27 31 0
-2 -4 -5 -9 11 -21 -27 -31 0
-2 -4 -5 -9 11 -21 27 31 0
-2 -4 -5 -9 11 21 -27 31 0
-2 -4 -5 -9 11 21 27 -31 0
-2 -4 -5 9 -11 -21 -27 -31 0
-2 -4 -5 9 -11 -21 27 31 0
-2 -4 -5 9 -11 21 -27 31 0
-2 -4 -5 9 -11 21 27 -31 0
-2 -4 -5 9 11 -21 -27 31 0
-2 -4 -5 9 11 -21 27 -31 0
-2 -4 -5 9 11 21 -27 -31 0
-2 -4 -5 9 11 21 27 31 0
-2 -4 5 -9 -11 -21 -27 -31 0
-2 -4 5 -9 -11 -21 27 31 0
-2 -4 5 -9 -11 21 -27 31 0
-2 -4 5 -9 -11 21 27 -31 0
-2 -4 5 -9 11 -21 -27 31 0
-2 -4 5 -9 11 -21 27 -31 0
-2 -4 5 -9 11 21 -27 -31 0
-2 -4 5 -9 11 21 27 31 0
-2 -4 5 9 -11 -21 -27 31 0
-2 -4 5 9 -11 -21 27 -31 0
-2 -4 5 9 -11 21 -27 -31 0
-2 -4 5 9 -11 21 27 31 0
-2 -4 5 9 11 -21 -27 -31 0
-2 -4 5 9 11 -21 27 31 0
-2 -4 5 9 11 21 -27 31 0
-2 -4 5 9 11 21 27 -31 0
-2 4 -5 -9 -11 -21 -27 -31 0
-2 4 -5 -9 -11 -21 27 31 0
-2 4 -5 -9 -11 21 -27 31 0
-2 4 -5 -9 -11 21 27 -31 0
-2 4 -5 -9 11 -21 -27 31 0
-2 4 -5 -9 11 -21 27 -31 0
-2 4 -5 -9 11 21 -27 -31 0
-2 4 -5 -9 11 21 27 31 0
-2 4 -5 9 -11 -21 -27 31 0
-2 4 -5 9 -11 -21 27 -31 0
-2 4 -5 9 -11 21 -27 -31 0
-2 4 -5 9 -11 21 27 31 0
-2 4 -5 9 11 -21 -27 -31 0
-2 4 -5 9 11 -21 27 31 0
-2 4 -5 9 11 21 -27 31 0
-2 4 -5 9 11 21 27 -31 0
-2 4 5 -9 -11 -21 -27 31 0
-2 4 5 -9 -11 -21 27 -31 0
-2 4 5 -9 -11 21 -27 -31 0
-2 4 5 -9 -11 21 27 31 0
-2 4 5 -9 11 -21 -27 -31 0
-2 4 5 -9 11 -21 27 31 0
-2 4 5 -9 11 21 -27 31 0
-2 4 5 -9 11 21 27 -31 0
-2 4 5 9 -11 -21 -27 -31 0
-2 4 5 9 -11 -21 27 31 0
-2 4 5 9 -11 21 -27 31 0
-2 4 5 9 -11 21 27 -31 0
-2 4 5 9 11 -21 -27 31 0
-2 4 5 9 11 -21 27 -31 0
-2 4 5 9 11 21 -27 -31 0
-2 4 5 9 11 21 27 31 0
-2 6 -7 -22 -30 -33 -35 -36 0
-2 6 -7 -22 -30 -33 35 36 0
-2 6 -7 -22 -30 33 -35 36 0
-2 6 -7 -22 -30 33 35 -36 0
-2 6 -7 -22 30 -33 -35 36 0
-2 6 -7 -22 30 -33 35 -36 0
-2 6 -7 -22 30 33 -35 -36 0
-2 6 -7 -22 30 33 35 36 0
-2 6 -7 22 -30 -33 -35 36 0
-2 6 -7 22 -30 -33 35 -36 0
-2 6 -7 22 -30 33 -35 -36 0
-2 6 -7 22 -30 33 35 36 0
-2 6 -7 22 30 -33 -35 -36 0
-2 6 -7 22 30 -33 35 36 0
-2 6 -7 22 30 33 -35 36 0
-2 6 -7 22 30 33 35 -36 0
-2 6 7 -22 -30 -33 -35 36 0
-2 6 7 -22 -30 -33 35 -36 0
-2 6 7 -22 -30 33 -35 -36 0
-2 6 7 -22 -30 33 35 36 0
-2 6 7 -22 30 -33 -35 -36 0
-2 6 7 -22 30 -33 35 36 0
-2 6 7 -22 30 33 -35 36 0
-2 6 7 -22 30 33 35 -36 0
-2 6 7 22 -30 -33 -35 -36 0
-2 6 7 22 -30 -33 35 36 0
-2 6 7 22 -30 33 -35 36 0
-2 6 7 22 -30 33 35 -36 0
-2 6 7 22 30 -33 -35 36 0
-2 6 7 22 30 -33 35 -36 0
-2 6 7 22 30 33 -35 -36 0
-2 6 7 22 30 33 35 36 0
-1 -9 -12 -13 -18 -25 -29 33 0
-1 -9 -12 -13 -18 -25 29 -33 0
-1 -9 -12 -13 -18 25 -29 -33 0
-1 -9 -12 -13 -18 25 29 33 0
-1 -9 -12 -13 18 -25 -29 -33 0
-1 -9 -12 -13 18 -25 29 33 0
-1 -9 -12 -13 18 25 -29 33 0
-1 -9 -12 -13 18 25 29 -33 0
-1 -9 -12 13 -18 -25 -29 -33 0
-1 -9 -12 13 -18 -25 29 33 0
-1 -9 -12 13 -18 25 -29 33 0
-1 -9 -12 13 -18 25 29 -33 0
-1 -9 -12 13 18 -25 -29 33 0
-1 -9 -12 13 18 -25 29 -33 0
-1 -9 -12 13 18 25 -29 -33 0
-1 -9 -12 13 18 25 29 33 0
-1 -9 12 -13 -18 -25 -29 -33 0
-1 -9 12 -13 -18 -25 29 33 0
-1 -9 12 -13 -18 25 -29 33 0
-1 -9 12 -13 -18 25 29 -33 0
-1 -9 12 -13 18 -25 -29 33 0
-1 -9 12 -13 18 -25 29 -33 0
-1 -9 12 -13 18 25 -29 -33 0
-1 -9 12 -13 18 25 29 33 0
-1 -9 12 13 -18 -25 -29 33 0
-1 -9 12 13 -18 -25 29 -33 0
-1 -9 12 13 -18 25 -29 -33 0
-1 -9 12 13 -18 25 29 33 0
-1 -9 12 13 18 -25 -29 -33 0
-1 -9 12 13 18 -25 29 33 0
-1 -9 12 13 18 25 -29 33 0
-1 -9 12 13 18 25 29 -33 0
-1 -3 -14 -20 -26 -28 -30 31 0
-1 -3 -14 -20 -26 -28 30 -31 0
-1 -3 -14 -20 -26 28 -30 -31 0
-1 -3 -14 -20 -26 28 30 31 0
-1 -3 -14 -20 26 -28 -30 -31 0
-1 -3 -14 -20 26 -28 30 31 0
-1 -3 -14 -20 26 28 -30 31 0
-1 -3 -14 -20 26 28 30 -31 0
-1 -3 -14 20 -26 -28 -30 -31 0
-1 -3 -14 20 -26 -28 30 31 0
-1 -3 -14 20 -26 28 -30 31 0
-1 -3 -14 20 -26 28 30 -31 0
-1 -3 -14 20 26 -28 -30 31 0
-1 -3 -14 20 26 -28 30 -31 0
-1 -3 -14 20 26 28 -30 -31 0
-1 -3 -14 20 26 28 30 31 0
-1 -3 14 -20 -26 -28 -30 -31 0
-1 -3 14 -20 -26 -28 30 31 0
-1 -3 14 -20 -26 28 -30 31 0
-1 -3 14 -20 -26 28 30 -31 0
-1 -3 14 -20 26 -28 -30 31 0
-1 -3 14 -20 26 -28 30 -31 0
-1 -3 14 -20 26 28 -30 -31 0
-1 -3 14 -20 26 28 30 31 0
-1 -3 14 20 -26 -28 -30 31 0
-1 -3 14 20 -26 -28 30 -31 0
-1 -3 14 20 -26 28 -30 -31 0
-1 -3 14 20 -26 28 30 31 0
-1 -3 14 20 26 -28 -30 -31 0
-1 -3 14 20 26 -28 30 31 0
-1 -3 14 20 26 28 -30 31 0
-1 -3 14 20 26 28 30 -31 0
-1 3 -14 -20 -26 -28 -30 -31 0
-1 3 -14 -20 -26 -28 30 31 0
-1 3 -14 -20 -26 28 -30 31 0
-1 3 -14 -20 -26 28 30 -31 0
-1 3 -14 -20 26 -28 -30 31 0
-1 3 -14 -20 26 -28 30 -31 0
-1 3 -14 -20 26 28 -30 -31 0
-1 3 -14 -20 26 28 30 31 0
-1 3 -14 20 -26 -28 -30 31 0
-1 3 -14 20 -26 -28 30 -31 0
-1 3 -14 20 -26 28 -30 -31 0
-1 3 -14 20 -26 28 30 31 0
-1 3 -14 20 26 -28 -30 -31 0
-1 3 -14 20 26 -28 30 31 0
-1 3 -14 20 26 28 -30 31 0
-1 3 -14 20 26 28 30 -31 0
-1 3 14 -20 -26 -28 -30 31 0
-1 3 14 -20 -26 -28 30 -31 0
-1 3 14 -20 -26 28 -30 -31 0
-1 3 14 -20 -26 28 30 31 0
-1 3 14 -20 26 -28 -30 -31 0
-1 3 14 -20 26 -28 30 31 0
-1 3 14 -20 26 28 -30 31 0
-1 3 14 -20 26 28 30 -31 0
-1 3 14 20 -26 -28 -30 -31 0
-1 3 14 20 -26 -28 30 31 0
-1 3 14 20 -26 28 -30 31 0
-1 3 14 20 -26 28 30 -31 0
-1 3 14 20 26 -28 -30 31 0
-1 3 14 20 26 -28 30 -31 0
-1 3 14 20 26 28 -30 -31 0
-1 3 14 20 26 28 30 31 0
-1 9 -12 -13 -18 -25 -29 -33 0
-1 9 -12 -13 -18 -25 29 33 0
-1 9 -12 -13 -18 25 -29 33 0
-1 9 -12 -13 -18 25 29 -33 0
-1 9 -12 -13 18 -25 -29 33 0
-1 9 -12 -13 18 -25 29 -33 0
-1 9 -12 -13 18 25 -29 -33 0
-1 9 -12 -13 18 25 29 33 0
-1 9 -12 13 -18 -25 -29 33 0
-1 9 -12 13 -18 -25 29 -33 0
-1 9 -12 13 -18 25 -29 -33 0
-1 9 -12 13 -18 25 29 33 0
-1 9 -12 13 18 -25 -29 -33 0
-1 9 -12 13 18 -25 29 33 0
-1 9 -12 13 18 25 -29 33 0
-1 9 -12 13 18 25 29 -33 0
-1 9 12 -13 -18 -25 -29 33 0
-1 9 12 -13 -18 -25 29 -33 0
-1 9 12 -13 -18 25 -29 -33 0
-1 9 12 -13 -18 25 29 33 0
-1 9 12 -13 18 -25 -29 -33 0
-1 9 12 -13 18 -25 29 33 0
-1 9 12 -13 18 25 -29 33 0
-1 9 12 -13 18 25 29 -33 0
-1 9 12 13 -18 -25 -29 -33 0
-1 9 12 13 -18 -25 29 33 0
-1 9 12 13 -18 25 -29 33 0
-1 9 12 13 -18 25 29 -33 0
-1 9 12 13 18 -25 -29 33 0
-1 9 12 13 18 -25 29 -33 0
-1 9 12 13 18 25 -29 -33 0
-1 9 12 13 18 25 29 33 0
1 -9 -12 -13 -18 -25 -29 -33 0
1 -9 -12 -13 -18 -25 29 33 0
1 -9 -12 -13 -18 25 -29 33 0
1 -9 -12 -13 -18 25 29 -33 0
1 -9 -12 -13 18 -25 -29 33 0
1 -9 -12 -13 18 -25 29 -33 0
1 -9 -12 -13 18 25 -29 -33 0
1 -9 -12 -13 18 25 29 33 0
1 -9 -12 13 -18 -25 -29 33 0
1 -9 -12 13 -18 -25 29 -33 0
1 -9 -12 13 -18 25 -29 -33 0
1 -9 -12 13 -18 25 29 33 0
1 -9 -12 13 18 -25 -29 -33 0
1 -9 -12 13 18 -25 29 33 0
1 -9 -12 13 18 25 -29 33 0
1 -9 -12 13 18 25 29 -33 0
1 -9 12 -13 -18 -25 -29 33 0
1 -9 12 -13 -18 -25 29 -33 0
1 -9 12 -13 -18 25 -29 -33 0
1 -9 12 -13 -18 25 29 33 0
1 -9 12 -13 18 -25 -29 -33 0
1 -9 12 -13 18 -25 29 33 0
1 -9 12 -13 18 25 -29 33 0
1 -9 12 -13 18 25 29 -33 0
1 -9 12 13 -18 -25 -29 -33 0
1 -9 12 13 -18 -25 29 33 0
1 -9 12 13 -18 25 -29 33 0
1 -9 12 13 -18 25 29 -33 0
1 -9 12 13 18 -25 -29 33 0
1 -9 12 13 18 -25 29 -33 0
1 -9 12 13 18 25 -29 -33 0
1 -9 12 13 18 25 29 33 0
1 -3 -14 -20 -26 -28 -30 -31 0
1 -3 -14 -20 -26 -28 30 31 0
1 -3 -14 -20 -26 28 -30 31 0
1 -3 -14 -20 -26 28 30 -31 0
1 -3 -14 -20 26 -28 -30 31 0
1 -3 -14 -20 26 -28 30 -31 0
1 -3 -14 -20 26 28 -30 -31 0
1 -3 -14 -20 26 28 30 31 0
1 -3 -14 20 -26 -28 -30 31 0
1 -3 -14 20 -26 -28 30 -31 0
1 -3 -14 20 -26 28 -30 -31 0
1 -3 -14 20 -26 28 30 31 0
1 -3 -14 20 26 -28 -30 -31 0
1 -3 -14 20 26 -28 30 31 0
1 -3 -14 20 26 28 -30 31 0
1 -3 -14 20 26 28 30 -31 0
1 -3 14 -20 -26 -28 -30 31 0
1 -3 14 -20 -26 -28 30 -31 0
1 -3 14 -20 -26 28 -30 -31 0
1 -3 14 -20 -26 28 30 31 0
1 -3 14 -20 26 -28 -30 -31 0
1 -3 14 -20 26 -28 30 31 0
1 -3 14 -20 26 28 -30 31 0
1 -3 14 -20 26 28 30 -31 0
1 -3 14 20 -26 -28 -30 -31 0
1 -3 14 20 -26 -28 30 31 0
1 -3 14 20 -26 28 -30 31 0
1 -3 14 20 -26 28 30 -31 0
1 -3 14 20 26 -28 -30 31 0
1 -3 14 20 26 -28 30 -31 0
1 -3 14 20 26 28 -30 -31 0
1 -3 14 20 26 28 30 31 0
1 3 -14 -20 -26 -28 -30 31 0
1 3 -14 -20 -26 -28 30 -31 0
1 3 -14 -20 -26 28 -30 -31 0
1 3 -14 -20 -26 28 30 31 0
1 3 -14 -20 26 -28 -30 -31 0
1 3 -14 -20 26 -28 30 31 0
1 3 -14 -20 26 28 -30 31 0
1 3 -14 -20 26 28 30 -31 0
1 3 -14 20 -26 -28 -30 -31 0
1 3 -14 20 -26 -28 30 31 0
1 3 -14 20 -26 28 -30 31 0
1 3 -14 20 -26 28 30 -31 0
1 3 -14 20 26 -28 -30 31 0
1 3 -14 20 26 -28 30 -31 0
1 3 -14 20 26 28 -30 -31 0
1 3 -14 20 26 28 30 31 0
1 3 14 -20 -26 -28 -30 -31 0
1 3 14 -20 -26 -28 30 31 0
1 3 14 -20 -26 28 -30 31 0
1 3 14 -20 -26 28 30 -31 0
1 3 14 -20 26 -28 -30 31 0
1 3 14 -20 26 -28 30 -31 0
1 3 14 -20 26 28 -30 -31 0
1 3 14 -20 26 28 30 31 0
1 3 14 20 -26 -28 -30 31 0
1 3 14 20 -26 -28 30 -31 0
1 3 14 20 -26 28 -30 -31 0
1 3 14 20 -26 28 30 31 0
1 3 14 20 26 -28 -30 -31 0
1 3 14 20 26 -28 30 31 0
1 3 14 20 26 28 -30 31 0
1 3 14 20 26 28 30 -31 0
1 9 -12 -13 -18 -25 -29 33 0
1 9 -12 -13 -18 -25 29 -33 0
1 9 -12 -13 -18 25 -29 -33 0
1 9 -12 -13 -18 25 29 33 0
1 9 -12 -13 18 -25 -29 -33 0
1 9 -12 -13 18 -25 29 33 0
1 9 -12 -13 18 25 -29 33 0
1 9 -12 -13 18 25 29 -33 0
1 9 -12 13 -18 -25 -29 -33 0
1 9 -12 13 -18 -25 29 33 0
1 9 -12 13 -18 25 -29 33 0
1 9 -12 13 -18 25 29 -33 0
1 9 -12 13 18 -25 -29 33 0
1 9 -12 13 18 -25 29 -33 0
1 9 -12 13 18 25 -29 -33 0
1 9 -12 13 18 25 29 33 0
1 9 12 -13 -18 -25 -29 -33 0
1 9 12 -13 -18 -25 29 33 0
1 9 12 -13 -18 25 -29 33 0
1 9 12 -13 -18 25 29 -33 0
1 9 12 -13 18 -25 -29 33 0
1 9 12 -13 18 -25 29 -33 0
1 9 12 -13 18 25 -29 -33 0
1 9 12 -13 18 25 29 33 0
1 9 12 13 -18 -25 -29 33 0
1 9 12 13 -18 -25 29 -33 0
1 9 12 13 -18 25 -29 -33 0
1 9 12 13 -18 25 29 33 0
1 9 12 13 18 -25 -29 -33 0
1 9 12 13 18 -25 29 33 0
1 9 12 13 18 25 -29 33 0
1 9 12 13 18 25 29 -33 0
2 -6 -7 -22 -30 -33 -35 -36 0
2 -6 -7 -22 -30 -33 35 36 0
2 -6 -7 -22 -30 33 -35 36 0
2 -6 -7 -22 -30 33 35 -36 0
2 -6 -7 -22 30 -33 -35 36 0
2 -6 -7 -22 30 -33 35 -36 0
2 -6 -7 -22 30 33 -35 -36 0
2 -6 -7 -22 30 33 35 36 0
2 -6 -7 22 -30 -33 -35 36 0
2 -6 -7 22 -30 -33 35 -36 0
2 -6 -7 22 -30 33 -35 -36 0
2 -6 -7 22 -30 33 35 36 0
2 -6 -7 22 30 -33 -35 -36 0
2 -6 -7 22 30 -33 35 36 0
2 -6 -7 22 30 33 -35 36 0
2 -6 -7 22 30 33 35 -36 0
2 -6 7 -22 -30 -33 -35 36 0
2 -6 7 -22 -30 -33 35 -36 0
2 -6 7 -22 -30 33 -35 -36 0
2 -6 7 -22 -30 33 35 36 0
2 -6 7 -22 30 -33 -35 -36 0
2 -6 7 -22 30 -33 35 36 0
2 -6 7 -22 30 33 -35 36 0
2 -6 7 -22 30 33 35 -36 0
2 -6 7 22 -30 -33 -35 -36 0
2 -6 7 22 -30 -33 35 36 0
2 -6 7 22 -30 33 -35 36 0
2 -6 7 22 -30 33 35 -36 0
2 -6 7 22 30 -33 -35 36 0
2 -6 7 22 30 -33 35 -36 0
2 -6 7 22 30 33 -35 -36 0
2 -6 7 22 30 33 35 36 0
2 -4 -5 -9 -11 -21 -27 -31 0
2 -4 -5 -9 -11 -21 27 31 0
2 -4 -5 -9 -11 21 -27 31 0
2 -4 -5 -9 -11 21 27 -31 0
2 -4 -5 -9 11 -21 -27 31 0
2 -4 -5 -9 11 -21 27 -31 0
2 -4 -5 -9 11 21 -27 -31 0
2 -4 -5 -9 11 21 27 31 0
2 -4 -5 9 -11 -21 -27 31 0
2 -4 -5 9 -11 -21 27 -31 0
2 -4 -5 9 -11 21 -27 -31 0
2 -4 -5 9 -11 21 27 31 0
2 -4 -5 9 11 -21 -27 -31 0
2 -4 -5 9 11 -21 27 31 0
2 -4 -5 9 11 21 -27 31 0
2 -4 -5 9 11 21 27 -31 0
2 -4 5 -9 -11 -21 -27 31 0
2 -4 5 -9 -11 -21 27 -31 0
2 -4 5 -9 -11 21 -27 -31 0
2 -4 5 -9 -11 21 27 31 0
2 -4 5 -9 11 -21 -27 -31 0
2 -4 5 -9 11 -21 27 31 0
2 -4 5 -9 11 21 -27 31 0
2 -4 5 -9 11 21 27 -31 0
2 -4 5 9 -11 -21 -27 -31 0
2 -4 5 9 -11 -21 27 31 0
2 -4 5 9 -11 21 -27 31 0
2 -4 5 9 -11 21 27 -31 0
2 -4 5 9 11 -21 -27 31 0
2 -4 5 9 11 -21 27 -31 0
2 -4 5 9 11 21 -27 -31 0
2 -4 5 9 11 21 27 31 0
2 4 -5 -9 -11 -21 -27 31 0
2 4 -5 -9 -11 -21 27 -31 0
2 4 -5 -9 -11 21 -27 -31 0
2 4 -5 -9 -11 21 27 31 0
2 4 -5 -9 11 -21 -27 -31 0
2 4 -5 -9 11 -21 27 31 0
2 4 -5 -9 11 21 -27 31 0
2 4 -5 -9 11 21 27 -31 0
2 4 -5 9 -11 -21 -27 -31 0
2 4 -5 9 -11 -21 27 31 0
2 4 -5 9 -11 21 -27 31 0
2 4 -5 9 -11 21 27 -31 0
2 4 -5 9 11 -21 -27 31 0
2 4 -5 9 11 -21 27 -31 0
2 4 -5 9 11 21 -27 -31 0
2 4 -5 9 11 21 27 31 0
2 4 5 -9 -11 -21 -27 -31 0
2 4 5 -9 -11 -21 27 31 0
2 4 5 -9 -11 21 -27 31 0
2 4 5 -9 -11 21 27 -31 0
2 4 5 -9 11 -21 -27 31 0
2 4 5 -9 11 -21 27 -31 0
2 4 5 -9 11 21 -27 -31 0
2 4 5 -9 11 21 27 31 0
2 4 5 9 -11 -21 -27 31 0
2 4 5 9 -11 -21 27 -31 0
2 4 5 9 -11 21 -27 -31 0
2 4 5 9 -11 21 27 31 0
2 4 5 9 11 -21 -27 -31 0
2 4 5 9 11 -21 27 31 0
2 4 5 9 11 21 -27 31 0
2 4 5 9 11 21 27 -31 0
2 6 -7 -22 -30 -33 -35 36 0
2 6 -7 -22 -30 -33 35 -36 0
2 6 -7 -22 -30 33 -35 -36 0
2 6 -7 -22 -30 33 35 36 0
2 6 -7 -22 30 -33 -35 -36 0
2 6 -7 -22 30 -33 35 36 0
2 6 -7 -22 30 33 -35 36 0
2 6 -7 -22 30 33 35 -36 0
2 6 -7 22 -30 -33 -35 -36 0
2 6 -7 22 -30 -33 35 36 0
2 6 -7 22 -30 33 -35 36 0
2 6 -7 22 -30 33 35 -36 0
2 6 -7 22 30 -33 -35 36 0
2 6 -7 22 30 -33 35 -36 0
2 6 -7 22 30 33 -35 -36 0
2 6 -7 22 30 33 35 36 0
2 6 7 -22 -30 -33 -35 -36 0
2 6 7 -22 -30 -33 35 36 0
2 6 7 -22 -30 33 -35 36 0
2 6 7 -22 -30 33 35 -36 0
2 6 7 -22 30 -33 -35 36 0
2 6 7 -22 30 -33 35 -36 0
2 6 7 -22 30 33 -35 -36 0
2 6 7 -22 30 33 35 36 0
2 6 7 22 -30 -33 -35 36 0
2 6 7 22 -30 -33 35 -36 0
2 6 7 22 -30 33 -35 -36 0
2 6 7 22 -30 33 35 36 0
2 6 7 22 30 -33 -35 -36 0
2 6 7 22 30 -33 35 36 0
2 6 7 22 30 33 -35 36 0
2 6 7 22 30 33 35 -36 0
3 -6 -10 -15 -17 -18 -21 -23 0
3 -6 -10 -15 -17 -18 21 23 0
3 -6 -10 -15 -17 18 -21 23 0
3 -6 -10 -15 -17 18 21 -23 0
3 -6 -10 -15 17 -18 -21 23 0
3 -6 -10 -15 17 -18 21 -23 0
3 -6 -10 -15 17 18 -21 -23 0
3 -6 -10 -15 17 18 21 23 0
3 -6 -10 15 -17 -18 -21 23 0
3 -6 -10 15 -17 -18 21 -23 0
3 -6 -10 15 -17 18 -21 -23 0
3 -6 -10 15 -17 18 21 23 0
3 -6 -10 15 17 -18 -21 -23 0
3 -6 -10 15 17 -18 21 23 0
3 -6 -10 15 17 18 -21 23 0
3 -6 -10 15 17 18 21 -23 0
3 -6 10 -15 -17 -18 -21 23 0
3 -6 10 -15 -17 -18 21 -23 0
3 -6 10 -15 -17 18 -21 -23 0
3 -6 10 -15 -17 18 21 23 0
3 -6 10 -15 17 -18 -21 -23 0
3 -6 10 -15 17 -18 21 23 0
3 -6 10 -15 17 18 -21 23 0
3 -6 10 -15 17 18 21 -23 0
3 -6 10 15 -17 -18 -21 -23 0
3 -6 10 15 -17 -18 21 23 0
3 -6 10 15 -17 18 -21 23 0
3 -6 10 15 -17 18 21 -23 0
3 -6 10 15 17 -18 -21 23 0
3 -6 10 15 17 -18 21 -23 0
3 -6 10 15 17 18 -21 -23 0
3 -6 10 15 17 18 21 23 0
3 6 -10 -15 -17 -18 -21 23 0
3 6 -10 -15 -17 -18 21 -23 0
3 6 -10 -15 -17 18 -21 -23 0
3 6 -10 -15 -17 18 21 23 0
3 6 -10 -15 17 -18 -21 -23 0
3 6 -10 -15 17 -18 21 23 0
3 6 -10 -15 17 18 -21 23 0
3 6 -10 -15 17 18 21 -23 0
3 6 -10 15 -17 -18 -21 -23 0
3 6 -10 15 -17 -18 21 23 0
3 6 -10 15 -17 18 -21 23 0
3 6 -10 15 -17 18 21 -23 0
3 6 -10 15 17 -18 -21 23 0
3 6 -10 15 17 -18 21 -23 0
3 6 -10 15 17 18 -21 -23 0
3 6 -10 15 17 18 21 23 0
3 6 10 -15 -17 -18 -21 -23 0
3 6 10 -15 -17 -18 21 23 0
3 6 10 -15 -17 18 -21 23 0
3 6 10 -15 -17 18 21 -23 0
3 6 10 -15 17 -18 -21 23 0
3 6 10 -15 17 -18 21 -23 0
3 6 10 -15 17 18 -21 -23 0
3 6 10 -15 17 18 21 23 0
3 6 10 15 -17 -18 -21 23 0
3 6 10 15 -17 -18 21 -23 0
3 6 10 15 -17 18 -21 -23 0
3 6 10 15 -17 18 21 23 0
3 6 10 15 17 -18 -21 -23 0
3 6 10 15 17 -18 21 23 0
3 6 10 15 17 18 -21 23 0
3 6 10 15 17 18 21 -23 0
4 -13 -19 -20 -23 -24 -32 -36 0
4 -13 -19 -20 -23 -24 32 36 0
4 -13 -19 -20 -23 24 -32 36 0
4 -13 -19 -20 -23 24 32 -36 0
4 -13 -19 -20 23 -24 -32 36 0
4 -13 -19 -20 23 -24 32 -36 0
4 -13 -19 -20 23 24 -32 -36 0
4 -13 -19 -20 23 24 32 36 0
4 -13 -19 20 -23 -24 -32 36 0
4 -13 -19 20 -23 -24 32 -36 0
4 -13 -19 20 -23 24 -32 -36 0
4 -13 -19 20 -23 24 32 36 0
4 -13 -19 20 23 -24 -32 -36 0
4 -13 -19 20 23 -24 32 36 0
4 -13 -19 20 23 24 -32 36 0
4 -13 -19 20 23 24 32 -36 0
4 -13 19 -20 -23 -24 -32 36 0
4 -13 19 -20 -23 -24 32 -36 0
4 -13 19 -20 -23 24 -32 -36 0
4 -13 19 -20 -23 24 32 36 0
4 -13 19 -20 23 -24 -32 -36 0
4 -13 19 -20 23 -24 32 36 0
4 -13 19 -20 23 24 -32 36 0
4 -13 19 -20 23 24 32 -36 0
4 -13 19 20 -23 -24 -32 -36 0
4 -13 19 20 -23 -24 32 36 0
4 -13 19 20 -23 24 -32 36 0
4 -13 19 20 -23 24 32 -36 0
4 -13 19 20 23 -24 -32 36 0
4 -13 19 20 23 -24 32 -36 0
4 -13 19 20 23 24 -32 -36 0
4 -13 19 20 23 24 32 36 0
4 13 -19 -20 -23 -24 -32 36 0
4 13 -19 -20 -23 -24 32 -36 0
4 13 -19 -20 -23 24 -32 -36 0
4 13 -19 -20 -23 24 32 36 0
4 13 -19 -20 23 -24 -32 -36 0
4 13 -19 -20 23 -24 32 36 0
4 13 -19 -20 23 24 -32 36 0
4 13 -19 -20 23 24 32 -36 0
4 13 -19 20 -23 -24 -32 -36 0
4 13 -19 20 -23 -24 32 36 0
4 13 -19 20 -23 24 -32 36 0
4 13 -19 20 -23 24 32 -36 0
4 13 -19 20 23 -24 -32 36 0
4 13 -19 20 23 -24 32 -36 0
4 13 -19 20 23 24 -32 -36 0
4 13 -19 20 23 24 32 36 0
4 13 19 -20 -23 -24 -32 -36 0
4 13 19 -20 -23 -24 32 36 0
4 13 19 -20 -23 24 -32 36 0
4 13 19 -20 -23 24 32 -36 0
4 13 19 -20 23 -24 -32 36 0
4 13 19 -20 23 -24 32 -36 0
4 13 19 -20 23 24 -32 -36 0
4 13 19 -20 23 24 32 36 0
4 13 19 20 -23 -24 -32 36 0
4 13 19 20 -23 -24 32 -36 0
4 13 19 20 -23 24 -32 -36 0
4 13 19 20 -23 24 32 36 0
4 13 19 20 23 -24 -32 -36 0
4 13 19 20 23 -24 32 36 0
4 13 19 20 23 24 -32 36 0
4 13 19 20 23 24 32 -36 0
5 -16 -17 -19 -26 -29 -34 -35 0
5 -16 -17 -19 -26 -29 34 35 0
5 -16 -17 -19 -26 29 -34 35 0
5 -16 -17 -19 -26 29 34 -35 0
5 -16 -17 -19 26 -29 -34 35 0
5 -16 -17 -19 26 -29 34 -35 0
5 -16 -17 -19 26 29 -34 -35 0
5 -16 -17 -19 26 29 34 35 0
5 -16 -17 19 -26 -29 -34 35 0
5 -16 -17 19 -26 -29 34 -35 0
5 -16 -17 19 -26 29 -34 -35 0
5 -16 -17 19 -26 29 34 35 0
5 -16 -17 19 26 -29 -34 -35 0
5 -16 -17 19 26 -29 34 35 0
5 -16 -17 19 26 29 -34 35 0
5 -16 -17 19 26 29 34 -35 0
5 -16 17 -19 -26 -29 -34 35 0
5 -16 17 -19 -26 -29 34 -35 0
5 -16 17 -19 -26 29 -34 -35 0
5 -16 17 -19 -26 29 34 35 0
5 -16 17 -19 26 -29 -34 -35 0
5 -16 17 -19 26 -29 34 35 0
5 -16 17 -19 26 29 -34 35 0
5 -16 17 -19 26 29 34 -35 0
5 -16 17 19 -26 -29 -34 -35 0
5 -16 17 19 -26 -29 34 35 0
5 -16 17 19 -26 29 -34 35 0
5 -16 17 19 -26 29 34 -35 0
5 -16 17 19 26 -29 -34 35 0
5 -16 17 19 26 -29 34 -35 0
5 -16 17 19 26 29 -34 -35 0
5 -16 17 19 26 29 34 35 0
5 16 -17 -19 -26 -29 -34 35 0
5 16 -17 -19 -26 -29 34 -35 0
5 16 -17 -19 -26 29 -34 -35 0
5 16 -17 -19 -26 29 34 35 0
5 16 -17 -19 26 -29 -34 -35 0
5 16 -17 -19 26 -29 34 35 0
5 16 -17 -19 26 29 -34 35 0
5 16 -17 -19 26 29 34 -35 0
5 16 -17 19 -26 -29 -34 -35 0
5 16 -17 19 -26 -29 34 35 0
5 16 -17 19 -26 29 -34 35 0
5 16 -17 19 -26 29 34 -35 0
5 16 -17 19 26 -29 -34 35 0
5 16 -17 19 26 -29 34 -35 0
5 16 -17 19 26 29 -34 -35 0
5 16 -17 19 26 29 34 35 0
5 16 17 -19 -26 -29 -34 -35 0
5 16 17 -19 -26 -29 34 35 0
5 16 17 -19 -26 29 -34 35 0
5 16 17 -19 -26 29 34 -35 0
5 16 17 -19 26 -29 -34 35 0
5 16 17 -19 26 -29 34 -35 0
5 16 17 -19 26 29 -34 -35 0
5 16 17 -19 26 29 34 35 0
5 16 17 19 -26 -29 -34 35 0
5 16 17 19 -26 -29 34 -35 0
5 16 17 19 -26 29 -34 -35 0
5 16 17 19 -26 29 34 35 0
5 16 17 19 26 -29 -34 -35 0
5 16 17 19 26 -29 34 35 0
5 16 17 19 26 29 -34 35 0
5 16 17 19 26 29 34 -35 0
7 -8 -11 -12 -14 -15 -32 -34 0
7 -8 -11 -12 -14 -15 32 34 0
7 -8 -11 -12 -14 15 -32 34 0
7 -8 -11 -12 -14 15 32 -34 0
7 -8 -11 -12 14 -15 -32 34 0
7 -8 -11 -12 14 -15 32 -34 0
7 -8 -11 -12 14 15 -32 -34 0
7 -8 -11 -12 14 15 32 34 0
7 -8 -11 12 -14 -15 -32 34 0
7 -8 -11 12 -14 -15 32 -34 0
7 -8 -11 12 -14 15 -32 -34 0
7 -8 -11 12 -14 15 32 34 0
7 -8 -11 12 14 -15 -32 -34 0
7 -8 -11 12 14 -15 32 34 0
7 -8 -11 12 14 15 -32 34 0
7 -8 -11 12 14 15 32 -34 0
7 -8 11 -12 -14 -15 -32 34 0
7 -8 11 -12 -14 -15 32 -34 0
7 -8 11 -12 -14 15 -32 -34 0
7 -8 11 -12 -14 15 32 34 0
7 -8 11 -12 14 -15 -32 -34 0
7 -8 11 -12 14 -15 32 34 0
7 -8 11 -12 14 15 -32 34 0
7 -8 11 -12 14 15 32 -34 0
7 -8 11 12 -14 -15 -32 -34 0
7 -8 11 12 -14 -15 32 34 0
7 -8 11 12 -14 15 -32 34 0
7 -8 11 12 -14 15 32 -34 0
7 -8 11 12 14 -15 -32 34 0
7 -8 11 12 14 -15 32 -34 0
7 -8 11 12 14 15 -32 -34 0
7 -8 11 12 14 15 32 34 0
7 8 -11 -12 -14 -15 -32 34 0
7 8 -11 -12 -14 -15 32 -34 0
7 8 -11 -12 -14 15 -32 -34 0
7 8 -11 -12 -14 15 32 34 0
7 8 -11 -12 14 -15 -32 -34 0
7 8 -11 -12 14 -15 32 34 0
7 8 -11 -12 14 15 -32 34 0
7 8 -11 -12 14 15 32 -34 0
7 8 -11 12 -14 -15 -32 -34 0
7 8 -11 12 -14 -15 32 34 0
7 8 -11 12 -14 15 -32 34 0
7 8 -11 12 -14 15 32 -34 0
7 8 -11 12 14 -15 -32 34 0
7 8 -11 12 14 -15 32 -34 0
7 8 -11 12 14 15 -32 -34 0
7 8 -11 12 14 15 32 34 0
7 8 11 -12 -14 -15 -32 -34 0
7 8 11 -12 -14 -15 32 34 0
7 8 11 -12 -14 15 -32 34 0
7 8 11 -12 -14 15 32 -34 0
7 8 11 -12 14 -15 -32 34 0
7 8 11 -12 14 -15 32 -34 0
7 8 11 -12 14 15 -32 -34 0
7 8 11 -12 14 15 32 34 0
7 8 11 12 -14 -15 -32 34 0
7 8 11 12 -14 -15 32 -34 0
7 8 11 12 -14 15 -32 -34 0
7 8 11 12 -14 15 32 34 0
7 8 11 12 14 -15 -32 -34 0
7 8 11 12 14 -15 32 34 0
7 8 11 12 14 15 -32 34 0
7 8 11 12 14 15 32 -34 0
8 -10 -16 -22 -24 -25 -27 -28 0
8 -10 -16 -22 -24 -25 27 28 0
8 -10 -16 -22 -24 25 -27 28 0
8 -10 -16 -22 -24 25 27 -28 0
8 -10 -16 -22 24 -25 -27 28 0
8 -10 -16 -22 24 -25 27 -28 0
8 -10 -16 -22 24 25 -27 -28 0
8 -10 -16 -22 24 25 27 28 0
8 -10 -16 22 -24 -25 -27 28 0
8 -10 -16 22 -24 -25 27 -28 0
8 -10 -16 22 -24 25 -27 -28 0
8 -10 -16 22 -24 25 27 28 0
8 -10 -16 22 24 -25 -27 -28 0
8 -10 -16 22 24 -25 27 28 0
8 -10 -16 22 24 25 -27 28 0
8 -10 -16 22 24 25 27 -28 0
8 -10 16 -22 -24 -25 -27 28 0
8 -10 16 -22 -24 -25 27 -28 0
8 -10 16 -22 -24 25 -27 -28 0
8 -10 16 -22 -24 25 27 28 0
8 -10 16 -22 24 -25 -27 -28 0
8 -10 16 -22 24 -25 27 28 0
8 -10 16 -22 24 25 -27 28 0
8 -10 16 -22 24 25 27 -28 0
8 -10 16 22 -24 -25 -27 -28 0
8 -10 16 22 -24 -25 27 28 0
8 -10 16 22 -24 25 -27 28 0
8 -10 16 22 -24 25 27 -28 0
8 -10 16 22 24 -25 -27 28 0
8 -10 16 22 24 -25 27 -28 0
8 -10 16 22 24 25 -27 -28 0
8 -10 16 22 24 25 27 28 0
8 10 -16 -22 -24 -25 -27 28 0
8 10 -16 -22 -24 -25 27 -28 0
8 10 -16 -22 -24 25 -27 -28 0
8 10 -16 -22 -24 25 27 28 0
8 10 -16 -22 24 -25 -27 -28 0
8 10 -16 -22 24 -25 27 28 0
8 10 -16 -22 24 25 -27 28 0
8 10 -16 -22 24 25 27 -28 0
8 10 -16 22 -24 -25 -27 -28 0
8 10 -16 22 -24 -25 27 28 0
8 10 -16 22 -24 25 -27 28 0
8 10 -16 22 -24 25 27 -28 0
8 10 -16 22 24 -25 -27 28 0
8 10 -16 22 24 -25 27 -28 0
8 10 -16 22 24 25 -27 -28 0
8 10 -16 22 24 25 27 28 0
8 10 16 -22 -24 -25 -27 -28 0
8 10 16 -22 -24 -25 27 28 0
8 10 16 -22 -24 25 -27 28 0
8 10 16 -22 -24 25 27 -28 0
8 10 16 -22 24 -25 -27 28 0
8 10 16 -22 24 -25 27 -28 0
8 10 16 -22 24 25 -27 -28 0
8 10 16 -22 24 25 27 28 0
8 10 16 22 -24 -25 -27 28 0
8 10 16 22 -24 -25 27 -28 0
8 10 16 22 -24 25 -27 -28 0
8 10 16 22 -24 25 27 28 0
8 10 16 22 24 -25 -27 -28 0
8 10 16 22 24 -25 27 28 0
8 10 16 22 24 25 -27 28 0
8 10 16 22 24 25 27 -28 0
