p cnf 36 1152
-9 -13 -20 -22 -27 -29 -30 35 0
-9 -13 -20 -22 -27 -29 30 -35 0
-9 -13 -20 -22 -27 29 -30 -35 0
-9 -13 -20 -22 -27 29 30 35 0
-9 -13 -20 -22 27 -29 -30 -35 0
-9 -13 -20 -22 27 -29 30 35 0
-9 -13 -20 -22 27 29 -30 35 0
-9 -13 -20 -22 27 29 30 -35 0
-9 -13 -20 22 -27 -29 -30 -35 0
-9 -13 -20 22 -27 -29 30 35 0
-9 -13 -20 22 -27 29 -30 35 0
-9 -13 -20 22 -27 29 30 -35 0
-9 -13 -20 22 27 -29 -30 35 0
-9 -13 -20 22 27 -29 30 -35 0
-9 -13 -20 22 27 29 -30 -35 0
-9 -13 -20 22 27 29 30 35 0
-9 -13 20 -22 -27 -29 -30 -35 0
-9 -13 20 -22 -27 -29 30 35 0
-9 -13 20 -22 -27 29 -30 35 0
-9 -13 20 -22 -27 29 30 -35 0
-9 -13 20 -22 27 -29 -30 35 0
-9 -13 20 -22 27 -29 30 -35 0
-9 -13 20 -22 27 29 -30 -35 0
-9 -13 20 -22 27 29 30 35 0
-9 -13 20 22 -27 -29 -30 35 0
-9 -13 20 22 -27 -29 30 -35 0
-9 -13 20 22 -27 29 -30 -35 0
-9 -13 20 22 -27 29 30 35 0
-9 -13 20 22 27 -29 -30 -35 0
-9 -13 20 22 27 -29 30 35 0
-9 -13 20 22 27 29 -30 35 0
-9 -13 20 22 27 29 30 -35 0
-9 13 -20 -22 -27 -29 -30 -35 0
-9 13 -20 -22 -27 -29 30 35 0
-9 13 -20 -22 -27 29 -30 35 0
-9 13 -20 -22 -27 29 30 -35 0
-9 13 -20 -22 27 -29 -30 35 0
-9 13 -20 -22 27 -29 30 -35 0
-9 13 -20 -22 27 29 -30 -35 0
-9 13 -20 -22 27 29 30 35 0
-9 13 -20 22 -27 -29 -30 35 0
-9 13 -20 22 -27 -29 30 -35 0
-9 13 -20 22 -27 29 -30 -35 0
-9 13 -20 22 -27 29 30 35 0
-9 13 -20 22 27 -29 -30 -35 0
-9 13 -20 22 27 -29 30 35 0
-9 13 -20 22 27 29 -30 35 0
-9 13 -20 22 27 29 30 -35 0
-9 13 20 -22 -27 -29 -30 35 0
-9 13 20 -22 -27 -29 30 -35 0
-9 13 20 -22 -27 29 -30 -35 0
-9 13 20 -22 -27 29 30 35 0
-9 13 20 -22 27 -29 -30 -35 0
-9 13 20 -22 27 -29 30 35 0
-9 13 20 -22 27 29 -30 35 0
-9 13 20 -22 27 29 30 -35 0
-9 13 20 22 -27 -29 -30 -35 0
-9 13 20 22 -27 -29 30 35 0
-9 13 20 22 -27 29 -30 35 0
-9 13 20 22 -27 29 30 -35 0
-9 13 20 22 27 -29 -30 35 0
-9 13 20 22 27 -29 30 -35 0
-9 13 20 22 27 29 -30 -35 0
-9 13 20 22 27 29 30 35 0
-8 -12 -20 -25 -31 -32 -33 36 0
-8 -12 -20 -25 -31 -32 33 -36 0
-8 -12 -20 -25 -31 32 -33 -36 0
-8 -12 -20 -25 -31 32 33 36 0
-8 -12 -20 -25 31 -32 -33 -36 0
-8 -12 -20 -25 31 -32 33 36 0
-8 -12 -20 -25 31 32 -33 36 0
-8 -12 -20 -25 31 32 33 -36 0
-8 -12 -20 25 -31 -32 -33 -36 0
-8 -12 -20 25 -31 -32 33 36 0
-8 -12 -20 25 -31 32 -33 36 0
-8 -12 -20 25 -31 32 33 -36 0
-8 -12 -20 25 31 -32 -33 36 0
-8 -12 -20 25 31 -32 33 -36 0
-8 -12 -20 25 31 32 -33 -36 0
-8 -12 -20 25 31 32 33 36 0
-8 -12 20 -25 -31 -32 -33 -36 0
-8 -12 20 -25 -31 -32 33 36 0
-8 -12 20 -25 -31 32 -33 36 0
-8 -12 20 -25 -31 32 33 -36 0
-8 -12 20 -25 31 -32 -33 36 0
-8 -12 20 -25 31 -32 33 -36 0
-8 -12 20 -25 31 32 -33 -36 0
-8 -12 20 -25 31 32 33 36 0
-8 -12 20 25 -31 -32 -33 36 0
-8 -12 20 25 -31 -32 33 -36 0
-8 -12 20 25 -31 32 -33 -36 0
-8 -12 20 25 -31 32 33 36 0
-8 -12 20 25 31 -32 -33 -36 0
-8 -12 20 25 31 -32 33 36 0
-8 -12 20 25 31 32 -33 36 0
-8 -12 20 25 31 32 33 -36 0
-8 12 -20 -25 -31 -32 -33 -36 0
-8 12 -20 -25 -31 -32 33 36 0
-8 12 -20 -25 -31 32 -33 36 0
-8 12 -20 -25 -31 32 33 -36 0
-8 12 -20 -25 31 -32 -33 36 0
-8 12 -20 -25 31 -32 33 -36 0
-8 12 -20 -25 31 32 -33 -36 0
-8 12 -20 -25 31 32 33 36 0
-8 12 -20 25 -31 -32 -33 36 0
-8 12 -20 25 -31 -32 33 -36 0
-8 12 -20 25 -31 32 -33 -36 0
-8 12 -20 25 -31 32 33 36 0
-8 12 -20 25 31 -32 -33 -36 0
-8 12 -20 25 31 -32 33 36 0
-8 12 -20 25 31 32 -33 36 0
-8 12 -20 25 31 32 33 -36 0
-8 12 20 -25 -31 -32 -33 36 0
-8 12 20 -25 -31 -32 33 -36 0
-8 12 20 -25 -31 32 -33 -36 0
-8 12 20 -25 -31 32 33 36 0
-8 12 20 -25 31 -32 -33 -36 0
-8 12 20 -25 31 -32 33 36 0
-8 12 20 -25 31 32 -33 36 0
-8 12 20 -25 31 32 33 -36 0
-8 12 20 25 -31 -32 -33 -36 0
-8 12 20 25 -31 -32 33 36 0
-8 12 20 25 -31 32 -33 36 0
-8 12 20 25 -31 32 33 -36 0
-8 12 20 25 31 -32 -33 36 0
-8 12 20 25 31 -32 33 -36 0
-8 12 20 25 31 32 -33 -36 0
-8 12 20 25 31 32 33 36 0
-7 -9 -10 -12 -14 -18 -19 26 0
-7 -9 -10 -12 -14 -18 19 -26 0
-7 -9 -10 -12 -14 18 -19 -26 0
-7 -9 -10 -12 -14 18 19 26 0
-7 -9 -10 -12 14 -18 -19 -26 0
-7 -9 -10 -12 14 -18 19 26 0
-7 -9 -10 -12 14 18 -19 26 0
-7 -9 -10 -12 14 18 19 -26 0
-7 -9 -10 12 -14 -18 -19 -26 0
-7 -9 -10 12 -14 -18 19 26 0
-7 -9 -10 12 -14 18 -19 26 0
-7 -9 -10 12 -14 18 19 -26 0
-7 -9 -10 12 14 -18 -19 26 0
-7 -9 -10 12 14 -18 19 -26 0
-7 -9 -10 12 14 18 -19 -26 0
-7 -9 -10 12 14 18 19 26 0
-7 -9 10 -12 -14 -18 -19 -26 0
-7 -9 10 -12 -14 -18 19 26 0
-7 -9 10 -12 -14 18 -19 26 0
-7 -9 10 -12 -14 18 19 -26 0
-7 -9 10 -12 14 -18 -19 26 0
-7 -9 10 -12 14 -18 19 -26 0
-7 -9 10 -12 14 18 -19 -26 0
-7 -9 10 -12 14 18 19 26 0
-7 -9 10 12 -14 -18 -19 26 0
-7 -9 10 12 -14 -18 19 -26 0
-7 -9 10 12 -14 18 -19 -26 0
-7 -9 10 12 -14 18 19 26 0
-7 -9 10 12 14 -18 -19 -26 0
-7 -9 10 12 14 -18 19 26 0
-7 -9 10 12 14 18 -19 26 0
-7 -9 10 12 14 18 19 -26 0
-7 9 -10 -12 -14 -18 -19 -26 0
-7 9 -10 -12 -14 -18 19 26 0
-7 9 -10 -12 -14 18 -19 26 0
-7 9 -10 -12 -14 18 19 -26 0
-7 9 -10 -12 14 -18 -19 26 0
-7 9 -10 -12 14 -18 19 -26 0
-7 9 -10 -12 14 18 -19 -26 0
-7 9 -10 -12 14 18 19 26 0
-7 9 -10 12 -14 -18 -19 26 0
-7 9 -10 12 -14 -18 19 -26 0
-7 9 -10 12 -14 18 -19 -26 0
-7 9 -10 12 -14 18 19 26 0
-7 9 -10 12 14 -18 -19 -26 0
-7 9 -10 12 14 -18 19 26 0
-7 9 -10 12 14 18 -19 26 0
-7 9 -10 12 14 18 19 -26 0
-7 9 10 -12 -14 -18 -19 26 0
-7 9 10 -12 -14 -18 19 -26 0
-7 9 10 -12 -14 18 -19 -26 0
-7 9 10 -12 -14 18 19 26 0
-7 9 10 -12 14 -18 -19 -26 0
-7 9 10 -12 14 -18 19 26 0
-7 9 10 -12 14 18 -19 26 0
-7 9 10 -12 14 18 19 -26 0
-7 9 10 12 -14 -18 -19 -26 0
-7 9 10 12 -14 -18 19 26 0
-7 9 10 12 -14 18 -19 26 0
-7 9 10 12 -14 18 19 -26 0
-7 9 10 12 14 -18 -19 26 0
-7 9 10 12 14 -18 19 -26 0
-7 9 10 12 14 18 -19 -26 0
-7 9 10 12 14 18 19 26 0
-4 -10 -15 -21 -22 -23 -25 28 0
-4 -10 -15 -21 -22 -23 25 -28 0
-4 -10 -15 -21 -22 23 -25 -28 0
-4 -10 -15 -21 -22 23 25 28 0
-4 -10 -15 -21 22 -23 -25 -28 0
-4 -10 -15 -21 22 -23 25 28 0
-4 -10 -15 -21 22 23 -25 28 0
-4 -10 -15 -21 22 23 25 -28 0
-4 -10 -15 21 -22 -23 -25 -28 0
-4 -10 -15 21 -22 -23 25 28 0
-4 -10 -15 21 -22 23 -25 28 0
-4 -10 -15 21 -22 23 25 -28 0
-4 -10 -15 21 22 -23 -25 28 0
-4 -10 -15 21 22 -23 25 -28 0
-4 -10 -15 21 22 23 -25 -28 0
-4 -10 -15 21 22 23 25 28 0
-4 -10 15 -21 -22 -23 -25 -28 0
-4 -10 15 -21 -22 -23 25 28 0
-4 -10 15 -21 -22 23 -25 28 0
-4 -10 15 -21 -22 23 25 -28 0
-4 -10 15 -21 22 -23 -25 28 0
-4 -10 15 -21 22 -23 25 -28 0
-4 -10 15 -21 22 23 -25 -28 0
-4 -10 15 -21 22 23 25 28 0
-4 -10 15 21 -22 -23 -25 28 0
-4 -10 15 21 -22 -23 25 -28 0
-4 -10 15 21 -22 23 -25 -28 0
-4 -10 15 21 -22 23 25 28 0
-4 -10 15 21 22 -23 -25 -28 0
-4 -10 15 21 22 -23 25 28 0
-4 -10 15 21 22 23 -25 28 0
-4 -10 15 21 22 23 25 -28 0
-4 10 -15 -21 -22 -23 -25 -28 0
-4 10 -15 -21 -22 -23 25 28 0
-4 10 -15 -21 -22 23 -25 28 0
-4 10 -15 -21 -22 23 25 -28 0
-4 10 -15 -21 22 -23 -25 28 0
-4 10 -15 -21 22 -23 25 -28 0
-4 10 -15 -21 22 23 -25 -28 0
-4 10 -15 -21 22 23 25 28 0
-4 10 -15 21 -22 -23 -25 28 0
-4 10 -15 21 -22 -23 25 -28 0
-4 10 -15 21 -22 23 -25 -28 0
-4 10 -15 21 -22 23 25 28 0
-4 10 -15 21 22 -23 -25 -28 0
-4 10 -15 21 22 -23 25 28 0
-4 10 -15 21 22 23 -25 28 0
-4 10 -15 21 22 23 25 -28 0
-4 10 15 -21 -22 -23 -25 28 0
-4 10 15 -21 -22 -23 25 -28 0
-4 10 15 -21 -22 23 -25 -28 0
-4 10 15 -21 -22 23 25 28 0
-4 10 15 -21 22 -23 -25 -28 0
-4 10 15 -21 22 -23 25 28 0
-4 10 15 -21 22 23 -25 28 0
-4 10 15 -21 22 23 25 -28 0
-4 10 15 21 -22 -23 -25 -28 0
-4 10 15 21 -22 -23 25 28 0
-4 10 15 21 -22 23 -25 28 0
-4 10 15 21 -22 23 25 -28 0
-4 10 15 21 22 -23 -25 28 0
-4 10 15 21 22 -23 25 -28 0
-4 10 15 21 22 23 -25 -28 0
-4 10 15 21 22 23 25 28 0
-3 -17 -18 -24 -28 -30 -31 -34 0
-3 -17 -18 -24 -28 -30 31 34 0
-3 -17 -18 -24 -28 30 -31 34 0
-3 -17 -18 -24 -28 30 31 -34 0
-3 -17 -18 -24 28 -30 -31 34 0
-3 -17 -18 -24 28 -30 31 -34 0
-3 -17 -18 -24 28 30 -31 -34 0
-3 -17 -18 -24 28 30 31 34 0
-3 -17 -18 24 -28 -30 -31 34 0
-3 -17 -18 24 -28 -30 31 -34 0
-3 -17 -18 24 -28 30 -31 -34 0
-3 -17 -18 24 -28 30 31 34 0
-3 -17 -18 24 28 -30 -31 -34 0
-3 -17 -18 24 28 -30 31 34 0
-3 -17 -18 24 28 30 -31 34 0
-3 -17 -18 24 28 30 31 -34 0
-3 -17 18 -24 -28 -30 -31 34 0
-3 -17 18 -24 -28 -30 31 -34 0
-3 -17 18 -24 -28 30 -31 -34 0
-3 -17 18 -24 -28 30 31 34 0
-3 -17 18 -24 28 -30 -31 -34 0
-3 -17 18 -24 28 -30 31 34 0
-3 -17 18 -24 28 30 -31 34 0
-3 -17 18 -24 28 30 31 -34 0
-3 -17 18 24 -28 -30 -31 -34 0
-3 -17 18 24 -28 -30 31 34 0
-3 -17 18 24 -28 30 -31 34 0
-3 -17 18 24 -28 30 31 -34 0
-3 -17 18 24 28 -30 -31 34 0
-3 -17 18 24 28 -30 31 -34 0
-3 -17 18 24 28 30 -31 -34 0
-3 -17 18 24 28 30 31 34 0
-3 17 -18 -24 -28 -30 -31 34 0
-3 17 -18 -24 -28 -30 31 -34 0
-3 17 -18 -24 -28 30 -31 -34 0
-3 17 -18 -24 -28 30 31 34 0
-3 17 -18 -24 28 -30 -31 -34 0
-3 17 -18 -24 28 -30 31 34 0
-3 17 -18 -24 28 30 -31 34 0
-3 17 -18 -24 28 30 31 -34 0
-3 17 -18 24 -28 -30 -31 -34 0
-3 17 -18 24 -28 -30 31 34 0
-3 17 -18 24 -28 30 -31 34 0
-3 17 -18 24 -28 30 31 -34 0
-3 17 -18 24 28 -30 -31 34 0
-3 17 -18 24 28 -30 31 -34 0
-3 17 -18 24 28 30 -31 -34 0
-3 17 -18 24 28 30 31 34 0
-3 17 18 -24 -28 -30 -31 -34 0
-3 17 18 -24 -28 -30 31 34 0
-3 17 18 -24 -28 30 -31 34 0
-3 17 18 -24 -28 30 31 -34 0
-3 17 18 -24 28 -30 -31 34 0
-3 17 18 -24 28 -30 31 -34 0
-3 17 18 -24 28 30 -31 -34 0
-3 17 18 -24 28 30 31 34 0
-3 17 18 24 -28 -30 -31 34 0
-3 17 18 24 -28 -30 31 -34 0
-3 17 18 24 -28 30 -31 -34 0
-3 17 18 24 -28 30 31 34 0
-3 17 18 24 28 -30 -31 -34 0
-3 17 18 24 28 -30 31 34 0
-3 17 18 24 28 30 -31 34 0
-3 17 18 24 28 30 31 -34 0
-2 -5 -8 -11 -17 -21 -26 29 0
-2 -5 -8 -11 -17 -21 26 -29 0
-2 -5 -8 -11 -17 21 -26 -29 0
-2 -5 -8 -11 -17 21 26 29 0
-2 -5 -8 -11 17 -21 -26 -29 0
-2 -5 -8 -11 17 -21 26 29 0
-2 -5 -8 -11 17 21 -26 29 0
-2 -5 -8 -11 17 21 26 -29 0
-2 -5 -8 11 -17 -21 -26 -29 0
-2 -5 -8 11 -17 -21 26 29 0
-2 -5 -8 11 -17 21 -26 29 0
-2 -5 -8 11 -17 21 26 -29 0
-2 -5 -8 11 17 -21 -26 29 0
-2 -5 -8 11 17 -21 26 -29 0
-2 -5 -8 11 17 21 -26 -29 0
-2 -5 -8 11 17 21 26 29 0
-2 -5 8 -11 -17 -21 -26 -29 0
-2 -5 8 -11 -17 -21 26 29 0
-2 -5 8 -11 -17 21 -26 29 0
-2 -5 8 -11 -17 21 26 -29 0
-2 -5 8 -11 17 -21 -26 29 0
-2 -5 8 -11 17 -21 26 -29 0
-2 -5 8 -11 17 21 -26 -29 0
-2 -5 8 -11 17 21 26 29 0
-2 -5 8 11 -17 -21 -26 29 0
-2 -5 8 11 -17 -21 26 -29 0
-2 -5 8 11 -17 21 -26 -29 0
-2 -5 8 11 -17 21 26 29 0
-2 -5 8 11 17 -21 -26 -29 0
-2 -5 8 11 17 -21 26 29 0
-2 -5 8 11 17 21 -26 29 0
-2 -5 8 11 17 21 26 -29 0
-2 -3 -6 -13 -16 -19 -23 36 0
-2 -3 -6 -13 -16 -19 23 -36 0
-2 -3 -6 -13 -16 19 -23 -36 0
-2 -3 -6 -13 -16 19 23 36 0
-2 -3 -6 -13 16 -19 -23 -36 0
-2 -3 -6 -13 16 -19 23 36 0
-2 -3 -6 -13 16 19 -23 36 0
-2 -3 -6 -13 16 19 23 -36 0
-2 -3 -6 13 -16 -19 -23 -36 0
-2 -3 -6 13 -16 -19 23 36 0
-2 -3 -6 13 -16 19 -23 36 0
-2 -3 -6 13 -16 19 23 -36 0
-2 -3 -6 13 16 -19 -23 36 0
-2 -3 -6 13 16 -19 23 -36 0
-2 -3 -6 13 16 19 -23 -36 0
-2 -3 -6 13 16 19 23 36 0
-2 -3 6 -13 -16 -19 -23 -36 0
-2 -3 6 -13 -16 -19 23 36 0
-2 -3 6 -13 -16 19 -23 36 0
-2 -3 6 -13 -16 19 23 -36 0
-2 -3 6 -13 16 -19 -23 36 0
-2 -3 6 -13 16 -19 23 -36 0
-2 -3 6 -13 16 19 -23 -36 0
-2 -3 6 -13 16 19 23 36 0
-2 -3 6 13 -16 -19 -23 36 0
-2 -3 6 13 -16 -19 23 -36 0
-2 -3 6 13 -16 19 -23 -36 0
-2 -3 6 13 -16 19 23 36 0
-2 -3 6 13 16 -19 -23 -36 0
-2 -3 6 13 16 -19 23 36 0
-2 -3 6 13 16 19 -23 36 0
-2 -3 6 13 16 19 23 -36 0
-2 3 -6 -13 -16 -19 -23 -36 0
-2 3 -6 -13 -16 -19 23 36 0
-2 3 -6 -13 -16 19 -23 36 0
-2 3 -6 -13 -16 19 23 -36 0
-2 3 -6 -13 16 -19 -23 36 0
-2 3 -6 -13 16 -19 23 -36 0
-2 3 -6 -13 16 19 -23 -36 0
-2 3 -6 -13 16 19 23 36 0
-2 3 -6 13 -16 -19 -23 36 0
-2 3 -6 13 -16 -19 23 -36 0
-2 3 -6 13 -16 19 -23 -36 0
-2 3 -6 13 -16 19 23 36 0
-2 3 -6 13 16 -19 -23 -36 0
-2 3 -6 13 16 -19 23 36 0
-2 3 -6 13 16 19 -23 36 0
-2 3 -6 13 16 19 23 -36 0
-2 3 6 -13 -16 -19 -23 36 0
-2 3 6 -13 -16 -19 23 -36 0
-2 3 6 -13 -16 19 -23 -36 0
-2 3 6 -13 -16 19 23 36 0
-2 3 6 -13 16 -19 -23 -36 0
-2 3 6 -13 16 -19 23 36 0
-2 3 6 -13 16 19 -23 36 0
-2 3 6 -13 16 19 23 -36 0
-2 3 6 13 -16 -19 -23 -36 0
-2 3 6 13 -16 -19 23 36 0
-2 3 6 13 -16 19 -23 36 0
-2 3 6 13 -16 19 23 -36 0
-2 3 6 13 16 -19 -23 36 0
-2 3 6 13 16 -19 23 -36 0
-2 3 6 13 16 19 -23 -36 0
-2 3 6 13 16 19 23 36 0
-2 5 -8 -11 -17 -21 -26 -29 0
-2 5 -8 -11 -17 -21 26 29 0
-2 5 -8 -11 -17 21 -26 29 0
-2 5 -8 -11 -17 21 26 -29 0
-2 5 -8 -11 17 -21 -26 29 0
-2 5 -8 -11 17 -21 26 -29 0
-2 5 -8 -11 17 21 -26 -29 0
-2 5 -8 -11 17 21 26 29 0
-2 5 -8 11 -17 -21 -26 29 0
-2 5 -8 11 -17 -21 26 -29 0
-2 5 -8 11 -17 21 -26 -29 0
-2 5 -8 11 -17 21 26 29 0
-2 5 -8 11 17 -21 -26 -29 0
-2 5 -8 11 17 -21 26 29 0
-2 5 -8 11 17 21 -26 29 0
-2 5 -8 11 17 21 26 -29 0
-2 5 8 -11 -17 -21 -26 29 0
-2 5 8 -11 -17 -21 26 -29 0
-2 5 8 -11 -17 21 -26 -29 0
-2 5 8 -11 -17 21 26 29 0
-2 5 8 -11 17 -21 -26 -29 0
-2 5 8 -11 17 -21 26 29 0
-2 5 8 -11 17 21 -26 29 0
-2 5 8 -11 17 21 26 -29 0
-2 5 8 11 -17 -21 -26 -29 0
-2 5 8 11 -17 -21 26 29 0
-2 5 8 11 -17 21 -26 29 0
-2 5 8 11 -17 21 26 -29 0
-2 5 8 11 17 -21 -26 29 0
-2 5 8 11 17 -21 26 -29 0
-2 5 8 11 17 21 -26 -29 0
-2 5 8 11 17 21 26 29 0
-1 -7 -11 -15 -16 -33 -34 35 0
-1 -7 -11 -15 -16 -33 34 -35 0
-1 -7 -11 -15 -16 33 -34 -35 0
-1 -7 -11 -15 -16 33 34 35 0
-1 -7 -11 -15 16 -33 -34 -35 0
-1 -7 -11 -15 16 -33 34 35 0
-1 -7 -11 -15 16 33 -34 35 0
-1 -7 -11 -15 16 33 34 -35 0
-1 -7 -11 15 -16 -33 -34 -35 0
-1 -7 -11 15 -16 -33 34 35 0
-1 -7 -11 15 -16 33 -34 35 0
-1 -7 -11 15 -16 33 34 -35 0
-1 -7 -11 15 16 -33 -34 35 0
-1 -7 -11 15 16 -33 34 -35 0
-1 -7 -11 15 16 33 -34 -35 0
-1 -7 -11 15 16 33 34 35 0
-1 -7 11 -15 -16 -33 -34 -35 0
-1 -7 11 -15 -16 -33 34 35 0
-1 -7 11 -15 -16 33 -34 35 0
-1 -7 11 -15 -16 33 34 -35 0
-1 -7 11 -15 16 -33 -34 35 0
-1 -7 11 -15 16 -33 34 -35 0
-1 -7 11 -15 16 33 -34 -35 0
-1 -7 11 -15 16 33 34 35 0
-1 -7 11 15 -16 -33 -34 35 0
-1 -7 11 15 -16 -33 34 -35 0
-1 -7 11 15 -16 33 -34 -35 0
-1 -7 11 15 -16 33 34 35 0
-1 -7 11 15 16 -33 -34 -35 0
-1 -7 11 15 16 -33 34 35 0
-1 -7 11 15 16 33 -34 35 0
-1 -7 11 15 16 33 34 -35 0
-1 -4 -5 -6 -14 -24 -27 32 0
-1 -4 -5 -6 -14 -24 27 -32 0
-1 -4 -5 -6 -14 24 -27 -32 0
-1 -4 -5 -6 -14 24 27 32 0
-1 -4 -5 -6 14 -24 -27 -32 0
-1 -4 -5 -6 14 -24 27 32 0
-1 -4 -5 -6 14 24 -27 32 0
-1 -4 -5 -6 14 24 27 -32 0
-1 -4 -5 6 -14 -24 -27 -32 0
-1 -4 -5 6 -14 -24 27 32 0
-1 -4 -5 6 -14 24 -27 32 0
-1 -4 -5 6 -14 24 27 -32 0
-1 -4 -5 6 14 -24 -27 32 0
-1 -4 -5 6 14 -24 27 -32 0
-1 -4 -5 6 14 24 -27 -32 0
-1 -4 -5 6 14 24 27 32 0
-1 -4 5 -6 -14 -24 -27 -32 0
-1 -4 5 -6 -14 -24 27 32 0
-1 -4 5 -6 -14 24 -27 32 0
-1 -4 5 -6 -14 24 27 -32 0
-1 -4 5 -6 14 -24 -27 32 0
-1 -4 5 -6 14 -24 27 -32 0
-1 -4 5 -6 14 24 -27 -32 0
-1 -4 5 -6 14 24 27 32 0
-1 -4 5 6 -14 -24 -27 32 0
-1 -4 5 6 -14 -24 27 -32 0
-1 -4 5 6 -14 24 -27 -32 0
-1 -4 5 6 -14 24 27 32 0
-1 -4 5 6 14 -24 -27 -32 0
-1 -4 5 6 14 -24 27 32 0
-1 -4 5 6 14 24 -27 32 0
-1 -4 5 6 14 24 27 -32 0
-1 4 -5 -6 -14 -24 -27 -32 0
-1 4 -5 -6 -14 -24 27 32 0
-1 4 -5 -6 -14 24 -27 32 0
-1 4 -5 -6 -14 24 27 -32 0
-1 4 -5 -6 14 -24 -27 32 0
-1 4 -5 -6 14 -24 27 -32 0
-1 4 -5 -6 14 24 -27 -32 0
-1 4 -5 -6 14 24 27 32 0
-1 4 -5 6 -14 -24 -27 32 0
-1 4 -5 6 -14 -24 27 -32 0
-1 4 -5 6 -14 24 -27 -32 0
-1 4 -5 6 -14 24 27 32 0
-1 4 -5 6 14 -24 -27 -32 0
-1 4 -5 6 14 -24 27 32 0
-1 4 -5 6 14 24 -27 32 0
-1 4 -5 6 14 24 27 -32 0
-1 4 5 -6 -14 -24 -27 32 0
-1 4 5 -6 -14 -24 27 -32 0
-1 4 5 -6 -14 24 -27 -32 0
-1 4 5 -6 -14 24 27 32 0
-1 4 5 -6 14 -24 -27 -32 0
-1 4 5 -6 14 -24 27 32 0
-1 4 5 -6 14 24 -27 32 0
-1 4 5 -6 14 24 27 -32 0
-1 4 5 6 -14 -24 -27 -32 0
-1 4 5 6 -14 -24 27 32 0
-1 4 5 6 -14 24 -27 32 0
-1 4 5 6 -14 24 27 -32 0
-1 4 5 6 14 -24 -27 32 0
-1 4 5 6 14 -24 27 -32 0
-1 4 5 6 14 24 -27 -32 0
-1 4 5 6 14 24 27 32 0
-1 7 -11 -15 -16 -33 -34 -35 0
-1 7 -11 -15 -16 -33 34 35 0
-1 7 -11 -15 -16 33 -34 35 0
-1 7 -11 -15 -16 33 34 -35 0
-1 7 -11 -15 16 -33 -34 35 0
-1 7 -11 -15 16 -33 34 -35 0
-1 7 -11 -15 16 33 -34 -35 0
-1 7 -11 -15 16 33 34 35 0
-1 7 -11 15 -16 -33 -34 35 0
-1 7 -11 15 -16 -33 34 -35 0
-1 7 -11 15 -16 33 -34 -35 0
-1 7 -11 15 -16 33 34 35 0
-1 7 -11 15 16 -33 -34 -35 0
-1 7 -11 15 16 -33 34 35 0
-1 7 -11 15 16 33 -34 35 0
-1 7 -11 15 16 33 34 -35 0
-1 7 11 -15 -16 -33 -34 35 0
-1 7 11 -15 -16 -33 34 -35 0
-1 7 11 -15 -16 33 -34 -35 0
-1 7 11 -15 -16 33 34 35 0
-1 7 11 -15 16 -33 -34 -35 0
-1 7 11 -15 16 -33 34 35 0
-1 7 11 -15 16 33 -34 35 0
-1 7 11 -15 16 33 34 -35 0
-1 7 11 15 -16 -33 -34 -35 0
-1 7 11 15 -16 -33 34 35 0
-1 7 11 15 -16 33 -34 35 0
-1 7 11 15 -16 33 34 -35 0
-1 7 11 15 16 -33 -34 35 0
-1 7 11 15 16 -33 34 -35 0
-1 7 11 15 16 33 -34 -35 0
-1 7 11 15 16 33 34 35 0
1 -7 -11 -15 -16 -33 -34 -35 0
1 -7 -11 -15 -16 -33 34 35 0
1 -7 -11 -15 -16 33 -34 35 0
1 -7 -11 -15 -16 33 34 -35 0
1 -7 -11 -15 16 -33 -34 35 0
1 -7 -11 -15 16 -33 34 -35 0
1 -7 -11 -15 16 33 -34 -35 0
1 -7 -11 -15 16 33 34 35 0
1 -7 -11 15 -16 -33 -34 35 0
1 -7 -11 15 -16 -33 34 -35 0
1 -7 -11 15 -16 33 -34 -35 0
1 -7 -11 15 -16 33 34 35 0
1 -7 -11 15 16 -33 -34 -35 0
1 -7 -11 15 16 -33 34 35 0
1 -7 -11 15 16 33 -34 35 0
1 -7 -11 15 16 33 34 -35 0
1 -7 11 -15 -16 -33 -34 35 0
1 -7 11 -15 -16 -33 34 -35 0
1 -7 11 -15 -16 33 -34 -35 0
1 -7 11 -15 -16 33 34 35 0
1 -7 11 -15 16 -33 -34 -35 0
1 -7 11 -15 16 -33 34 35 0
1 -7 11 -15 16 33 -34 35 0
1 -7 11 -15 16 33 34 -35 0
1 -7 11 15 -16 -33 -34 -35 0
1 -7 11 15 -16 -33 34 35 0
1 -7 11 15 -16 33 -34 35 0
1 -7 11 15 -16 33 34 -35 0
1 -7 11 15 16 -33 -34 35 0
1 -7 11 15 16 -33 34 -35 0
1 -7 11 15 16 33 -34 -35 0
1 -7 11 15 16 33 34 35 0
1 -4 -5 -6 -14 -24 -27 -32 0
1 -4 -5 -6 -14 -24 27 32 0
1 -4 -5 -6 -14 24 -27 32 0
1 -4 -5 -6 -14 24 27 -32 0
1 -4 -5 -6 14 -24 -27 32 0
1 -4 -5 -6 14 -24 27 -32 0
1 -4 -5 -6 14 24 -27 -32 0
1 -4 -5 -6 14 24 27 32 0
1 -4 -5 6 -14 -24 -27 32 0
1 -4 -5 6 -14 -24 27 -32 0
1 -4 -5 6 -14 24 -27 -32 0
1 -4 -5 6 -14 24 27 32 0
1 -4 -5 6 14 -24 -27 -32 0
1 -4 -5 6 14 -24 27 32 0
1 -4 -5 6 14 24 -27 32 0
1 -4 -5 6 14 24 27 -32 0
1 -4 5 -6 -14 -24 -27 32 0
1 -4 5 -6 -14 -24 27 -32 0
1 -4 5 -6 -14 24 -27 -32 0
1 -4 5 -6 -14 24 27 32 0
1 -4 5 -6 14 -24 -27 -32 0
1 -4 5 -6 14 -24 27 32 0
1 -4 5 -6 14 24 -27 32 0
1 -4 5 -6 14 24 27 -32 0
1 -4 5 6 -14 -24 -27 -32 0
1 -4 5 6 -14 -24 27 32 0
1 -4 5 6 -14 24 -27 32 0
1 -4 5 6 -14 24 27 -32 0
1 -4 5 6 14 -24 -27 32 0
1 -4 5 6 14 -24 27 -32 0
1 -4 5 6 14 24 -27 -32 0
1 -4 5 6 14 24 27 32 0
1 4 -5 -6 -14 -24 -27 32 0
1 4 -5 -6 -14 -24 27 -32 0
1 4 -5 -6 -14 24 -27 -32 0
1 4 -5 -6 -14 24 27 32 0
1 4 -5 -6 14 -24 -27 -32 0
1 4 -5 -6 14 -24 27 32 0
1 4 -5 -6 14 24 -27 32 0
1 4 -5 -6 14 24 27 -32 0
1 4 -5 6 -14 -24 -27 -32 0
1 4 -5 6 -14 -24 27 32 0
1 4 -5 6 -14 24 -27 32 0
1 4 -5 6 -14 24 27 -32 0
1 4 -5 6 14 -24 -27 32 0
1 4 -5 6 14 -24 27 -32 0
1 4 -5 6 14 24 -27 -32 0
1 4 -5 6 14 24 27 32 0
1 4 5 -6 -14 -24 -27 -32 0
1 4 5 -6 -14 -24 27 32 0
1 4 5 -6 -14 24 -27 32 0
1 4 5 -6 -14 24 27 -32 0
1 4 5 -6 14 -24 -27 32 0
1 4 5 -6 14 -24 27 -32 0
1 4 5 -6 14 24 -27 -32 0
1 4 5 -6 14 24 27 32 0
1 4 5 6 -14 -24 -27 32 0
1 4 5 6 -14 -24 27 -32 0
1 4 5 6 -14 24 -27 -32 0
1 4 5 6 -14 24 27 32 0
1 4 5 6 14 -24 -27 -32 0
1 4 5 6 14 -24 27 32 0
1 4 5 6 14 24 -27 32 0
1 4 5 6 14 24 27 -32 0
1 7 -11 -15 -16 -33 -34 35 0
1 7 -11 -15 -16 -33 34 -35 0
1 7 -11 -15 -16 33 -34 -35 0
1 7 -11 -15 -16 33 34 35 0
1 7 -11 -15 16 -33 -34 -35 0
1 7 -11 -15 16 -33 34 35 0
1 7 -11 -15 16 33 -34 35 0
1 7 -11 -15 16 33 34 -35 0
1 7 -11 15 -16 -33 -34 -35 0
1 7 -11 15 -16 -33 34 35 0
1 7 -11 15 -16 33 -34 35 0
1 7 -11 15 -16 33 34 -35 0
1 7 -11 15 16 -33 -34 35 0
1 7 -11 15 16 -33 34 -35 0
1 7 -11 15 16 33 -34 -35 0
1 7 -11 15 16 33 34 35 0
1 7 11 -15 -16 -33 -34 -35 0
1 7 11 -15 -16 -33 34 35 0
1 7 11 -15 -16 33 -34 35 0
1 7 11 -15 -16 33 34 -35 0
1 7 11 -15 16 -33 -34 35 0
1 7 11 -15 16 -33 34 -35 0
1 7 11 -15 16 33 -34 -35 0
1 7 11 -15 16 33 34 35 0
1 7 11 15 -16 -33 -34 35 0
1 7 11 15 -16 -33 34 -35 0
1 7 11 15 -16 33 -34 -35 0
1 7 11 15 -16 33 34 35 0
1 7 11 15 16 -33 -34 -35 0
1 7 11 15 16 -33 34 35 0
1 7 11 15 16 33 -34 35 0
1 7 11 15 16 33 34 -35 0
2 -5 -8 -11 -17 -21 -26 -29 0
2 -5 -8 -11 -17 -21 26 29 0
2 -5 -8 -11 -17 21 -26 29 0
2 -5 -8 -11 -17 21 26 -29 0
2 -5 -8 -11 17 -21 -26 29 0
2 -5 -8 -11 17 -21 26 -29 0
2 -5 -8 -11 17 21 -26 -29 0
2 -5 -8 -11 17 21 26 29 0
2 -5 -8 11 -17 -21 -26 29 0
2 -5 -8 11 -17 -21 26 -29 0
2 -5 -8 11 -17 21 -26 -29 0
2 -5 -8 11 -17 21 26 29 0
2 -5 -8 11 17 -21 -26 -29 0
2 -5 -8 11 17 -21 26 29 0
2 -5 -8 11 17 21 -26 29 0
2 -5 -8 11 17 21 26 -29 0
2 -5 8 -11 -17 -21 -26 29 0
2 -5 8 -11 -17 -21 26 -29 0
2 -5 8 -11 -17 21 -26 -29 0
2 -5 8 -11 -17 21 26 29 0
2 -5 8 -11 17 -21 -26 -29 0
2 -5 8 -11 17 -21 26 29 0
2 -5 8 -11 17 21 -26 29 0
2 -5 8 -11 17 21 26 -29 0
2 -5 8 11 -17 -21 -26 -29 0
2 -5 8 11 -17 -21 26 29 0
2 -5 8 11 -17 21 -26 29 0
2 -5 8 11 -17 21 26 -29 0
2 -5 8 11 17 -21 -26 29 0
2 -5 8 11 17 -21 26 -29 0
2 -5 8 11 17 21 -26 -29 0
2 -5 8 11 17 21 26 29 0
2 -3 -6 -13 -16 -19 -23 -36 0
2 -3 -6 -13 -16 -19 23 36 0
2 -3 -6 -13 -16 19 -23 36 0
2 -3 -6 -13 -16 19 23 -36 0
2 -3 -6 -13 16 -19 -23 36 0
2 -3 -6 -13 16 -19 23 -36 0
2 -3 -6 -13 16 19 -23 -36 0
2 -3 -6 -13 16 19 23 36 0
2 -3 -6 13 -16 -19 -23 36 0
2 -3 -6 13 -16 -19 23 -36 0
2 -3 -6 13 -16 19 -23 -36 0
2 -3 -6 13 -16 19 23 36 0
2 -3 -6 13 16 -19 -23 -36 0
2 -3 -6 13 16 -19 23 36 0
2 -3 -6 13 16 19 -23 36 0
2 -3 -6 13 16 19 23 -36 0
2 -3 6 -13 -16 -19 -23 36 0
2 -3 6 -13 -16 -19 23 -36 0
2 -3 6 -13 -16 19 -23 -36 0
2 -3 6 -13 -16 19 23 36 0
2 -3 6 -13 16 -19 -23 -36 0
2 -3 6 -13 16 -19 23 36 0
2 -3 6 -13 16 19 -23 36 0
2 -3 6 -13 16 19 23 -36 0
2 -3 6 13 -16 -19 -23 -36 0
2 -3 6 13 -16 -19 23 36 0
2 -3 6 13 -16 19 -23 36 0
2 -3 6 13 -16 19 23 -36 0
2 -3 6 13 16 -19 -23 36 0
2 -3 6 13 16 -19 23 -36 0
2 -3 6 13 16 19 -23 -36 0
2 -3 6 13 16 19 23 36 0
2 3 -6 -13 -16 -19 -23 36 0
2 3 -6 -13 -16 -19 23 -36 0
2 3 -6 -13 -16 19 -23 -36 0
2 3 -6 -13 -16 19 23 36 0
2 3 -6 -13 16 -19 -23 -36 0
2 3 -6 -13 16 -19 23 36 0
2 3 -6 -13 16 19 -23 36 0
2 3 -6 -13 16 19 23 -36 0
2 3 -6 13 -16 -19 -23 -36 0
2 3 -6 13 -16 -19 23 36 0
2 3 -6 13 -16 19 -23 36 0
2 3 -6 13 -16 19 23 -36 0
2 3 -6 13 16 -19 -23 36 0
2 3 -6 13 16 -19 23 -36 0
2 3 -6 13 16 19 -23 -36 0
2 3 -6 13 16 19 23 36 0
2 3 6 -13 -16 -19 -23 -36 0
2 3 6 -13 -16 -19 23 36 0
2 3 6 -13 -16 19 -23 36 0
2 3 6 -13 -16 19 23 -36 0
2 3 6 -13 16 -19 -23 36 0
2 3 6 -13 16 -19 23 -36 0
2 3 6 -13 16 19 -23 -36 0
2 3 6 -13 16 19 23 36 0
2 3 6 13 -16 -19 -23 36 0
2 3 6 13 -16 -19 23 -36 0
2 3 6 13 -16 19 -23 -36 0
2 3 6 13 -16 19 23 36 0
2 3 6 13 16 -19 -23 -36 0
2 3 6 13 16 -19 23 36 0
2 3 6 13 16 19 -23 36 0
2 3 6 13 16 19 23 -36 0
2 5 -8 -11 -17 -21 -26 29 0
2 5 -8 -11 -17 -21 26 -29 0
2 5 -8 -11 -17 21 -26 -29 0
2 5 -8 -11 -17 21 26 29 0
2 5 -8 -11 17 -21 -26 -29 0
2 5 -8 -11 17 -21 26 29 0
2 5 -8 -11 17 21 -26 29 0
2 5 -8 -11 17 21 26 -29 0
2 5 -8 11 -17 -21 -26 -29 0
2 5 -8 11 -17 -21 26 29 0
2 5 -8 11 -17 21 -26 29 0
2 5 -8 11 -17 21 26 -29 0
2 5 -8 11 17 -21 -26 29 0
2 5 -8 11 17 -21 26 -29 0
2 5 -8 11 17 21 -26 -29 0
2 5 -8 11 17 21 26 29 0
2 5 8 -11 -17 -21 -26 -29 0
2 5 8 -11 -17 -21 26 29 0
2 5 8 -11 -17 21 -26 29 0
2 5 8 -11 -17 21 26 -29 0
2 5 8 -11 17 -21 -26 29 0
2 5 8 -11 17 -21 26 -29 0
2 5 8 -11 17 21 -26 -29 0
2 5 8 -11 17 21 26 29 0
2 5 8 11 -17 -21 -26 29 0
2 5 8 11 -17 -21 26 -29 0
2 5 8 11 -17 21 -26 -29 0
2 5 8 11 -17 21 26 29 0
2 5 8 11 17 -21 -26 -29 0
2 5 8 11 17 -21 26 29 0
2 5 8 11 17 21 -26 29 0
2 5 8 11 17 21 26 -29 0
3 -17 -18 -24 -28 -30 -31 34 0
3 -17 -18 -24 -28 -30 31 -34 0
3 -17 -18 -24 -28 30 -31 -34 0
3 -17 -18 -24 -28 30 31 34 0
3 -17 -18 -24 28 -30 -31 -34 0
3 -17 -18 -24 28 -30 31 34 0
3 -17 -18 -24 28 30 -31 34 0
3 -17 -18 -24 28 30 31 -34 0
3 -17 -18 24 -28 -30 -31 -34 0
3 -17 -18 24 -28 -30 31 34 0
3 -17 -18 24 -28 30 -31 34 0
3 -17 -18 24 -28 30 31 -34 0
3 -17 -18 24 28 -30 -31 34 0
3 -17 -18 24 28 -30 31 -34 0
3 -17 -18 24 28 30 -31 -34 0
3 -17 -18 24 28 30 31 34 0
3 -17 18 -24 -28 -30 -31 -34 0
3 -17 18 -24 -28 -30 31 34 0
3 -17 18 -24 -28 30 -31 34 0
3 -17 18 -24 -28 30 31 -34 0
3 -17 18 -24 28 -30 -31 34 0
3 -17 18 -24 28 -30 31 -34 0
3 -17 18 -24 28 30 -31 -34 0
3 -17 18 -24 28 30 31 34 0
3 -17 18 24 -28 -30 -31 34 0
3 -17 18 24 -28 -30 31 -34 0
3 -17 18 24 -28 30 -31 -34 0
3 -17 18 24 -28 30 31 34 0
3 -17 18 24 28 -30 -31 -34 0
3 -17 18 24 28 -30 31 34 0
3 -17 18 24 28 30 -31 34 0
3 -17 18 24 28 30 31 -34 0
3 17 -18 -24 -28 -30 -31 -34 0
3 17 -18 -24 -28 -30 31 34 0
3 17 -18 -24 -28 30 -31 34 0
3 17 -18 -24 -28 30 31 -34 0
3 17 -18 -24 28 -30 -31 34 0
3 17 -18 -24 28 -30 31 -34 0
3 17 -18 -24 28 30 -31 -34 0
3 17 -18 -24 28 30 31 34 0
3 17 -18 24 -28 -30 -31 34 0
3 17 -18 24 -28 -30 31 -34 0
3 17 -18 24 -28 30 -31 -34 0
3 17 -18 24 -28 30 31 34 0
3 17 -18 24 28 -30 -31 -34 0
3 17 -18 24 28 -30 31 34 0
3 17 -18 24 28 30 -31 34 0
3 17 -18 24 28 30 31 -34 0
3 17 18 -24 -28 -30 -31 34 0
3 17 18 -24 -28 -30 31 -34 0
3 17 18 -24 -28 30 -31 -34 0
3 17 18 -24 -28 30 31 34 0
3 17 18 -24 28 -30 -31 -34 0
3 17 18 -24 28 -30 31 34 0
3 17 18 -24 28 30 -31 34 0
3 17 18 -24 28 30 31 -34 0
3 17 18 24 -28 -30 -31 -34 0
3 17 18 24 -28 -30 31 34 0
3 17 18 24 -28 30 -31 34 0
3 17 18 24 -28 30 31 -34 0
3 17 18 24 28 -30 -31 34 0
3 17 18 24 28 -30 31 -34 0
3 17 18 24 28 30 -31 -34 0
3 17 18 24 28 30 31 34 0
4 -10 -15 -21 -22 -23 -25 -28 0
4 -10 -15 -21 -22 -23 25 28 0
4 -10 -15 -21 -22 23 -25 28 0
4 -10 -15 -21 -22 23 25 -28 0
4 -10 -15 -21 22 -23 -25 28 0
4 -10 -15 -21 22 -23 25 -28 0
4 -10 -15 -21 22 23 -25 -28 0
4 -10 -15 -21 22 23 25 28 0
4 -10 -15 21 -22 -23 -25 28 0
4 -10 -15 21 -22 -23 25 -28 0
4 -10 -15 21 -22 23 -25 -28 0
4 -10 -15 21 -22 23 25 28 0
4 -10 -15 21 22 -23 -25 -28 0
4 -10 -15 21 22 -23 25 28 0
4 -10 -15 21 22 23 -25 28 0
4 -10 -15 21 22 23 25 -28 0
4 -10 15 -21 -22 -23 -25 28 0
4 -10 15 -21 -22 -23 25 -28 0
4 -10 15 -21 -22 23 -25 -28 0
4 -10 15 -21 -22 23 25 28 0
4 -10 15 -21 22 -23 -25 -28 0
4 -10 15 -21 22 -23 25 28 0
4 -10 15 -21 22 23 -25 28 0
4 -10 15 -21 22 23 25 -28 0
4 -10 15 21 -22 -23 -25 -28 0
4 -10 15 21 -22 -23 25 28 0
4 -10 15 21 -22 23 -25 28 0
4 -10 15 21 -22 23 25 -28 0
4 -10 15 21 22 -23 -25 28 0
4 -10 15 21 22 -23 25 -28 0
4 -10 15 21 22 23 -25 -28 0
4 -10 15 21 22 23 25 28 0
4 10 -15 -21 -22 -23 -25 28 0
4 10 -15 -21 -22 -23 25 -28 0
4 10 -15 -21 -22 23 -25 -28 0
4 10 -15 -21 -22 23 25 28 0
4 10 -15 -21 22 -23 -25 -28 0
4 10 -15 -21 22 -23 25 28 0
4 10 -15 -21 22 23 -25 28 0
4 10 -15 -21 22 23 25 -28 0
4 10 -15 21 -22 -23 -25 -28 0
4 10 -15 21 -22 -23 25 28 0
4 10 -15 21 -22 23 -25 28 0
4 10 -15 21 -22 23 25 -28 0
4 10 -15 21 22 -23 -25 28 0
4 10 -15 21 22 -23 25 -28 0
4 10 -15 21 22 23 -25 -28 0
4 10 -15 21 22 23 25 28 0
4 10 15 -21 -22 -23 -25 -28 0
4 10 15 -21 -22 -23 25 28 0
4 10 15 -21 -22 23 -25 28 0
4 10 15 -21 -22 23 25 -28 0
4 10 15 -21 22 -23 -25 28 0
4 10 15 -21 22 -23 25 -28 0
4 10 15 -21 22 23 -25 -28 0
4 10 15 -21 22 23 25 28 0
4 10 15 21 -22 -23 -25 28 0
4 10 15 21 -22 -23 25 -28 0
4 10 15 21 -22 23 -25 -28 0
4 10 15 21 -22 23 25 28 0
4 10 15 21 22 -23 -25 -28 0
4 10 15 21 22 -23 25 28 0
4 10 15 21 22 23 -25 28 0
4 10 15 21 22 23 25 -28 0
7 -9 -10 -12 -14 -18 -19 -26 0
7 -9 -10 -12 -14 -18 19 26 0
7 -9 -10 -12 -14 18 -19 26 0
7 -9 -10 -12 -14 18 19 -26 0
7 -9 -10 -12 14 -18 -19 26 0
7 -9 -10 -12 14 -18 19 -26 0
7 -9 -10 -12 14 18 -19 -26 0
7 -9 -10 -12 14 18 19 26 0
7 -9 -10 12 -14 -18 -19 26 0
7 -9 -10 12 -14 -18 19 -26 0
7 -9 -10 12 -14 18 -19 -26 0
7 -9 -10 12 -14 18 19 26 0
7 -9 -10 12 14 -18 -19 -26 0
7 -9 -10 12 14 -18 19 26 0
7 -9 -10 12 14 18 -19 26 0
7 -9 -10 12 14 18 19 -26 0
7 -9 10 -12 -14 -18 -19 26 0
7 -9 10 -12 -14 -18 19 -26 0
7 -9 10 -12 -14 18 -19 -26 0
7 -9 10 -12 -14 18 19 26 0
7 -9 10 -12 14 -18 -19 -26 0
7 -9 10 -12 14 -18 19 26 0
7 -9 10 -12 14 18 -19 26 0
7 -9 10 -12 14 18 19 -26 0
7 -9 10 12 -14 -18 -19 -26 0
7 -9 10 12 -14 -18 19 26 0
7 -9 10 12 -14 18 -19 26 0
7 -9 10 12 -14 18 19 -26 0
7 -9 10 12 14 -18 -19 26 0
7 -9 10 12 14 -18 19 -26 0
7 -9 10 12 14 18 -19 -26 0
7 -9 10 12 14 18 19 26 0
7 9 -10 -12 -14 -18 -19 26 0
7 9 -10 -12 -14 -18 19 -26 0
7 9 -10 -12 -14 18 -19 -26 0
7 9 -10 -12 -14 18 19 26 0
7 9 -10 -12 14 -18 -19 -26 0
7 9 -10 -12 14 -18 19 26 0
7 9 -10 -12 14 18 -19 26 0
7 9 -10 -12 14 18 19 -26 0
7 9 -10 12 -14 -18 -19 -26 0
7 9 -10 12 -14 -18 19 26 0
7 9 -10 12 -14 18 -19 26 0
7 9 -10 12 -14 18 19 -26 0
7 9 -10 12 14 -18 -19 26 0
7 9 -10 12 14 -18 19 -26 0
7 9 -10 12 14 18 -19 -26 0
7 9 -10 12 14 18 19 26 0
7 9 10 -12 -14 -18 -19 -26 0
7 9 10 -12 -14 -18 19 26 0
7 9 10 -12 -14 18 -19 26 0
7 9 10 -12 -14 18 19 -26 0
7 9 10 -12 14 -18 -19 26 0
7 9 10 -12 14 -18 19 -26 0
7 9 10 -12 14 18 -19 -26 0
7 9 10 -12 14 18 19 26 0
7 9 10 12 -14 -18 -19 26 0
7 9 10 12 -14 -18 19 -26 0
7 9 10 12 -14 18 -19 -26 0
7 9 10 12 -14 18 19 26 0
7 9 10 12 14 -18 -19 -26 0
7 9 10 12 14 -18 19 26 0
7 9 10 12 14 18 -19 26 0
7 9 10 12 14 18 19 -26 0
8 -12 -20 -25 -31 -32 -33 -36 0
8 -12 -20 -25 -31 -32 33 36 0
8 -12 -20 -25 -31 32 -33 36 0
8 -12 -20 -25 -31 32 33 -36 0
8 -12 -20 -25 31 -32 -33 36 0
8 -12 -20 -25 31 -32 33 -36 0
8 -12 -20 -25 31 32 -33 -36 0
8 -12 -20 -25 31 32 33 36 0
8 -12 -20 25 -31 -32 -33 36 0
8 -12 -20 25 -31 -32 33 -36 0
8 -12 -20 25 -31 32 -33 -36 0
8 -12 -20 25 -31 32 33 36 0
8 -12 -20 25 31 -32 -33 -36 0
8 -12 -20 25 31 -32 33 36 0
8 -12 -20 25 31 32 -33 36 0
8 -12 -20 25 31 32 33 -36 0
8 -12 20 -25 -31 -32 -33 36 0
8 -12 20 -25 -31 -32 33 -36 0
8 -12 20 -25 -31 32 -33 -36 0
8 -12 20 -25 -31 32 33 36 0
8 -12 20 -25 31 -32 -33 -36 0
8 -12 20 -25 31 -32 33 36 0
8 -12 20 -25 31 32 -33 36 0
8 -12 20 -25 31 32 33 -36 0
8 -12 20 25 -31 -32 -33 -36 0
8 -12 20 25 -31 -32 33 36 0
8 -12 20 25 -31 32 -33 36 0
8 -12 20 25 -31 32 33 -36 0
8 -12 20 25 31 -32 -33 36 0
8 -12 20 25 31 -32 33 -36 0
8 -12 20 25 31 32 -33 -36 0
8 -12 20 25 31 32 33 36 0
8 12 -20 -25 -31 -32 -33 36 0
8 12 -20 -25 -31 -32 33 -36 0
8 12 -20 -25 -31 32 -33 -36 0
8 12 -20 -25 -31 32 33 36 0
8 12 -20 -25 31 -32 -33 -36 0
8 12 -20 -25 31 -32 33 36 0
8 12 -20 -25 31 32 -33 36 0
8 12 -20 -25 31 32 33 -36 0
8 12 -20 25 -31 -32 -33 -36 0
8 12 -20 25 -31 -32 33 36 0
8 12 -20 25 -31 32 -33 36 0
8 12 -20 25 -31 32 33 -36 0
8 12 -20 25 31 -32 -33 36 0
8 12 -20 25 31 -32 33 -36 0
8 12 -20 25 31 32 -33 -36 0
8 12 -20 25 31 32 33 36 0
8 12 20 -25 -31 -32 -33 -36 0
8 12 20 -25 -31 -32 33 36 0
8 12 20 -25 -31 32 -33 36 0
8 12 20 -25 -31 32 33 -36 0
8 12 20 -25 31 -32 -33 36 0
8 12 20 -25 31 -32 33 -36 0
8 12 20 -25 31 32 -33 -36 0
8 12 20 -25 31 32 33 36 0
8 12 20 25 -31 -32 -33 36 0
8 12 20 25 -31 -32 33 -36 0
8 12 20 25 -31 32 -33 -36 0
8 12 20 25 -31 32 33 36 0
8 12 20 25 31 -32 -33 -36 0
8 12 20 25 31 -32 33 36 0
8 12 20 25 31 32 -33 36 0
8 12 20 25 31 32 33 -36 0
9 -13 -20 -22 -27 -29 -30 -35 0
9 -13 -20 -22 -27 -29 30 35 0
9 -13 -20 -22 -27 29 -30 35 0
9 -13 -20 -22 -27 29 30 -35 0
9 -13 -20 -22 27 -29 -30 35 0
9 -13 -20 -22 27 -29 30 -35 0
9 -13 -20 -22 27 29 -30 -35 0
9 -13 -20 -22 27 29 30 35 0
9 -13 -20 22 -27 -29 -30 35 0
9 -13 -20 22 -27 -29 30 -35 0
9 -13 -20 22 -27 29 -30 -35 0
9 -13 -20 22 -27 29 30 35 0
9 -13 -20 22 27 -29 -30 -35 0
9 -13 -20 22 27 -29 30 35 0
9 -13 -20 22 27 29 -30 35 0
9 -13 -20 22 27 29 30 -35 0
9 -13 20 -22 -27 -29 -30 35 0
9 -13 20 -22 -27 -29 30 -35 0
9 -13 20 -22 -27 29 -30 -35 0
9 -13 20 -22 -27 29 30 35 0
9 -13 20 -22 27 -29 -30 -35 0
9 -13 20 -22 27 -29 30 35 0
9 -13 20 -22 27 29 -30 35 0
9 -13 20 -22 27 29 30 -35 0
9 -13 20 22 -27 -29 -30 -35 0
9 -13 20 22 -27 -29 30 35 0
9 -13 20 22 -27 29 -30 35 0
9 -13 20 22 -27 29 30 -35 0
9 -13 20 22 27 -29 -30 35 0
9 -13 20 22 27 -29 30 -35 0
9 -13 20 22 27 29 -30 -35 0
9 -13 20 22 27 29 30 35 0
9 13 -20 -22 -27 -29 -30 35 0
9 13 -20 -22 -27 -29 30 -35 0
9 13 -20 -22 -27 29 -30 -35 0
9 13 -20 -22 -27 29 30 35 0
9 13 -20 -22 27 -29 -30 -35 0
9 13 -20 -22 27 -29 30 35 0
9 13 -20 -22 27 29 -30 35 0
9 13 -20 -22 27 29 30 -35 0
9 13 -20 22 -27 -29 -30 -35 0
9 13 -20 22 -27 -29 30 35 0
9 13 -20 22 -27 29 -30 35 0
9 13 -20 22 -27 29 30 -35 0
9 13 -20 22 27 -29 -30 35 0
9 13 -20 22 27 -29 30 -35 0
9 13 -20 22 27 29 -30 -35 0
9 13 -20 22 27 29 30 35 0
9 13 20 -22 -27 -29 -30 -35 0
9 13 20 -22 -27 -29 30 35 0
9 13 20 -22 -27 29 -30 35 0
9 13 20 -22 -27 29 30 -35 0
9 13 20 -22 27 -29 -30 35 0
9 13 20 -22 27 -29 30 -35 0
9 13 20 -22 27 29 -30 -35 0
9 13 20 -22 27 29 30 35 0
9 13 20 22 -27 -29 -30 35 0
9 13 20 22 -27 -29 30 -35 0
9 13 20 22 -27 29 -30 -35 0
9 13 20 22 -27 29 30 35 0
9 13 20 22 27 -29 -30 -35 0
9 13 20 22 27 -29 30 35 0
9 13 20 22 27 29 -30 35 0
9 13 20 22 27 29 30 -35 0
