p cnf 15 96
-4 -8 -10 -12 -15 0
-4 -8 -10 12 15 0
-4 -8 10 -12 15 0
-4 -8 10 12 -15 0
-4 8 -10 -12 15 0
-4 8 -10 12 -15 0
-4 8 10 -12 -15 0
-4 8 10 12 15 0
-3 -6 -10 -13 -14 0
-3 -6 -10 13 14 0
-3 -6 10 -13 14 0
-3 -6 10 13 -14 0
-3 6 -10 -13 14 0
-3 6 -10 13 -14 0
-3 6 10 -13 -14 0
-3 6 10 13 14 0
-2 -6 -9 -11 -12 0
-2 -6 -9 11 12 0
-2 -6 9 -11 12 0
-2 -6 9 11 -12 0
-2 -5 -7 -13 -15 0
-2 -5 -7 13 15 0
-2 -5 7 -13 15 0
-2 -5 7 13 -15 0
-2 5 -7 -13 15 0
-2 5 -7 13 -15 0
-2 5 7 -13 -15 0
-2 5 7 13 15 0
-2 6 -9 -11 12 0
-2 6 -9 11 -12 0
-2 6 9 -11 -12 0
-2 6 9 11 12 0
-1 -5 -8 -11 -14 0
-1 -5 -8 11 14 0
-1 -5 8 -11 14 0
-1 -5 8 11 -14 0
-1 -3 -4 -7 -9 0
-1 -3 -4 7 9 0
-1 -3 4 -7 9 0
-1 -3 4 7 -9 0
-1 3 -4 -7 9 0
-1 3 -4 7 -9 0
-1 3 4 -7 -9 0
-1 3 4 7 9 0
-1 5 -8 -11 14 0
-1 5 -8 11 -14 0
-1 5 8 -11 -14 0
-1 5 8 11 14 0
1 -5 -8 -11 14 0
1 -5 -8 11 -14 0
1 -5 8 -11 -14 0
1 -5 8 11 14 0
1 -3 -4 -7 9 0
1 -3 -4 7 -9 0
1 -3 4 -7 -9 0
1 -3 4 7 9 0
1 3 -4 -7 -9 0
1 3 -4 7 9 0
1 3 4 -7 9 0
1 3 4 7 -9 0
1 5 -8 -11 -14 0
1 5 -8 11 14 0
1 5 8 -11 14 0
1 5 8 11 -14 0
2 -6 -9 -11 12 0
2 -6 -9 11 -12 0
2 -6 9 -11 -12 0
2 -6 9 11 12 0
2 -5 -7 -13 15 0
2 -5 -7 13 -15 0
2 -5 7 -13 -15 0
2 -5 7 13 15 0
2 5 -7 -13 -15 0
2 5 -7 13 15 0
2 5 7 -13 15 0
2 5 7 13 -15 0
2 6 -9 -11 -12 0
2 6 -9 11 12 0
2 6 9 -11 12 0
2 6 9 11 -12 0
3 -6 -10 -13 14 0
3 -6 -10 13 -14 0
3 -6 10 -13 -14 0
3 -6 10 13 14 0
3 6 -10 -13 -14 0
3 6 -10 13 14 0
3 6 10 -13 14 0
3 6 10 13 -14 0
4 -8 -10 -12 15 0
4 -8 -10 12 -15 0
4 -8 10 -12 -15 0
4 -8 10 12 15 0
4 8 -10 -12 -15 0
4 8 -10 12 15 0
4 8 10 -12 15 0
4 8 10 12 -15 0
