p cnf 15 96
-4 -7 -11 -14 -15 0
-4 -7 -11 14 15 0
-4 -7 11 -14 15 0
-4 -7 11 14 -15 0
-4 7 -11 -14 15 0
-4 7 -11 14 -15 0
-4 7 11 -14 -15 0
-4 7 11 14 15 0
-3 -9 -10 -11 -12 0
-3 -9 -10 11 12 0
-3 -9 10 -11 12 0
-3 -9 10 11 -12 0
-3 9 -10 -11 12 0
-3 9 -10 11 -12 0
-3 9 10 -11 -12 0
-3 9 10 11 12 0
-2 -5 -10 -13 -14 0
-2 -5 -10 13 14 0
-2 -5 10 -13 14 0
-2 -5 10 13 -14 0
-2 -4 -6 -8 -12 0
-2 -4 -6 8 12 0
-2 -4 6 -8 12 0
-2 -4 6 8 -12 0
-2 4 -6 -8 12 0
-2 4 -6 8 -12 0
-2 4 6 -8 -12 0
-2 4 6 8 12 0
-2 5 -10 -13 14 0
-2 5 -10 13 -14 0
-2 5 10 -13 -14 0
-2 5 10 13 14 0
-1 -5 -8 -9 -15 0
-1 -5 -8 9 15 0
-1 -5 8 -9 15 0
-1 -5 8 9 -15 0
-1 -3 -6 -7 -13 0
-1 -3 -6 7 13 0
-1 -3 6 -7 13 0
-1 -3 6 7 -13 0
-1 3 -6 -7 13 0
-1 3 -6 7 -13 0
-1 3 6 -7 -13 0
-1 3 6 7 13 0
-1 5 -8 -9 15 0
-1 5 -8 9 -15 0
-1 5 8 -9 -15 0
-1 5 8 9 15 0
1 -5 -8 -9 15 0
1 -5 -8 9 -15 0
1 -5 8 -9 -15 0
1 -5 8 9 15 0
1 -3 -6 -7 13 0
1 -3 -6 7 -13 0
1 -3 6 -7 -13 0
1 -3 6 7 13 0
1 3 -6 -7 -13 0
1 3 -6 7 13 0
1 3 6 -7 13 0
1 3 6 7 -13 0
1 5 -8 -9 -15 0
1 5 -8 9 15 0
1 5 8 -9 15 0
1 5 8 9 -15 0
2 -5 -10 -13 14 0
2 -5 -10 13 -14 0
2 -5 10 -13 -14 0
2 -5 10 13 14 0
2 -4 -6 -8 12 0
2 -4 -6 8 -12 0
2 -4 6 -8 -12 0
2 -4 6 8 12 0
2 4 -6 -8 -12 0
2 4 -6 8 12 0
2 4 6 -8 12 0
2 4 6 8 -12 0
2 5 -10 -13 -14 0
2 5 -10 13 14 0
2 5 10 -13 14 0
2 5 10 13 -14 0
3 -9 -10 -11 12 0
3 -9 -10 11 -12 0
3 -9 10 -11 -12 0
3 -9 10 11 12 0
3 9 -10 -11 -12 0
3 9 -10 11 12 0
3 9 10 -11 12 0
3 9 10 11 -12 0
4 -7 -11 -14 15 0
4 -7 -11 14 -15 0
4 -7 11 -14 -15 0
4 -7 11 14 15 0
4 7 -11 -14 -15 0
4 7 -11 14 15 0
4 7 11 -14 15 0
4 7 11 14 -15 0
