p cnf 36 1152
-8 -12 -16 -19 -22 -27 -28 34 0
-8 -12 -16 -19 -22 -27 28 -34 0
-8 -12 -16 -19 -22 27 -28 -34 0
-8 -12 -16 -19 -22 27 28 34 0
-8 -12 -16 -19 22 -27 -28 -34 0
-8 -12 -16 -19 22 -27 28 34 0
-8 -12 -16 -19 22 27 -28 34 0
-8 -12 -16 -19 22 27 28 -34 0
-8 -12 -16 19 -22 -27 -28 -34 0
-8 -12 -16 19 -22 -27 28 34 0
-8 -12 -16 19 -22 27 -28 34 0
-8 -12 -16 19 -22 27 28 -34 0
-8 -12 -16 19 22 -27 -28 34 0
-8 -12 -16 19 22 -27 28 -34 0
-8 -12 -16 19 22 27 -28 -34 0
-8 -12 -16 19 22 27 28 34 0
-8 -12 16 -19 -22 -27 -28 -34 0
-8 -12 16 -19 -22 -27 28 34 0
-8 -12 16 -19 -22 27 -28 34 0
-8 -12 16 -19 -22 27 28 -34 0
-8 -12 16 -19 22 -27 -28 34 0
-8 -12 16 -19 22 -27 28 -34 0
-8 -12 16 -19 22 27 -28 -34 0
-8 -12 16 -19 22 27 28 34 0
-8 -12 16 19 -22 -27 -28 34 0
-8 -12 16 19 -22 -27 28 -34 0
-8 -12 16 19 -22 27 -28 -34 0
-8 -12 16 19 -22 27 28 34 0
-8 -12 16 19 22 -27 -28 -34 0
-8 -12 16 19 22 -27 28 34 0
-8 -12 16 19 22 27 -28 34 0
-8 -12 16 19 22 27 28 -34 0
-8 12 -16 -19 -22 -27 -28 -34 0
-8 12 -16 -19 -22 -27 28 34 0
-8 12 -16 -19 -22 27 -28 34 0
-8 12 -16 -19 -22 27 28 -34 0
-8 12 -16 -19 22 -27 -28 34 0
-8 12 -16 -19 22 -27 28 -34 0
-8 12 -16 -19 22 27 -28 -34 0
-8 12 -16 -19 22 27 28 34 0
-8 12 -16 19 -22 -27 -28 34 0
-8 12 -16 19 -22 -27 28 -34 0
-8 12 -16 19 -22 27 -28 -34 0
-8 12 -16 19 -22 27 28 34 0
-8 12 -16 19 22 -27 -28 -34 0
-8 12 -16 19 22 -27 28 34 0
-8 12 -16 19 22 27 -28 34 0
-8 12 -16 19 22 27 28 -34 0
-8 12 16 -19 -22 -27 -28 34 0
-8 12 16 -19 -22 -27 28 -34 0
-8 12 16 -19 -22 27 -28 -34 0
-8 12 16 -19 -22 27 28 34 0
-8 12 16 -19 22 -27 -28 -34 0
-8 12 16 -19 22 -27 28 34 0
-8 12 16 -19 22 27 -28 34 0
-8 12 16 -19 22 27 28 -34 0
-8 12 16 19 -22 -27 -28 -34 0
-8 12 16 19 -22 -27 28 34 0
-8 12 16 19 -22 27 -28 34 0
-8 12 16 19 -22 27 28 -34 0
-8 12 16 19 22 -27 -28 34 0
-8 12 16 19 22 -27 28 -34 0
-8 12 16 19 22 27 -28 -34 0
-8 12 16 19 22 27 28 34 0
-7 -13 -15 -22 -26 -30 -33 35 0
-7 -13 -15 -22 -26 -30 33 -35 0
-7 -13 -15 -22 -26 30 -33 -35 0
-7 -13 -15 -22 -26 30 33 35 0
-7 -13 -15 -22 26 -30 -33 -35 0
-7 -13 -15 -22 26 -30 33 35 0
-7 -13 -15 -22 26 30 -33 35 0
-7 -13 -15 -22 26 30 33 -35 0
-7 -13 -15 22 -26 -30 -33 -35 0
-7 -13 -15 22 -26 -30 33 35 0
-7 -13 -15 22 -26 30 -33 35 0
-7 -13 -15 22 -26 30 33 -35 0
-7 -13 -15 22 26 -30 -33 35 0
-7 -13 -15 22 26 -30 33 -35 0
-7 -13 -15 22 26 30 -33 -35 0
-7 -13 -15 22 26 30 33 35 0
-7 -13 15 -22 -26 -30 -33 -35 0
-7 -13 15 -22 -26 -30 33 35 0
-7 -13 15 -22 -26 30 -33 35 0
-7 -13 15 -22 -26 30 33 -35 0
-7 -13 15 -22 26 -30 -33 35 0
-7 -13 15 -22 26 -30 33 -35 0
-7 -13 15 -22 26 30 -33 -35 0
-7 -13 15 -22 26 30 33 35 0
-7 -13 15 22 -26 -30 -33 35 0
-7 -13 15 22 -26 -30 33 -35 0
-7 -13 15 22 -26 30 -33 -35 0
-7 -13 15 22 -26 30 33 35 0
-7 -13 15 22 26 -30 -33 -35 0
-7 -13 15 22 26 -30 33 35 0
-7 -13 15 22 26 30 -33 35 0
-7 -13 15 22 26 30 33 -35 0
-7 13 -15 -22 -26 -30 -33 -35 0
-7 13 -15 -22 -26 -30 33 35 0
-7 13 -15 -22 -26 30 -33 35 0
-7 13 -15 -22 -26 30 33 -35 0
-7 13 -15 -22 26 -30 -33 35 0
-7 13 -15 -22 26 -30 33 -35 0
-7 13 -15 -22 26 30 -33 -35 0
-7 13 -15 -22 26 30 33 35 0
-7 13 -15 22 -26 -30 -33 35 0
-7 13 -15 22 -26 -30 33 -35 0
-7 13 -15 22 -26 30 -33 -35 0
-7 13 -15 22 -26 30 33 35 0
-7 13 -15 22 26 -30 -33 -35 0
-7 13 -15 22 26 -30 33 35 0
-7 13 -15 22 26 30 -33 35 0
-7 13 -15 22 26 30 33 -35 0
-7 13 15 -22 -26 -30 -33 35 0
-7 13 15 -22 -26 -30 33 -35 0
-7 13 15 -22 -26 30 -33 -35 0
-7 13 15 -22 -26 30 33 35 0
-7 13 15 -22 26 -30 -33 -35 0
-7 13 15 -22 26 -30 33 35 0
-7 13 15 -22 26 30 -33 35 0
-7 13 15 -22 26 30 33 -35 0
-7 13 15 22 -26 -30 -33 -35 0
-7 13 15 22 -26 -30 33 35 0
-7 13 15 22 -26 30 -33 35 0
-7 13 15 22 -26 30 33 -35 0
-7 13 15 22 26 -30 -33 35 0
-7 13 15 22 26 -30 33 -35 0
-7 13 15 22 26 30 -33 -35 0
-7 13 15 22 26 30 33 35 0
-5 -9 -23 -24 -30 -31 -34 36 0
-5 -9 -23 -24 -30 -31 34 -36 0
-5 -9 -23 -24 -30 31 -34 -36 0
-5 -9 -23 -24 -30 31 34 36 0
-5 -9 -23 -24 30 -31 -34 -36 0
-5 -9 -23 -24 30 -31 34 36 0
-5 -9 -23 -24 30 31 -34 36 0
-5 -9 -23 -24 30 31 34 -36 0
-5 -9 -23 24 -30 -31 -34 -36 0
-5 -9 -23 24 -30 -31 34 36 0
-5 -9 -23 24 -30 31 -34 36 0
-5 -9 -23 24 -30 31 34 -36 0
-5 -9 -23 24 30 -31 -34 36 0
-5 -9 -23 24 30 -31 34 -36 0
-5 -9 -23 24 30 31 -34 -36 0
-5 -9 -23 24 30 31 34 36 0
-5 -9 23 -24 -30 -31 -34 -36 0
-5 -9 23 -24 -30 -31 34 36 0
-5 -9 23 -24 -30 31 -34 36 0
-5 -9 23 -24 -30 31 34 -36 0
-5 -9 23 -24 30 -31 -34 36 0
-5 -9 23 -24 30 -31 34 -36 0
-5 -9 23 -24 30 31 -34 -36 0
-5 -9 23 -24 30 31 34 36 0
-5 -9 23 24 -30 -31 -34 36 0
-5 -9 23 24 -30 -31 34 -36 0
-5 -9 23 24 -30 31 -34 -36 0
-5 -9 23 24 -30 31 34 36 0
-5 -9 23 24 30 -31 -34 -36 0
-5 -9 23 24 30 -31 34 36 0
-5 -9 23 24 30 31 -34 36 0
-5 -9 23 24 30 31 34 -36 0
-5 9 -23 -24 -30 -31 -34 -36 0
-5 9 -23 -24 -30 -31 34 36 0
-5 9 -23 -24 -30 31 -34 36 0
-5 9 -23 -24 -30 31 34 -36 0
-5 9 -23 -24 30 -31 -34 36 0
-5 9 -23 -24 30 -31 34 -36 0
-5 9 -23 -24 30 31 -34 -36 0
-5 9 -23 -24 30 31 34 36 0
-5 9 -23 24 -30 -31 -34 36 0
-5 9 -23 24 -30 -31 34 -36 0
-5 9 -23 24 -30 31 -34 -36 0
-5 9 -23 24 -30 31 34 36 0
-5 9 -23 24 30 -31 -34 -36 0
-5 9 -23 24 30 -31 34 36 0
-5 9 -23 24 30 31 -34 36 0
-5 9 -23 24 30 31 34 -36 0
-5 9 23 -24 -30 -31 -34 36 0
-5 9 23 -24 -30 -31 34 -36 0
-5 9 23 -24 -30 31 -34 -36 0
-5 9 23 -24 -30 31 34 36 0
-5 9 23 -24 30 -31 -34 -36 0
-5 9 23 -24 30 -31 34 36 0
-5 9 23 -24 30 31 -34 36 0
-5 9 23 -24 30 31 34 -36 0
-5 9 23 24 -30 -31 -34 -36 0
-5 9 23 24 -30 -31 34 36 0
-5 9 23 24 -30 31 -34 36 0
-5 9 23 24 -30 31 34 -36 0
-5 9 23 24 30 -31 -34 36 0
-5 9 23 24 30 -31 34 -36 0
-5 9 23 24 30 31 -34 -36 0
-5 9 23 24 30 31 34 36 0
-4 -10 -17 -18 -25 -28 -31 33 0
-4 -10 -17 -18 -25 -28 31 -33 0
-4 -10 -17 -18 -25 28 -31 -33 0
-4 -10 -17 -18 -25 28 31 33 0
-4 -10 -17 -18 25 -28 -31 -33 0
-4 -10 -17 -18 25 -28 31 33 0
-4 -10 -17 -18 25 28 -31 33 0
-4 -10 -17 -18 25 28 31 -33 0
-4 -10 -17 18 -25 -28 -31 -33 0
-4 -10 -17 18 -25 -28 31 33 0
-4 -10 -17 18 -25 28 -31 33 0
-4 -10 -17 18 -25 28 31 -33 0
-4 -10 -17 18 25 -28 -31 33 0
-4 -10 -17 18 25 -28 31 -33 0
-4 -10 -17 18 25 28 -31 -33 0
-4 -10 -17 18 25 28 31 33 0
-4 -10 17 -18 -25 -28 -31 -33 0
-4 -10 17 -18 -25 -28 31 33 0
-4 -10 17 -18 -25 28 -31 33 0
-4 -10 17 -18 -25 28 31 -33 0
-4 -10 17 -18 25 -28 -31 33 0
-4 -10 17 -18 25 -28 31 -33 0
-4 -10 17 -18 25 28 -31 -33 0
-4 -10 17 -18 25 28 31 33 0
-4 -10 17 18 -25 -28 -31 33 0
-4 -10 17 18 -25 -28 31 -33 0
-4 -10 17 18 -25 28 -31 -33 0
-4 -10 17 18 -25 28 31 33 0
-4 -10 17 18 25 -28 -31 -33 0
-4 -10 17 18 25 -28 31 33 0
-4 -10 17 18 25 28 -31 33 0
-4 -10 17 18 25 28 31 -33 0
-4 10 -17 -18 -25 -28 -31 -33 0
-4 10 -17 -18 -25 -28 31 33 0
-4 10 -17 -18 -25 28 -31 33 0
-4 10 -17 -18 -25 28 31 -33 0
-4 10 -17 -18 25 -28 -31 33 0
-4 10 -17 -18 25 -28 31 -33 0
-4 10 -17 -18 25 28 -31 -33 0
-4 10 -17 -18 25 28 31 33 0
-4 10 -17 18 -25 -28 -31 33 0
-4 10 -17 18 -25 -28 31 -33 0
-4 10 -17 18 -25 28 -31 -33 0
-4 10 -17 18 -25 28 31 33 0
-4 10 -17 18 25 -28 -31 -33 0
-4 10 -17 18 25 -28 31 33 0
-4 10 -17 18 25 28 -31 33 0
-4 10 -17 18 25 28 31 -33 0
-4 10 17 -18 -25 -28 -31 33 0
-4 10 17 -18 -25 -28 31 -33 0
-4 10 17 -18 -25 28 -31 -33 0
-4 10 17 -18 -25 28 31 33 0
-4 10 17 -18 25 -28 -31 -33 0
-4 10 17 -18 25 -28 31 33 0
-4 10 17 -18 25 28 -31 33 0
-4 10 17 -18 25 28 31 -33 0
-4 10 17 18 -25 -28 -31 -33 0
-4 10 17 18 -25 -28 31 33 0
-4 10 17 18 -25 28 -31 33 0
-4 10 17 18 -25 28 31 -33 0
-4 10 17 18 25 -28 -31 33 0
-4 10 17 18 25 -28 31 -33 0
-4 10 17 18 25 28 -31 -33 0
-4 10 17 18 25 28 31 33 0
-3 -8 -11 -14 -15 -18 -20 36 0
-3 -8 -11 -14 -15 -18 20 -36 0
-3 -8 -11 -14 -15 18 -20 -36 0
-3 -8 -11 -14 -15 18 20 36 0
-3 -8 -11 -14 15 -18 -20 -36 0
-3 -8 -11 -14 15 -18 20 36 0
-3 -8 -11 -14 15 18 -20 36 0
-3 -8 -11 -14 15 18 20 -36 0
-3 -8 -11 14 -15 -18 -20 -36 0
-3 -8 -11 14 -15 -18 20 36 0
-3 -8 -11 14 -15 18 -20 36 0
-3 -8 -11 14 -15 18 20 -36 0
-3 -8 -11 14 15 -18 -20 36 0
-3 -8 -11 14 15 -18 20 -36 0
-3 -8 -11 14 15 18 -20 -36 0
-3 -8 -11 14 15 18 20 36 0
-3 -8 11 -14 -15 -18 -20 -36 0
-3 -8 11 -14 -15 -18 20 36 0
-3 -8 11 -14 -15 18 -20 36 0
-3 -8 11 -14 -15 18 20 -36 0
-3 -8 11 -14 15 -18 -20 36 0
-3 -8 11 -14 15 -18 20 -36 0
-3 -8 11 -14 15 18 -20 -36 0
-3 -8 11 -14 15 18 20 36 0
-3 -8 11 14 -15 -18 -20 36 0
-3 -8 11 14 -15 -18 20 -36 0
-3 -8 11 14 -15 18 -20 -36 0
-3 -8 11 14 -15 18 20 36 0
-3 -8 11 14 15 -18 -20 -36 0
-3 -8 11 14 15 -18 20 36 0
-3 -8 11 14 15 18 -20 36 0
-3 -8 11 14 15 18 20 -36 0
-3 8 -11 -14 -15 -18 -20 -36 0
-3 8 -11 -14 -15 -18 20 36 0
-3 8 -11 -14 -15 18 -20 36 0
-3 8 -11 -14 -15 18 20 -36 0
-3 8 -11 -14 15 -18 -20 36 0
-3 8 -11 -14 15 -18 20 -36 0
-3 8 -11 -14 15 18 -20 -36 0
-3 8 -11 -14 15 18 20 36 0
-3 8 -11 14 -15 -18 -20 36 0
-3 8 -11 14 -15 -18 20 -36 0
-3 8 -11 14 -15 18 -20 -36 0
-3 8 -11 14 -15 18 20 36 0
-3 8 -11 14 15 -18 -20 -36 0
-3 8 -11 14 15 -18 20 36 0
-3 8 -11 14 15 18 -20 36 0
-3 8 -11 14 15 18 20 -36 0
-3 8 11 -14 -15 -18 -20 36 0
-3 8 11 -14 -15 -18 20 -36 0
-3 8 11 -14 -15 18 -20 -36 0
-3 8 11 -14 -15 18 20 36 0
-3 8 11 -14 15 -18 -20 -36 0
-3 8 11 -14 15 -18 20 36 0
-3 8 11 -14 15 18 -20 36 0
-3 8 11 -14 15 18 20 -36 0
-3 8 11 14 -15 -18 -20 -36 0
-3 8 11 14 -15 -18 20 36 0
-3 8 11 14 -15 18 -20 36 0
-3 8 11 14 -15 18 20 -36 0
-3 8 11 14 15 -18 -20 36 0
-3 8 11 14 15 -18 20 -36 0
-3 8 11 14 15 18 -20 -36 0
-3 8 11 14 15 18 20 36 0
-2 -7 -10 -14 -19 -21 -24 29 0
-2 -7 -10 -14 -19 -21 24 -29 0
-2 -7 -10 -14 -19 21 -24 -29 0
-2 -7 -10 -14 -19 21 24 29 0
-2 -7 -10 -14 19 -21 -24 -29 0
-2 -7 -10 -14 19 -21 24 29 0
-2 -7 -10 -14 19 21 -24 29 0
-2 -7 -10 -14 19 21 24 -29 0
-2 -7 -10 14 -19 -21 -24 -29 0
-2 -7 -10 14 -19 -21 24 29 0
-2 -7 -10 14 -19 21 -24 29 0
-2 -7 -10 14 -19 21 24 -29 0
-2 -7 -10 14 19 -21 -24 29 0
-2 -7 -10 14 19 -21 24 -29 0
-2 -7 -10 14 19 21 -24 -29 0
-2 -7 -10 14 19 21 24 29 0
-2 -7 10 -14 -19 -21 -24 -29 0
-2 -7 10 -14 -19 -21 24 29 0
-2 -7 10 -14 -19 21 -24 29 0
-2 -7 10 -14 -19 21 24 -29 0
-2 -7 10 -14 19 -21 -24 29 0
-2 -7 10 -14 19 -21 24 -29 0
-2 -7 10 -14 19 21 -24 -29 0
-2 -7 10 -14 19 21 24 29 0
-2 -7 10 14 -19 -21 -24 29 0
-2 -7 10 14 -19 -21 24 -29 0
-2 -7 10 14 -19 21 -24 -29 0
-2 -7 10 14 -19 21 24 29 0
-2 -7 10 14 19 -21 -24 -29 0
-2 -7 10 14 19 -21 24 29 0
-2 -7 10 14 19 21 -24 29 0
-2 -7 10 14 19 21 24 -29 0
-2 -6 -11 -12 -13 -23 -25 32 0
-2 -6 -11 -12 -13 -23 25 -32 0
-2 -6 -11 -12 -13 23 -25 -32 0
-2 -6 -11 -12 -13 23 25 32 0
-2 -6 -11 -12 13 -23 -25 -32 0
-2 -6 -11 -12 13 -23 25 32 0
-2 -6 -11 -12 13 23 -25 32 0
-2 -6 -11 -12 13 23 25 -32 0
-2 -6 -11 12 -13 -23 -25 -32 0
-2 -6 -11 12 -13 -23 25 32 0
-2 -6 -11 12 -13 23 -25 32 0
-2 -6 -11 12 -13 23 25 -32 0
-2 -6 -11 12 13 -23 -25 32 0
-2 -6 -11 12 13 -23 25 -32 0
-2 -6 -11 12 13 23 -25 -32 0
-2 -6 -11 12 13 23 25 32 0
-2 -6 11 -12 -13 -23 -25 -32 0
-2 -6 11 -12 -13 -23 25 32 0
-2 -6 11 -12 -13 23 -25 32 0
-2 -6 11 -12 -13 23 25 -32 0
-2 -6 11 -12 13 -23 -25 32 0
-2 -6 11 -12 13 -23 25 -32 0
-2 -6 11 -12 13 23 -25 -32 0
-2 -6 11 -12 13 23 25 32 0
-2 -6 11 12 -13 -23 -25 32 0
-2 -6 11 12 -13 -23 25 -32 0
-2 -6 11 12 -13 23 -25 -32 0
-2 -6 11 12 -13 23 25 32 0
-2 -6 11 12 13 -23 -25 -32 0
-2 -6 11 12 13 -23 25 32 0
-2 -6 11 12 13 23 -25 32 0
-2 -6 11 12 13 23 25 -32 0
-2 6 -11 -12 -13 -23 -25 -32 0
-2 6 -11 -12 -13 -23 25 32 0
-2 6 -11 -12 -13 23 -25 32 0
-2 6 -11 -12 -13 23 25 -32 0
-2 6 -11 -12 13 -23 -25 32 0
-2 6 -11 -12 13 -23 25 -32 0
-2 6 -11 -12 13 23 -25 -32 0
-2 6 -11 -12 13 23 25 32 0
-2 6 -11 12 -13 -23 -25 32 0
-2 6 -11 12 -13 -23 25 -32 0
-2 6 -11 12 -13 23 -25 -32 0
-2 6 -11 12 -13 23 25 32 0
-2 6 -11 12 13 -23 -25 -32 0
-2 6 -11 12 13 -23 25 32 0
-2 6 -11 12 13 23 -25 32 0
-2 6 -11 12 13 23 25 -32 0
-2 6 11 -12 -13 -23 -25 32 0
-2 6 11 -12 -13 -23 25 -32 0
-2 6 11 -12 -13 23 -25 -32 0
-2 6 11 -12 -13 23 25 32 0
-2 6 11 -12 13 -23 -25 -32 0
-2 6 11 -12 13 -23 25 32 0
-2 6 11 -12 13 23 -25 32 0
-2 6 11 -12 13 23 25 -32 0
-2 6 11 12 -13 -23 -25 -32 0
-2 6 11 12 -13 -23 25 32 0
-2 6 11 12 -13 23 -25 32 0
-2 6 11 12 -13 23 25 -32 0
-2 6 11 12 13 -23 -25 32 0
-2 6 11 12 13 -23 25 -32 0
-2 6 11 12 13 23 -25 -32 0
-2 6 11 12 13 23 25 32 0
-2 7 -10 -14 -19 -21 -24 -29 0
-2 7 -10 -14 -19 -21 24 29 0
-2 7 -10 -14 -19 21 -24 29 0
-2 7 -10 -14 -19 21 24 -29 0
-2 7 -10 -14 19 -21 -24 29 0
-2 7 -10 -14 19 -21 24 -29 0
-2 7 -10 -14 19 21 -24 -29 0
-2 7 -10 -14 19 21 24 29 0
-2 7 -10 14 -19 -21 -24 29 0
-2 7 -10 14 -19 -21 24 -29 0
-2 7 -10 14 -19 21 -24 -29 0
-2 7 -10 14 -19 21 24 29 0
-2 7 -10 14 19 -21 -24 -29 0
-2 7 -10 14 19 -21 24 29 0
-2 7 -10 14 19 21 -24 29 0
-2 7 -10 14 19 21 24 -29 0
-2 7 10 -14 -19 -21 -24 29 0
-2 7 10 -14 -19 -21 24 -29 0
-2 7 10 -14 -19 21 -24 -29 0
-2 7 10 -14 -19 21 24 29 0
-2 7 10 -14 19 -21 -24 -29 0
-2 7 10 -14 19 -21 24 29 0
-2 7 10 -14 19 21 -24 29 0
-2 7 10 -14 19 21 24 -29 0
-2 7 10 14 -19 -21 -24 -29 0
-2 7 10 14 -19 -21 24 29 0
-2 7 10 14 -19 21 -24 29 0
-2 7 10 14 -19 21 24 -29 0
-2 7 10 14 19 -21 -24 29 0
-2 7 10 14 19 -21 24 -29 0
-2 7 10 14 19 21 -24 -29 0
-2 7 10 14 19 21 24 29 0
-1 -4 -5 -16 -20 -26 -29 32 0
-1 -4 -5 -16 -20 -26 29 -32 0
-1 -4 -5 -16 -20 26 -29 -32 0
-1 -4 -5 -16 -20 26 29 32 0
-1 -4 -5 -16 20 -26 -29 -32 0
-1 -4 -5 -16 20 -26 29 32 0
-1 -4 -5 -16 20 26 -29 32 0
-1 -4 -5 -16 20 26 29 -32 0
-1 -4 -5 16 -20 -26 -29 -32 0
-1 -4 -5 16 -20 -26 29 32 0
-1 -4 -5 16 -20 26 -29 32 0
-1 -4 -5 16 -20 26 29 -32 0
-1 -4 -5 16 20 -26 -29 32 0
-1 -4 -5 16 20 -26 29 -32 0
-1 -4 -5 16 20 26 -29 -32 0
-1 -4 -5 16 20 26 29 32 0
-1 -4 5 -16 -20 -26 -29 -32 0
-1 -4 5 -16 -20 -26 29 32 0
-1 -4 5 -16 -20 26 -29 32 0
-1 -4 5 -16 -20 26 29 -32 0
-1 -4 5 -16 20 -26 -29 32 0
-1 -4 5 -16 20 -26 29 -32 0
-1 -4 5 -16 20 26 -29 -32 0
-1 -4 5 -16 20 26 29 32 0
-1 -4 5 16 -20 -26 -29 32 0
-1 -4 5 16 -20 -26 29 -32 0
-1 -4 5 16 -20 26 -29 -32 0
-1 -4 5 16 -20 26 29 32 0
-1 -4 5 16 20 -26 -29 -32 0
-1 -4 5 16 20 -26 29 32 0
-1 -4 5 16 20 26 -29 32 0
-1 -4 5 16 20 26 29 -32 0
-1 -3 -6 -9 -17 -21 -27 35 0
-1 -3 -6 -9 -17 -21 27 -35 0
-1 -3 -6 -9 -17 21 -27 -35 0
-1 -3 -6 -9 -17 21 27 35 0
-1 -3 -6 -9 17 -21 -27 -35 0
-1 -3 -6 -9 17 -21 27 35 0
-1 -3 -6 -9 17 21 -27 35 0
-1 -3 -6 -9 17 21 27 -35 0
-1 -3 -6 9 -17 -21 -27 -35 0
-1 -3 -6 9 -17 -21 27 35 0
-1 -3 -6 9 -17 21 -27 35 0
-1 -3 -6 9 -17 21 27 -35 0
-1 -3 -6 9 17 -21 -27 35 0
-1 -3 -6 9 17 -21 27 -35 0
-1 -3 -6 9 17 21 -27 -35 0
-1 -3 -6 9 17 21 27 35 0
-1 -3 6 -9 -17 -21 -27 -35 0
-1 -3 6 -9 -17 -21 27 35 0
-1 -3 6 -9 -17 21 -27 35 0
-1 -3 6 -9 -17 21 27 -35 0
-1 -3 6 -9 17 -21 -27 35 0
-1 -3 6 -9 17 -21 27 -35 0
-1 -3 6 -9 17 21 -27 -35 0
-1 -3 6 -9 17 21 27 35 0
-1 -3 6 9 -17 -21 -27 35 0
-1 -3 6 9 -17 -21 27 -35 0
-1 -3 6 9 -17 21 -27 -35 0
-1 -3 6 9 -17 21 27 35 0
-1 -3 6 9 17 -21 -27 -35 0
-1 -3 6 9 17 -21 27 35 0
-1 -3 6 9 17 21 -27 35 0
-1 -3 6 9 17 21 27 -35 0
-1 3 -6 -9 -17 -21 -27 -35 0
-1 3 -6 -9 -17 -21 27 35 0
-1 3 -6 -9 -17 21 -27 35 0
-1 3 -6 -9 -17 21 27 -35 0
-1 3 -6 -9 17 -21 -27 35 0
-1 3 -6 -9 17 -21 27 -35 0
-1 3 -6 -9 17 21 -27 -35 0
-1 3 -6 -9 17 21 27 35 0
-1 3 -6 9 -17 -21 -27 35 0
-1 3 -6 9 -17 -21 27 -35 0
-1 3 -6 9 -17 21 -27 -35 0
-1 3 -6 9 -17 21 27 35 0
-1 3 -6 9 17 -21 -27 -35 0
-1 3 -6 9 17 -21 27 35 0
-1 3 -6 9 17 21 -27 35 0
-1 3 -6 9 17 21 27 -35 0
-1 3 6 -9 -17 -21 -27 35 0
-1 3 6 -9 -17 -21 27 -35 0
-1 3 6 -9 -17 21 -27 -35 0
-1 3 6 -9 -17 21 27 35 0
-1 3 6 -9 17 -21 -27 -35 0
-1 3 6 -9 17 -21 27 35 0
-1 3 6 -9 17 21 -27 35 0
-1 3 6 -9 17 21 27 -35 0
-1 3 6 9 -17 -21 -27 -35 0
-1 3 6 9 -17 -21 27 35 0
-1 3 6 9 -17 21 -27 35 0
-1 3 6 9 -17 21 27 -35 0
-1 3 6 9 17 -21 -27 35 0
-1 3 6 9 17 -21 27 -35 0
-1 3 6 9 17 21 -27 -35 0
-1 3 6 9 17 21 27 35 0
-1 4 -5 -16 -20 -26 -29 -32 0
-1 4 -5 -16 -20 -26 29 32 0
-1 4 -5 -16 -20 26 -29 32 0
-1 4 -5 -16 -20 26 29 -32 0
-1 4 -5 -16 20 -26 -29 32 0
-1 4 -5 -16 20 -26 29 -32 0
-1 4 -5 -16 20 26 -29 -32 0
-1 4 -5 -16 20 26 29 32 0
-1 4 -5 16 -20 -26 -29 32 0
-1 4 -5 16 -20 -26 29 -32 0
-1 4 -5 16 -20 26 -29 -32 0
-1 4 -5 16 -20 26 29 32 0
-1 4 -5 16 20 -26 -29 -32 0
-1 4 -5 16 20 -26 29 32 0
-1 4 -5 16 20 26 -29 32 0
-1 4 -5 16 20 26 29 -32 0
-1 4 5 -16 -20 -26 -29 32 0
-1 4 5 -16 -20 -26 29 -32 0
-1 4 5 -16 -20 26 -29 -32 0
-1 4 5 -16 -20 26 29 32 0
-1 4 5 -16 20 -26 -29 -32 0
-1 4 5 -16 20 -26 29 32 0
-1 4 5 -16 20 26 -29 32 0
-1 4 5 -16 20 26 29 -32 0
-1 4 5 16 -20 -26 -29 -32 0
-1 4 5 16 -20 -26 29 32 0
-1 4 5 16 -20 26 -29 32 0
-1 4 5 16 -20 26 29 -32 0
-1 4 5 16 20 -26 -29 32 0
-1 4 5 16 20 -26 29 -32 0
-1 4 5 16 20 26 -29 -32 0
-1 4 5 16 20 26 29 32 0
1 -4 -5 -16 -20 -26 -29 -32 0
1 -4 -5 -16 -20 -26 29 32 0
1 -4 -5 -16 -20 26 -29 32 0
1 -4 -5 -16 -20 26 29 -32 0
1 -4 -5 -16 20 -26 -29 32 0
1 -4 -5 -16 20 -26 29 -32 0
1 -4 -5 -16 20 26 -29 -32 0
1 -4 -5 -16 20 26 29 32 0
1 -4 -5 16 -20 -26 -29 32 0
1 -4 -5 16 -20 -26 29 -32 0
1 -4 -5 16 -20 26 -29 -32 0
1 -4 -5 16 -20 26 29 32 0
1 -4 -5 16 20 -26 -29 -32 0
1 -4 -5 16 20 -26 29 32 0
1 -4 -5 16 20 26 -29 32 0
1 -4 -5 16 20 26 29 -32 0
1 -4 5 -16 -20 -26 -29 32 0
1 -4 5 -16 -20 -26 29 -32 0
1 -4 5 -16 -20 26 -29 -32 0
1 -4 5 -16 -20 26 29 32 0
1 -4 5 -16 20 -26 -29 -32 0
1 -4 5 -16 20 -26 29 32 0
1 -4 5 -16 20 26 -29 32 0
1 -4 5 -16 20 26 29 -32 0
1 -4 5 16 -20 -26 -29 -32 0
1 -4 5 16 -20 -26 29 32 0
1 -4 5 16 -20 26 -29 32 0
1 -4 5 16 -20 26 29 -32 0
1 -4 5 16 20 -26 -29 32 0
1 -4 5 16 20 -26 29 -32 0
1 -4 5 16 20 26 -29 -32 0
1 -4 5 16 20 26 29 32 0
1 -3 -6 -9 -17 -21 -27 -35 0
1 -3 -6 -9 -17 -21 27 35 0
1 -3 -6 -9 -17 21 -27 35 0
1 -3 -6 -9 -17 21 27 -35 0
1 -3 -6 -9 17 -21 -27 35 0
1 -3 -6 -9 17 -21 27 -35 0
1 -3 -6 -9 17 21 -27 -35 0
1 -3 -6 -9 17 21 27 35 0
1 -3 -6 9 -17 -21 -27 35 0
1 -3 -6 9 -17 -21 27 -35 0
1 -3 -6 9 -17 21 -27 -35 0
1 -3 -6 9 -17 21 27 35 0
1 -3 -6 9 17 -21 -27 -35 0
1 -3 -6 9 17 -21 27 35 0
1 -3 -6 9 17 21 -27 35 0
1 -3 -6 9 17 21 27 -35 0
1 -3 6 -9 -17 -21 -27 35 0
1 -3 6 -9 -17 -21 27 -35 0
1 -3 6 -9 -17 21 -27 -35 0
1 -3 6 -9 -17 21 27 35 0
1 -3 6 -9 17 -21 -27 -35 0
1 -3 6 -9 17 -21 27 35 0
1 -3 6 -9 17 21 -27 35 0
1 -3 6 -9 17 21 27 -35 0
1 -3 6 9 -17 -21 -27 -35 0
1 -3 6 9 -17 -21 27 35 0
1 -3 6 9 -17 21 -27 35 0
1 -3 6 9 -17 21 27 -35 0
1 -3 6 9 17 -21 -27 35 0
1 -3 6 9 17 -21 27 -35 0
1 -3 6 9 17 21 -27 -35 0
1 -3 6 9 17 21 27 35 0
1 3 -6 -9 -17 -21 -27 35 0
1 3 -6 -9 -17 -21 27 -35 0
1 3 -6 -9 -17 21 -27 -35 0
1 3 -6 -9 -17 21 27 35 0
1 3 -6 -9 17 -21 -27 -35 0
1 3 -6 -9 17 -21 27 35 0
1 3 -6 -9 17 21 -27 35 0
1 3 -6 -9 17 21 27 -35 0
1 3 -6 9 -17 -21 -27 -35 0
1 3 -6 9 -17 -21 27 35 0
1 3 -6 9 -17 21 -27 35 0
1 3 -6 9 -17 21 27 -35 0
1 3 -6 9 17 -21 -27 35 0
1 3 -6 9 17 -21 27 -35 0
1 3 -6 9 17 21 -27 -35 0
1 3 -6 9 17 21 27 35 0
1 3 6 -9 -17 -21 -27 -35 0
1 3 6 -9 -17 -21 27 35 0
1 3 6 -9 -17 21 -27 35 0
1 3 6 -9 -17 21 27 -35 0
1 3 6 -9 17 -21 -27 35 0
1 3 6 -9 17 -21 27 -35 0
1 3 6 -9 17 21 -27 -35 0
1 3 6 -9 17 21 27 35 0
1 3 6 9 -17 -21 -27 35 0
1 3 6 9 -17 -21 27 -35 0
1 3 6 9 -17 21 -27 -35 0
1 3 6 9 -17 21 27 35 0
1 3 6 9 17 -21 -27 -35 0
1 3 6 9 17 -21 27 35 0
1 3 6 9 17 21 -27 35 0
1 3 6 9 17 21 27 -35 0
1 4 -5 -16 -20 -26 -29 32 0
1 4 -5 -16 -20 -26 29 -32 0
1 4 -5 -16 -20 26 -29 -32 0
1 4 -5 -16 -20 26 29 32 0
1 4 -5 -16 20 -26 -29 -32 0
1 4 -5 -16 20 -26 29 32 0
1 4 -5 -16 20 26 -29 32 0
1 4 -5 -16 20 26 29 -32 0
1 4 -5 16 -20 -26 -29 -32 0
1 4 -5 16 -20 -26 29 32 0
1 4 -5 16 -20 26 -29 32 0
1 4 -5 16 -20 26 29 -32 0
1 4 -5 16 20 -26 -29 32 0
1 4 -5 16 20 -26 29 -32 0
1 4 -5 16 20 26 -29 -32 0
1 4 -5 16 20 26 29 32 0
1 4 5 -16 -20 -26 -29 -32 0
1 4 5 -16 -20 -26 29 32 0
1 4 5 -16 -20 26 -29 32 0
1 4 5 -16 -20 26 29 -32 0
1 4 5 -16 20 -26 -29 32 0
1 4 5 -16 20 -26 29 -32 0
1 4 5 -16 20 26 -29 -32 0
1 4 5 -16 20 26 29 32 0
1 4 5 16 -20 -26 -29 32 0
1 4 5 16 -20 -26 29 -32 0
1 4 5 16 -20 26 -29 -32 0
1 4 5 16 -20 26 29 32 0
1 4 5 16 20 -26 -29 -32 0
1 4 5 16 20 -26 29 32 0
1 4 5 16 20 26 -29 32 0
1 4 5 16 20 26 29 -32 0
2 -7 -10 -14 -19 -21 -24 -29 0
2 -7 -10 -14 -19 -21 24 29 0
2 -7 -10 -14 -19 21 -24 29 0
2 -7 -10 -14 -19 21 24 -29 0
2 -7 -10 -14 19 -21 -24 29 0
2 -7 -10 -14 19 -21 24 -29 0
2 -7 -10 -14 19 21 -24 -29 0
2 -7 -10 -14 19 21 24 29 0
2 -7 -10 14 -19 -21 -24 29 0
2 -7 -10 14 -19 -21 24 -29 0
2 -7 -10 14 -19 21 -24 -29 0
2 -7 -10 14 -19 21 24 29 0
2 -7 -10 14 19 -21 -24 -29 0
2 -7 -10 14 19 -21 24 29 0
2 -7 -10 14 19 21 -24 29 0
2 -7 -10 14 19 21 24 -29 0
2 -7 10 -14 -19 -21 -24 29 0
2 -7 10 -14 -19 -21 24 -29 0
2 -7 10 -14 -19 21 -24 -29 0
2 -7 10 -14 -19 21 24 29 0
2 -7 10 -14 19 -21 -24 -29 0
2 -7 10 -14 19 -21 24 29 0
2 -7 10 -14 19 21 -24 29 0
2 -7 10 -14 19 21 24 -29 0
2 -7 10 14 -19 -21 -24 -29 0
2 -7 10 14 -19 -21 24 29 0
2 -7 10 14 -19 21 -24 29 0
2 -7 10 14 -19 21 24 -29 0
2 -7 10 14 19 -21 -24 29 0
2 -7 10 14 19 -21 24 -29 0
2 -7 10 14 19 21 -24 -29 0
2 -7 10 14 19 21 24 29 0
2 -6 -11 -12 -13 -23 -25 -32 0
2 -6 -11 -12 -13 -23 25 32 0
2 -6 -11 -12 -13 23 -25 32 0
2 -6 -11 -12 -13 23 25 -32 0
2 -6 -11 -12 13 -23 -25 32 0
2 -6 -11 -12 13 -23 25 -32 0
2 -6 -11 -12 13 23 -25 -32 0
2 -6 -11 -12 13 23 25 32 0
2 -6 -11 12 -13 -23 -25 32 0
2 -6 -11 12 -13 -23 25 -32 0
2 -6 -11 12 -13 23 -25 -32 0
2 -6 -11 12 -13 23 25 32 0
2 -6 -11 12 13 -23 -25 -32 0
2 -6 -11 12 13 -23 25 32 0
2 -6 -11 12 13 23 -25 32 0
2 -6 -11 12 13 23 25 -32 0
2 -6 11 -12 -13 -23 -25 32 0
2 -6 11 -12 -13 -23 25 -32 0
2 -6 11 -12 -13 23 -25 -32 0
2 -6 11 -12 -13 23 25 32 0
2 -6 11 -12 13 -23 -25 -32 0
2 -6 11 -12 13 -23 25 32 0
2 -6 11 -12 13 23 -25 32 0
2 -6 11 -12 13 23 25 -32 0
2 -6 11 12 -13 -23 -25 -32 0
2 -6 11 12 -13 -23 25 32 0
2 -6 11 12 -13 23 -25 32 0
2 -6 11 12 -13 23 25 -32 0
2 -6 11 12 13 -23 -25 32 0
2 -6 11 12 13 -23 25 -32 0
2 -6 11 12 13 23 -25 -32 0
2 -6 11 12 13 23 25 32 0
2 6 -11 -12 -13 -23 -25 32 0
2 6 -11 -12 -13 -23 25 -32 0
2 6 -11 -12 -13 23 -25 -32 0
2 6 -11 -12 -13 23 25 32 0
2 6 -11 -12 13 -23 -25 -32 0
2 6 -11 -12 13 -23 25 32 0
2 6 -11 -12 13 23 -25 32 0
2 6 -11 -12 13 23 25 -32 0
2 6 -11 12 -13 -23 -25 -32 0
2 6 -11 12 -13 -23 25 32 0
2 6 -11 12 -13 23 -25 32 0
2 6 -11 12 -13 23 25 -32 0
2 6 -11 12 13 -23 -25 32 0
2 6 -11 12 13 -23 25 -32 0
2 6 -11 12 13 23 -25 -32 0
2 6 -11 12 13 23 25 32 0
2 6 11 -12 -13 -23 -25 -32 0
2 6 11 -12 -13 -23 25 32 0
2 6 11 -12 -13 23 -25 32 0
2 6 11 -12 -13 23 25 -32 0
2 6 11 -12 13 -23 -25 32 0
2 6 11 -12 13 -23 25 -32 0
2 6 11 -12 13 23 -25 -32 0
2 6 11 -12 13 23 25 32 0
2 6 11 12 -13 -23 -25 32 0
2 6 11 12 -13 -23 25 -32 0
2 6 11 12 -13 23 -25 -32 0
2 6 11 12 -13 23 25 32 0
2 6 11 12 13 -23 -25 -32 0
2 6 11 12 13 -23 25 32 0
2 6 11 12 13 23 -25 32 0
2 6 11 12 13 23 25 -32 0
2 7 -10 -14 -19 -21 -24 29 0
2 7 -10 -14 -19 -21 24 -29 0
2 7 -10 -14 -19 21 -24 -29 0
2 7 -10 -14 -19 21 24 29 0
2 7 -10 -14 19 -21 -24 -29 0
2 7 -10 -14 19 -21 24 29 0
2 7 -10 -14 19 21 -24 29 0
2 7 -10 -14 19 21 24 -29 0
2 7 -10 14 -19 -21 -24 -29 0
2 7 -10 14 -19 -21 24 29 0
2 7 -10 14 -19 21 -24 29 0
2 7 -10 14 -19 21 24 -29 0
2 7 -10 14 19 -21 -24 29 0
2 7 -10 14 19 -21 24 -29 0
2 7 -10 14 19 21 -24 -29 0
2 7 -10 14 19 21 24 29 0
2 7 10 -14 -19 -21 -24 -29 0
2 7 10 -14 -19 -21 24 29 0
2 7 10 -14 -19 21 -24 29 0
2 7 10 -14 -19 21 24 -29 0
2 7 10 -14 19 -21 -24 29 0
2 7 10 -14 19 -21 24 -29 0
2 7 10 -14 19 21 -24 -29 0
2 7 10 -14 19 21 24 29 0
2 7 10 14 -19 -21 -24 29 0
2 7 10 14 -19 -21 24 -29 0
2 7 10 14 -19 21 -24 -29 0
2 7 10 14 -19 21 24 29 0
2 7 10 14 19 -21 -24 -29 0
2 7 10 14 19 -21 24 29 0
2 7 10 14 19 21 -24 29 0
2 7 10 14 19 21 24 -29 0
3 -8 -11 -14 -15 -18 -20 -36 0
3 -8 -11 -14 -15 -18 20 36 0
3 -8 -11 -14 -15 18 -20 36 0
3 -8 -11 -14 -15 18 20 -36 0
3 -8 -11 -14 15 -18 -20 36 0
3 -8 -11 -14 15 -18 20 -36 0
3 -8 -11 -14 15 18 -20 -36 0
3 -8 -11 -14 15 18 20 36 0
3 -8 -11 14 -15 -18 -20 36 0
3 -8 -11 14 -15 -18 20 -36 0
3 -8 -11 14 -15 18 -20 -36 0
3 -8 -11 14 -15 18 20 36 0
3 -8 -11 14 15 -18 -20 -36 0
3 -8 -11 14 15 -18 20 36 0
3 -8 -11 14 15 18 -20 36 0
3 -8 -11 14 15 18 20 -36 0
3 -8 11 -14 -15 -18 -20 36 0
3 -8 11 -14 -15 -18 20 -36 0
3 -8 11 -14 -15 18 -20 -36 0
3 -8 11 -14 -15 18 20 36 0
3 -8 11 -14 15 -18 -20 -36 0
3 -8 11 -14 15 -18 20 36 0
3 -8 11 -14 15 18 -20 36 0
3 -8 11 -14 15 18 20 -36 0
3 -8 11 14 -15 -18 -20 -36 0
3 -8 11 14 -15 -18 20 36 0
3 -8 11 14 -15 18 -20 36 0
3 -8 11 14 -15 18 20 -36 0
3 -8 11 14 15 -18 -20 36 0
3 -8 11 14 15 -18 20 -36 0
3 -8 11 14 15 18 -20 -36 0
3 -8 11 14 15 18 20 36 0
3 8 -11 -14 -15 -18 -20 36 0
3 8 -11 -14 -15 -18 20 -36 0
3 8 -11 -14 -15 18 -20 -36 0
3 8 -11 -14 -15 18 20 36 0
3 8 -11 -14 15 -18 -20 -36 0
3 8 -11 -14 15 -18 20 36 0
3 8 -11 -14 15 18 -20 36 0
3 8 -11 -14 15 18 20 -36 0
3 8 -11 14 -15 -18 -20 -36 0
3 8 -11 14 -15 -18 20 36 0
3 8 -11 14 -15 18 -20 36 0
3 8 -11 14 -15 18 20 -36 0
3 8 -11 14 15 -18 -20 36 0
3 8 -11 14 15 -18 20 -36 0
3 8 -11 14 15 18 -20 -36 0
3 8 -11 14 15 18 20 36 0
3 8 11 -14 -15 -18 -20 -36 0
3 8 11 -14 -15 -18 20 36 0
3 8 11 -14 -15 18 -20 36 0
3 8 11 -14 -15 18 20 -36 0
3 8 11 -14 15 -18 -20 36 0
3 8 11 -14 15 -18 20 -36 0
3 8 11 -14 15 18 -20 -36 0
3 8 11 -14 15 18 20 36 0
3 8 11 14 -15 -18 -20 36 0
3 8 11 14 -15 -18 20 -36 0
3 8 11 14 -15 18 -20 -36 0
3 8 11 14 -15 18 20 36 0
3 8 11 14 15 -18 -20 -36 0
3 8 11 14 15 -18 20 36 0
3 8 11 14 15 18 -20 36 0
3 8 11 14 15 18 20 -36 0
4 -10 -17 -18 -25 -28 -31 -33 0
4 -10 -17 -18 -25 -28 31 33 0
4 -10 -17 -18 -25 28 -31 33 0
4 -10 -17 -18 -25 28 31 -33 0
4 -10 -17 -18 25 -28 -31 33 0
4 -10 -17 -18 25 -28 31 -33 0
4 -10 -17 -18 25 28 -31 -33 0
4 -10 -17 -18 25 28 31 33 0
4 -10 -17 18 -25 -28 -31 33 0
4 -10 -17 18 -25 -28 31 -33 0
4 -10 -17 18 -25 28 -31 -33 0
4 -10 -17 18 -25 28 31 33 0
4 -10 -17 18 25 -28 -31 -33 0
4 -10 -17 18 25 -28 31 33 0
4 -10 -17 18 25 28 -31 33 0
4 -10 -17 18 25 28 31 -33 0
4 -10 17 -18 -25 -28 -31 33 0
4 -10 17 -18 -25 -28 31 -33 0
4 -10 17 -18 -25 28 -31 -33 0
4 -10 17 -18 -25 28 31 33 0
4 -10 17 -18 25 -28 -31 -33 0
4 -10 17 -18 25 -28 31 33 0
4 -10 17 -18 25 28 -31 33 0
4 -10 17 -18 25 28 31 -33 0
4 -10 17 18 -25 -28 -31 -33 0
4 -10 17 18 -25 -28 31 33 0
4 -10 17 18 -25 28 -31 33 0
4 -10 17 18 -25 28 31 -33 0
4 -10 17 18 25 -28 -31 33 0
4 -10 17 18 25 -28 31 -33 0
4 -10 17 18 25 28 -31 -33 0
4 -10 17 18 25 28 31 33 0
4 10 -17 -18 -25 -28 -31 33 0
4 10 -17 -18 -25 -28 31 -33 0
4 10 -17 -18 -25 28 -31 -33 0
4 10 -17 -18 -25 28 31 33 0
4 10 -17 -18 25 -28 -31 -33 0
4 10 -17 -18 25 -28 31 33 0
4 10 -17 -18 25 28 -31 33 0
4 10 -17 -18 25 28 31 -33 0
4 10 -17 18 -25 -28 -31 -33 0
4 10 -17 18 -25 -28 31 33 0
4 10 -17 18 -25 28 -31 33 0
4 10 -17 18 -25 28 31 -33 0
4 10 -17 18 25 -28 -31 33 0
4 10 -17 18 25 -28 31 -33 0
4 10 -17 18 25 28 -31 -33 0
4 10 -17 18 25 28 31 33 0
4 10 17 -18 -25 -28 -31 -33 0
4 10 17 -18 -25 -28 31 33 0
4 10 17 -18 -25 28 -31 33 0
4 10 17 -18 -25 28 31 -33 0
4 10 17 -18 25 -28 -31 33 0
4 10 17 -18 25 -28 31 -33 0
4 10 17 -18 25 28 -31 -33 0
4 10 17 -18 25 28 31 33 0
4 10 17 18 -25 -28 -31 33 0
4 10 17 18 -25 -28 31 -33 0
4 10 17 18 -25 28 -31 -33 0
4 10 17 18 -25 28 31 33 0
4 10 17 18 25 -28 -31 -33 0
4 10 17 18 25 -28 31 33 0
4 10 17 18 25 28 -31 33 0
4 10 17 18 25 28 31 -33 0
5 -9 -23 -24 -30 -31 -34 -36 0
5 -9 -23 -24 -30 -31 34 36 0
5 -9 -23 -24 -30 31 -34 36 0
5 -9 -23 -24 -30 31 34 -36 0
5 -9 -23 -24 30 -31 -34 36 0
5 -9 -23 -24 30 -31 34 -36 0
5 -9 -23 -24 30 31 -34 -36 0
5 -9 -23 -24 30 31 34 36 0
5 -9 -23 24 -30 -31 -34 36 0
5 -9 -23 24 -30 -31 34 -36 0
5 -9 -23 24 -30 31 -34 -36 0
5 -9 -23 24 -30 31 34 36 0
5 -9 -23 24 30 -31 -34 -36 0
5 -9 -23 24 30 -31 34 36 0
5 -9 -23 24 30 31 -34 36 0
5 -9 -23 24 30 31 34 -36 0
5 -9 23 -24 -30 -31 -34 36 0
5 -9 23 -24 -30 -31 34 -36 0
5 -9 23 -24 -30 31 -34 -36 0
5 -9 23 -24 -30 31 34 36 0
5 -9 23 -24 30 -31 -34 -36 0
5 -9 23 -24 30 -31 34 36 0
5 -9 23 -24 30 31 -34 36 0
5 -9 23 -24 30 31 34 -36 0
5 -9 23 24 -30 -31 -34 -36 0
5 -9 23 24 -30 -31 34 36 0
5 -9 23 24 -30 31 -34 36 0
5 -9 23 24 -30 31 34 -36 0
5 -9 23 24 30 -31 -34 36 0
5 -9 23 24 30 -31 34 -36 0
5 -9 23 24 30 31 -34 -36 0
5 -9 23 24 30 31 34 36 0
5 9 -23 -24 -30 -31 -34 36 0
5 9 -23 -24 -30 -31 34 -36 0
5 9 -23 -24 -30 31 -34 -36 0
5 9 -23 -24 -30 31 34 36 0
5 9 -23 -24 30 -31 -34 -36 0
5 9 -23 -24 30 -31 34 36 0
5 9 -23 -24 30 31 -34 36 0
5 9 -23 -24 30 31 34 -36 0
5 9 -23 24 -30 -31 -34 -36 0
5 9 -23 24 -30 -31 34 36 0
5 9 -23 24 -30 31 -34 36 0
5 9 -23 24 -30 31 34 -36 0
5 9 -23 24 30 -31 -34 36 0
5 9 -23 24 30 -31 34 -36 0
5 9 -23 24 30 31 -34 -36 0
5 9 -23 24 30 31 34 36 0
5 9 23 -24 -30 -31 -34 -36 0
5 9 23 -24 -30 -31 34 36 0
5 9 23 -24 -30 31 -34 36 0
5 9 23 -24 -30 31 34 -36 0
5 9 23 -24 30 -31 -34 36 0
5 9 23 -24 30 -31 34 -36 0
5 9 23 -24 30 31 -34 -36 0
5 9 23 -24 30 31 34 36 0
5 9 23 24 -30 -31 -34 36 0
5 9 23 24 -30 -31 34 -36 0
5 9 23 24 -30 31 -34 -36 0
5 9 23 24 -30 31 34 36 0
5 9 23 24 30 -31 -34 -36 0
5 9 23 24 30 -31 34 36 0
5 9 23 24 30 31 -34 36 0
5 9 23 24 30 31 34 -36 0
7 -13 -15 -22 -26 -30 -33 -35 0
7 -13 -15 -22 -26 -30 33 35 0
7 -13 -15 -22 -26 30 -33 35 0
7 -13 -15 -22 -26 30 33 -35 0
7 -13 -15 -22 26 -30 -33 35 0
7 -13 -15 -22 26 -30 33 -35 0
7 -13 -15 -22 26 30 -33 -35 0
7 -13 -15 -22 26 30 33 35 0
7 -13 -15 22 -26 -30 -33 35 0
7 -13 -15 22 -26 -30 33 -35 0
7 -13 -15 22 -26 30 -33 -35 0
7 -13 -15 22 -26 30 33 35 0
7 -13 -15 22 26 -30 -33 -35 0
7 -13 -15 22 26 -30 33 35 0
7 -13 -15 22 26 30 -33 35 0
7 -13 -15 22 26 30 33 -35 0
7 -13 15 -22 -26 -30 -33 35 0
7 -13 15 -22 -26 -30 33 -35 0
7 -13 15 -22 -26 30 -33 -35 0
7 -13 15 -22 -26 30 33 35 0
7 -13 15 -22 26 -30 -33 -35 0
7 -13 15 -22 26 -30 33 35 0
7 -13 15 -22 26 30 -33 35 0
7 -13 15 -22 26 30 33 -35 0
7 -13 15 22 -26 -30 -33 -35 0
7 -13 15 22 -26 -30 33 35 0
7 -13 15 22 -26 30 -33 35 0
7 -13 15 22 -26 30 33 -35 0
7 -13 15 22 26 -30 -33 35 0
7 -13 15 22 26 -30 33 -35 0
7 -13 15 22 26 30 -33 -35 0
7 -13 15 22 26 30 33 35 0
7 13 -15 -22 -26 -30 -33 35 0
7 13 -15 -22 -26 -30 33 -35 0
7 13 -15 -22 -26 30 -33 -35 0
7 13 -15 -22 -26 30 33 35 0
7 13 -15 -22 26 -30 -33 -35 0
7 13 -15 -22 26 -30 33 35 0
7 13 -15 -22 26 30 -33 35 0
7 13 -15 -22 26 30 33 -35 0
7 13 -15 22 -26 -30 -33 -35 0
7 13 -15 22 -26 -30 33 35 0
7 13 -15 22 -26 30 -33 35 0
7 13 -15 22 -26 30 33 -35 0
7 13 -15 22 26 -30 -33 35 0
7 13 -15 22 26 -30 33 -35 0
7 13 -15 22 26 30 -33 -35 0
7 13 -15 22 26 30 33 35 0
7 13 15 -22 -26 -30 -33 -35 0
7 13 15 -22 -26 -30 33 35 0
7 13 15 -22 -26 30 -33 35 0
7 13 15 -22 -26 30 33 -35 0
7 13 15 -22 26 -30 -33 35 0
7 13 15 -22 26 -30 33 -35 0
7 13 15 -22 26 30 -33 -35 0
7 13 15 -22 26 30 33 35 0
7 13 15 22 -26 -30 -33 35 0
7 13 15 22 -26 -30 33 -35 0
7 13 15 22 -26 30 -33 -35 0
7 13 15 22 -26 30 33 35 0
7 13 15 22 26 -30 -33 -35 0
7 13 15 22 26 -30 33 35 0
7 13 15 22 26 30 -33 35 0
7 13 15 22 26 30 33 -35 0
8 -12 -16 -19 -22 -27 -28 -34 0
8 -12 -16 -19 -22 -27 28 34 0
8 -12 -16 -19 -22 27 -28 34 0
8 -12 -16 -19 -22 27 28 -34 0
8 -12 -16 -19 22 -27 -28 34 0
8 -12 -16 -19 22 -27 28 -34 0
8 -12 -16 -19 22 27 -28 -34 0
8 -12 -16 -19 22 27 28 34 0
8 -12 -16 19 -22 -27 -28 34 0
8 -12 -16 19 -22 -27 28 -34 0
8 -12 -16 19 -22 27 -28 -34 0
8 -12 -16 19 -22 27 28 34 0
8 -12 -16 19 22 -27 -28 -34 0
8 -12 -16 19 22 -27 28 34 0
8 -12 -16 19 22 27 -28 34 0
8 -12 -16 19 22 27 28 -34 0
8 -12 16 -19 -22 -27 -28 34 0
8 -12 16 -19 -22 -27 28 -34 0
8 -12 16 -19 -22 27 -28 -34 0
8 -12 16 -19 -22 27 28 34 0
8 -12 16 -19 22 -27 -28 -34 0
8 -12 16 -19 22 -27 28 34 0
8 -12 16 -19 22 27 -28 34 0
8 -12 16 -19 22 27 28 -34 0
8 -12 16 19 -22 -27 -28 -34 0
8 -12 16 19 -22 -27 28 34 0
8 -12 16 19 -22 27 -28 34 0
8 -12 16 19 -22 27 28 -34 0
8 -12 16 19 22 -27 -28 34 0
8 -12 16 19 22 -27 28 -34 0
8 -12 16 19 22 27 -28 -34 0
8 -12 16 19 22 27 28 34 0
8 12 -16 -19 -22 -27 -28 34 0
8 12 -16 -19 -22 -27 28 -34 0
8 12 -16 -19 -22 27 -28 -34 0
8 12 -16 -19 -22 27 28 34 0
8 12 -16 -19 22 -27 -28 -34 0
8 12 -16 -19 22 -27 28 34 0
8 12 -16 -19 22 27 -28 34 0
8 12 -16 -19 22 27 28 -34 0
8 12 -16 19 -22 -27 -28 -34 0
8 12 -16 19 -22 -27 28 34 0
8 12 -16 19 -22 27 -28 34 0
8 12 -16 19 -22 27 28 -34 0
8 12 -16 19 22 -27 -28 34 0
8 12 -16 19 22 -27 28 -34 0
8 12 -16 19 22 27 -28 -34 0
8 12 -16 19 22 27 28 34 0
8 12 16 -19 -22 -27 -28 -34 0
8 12 16 -19 -22 -27 28 34 0
8 12 16 -19 -22 27 -28 34 0
8 12 16 -19 -22 27 28 -34 0
8 12 16 -19 22 -27 -28 34 0
8 12 16 -19 22 -27 28 -34 0
8 12 16 -19 22 27 -28 -34 0
8 12 16 -19 22 27 28 34 0
8 12 16 19 -22 -27 -28 34 0
8 12 16 19 -22 -27 28 -34 0
8 12 16 19 -22 27 -28 -34 0
8 12 16 19 -22 27 28 34 0
8 12 16 19 22 -27 -28 -34 0
8 12 16 19 22 -27 28 34 0
8 12 16 19 22 27 -28 34 0
8 12 16 19 22 27 28 -34 0
