p cnf 20 75
20 8 5 16 0
-20 -8 0
-20 -5 0
-20 -16 0
-8 -5 0
-8 -16 0
-5 -16 0
15 1 10 4 0
-15 -1 0
-15 -10 0
-15 -4 0
-1 -10 0
-1 -4 0
-10 -4 0
18 3 9 12 0
-18 -3 0
-18 -9 0
-18 -12 0
-3 -9 0
-3 -12 0
-9 -12 0
14 2 19 13 0
-14 -2 0
-14 -19 0
-14 -13 0
-2 -19 0
-2 -13 0
-19 -13 0
17 6 11 7 0
-17 -6 0
-17 -11 0
-17 -7 0
-6 -11 0
-6 -7 0
-11 -7 0
-20 -15 0
-20 -18 0
-20 -14 0
-20 -17 0
-15 -18 0
-15 -14 0
-15 -17 0
-18 -14 0
-18 -17 0
-14 -17 0
-8 -1 0
-8 -3 0
-8 -2 0
-8 -6 0
-1 -3 0
-1 -2 0
-1 -6 0
-3 -2 0
-3 -6 0
-2 -6 0
-5 -10 0
-5 -9 0
-5 -19 0
-5 -11 0
-10 -9 0
-10 -19 0
-10 -11 0
-9 -19 0
-9 -11 0
-19 -11 0
-16 -4 0
-16 -12 0
-16 -13 0
-16 -7 0
-4 -12 0
-4 -13 0
-4 -7 0
-12 -13 0
-12 -7 0
-13 -7 0
