p cnf 90 775
-87 -88 0
-86 -90 0
-85 -89 0
-85 -87 0
-83 -89 0
-83 -85 0
-81 -89 0
-81 -85 0
-81 -84 0
-81 -83 0
-80 -89 0
-80 -84 0
-79 -88 0
-79 -82 0
-78 -87 0
-78 -85 0
-77 -90 0
-77 -88 0
-77 -79 0
-76 -78 0
-75 -89 0
-75 -80 0
-74 -89 0
-74 -88 0
-74 -87 0
-74 -80 0
-74 -75 0
-73 -84 0
-73 -80 0
-73 -76 0
-72 -84 0
-72 -82 0
-72 -81 0
-72 -79 0
-71 -88 0
-71 -87 0
-71 -82 0
-71 -74 0
-70 -89 0
-70 -88 0
-70 -85 0
-70 -83 0
-70 -81 0
-70 -79 0
-70 -77 0
-69 -90 0
-69 -77 0
-68 -84 0
-68 -83 0
-68 -80 0
-68 -73 0
-67 -90 0
-67 -86 0
-67 -78 0
-67 -76 0
-66 -83 0
-66 -82 0
-66 -79 0
-66 -72 0
-66 -68 0
-65 -90 0
-65 -86 0
-65 -84 0
-65 -80 0
-65 -73 0
-65 -68 0
-65 -67 0
-64 -88 0
-64 -84 0
-64 -80 0
-64 -79 0
-64 -77 0
-64 -73 0
-64 -70 0
-64 -68 0
-64 -65 0
-63 -88 0
-63 -87 0
-63 -76 0
-63 -74 0
-63 -73 0
-63 -71 0
-62 -87 0
-62 -85 0
-62 -78 0
-62 -75 0
-61 -90 0
-61 -82 0
-61 -77 0
-61 -71 0
-61 -69 0
-60 -84 0
-60 -81 0
-60 -72 0
-59 -89 0
-59 -85 0
-59 -83 0
-59 -81 0
-59 -76 0
-59 -73 0
-59 -70 0
-59 -63 0
-58 -89 0
-58 -80 0
-58 -75 0
-58 -74 0
-58 -60 0
-57 -86 0
-57 -82 0
-57 -71 0
-57 -61 0
-56 -89 0
-56 -85 0
-56 -83 0
-56 -82 0
-56 -81 0
-56 -71 0
-56 -70 0
-56 -61 0
-56 -59 0
-56 -57 0
-55 -82 0
-55 -78 0
-55 -76 0
-55 -71 0
-55 -67 0
-55 -61 0
-55 -57 0
-55 -56 0
-54 -88 0
-54 -86 0
-54 -79 0
-54 -77 0
-54 -70 0
-54 -64 0
-54 -57 0
-53 -82 0
-53 -79 0
-53 -72 0
-53 -69 0
-53 -66 0
-52 -90 0
-52 -83 0
-52 -77 0
-52 -69 0
-52 -68 0
-52 -66 0
-52 -61 0
-51 -86 0
-51 -84 0
-51 -81 0
-51 -72 0
-51 -60 0
-51 -57 0
-51 -54 0
-50 -90 0
-50 -89 0
-50 -80 0
-50 -77 0
-50 -75 0
-50 -74 0
-50 -69 0
-50 -61 0
-50 -58 0
-50 -52 0
-49 -87 0
-49 -86 0
-49 -85 0
-49 -78 0
-49 -62 0
-49 -57 0
-49 -54 0
-49 -51 0
-48 -69 0
-48 -60 0
-48 -58 0
-48 -53 0
-47 -84 0
-47 -82 0
-47 -80 0
-47 -73 0
-47 -71 0
-47 -68 0
-47 -65 0
-47 -64 0
-47 -61 0
-47 -57 0
-47 -56 0
-47 -55 0
-46 -87 0
-46 -85 0
-46 -78 0
-46 -62 0
-46 -60 0
-46 -58 0
-46 -49 0
-46 -48 0
-45 -82 0
-45 -79 0
-45 -72 0
-45 -66 0
-45 -53 0
-44 -87 0
-44 -85 0
-44 -82 0
-44 -79 0
-44 -78 0
-44 -72 0
-44 -66 0
-44 -62 0
-44 -53 0
-44 -49 0
-44 -46 0
-44 -45 0
-43 -75 0
-43 -62 0
-43 -45 0
-42 -90 0
-42 -86 0
-42 -75 0
-42 -67 0
-42 -65 0
-42 -62 0
-42 -43 0
-41 -83 0
-41 -75 0
-41 -68 0
-41 -66 0
-41 -62 0
-41 -52 0
-41 -43 0
-41 -42 0
-40 -75 0
-40 -69 0
-40 -62 0
-40 -53 0
-40 -48 0
-40 -43 0
-40 -42 0
-40 -41 0
-39 -84 0
-39 -80 0
-39 -73 0
-39 -68 0
-39 -65 0
-39 -64 0
-39 -47 0
-39 -45 0
-39 -43 0
-38 -84 0
-38 -81 0
-38 -78 0
-38 -76 0
-38 -72 0
-38 -67 0
-38 -60 0
-38 -55 0
-38 -51 0
-37 -84 0
-37 -80 0
-37 -73 0
-37 -69 0
-37 -68 0
-37 -65 0
-37 -64 0
-37 -53 0
-37 -48 0
-37 -47 0
-37 -40 0
-37 -39 0
-36 -88 0
-36 -87 0
-36 -84 0
-36 -81 0
-36 -74 0
-36 -72 0
-36 -71 0
-36 -63 0
-36 -60 0
-36 -51 0
-36 -38 0
-35 -90 0
-35 -77 0
-35 -76 0
-35 -73 0
-35 -69 0
-35 -63 0
-35 -61 0
-35 -59 0
-35 -52 0
-35 -50 0
-34 -86 0
-34 -69 0
-34 -57 0
-34 -54 0
-34 -53 0
-34 -51 0
-34 -49 0
-34 -48 0
-34 -40 0
-34 -37 0
-33 -90 0
-33 -88 0
-33 -87 0
-33 -86 0
-33 -74 0
-33 -71 0
-33 -67 0
-33 -65 0
-33 -63 0
-33 -42 0
-33 -36 0
-32 -90 0
-32 -86 0
-32 -82 0
-32 -79 0
-32 -72 0
-32 -67 0
-32 -66 0
-32 -65 0
-32 -53 0
-32 -45 0
-32 -44 0
-32 -42 0
-32 -33 0
-31 -82 0
-31 -75 0
-31 -71 0
-31 -62 0
-31 -61 0
-31 -57 0
-31 -56 0
-31 -55 0
-31 -47 0
-31 -43 0
-31 -42 0
-31 -41 0
-31 -40 0
-30 -78 0
-30 -76 0
-30 -67 0
-30 -55 0
-30 -45 0
-30 -43 0
-30 -39 0
-30 -38 0
-29 -90 0
-29 -84 0
-29 -81 0
-29 -77 0
-29 -72 0
-29 -69 0
-29 -61 0
-29 -60 0
-29 -52 0
-29 -51 0
-29 -50 0
-29 -38 0
-29 -36 0
-29 -35 0
-28 -88 0
-28 -87 0
-28 -74 0
-28 -71 0
-28 -63 0
-28 -45 0
-28 -43 0
-28 -39 0
-28 -36 0
-28 -33 0
-28 -30 0
-27 -76 0
-27 -73 0
-27 -63 0
-27 -60 0
-27 -59 0
-27 -58 0
-27 -48 0
-27 -46 0
-27 -35 0
-26 -86 0
-26 -76 0
-26 -73 0
-26 -63 0
-26 -59 0
-26 -57 0
-26 -54 0
-26 -51 0
-26 -49 0
-26 -35 0
-26 -34 0
-26 -27 0
-25 -83 0
-25 -68 0
-25 -66 0
-25 -60 0
-25 -58 0
-25 -52 0
-25 -48 0
-25 -46 0
-25 -41 0
-25 -27 0
-24 -83 0
-24 -78 0
-24 -76 0
-24 -68 0
-24 -67 0
-24 -66 0
-24 -55 0
-24 -52 0
-24 -41 0
-24 -38 0
-24 -30 0
-24 -25 0
-23 -88 0
-23 -87 0
-23 -74 0
-23 -71 0
-23 -69 0
-23 -63 0
-23 -53 0
-23 -48 0
-23 -40 0
-23 -37 0
-23 -36 0
-23 -34 0
-23 -33 0
-23 -28 0
-22 -89 0
-22 -86 0
-22 -80 0
-22 -75 0
-22 -74 0
-22 -58 0
-22 -57 0
-22 -54 0
-22 -51 0
-22 -50 0
-22 -49 0
-22 -34 0
-22 -26 0
-21 -60 0
-21 -58 0
-21 -48 0
-21 -46 0
-21 -45 0
-21 -43 0
-21 -39 0
-21 -30 0
-21 -28 0
-21 -27 0
-21 -25 0
-20 -88 0
-20 -79 0
-20 -78 0
-20 -77 0
-20 -76 0
-20 -70 0
-20 -67 0
-20 -64 0
-20 -55 0
-20 -54 0
-20 -38 0
-20 -30 0
-20 -24 0
-19 -87 0
-19 -85 0
-19 -84 0
-19 -80 0
-19 -78 0
-19 -73 0
-19 -68 0
-19 -65 0
-19 -64 0
-19 -62 0
-19 -49 0
-19 -47 0
-19 -46 0
-19 -44 0
-19 -39 0
-19 -37 0
-18 -82 0
-18 -79 0
-18 -76 0
-18 -73 0
-18 -72 0
-18 -66 0
-18 -63 0
-18 -59 0
-18 -53 0
-18 -45 0
-18 -44 0
-18 -35 0
-18 -32 0
-18 -27 0
-18 -26 0
-17 -90 0
-17 -89 0
-17 -86 0
-17 -85 0
-17 -83 0
-17 -81 0
-17 -70 0
-17 -67 0
-17 -65 0
-17 -59 0
-17 -56 0
-17 -42 0
-17 -33 0
-17 -32 0
-16 -84 0
-16 -81 0
-16 -75 0
-16 -72 0
-16 -62 0
-16 -60 0
-16 -51 0
-16 -43 0
-16 -42 0
-16 -41 0
-16 -40 0
-16 -38 0
-16 -36 0
-16 -31 0
-16 -29 0
-15 -90 0
-15 -77 0
-15 -69 0
-15 -61 0
-15 -52 0
-15 -50 0
-15 -45 0
-15 -43 0
-15 -39 0
-15 -35 0
-15 -30 0
-15 -29 0
-15 -28 0
-15 -21 0
-14 -88 0
-14 -87 0
-14 -83 0
-14 -74 0
-14 -71 0
-14 -68 0
-14 -66 0
-14 -63 0
-14 -52 0
-14 -41 0
-14 -36 0
-14 -33 0
-14 -28 0
-14 -25 0
-14 -24 0
-14 -23 0
-13 -88 0
-13 -79 0
-13 -77 0
-13 -70 0
-13 -64 0
-13 -60 0
-13 -58 0
-13 -54 0
-13 -48 0
-13 -46 0
-13 -27 0
-13 -25 0
-13 -21 0
-13 -20 0
-12 -86 0
-12 -57 0
-12 -54 0
-12 -51 0
-12 -49 0
-12 -45 0
-12 -43 0
-12 -39 0
-12 -34 0
-12 -30 0
-12 -28 0
-12 -26 0
-12 -22 0
-12 -21 0
-12 -15 0
-11 -90 0
-11 -86 0
-11 -67 0
-11 -65 0
-11 -60 0
-11 -58 0
-11 -48 0
-11 -46 0
-11 -42 0
-11 -33 0
-11 -32 0
-11 -27 0
-11 -25 0
-11 -21 0
-11 -17 0
-11 -13 0
-10 -89 0
-10 -82 0
-10 -80 0
-10 -79 0
-10 -75 0
-10 -74 0
-10 -72 0
-10 -66 0
-10 -58 0
-10 -53 0
-10 -50 0
-10 -45 0
-10 -44 0
-10 -32 0
-10 -22 0
-10 -18 0
-9 -86 0
-9 -83 0
-9 -68 0
-9 -66 0
-9 -57 0
-9 -54 0
-9 -52 0
-9 -51 0
-9 -49 0
-9 -41 0
-9 -34 0
-9 -26 0
-9 -25 0
-9 -24 0
-9 -22 0
-9 -14 0
-9 -12 0
-8 -89 0
-8 -80 0
-8 -78 0
-8 -76 0
-8 -75 0
-8 -74 0
-8 -67 0
-8 -58 0
-8 -55 0
-8 -50 0
-8 -38 0
-8 -30 0
-8 -24 0
-8 -22 0
-8 -20 0
-8 -10 0
-7 -82 0
-7 -71 0
-7 -61 0
-7 -60 0
-7 -58 0
-7 -57 0
-7 -56 0
-7 -55 0
-7 -48 0
-7 -47 0
-7 -46 0
-7 -31 0
-7 -27 0
-7 -25 0
-7 -21 0
-7 -13 0
-7 -11 0
-6 -76 0
-6 -75 0
-6 -73 0
-6 -63 0
-6 -62 0
-6 -59 0
-6 -43 0
-6 -42 0
-6 -41 0
-6 -40 0
-6 -35 0
-6 -31 0
-6 -27 0
-6 -26 0
-6 -18 0
-6 -16 0
-5 -89 0
-5 -85 0
-5 -83 0
-5 -81 0
-5 -70 0
-5 -69 0
-5 -59 0
-5 -56 0
-5 -53 0
-5 -48 0
-5 -40 0
-5 -37 0
-5 -34 0
-5 -23 0
-5 -17 0
-4 -88 0
-4 -79 0
-4 -77 0
-4 -75 0
-4 -70 0
-4 -64 0
-4 -62 0
-4 -54 0
-4 -43 0
-4 -42 0
-4 -41 0
-4 -40 0
-4 -31 0
-4 -20 0
-4 -16 0
-4 -13 0
-4 -6 0
-3 -90 0
-3 -87 0
-3 -85 0
-3 -78 0
-3 -77 0
-3 -69 0
-3 -62 0
-3 -61 0
-3 -52 0
-3 -50 0
-3 -49 0
-3 -46 0
-3 -44 0
-3 -35 0
-3 -29 0
-3 -19 0
-3 -15 0
-2 -78 0
-2 -76 0
-2 -69 0
-2 -67 0
-2 -55 0
-2 -53 0
-2 -48 0
-2 -40 0
-2 -38 0
-2 -37 0
-2 -34 0
-2 -30 0
-2 -24 0
-2 -23 0
-2 -20 0
-2 -8 0
-2 -5 0
-1 -89 0
-1 -85 0
-1 -83 0
-1 -81 0
-1 -70 0
-1 -59 0
-1 -56 0
-1 -45 0
-1 -43 0
-1 -39 0
-1 -30 0
-1 -28 0
-1 -21 0
-1 -17 0
-1 -15 0
-1 -12 0
-1 -5 0
1 12 15 21 28 30 39 43 45 0
2 5 23 34 37 40 48 53 69 0
3 19 44 46 49 62 78 85 87 0
4 13 20 54 64 70 77 79 88 0
6 18 26 27 35 59 63 73 76 0
7 31 47 55 56 57 61 71 82 0
8 10 22 50 58 74 75 80 89 0
9 14 24 25 41 52 66 68 83 0
11 17 32 33 42 65 67 86 90 0
16 29 36 38 51 60 72 81 84 0
