p cnf 90 775
-88 -89 0
-86 -88 0
-85 -87 0
-84 -90 0
-84 -86 0
-83 -87 0
-83 -86 0
-83 -84 0
-81 -90 0
-81 -84 0
-80 -88 0
-80 -86 0
-79 -90 0
-79 -87 0
-79 -83 0
-78 -89 0
-77 -81 0
-76 -85 0
-75 -87 0
-75 -85 0
-75 -77 0
-74 -82 0
-74 -80 0
-73 -90 0
-73 -87 0
-73 -85 0
-73 -84 0
-73 -81 0
-73 -75 0
-72 -81 0
-72 -77 0
-71 -76 0
-70 -90 0
-70 -85 0
-70 -79 0
-70 -76 0
-69 -88 0
-69 -86 0
-69 -82 0
-69 -80 0
-68 -90 0
-68 -79 0
-68 -77 0
-68 -75 0
-68 -70 0
-67 -90 0
-67 -89 0
-67 -88 0
-67 -84 0
-67 -81 0
-67 -73 0
-66 -88 0
-66 -86 0
-66 -80 0
-66 -76 0
-66 -71 0
-66 -69 0
-65 -87 0
-65 -83 0
-65 -80 0
-65 -79 0
-65 -74 0
-64 -87 0
-64 -85 0
-64 -75 0
-64 -73 0
-63 -78 0
-63 -72 0
-62 -89 0
-62 -87 0
-62 -85 0
-62 -78 0
-62 -75 0
-62 -73 0
-62 -64 0
-61 -90 0
-61 -79 0
-61 -70 0
-61 -68 0
-61 -64 0
-60 -90 0
-60 -89 0
-60 -79 0
-60 -78 0
-60 -70 0
-60 -68 0
-60 -62 0
-60 -61 0
-59 -82 0
-59 -72 0
-59 -69 0
-59 -63 0
-58 -86 0
-58 -84 0
-58 -83 0
-58 -72 0
-58 -63 0
-58 -59 0
-57 -89 0
-57 -88 0
-57 -85 0
-57 -76 0
-57 -70 0
-57 -67 0
-56 -90 0
-56 -82 0
-56 -79 0
-56 -74 0
-56 -70 0
-56 -68 0
-56 -61 0
-56 -60 0
-55 -87 0
-55 -83 0
-55 -79 0
-55 -78 0
-55 -65 0
-55 -63 0
-54 -78 0
-54 -71 0
-54 -63 0
-54 -55 0
-53 -85 0
-53 -82 0
-53 -76 0
-53 -70 0
-53 -69 0
-53 -59 0
-53 -57 0
-52 -89 0
-52 -80 0
-52 -78 0
-52 -74 0
-52 -65 0
-52 -62 0
-52 -60 0
-51 -86 0
-51 -84 0
-51 -83 0
-51 -64 0
-51 -61 0
-51 -58 0
-50 -87 0
-50 -85 0
-50 -82 0
-50 -75 0
-50 -74 0
-50 -73 0
-50 -64 0
-50 -62 0
-50 -56 0
-49 -89 0
-49 -88 0
-49 -77 0
-49 -75 0
-49 -68 0
-49 -67 0
-49 -57 0
-48 -90 0
-48 -79 0
-48 -71 0
-48 -70 0
-48 -68 0
-48 -61 0
-48 -60 0
-48 -56 0
-48 -54 0
-47 -78 0
-47 -64 0
-47 -63 0
-47 -61 0
-47 -55 0
-47 -54 0
-47 -51 0
-46 -82 0
-46 -76 0
-46 -74 0
-46 -71 0
-46 -66 0
-46 -56 0
-46 -50 0
-45 -85 0
-45 -81 0
-45 -77 0
-45 -76 0
-45 -72 0
-45 -70 0
-45 -57 0
-45 -53 0
-44 -90 0
-44 -88 0
-44 -86 0
-44 -80 0
-44 -79 0
-44 -70 0
-44 -69 0
-44 -68 0
-44 -66 0
-44 -61 0
-44 -60 0
-44 -56 0
-44 -48 0
-43 -90 0
-43 -79 0
-43 -72 0
-43 -70 0
-43 -68 0
-43 -63 0
-43 -61 0
-43 -60 0
-43 -59 0
-43 -58 0
-43 -56 0
-43 -48 0
-43 -44 0
-42 -82 0
-42 -77 0
-42 -75 0
-42 -69 0
-42 -68 0
-42 -59 0
-42 -53 0
-42 -49 0
-41 -82 0
-41 -78 0
-41 -74 0
-41 -63 0
-41 -56 0
-41 -55 0
-41 -54 0
-41 -50 0
-41 -47 0
-41 -46 0
-40 -77 0
-40 -76 0
-40 -75 0
-40 -71 0
-40 -68 0
-40 -66 0
-40 -49 0
-40 -46 0
-40 -42 0
-39 -82 0
-39 -69 0
-39 -64 0
-39 -61 0
-39 -59 0
-39 -53 0
-39 -51 0
-39 -47 0
-39 -42 0
-38 -87 0
-38 -85 0
-38 -75 0
-38 -73 0
-38 -72 0
-38 -64 0
-38 -63 0
-38 -62 0
-38 -59 0
-38 -58 0
-38 -50 0
-38 -43 0
-37 -90 0
-37 -84 0
-37 -81 0
-37 -78 0
-37 -73 0
-37 -67 0
-37 -63 0
-37 -55 0
-37 -54 0
-37 -47 0
-37 -41 0
-36 -86 0
-36 -84 0
-36 -83 0
-36 -77 0
-36 -75 0
-36 -68 0
-36 -58 0
-36 -51 0
-36 -49 0
-36 -42 0
-36 -40 0
-35 -76 0
-35 -71 0
-35 -66 0
-35 -64 0
-35 -61 0
-35 -51 0
-35 -47 0
-35 -46 0
-35 -40 0
-35 -39 0
-34 -86 0
-34 -84 0
-34 -83 0
-34 -82 0
-34 -74 0
-34 -58 0
-34 -56 0
-34 -51 0
-34 -50 0
-34 -46 0
-34 -41 0
-34 -36 0
-33 -89 0
-33 -88 0
-33 -67 0
-33 -64 0
-33 -61 0
-33 -57 0
-33 -51 0
-33 -49 0
-33 -47 0
-33 -39 0
-33 -35 0
-32 -76 0
-32 -72 0
-32 -71 0
-32 -66 0
-32 -63 0
-32 -59 0
-32 -58 0
-32 -46 0
-32 -43 0
-32 -40 0
-32 -38 0
-32 -35 0
-31 -88 0
-31 -86 0
-31 -81 0
-31 -80 0
-31 -77 0
-31 -72 0
-31 -69 0
-31 -66 0
-31 -45 0
-31 -44 0
-30 -85 0
-30 -80 0
-30 -76 0
-30 -74 0
-30 -70 0
-30 -65 0
-30 -57 0
-30 -53 0
-30 -52 0
-30 -45 0
-29 -90 0
-29 -84 0
-29 -81 0
-29 -76 0
-29 -73 0
-29 -71 0
-29 -67 0
-29 -66 0
-29 -46 0
-29 -40 0
-29 -37 0
-29 -35 0
-29 -32 0
-28 -89 0
-28 -78 0
-28 -76 0
-28 -71 0
-28 -66 0
-28 -62 0
-28 -60 0
-28 -52 0
-28 -46 0
-28 -40 0
-28 -35 0
-28 -32 0
-28 -29 0
-27 -89 0
-27 -88 0
-27 -87 0
-27 -83 0
-27 -79 0
-27 -67 0
-27 -65 0
-27 -57 0
-27 -55 0
-27 -49 0
-27 -33 0
-26 -89 0
-26 -88 0
-26 -71 0
-26 -67 0
-26 -57 0
-26 -54 0
-26 -49 0
-26 -48 0
-26 -33 0
-26 -27 0
-25 -89 0
-25 -81 0
-25 -78 0
-25 -77 0
-25 -72 0
-25 -62 0
-25 -60 0
-25 -52 0
-25 -45 0
-25 -31 0
-25 -28 0
-24 -81 0
-24 -77 0
-24 -72 0
-24 -64 0
-24 -61 0
-24 -51 0
-24 -47 0
-24 -45 0
-24 -39 0
-24 -35 0
-24 -33 0
-24 -31 0
-24 -25 0
-23 -87 0
-23 -83 0
-23 -82 0
-23 -79 0
-23 -69 0
-23 -65 0
-23 -59 0
-23 -55 0
-23 -53 0
-23 -42 0
-23 -39 0
-23 -27 0
-22 -90 0
-22 -84 0
-22 -81 0
-22 -80 0
-22 -74 0
-22 -73 0
-22 -67 0
-22 -65 0
-22 -52 0
-22 -37 0
-22 -30 0
-22 -29 0
-21 -81 0
-21 -77 0
-21 -72 0
-21 -71 0
-21 -54 0
-21 -48 0
-21 -45 0
-21 -31 0
-21 -26 0
-21 -25 0
-21 -24 0
-20 -80 0
-20 -74 0
-20 -71 0
-20 -65 0
-20 -54 0
-20 -52 0
-20 -48 0
-20 -30 0
-20 -26 0
-20 -22 0
-20 -21 0
-19 -85 0
-19 -78 0
-19 -76 0
-19 -70 0
-19 -63 0
-19 -57 0
-19 -55 0
-19 -54 0
-19 -53 0
-19 -47 0
-19 -45 0
-19 -41 0
-19 -37 0
-19 -30 0
-18 -88 0
-18 -87 0
-18 -86 0
-18 -85 0
-18 -80 0
-18 -75 0
-18 -73 0
-18 -69 0
-18 -66 0
-18 -64 0
-18 -62 0
-18 -50 0
-18 -44 0
-18 -38 0
-18 -31 0
-17 -78 0
-17 -77 0
-17 -75 0
-17 -68 0
-17 -63 0
-17 -55 0
-17 -54 0
-17 -49 0
-17 -47 0
-17 -42 0
-17 -41 0
-17 -40 0
-17 -37 0
-17 -36 0
-17 -19 0
-16 -86 0
-16 -84 0
-16 -83 0
-16 -71 0
-16 -58 0
-16 -54 0
-16 -51 0
-16 -48 0
-16 -36 0
-16 -34 0
-16 -26 0
-16 -21 0
-16 -20 0
-15 -89 0
-15 -86 0
-15 -84 0
-15 -83 0
-15 -78 0
-15 -62 0
-15 -60 0
-15 -58 0
-15 -52 0
-15 -51 0
-15 -36 0
-15 -34 0
-15 -28 0
-15 -25 0
-15 -16 0
-14 -80 0
-14 -74 0
-14 -72 0
-14 -65 0
-14 -63 0
-14 -59 0
-14 -58 0
-14 -52 0
-14 -43 0
-14 -38 0
-14 -32 0
-14 -30 0
-14 -22 0
-14 -20 0
-13 -88 0
-13 -86 0
-13 -80 0
-13 -78 0
-13 -69 0
-13 -66 0
-13 -63 0
-13 -55 0
-13 -54 0
-13 -47 0
-13 -44 0
-13 -41 0
-13 -37 0
-13 -31 0
-13 -19 0
-13 -18 0
-13 -17 0
-12 -89 0
-12 -88 0
-12 -72 0
-12 -67 0
-12 -63 0
-12 -59 0
-12 -58 0
-12 -57 0
-12 -49 0
-12 -43 0
-12 -38 0
-12 -33 0
-12 -32 0
-12 -27 0
-12 -26 0
-12 -14 0
-11 -82 0
-11 -81 0
-11 -77 0
-11 -74 0
-11 -72 0
-11 -56 0
-11 -50 0
-11 -46 0
-11 -45 0
-11 -41 0
-11 -34 0
-11 -31 0
-11 -25 0
-11 -24 0
-11 -21 0
-10 -86 0
-10 -85 0
-10 -84 0
-10 -83 0
-10 -76 0
-10 -70 0
-10 -58 0
-10 -57 0
-10 -53 0
-10 -51 0
-10 -45 0
-10 -36 0
-10 -34 0
-10 -30 0
-10 -19 0
-10 -16 0
-10 -15 0
-9 -82 0
-9 -71 0
-9 -69 0
-9 -59 0
-9 -54 0
-9 -53 0
-9 -48 0
-9 -42 0
-9 -39 0
-9 -26 0
-9 -23 0
-9 -21 0
-9 -20 0
-9 -16 0
-8 -89 0
-8 -82 0
-8 -78 0
-8 -69 0
-8 -62 0
-8 -60 0
-8 -59 0
-8 -53 0
-8 -52 0
-8 -42 0
-8 -39 0
-8 -28 0
-8 -25 0
-8 -23 0
-8 -15 0
-8 -9 0
-7 -89 0
-7 -88 0
-7 -82 0
-7 -74 0
-7 -67 0
-7 -57 0
-7 -56 0
-7 -50 0
-7 -49 0
-7 -46 0
-7 -41 0
-7 -34 0
-7 -33 0
-7 -27 0
-7 -26 0
-7 -12 0
-7 -11 0
-6 -87 0
-6 -83 0
-6 -79 0
-6 -76 0
-6 -71 0
-6 -66 0
-6 -65 0
-6 -55 0
-6 -46 0
-6 -40 0
-6 -35 0
-6 -32 0
-6 -29 0
-6 -28 0
-6 -27 0
-6 -23 0
-5 -80 0
-5 -74 0
-5 -65 0
-5 -64 0
-5 -61 0
-5 -52 0
-5 -51 0
-5 -47 0
-5 -39 0
-5 -35 0
-5 -33 0
-5 -30 0
-5 -24 0
-5 -22 0
-5 -20 0
-5 -14 0
-4 -87 0
-4 -85 0
-4 -75 0
-4 -73 0
-4 -71 0
-4 -64 0
-4 -62 0
-4 -54 0
-4 -50 0
-4 -48 0
-4 -38 0
-4 -26 0
-4 -21 0
-4 -20 0
-4 -18 0
-4 -16 0
-4 -9 0
-3 -90 0
-3 -84 0
-3 -82 0
-3 -81 0
-3 -73 0
-3 -69 0
-3 -67 0
-3 -59 0
-3 -53 0
-3 -42 0
-3 -39 0
-3 -37 0
-3 -29 0
-3 -23 0
-3 -22 0
-3 -9 0
-3 -8 0
-2 -87 0
-2 -83 0
-2 -81 0
-2 -79 0
-2 -77 0
-2 -72 0
-2 -65 0
-2 -55 0
-2 -45 0
-2 -31 0
-2 -27 0
-2 -25 0
-2 -24 0
-2 -23 0
-2 -21 0
-2 -11 0
-2 -6 0
-1 -80 0
-1 -77 0
-1 -75 0
-1 -74 0
-1 -68 0
-1 -65 0
-1 -52 0
-1 -49 0
-1 -42 0
-1 -40 0
-1 -36 0
-1 -30 0
-1 -22 0
-1 -20 0
-1 -17 0
-1 -14 0
-1 -5 0
1 17 36 40 42 49 68 75 77 0
2 6 23 27 55 65 79 83 87 0
3 22 29 37 67 73 81 84 90 0
4 9 16 20 21 26 48 54 71 0
5 24 33 35 39 47 51 61 64 0
7 11 34 41 46 50 56 74 82 0
8 15 25 28 52 60 62 78 89 0
10 19 30 45 53 57 70 76 85 0
12 14 32 38 43 58 59 63 72 0
13 18 31 44 66 69 80 86 88 0
