p cnf 25 105
-22 -24 0
-21 -25 0
-21 -23 0
-20 -23 0
-20 -22 0
-19 -24 0
-19 -22 0
-18 -24 0
-17 -22 0
-17 -20 0
-17 -18 0
-16 -24 0
-16 -18 0
-15 -23 0
-15 -21 0
-15 -16 0
-14 -25 0
-14 -23 0
-14 -20 0
-13 -22 0
-13 -20 0
-13 -17 0
-13 -16 0
-13 -15 0
-12 -24 0
-12 -23 0
-12 -22 0
-12 -21 0
-12 -19 0
-12 -15 0
-11 -23 0
-11 -20 0
-11 -19 0
-11 -14 0
-10 -25 0
-10 -24 0
-10 -21 0
-10 -18 0
-10 -16 0
-9 -24 0
-9 -23 0
-9 -20 0
-9 -18 0
-9 -16 0
-9 -14 0
-9 -11 0
-9 -10 0
-8 -25 0
-8 -16 0
-8 -15 0
-8 -14 0
-8 -13 0
-7 -25 0
-7 -24 0
-7 -22 0
-7 -19 0
-7 -14 0
-7 -12 0
-7 -8 0
-6 -25 0
-6 -22 0
-6 -21 0
-6 -20 0
-6 -17 0
-6 -13 0
-6 -10 0
-5 -23 0
-5 -21 0
-5 -18 0
-5 -17 0
-5 -15 0
-5 -12 0
-4 -25 0
-4 -21 0
-4 -19 0
-4 -11 0
-4 -10 0
-4 -6 0
-3 -19 0
-3 -16 0
-3 -15 0
-3 -13 0
-3 -11 0
-3 -8 0
-3 -4 0
-2 -19 0
-2 -18 0
-2 -17 0
-2 -11 0
-2 -5 0
-2 -4 0
-2 -3 0
-1 -25 0
-1 -18 0
-1 -17 0
-1 -14 0
-1 -8 0
-1 -7 0
-1 -5 0
-1 -2 0
1 2 5 17 18 0
3 8 13 15 16 0
4 6 10 21 25 0
7 12 19 22 24 0
9 11 14 20 23 0
