p cnf 20 75
-19 -20 0
-16 -19 0
-15 -18 0
-15 -17 0
-14 -19 0
-14 -17 0
-14 -16 0
-14 -15 0
-13 -18 0
-13 -16 0
-13 -15 0
-12 -20 0
-12 -18 0
-11 -20 0
-11 -19 0
-10 -20 0
-10 -17 0
-10 -15 0
-10 -14 0
-10 -12 0
-9 -17 0
-9 -16 0
-9 -13 0
-8 -20 0
-8 -16 0
-8 -13 0
-8 -12 0
-8 -10 0
-8 -9 0
-7 -19 0
-7 -18 0
-7 -16 0
-7 -14 0
-7 -12 0
-6 -18 0
-6 -17 0
-6 -12 0
-6 -9 0
-6 -7 0
-5 -20 0
-5 -19 0
-5 -18 0
-5 -15 0
-5 -13 0
-5 -11 0
-4 -20 0
-4 -19 0
-4 -17 0
-4 -11 0
-4 -9 0
-4 -6 0
-4 -5 0
-3 -16 0
-3 -13 0
-3 -11 0
-3 -9 0
-3 -8 0
-2 -18 0
-2 -12 0
-2 -11 0
-2 -7 0
-2 -6 0
-2 -3 0
-1 -17 0
-1 -15 0
-1 -14 0
-1 -11 0
-1 -10 0
-1 -3 0
-1 -2 0
1 2 3 11 0
4 6 9 17 0
5 13 15 18 0
7 14 16 19 0
8 10 12 20 0
