p cnf 20 75
-18 -20 0
-18 -19 0
-16 -20 0
-15 -20 0
-15 -17 0
-15 -16 0
-14 -20 0
-14 -18 0
-14 -17 0
-13 -19 0
-13 -18 0
-13 -16 0
-12 -19 0
-11 -20 0
-11 -16 0
-11 -15 0
-10 -19 0
-10 -18 0
-10 -17 0
-10 -15 0
-10 -13 0
-9 -17 0
-9 -14 0
-9 -11 0
-8 -16 0
-8 -13 0
-8 -12 0
-7 -17 0
-7 -15 0
-7 -12 0
-7 -10 0
-7 -8 0
-6 -19 0
-6 -17 0
-6 -14 0
-6 -12 0
-6 -9 0
-5 -20 0
-5 -18 0
-5 -14 0
-5 -12 0
-5 -8 0
-5 -7 0
-4 -19 0
-4 -18 0
-4 -13 0
-4 -11 0
-4 -10 0
-4 -9 0
-3 -12 0
-3 -11 0
-3 -9 0
-3 -8 0
-3 -7 0
-3 -5 0
-3 -4 0
-2 -20 0
-2 -19 0
-2 -16 0
-2 -15 0
-2 -12 0
-2 -11 0
-2 -6 0
-1 -17 0
-1 -16 0
-1 -14 0
-1 -13 0
-1 -9 0
-1 -8 0
-1 -6 0
1 8 13 16 0
2 6 12 19 0
3 4 9 11 0
5 14 18 20 0
7 10 15 17 0
