p cnf 25 105
-24 -25 0
-23 -25 0
-22 -25 0
-22 -23 0
-21 -24 0
-20 -21 0
-19 -25 0
-19 -23 0
-19 -22 0
-18 -24 0
-18 -23 0
-18 -21 0
-17 -23 0
-17 -20 0
-17 -18 0
-16 -19 0
-15 -20 0
-15 -19 0
-15 -17 0
-15 -16 0
-14 -23 0
-14 -18 0
-14 -17 0
-13 -23 0
-13 -18 0
-13 -17 0
-13 -16 0
-13 -14 0
-12 -22 0
-12 -16 0
-12 -13 0
-11 -24 0
-11 -22 0
-11 -21 0
-11 -18 0
-11 -12 0
-10 -22 0
-10 -20 0
-10 -17 0
-10 -15 0
-10 -12 0
-10 -11 0
-9 -25 0
-9 -23 0
-9 -22 0
-9 -21 0
-9 -20 0
-9 -19 0
-8 -21 0
-8 -20 0
-8 -16 0
-8 -13 0
-8 -12 0
-8 -9 0
-7 -25 0
-7 -24 0
-7 -20 0
-7 -17 0
-7 -15 0
-7 -10 0
-6 -21 0
-6 -20 0
-6 -14 0
-6 -9 0
-6 -8 0
-5 -22 0
-5 -14 0
-5 -12 0
-5 -11 0
-5 -10 0
-5 -6 0
-4 -25 0
-4 -24 0
-4 -14 0
-4 -7 0
-4 -6 0
-4 -5 0
-3 -24 0
-3 -21 0
-3 -19 0
-3 -18 0
-3 -16 0
-3 -15 0
-3 -11 0
-2 -19 0
-2 -16 0
-2 -15 0
-2 -14 0
-2 -6 0
-2 -5 0
-2 -4 0
-2 -3 0
-1 -25 0
-1 -24 0
-1 -16 0
-1 -13 0
-1 -12 0
-1 -8 0
-1 -7 0
-1 -4 0
1 8 12 13 16 0
2 4 5 6 14 0
3 11 18 21 24 0
7 10 15 17 20 0
9 19 22 23 25 0
