p cnf 20 75
-19 -20 0
-18 -19 0
-16 -17 0
-15 -16 0
-14 -19 0
-14 -18 0
-14 -16 0
-14 -15 0
-13 -20 0
-13 -16 0
-13 -15 0
-13 -14 0
-12 -20 0
-12 -17 0
-12 -13 0
-11 -20 0
-11 -19 0
-11 -17 0
-11 -16 0
-10 -20 0
-10 -18 0
-10 -13 0
-10 -12 0
-9 -19 0
-9 -18 0
-9 -14 0
-8 -19 0
-8 -18 0
-8 -17 0
-8 -14 0
-8 -12 0
-8 -9 0
-7 -15 0
-7 -9 0
-6 -17 0
-6 -16 0
-6 -11 0
-6 -9 0
-6 -7 0
-5 -18 0
-5 -15 0
-5 -10 0
-5 -7 0
-4 -18 0
-4 -17 0
-4 -16 0
-4 -11 0
-4 -10 0
-4 -6 0
-4 -5 0
-3 -17 0
-3 -15 0
-3 -12 0
-3 -8 0
-3 -7 0
-3 -5 0
-2 -20 0
-2 -19 0
-2 -15 0
-2 -11 0
-2 -7 0
-2 -5 0
-2 -3 0
-1 -20 0
-1 -13 0
-1 -12 0
-1 -10 0
-1 -9 0
-1 -7 0
-1 -6 0
1 6 7 9 0
2 11 19 20 0
3 8 12 17 0
4 5 10 18 0
13 14 15 16 0
