p cnf 25 105
-23 -25 0
-21 -22 0
-20 -21 0
-19 -24 0
-19 -22 0
-18 -23 0
-18 -22 0
-18 -19 0
-17 -25 0
-16 -22 0
-16 -20 0
-16 -19 0
-16 -18 0
-15 -25 0
-15 -22 0
-15 -19 0
-15 -18 0
-15 -17 0
-15 -16 0
-14 -24 0
-14 -20 0
-14 -16 0
-13 -25 0
-13 -24 0
-13 -23 0
-13 -19 0
-12 -24 0
-12 -21 0
-12 -20 0
-12 -19 0
-12 -13 0
-11 -20 0
-11 -17 0
-11 -16 0
-11 -14 0
-10 -24 0
-10 -22 0
-10 -21 0
-10 -14 0
-9 -23 0
-9 -18 0
-9 -17 0
-9 -11 0
-8 -25 0
-8 -23 0
-8 -22 0
-8 -21 0
-8 -13 0
-8 -10 0
-7 -23 0
-7 -21 0
-7 -20 0
-7 -18 0
-7 -12 0
-7 -9 0
-6 -25 0
-6 -24 0
-6 -17 0
-6 -15 0
-6 -14 0
-6 -10 0
-5 -22 0
-5 -21 0
-5 -17 0
-5 -11 0
-5 -10 0
-5 -9 0
-5 -8 0
-4 -25 0
-4 -21 0
-4 -20 0
-4 -17 0
-4 -15 0
-4 -12 0
-4 -7 0
-4 -6 0
-3 -25 0
-3 -23 0
-3 -20 0
-3 -16 0
-3 -14 0
-3 -13 0
-3 -11 0
-3 -8 0
-2 -24 0
-2 -19 0
-2 -17 0
-2 -13 0
-2 -12 0
-2 -11 0
-2 -9 0
-2 -5 0
-1 -24 0
-1 -23 0
-1 -18 0
-1 -14 0
-1 -10 0
-1 -9 0
-1 -7 0
-1 -6 0
1 7 9 18 23 0
2 12 13 19 24 0
3 11 14 16 20 0
4 6 15 17 25 0
5 8 10 21 22 0
