p cnf 25 105
-23 -24 0
-22 -25 0
-21 -25 0
-20 -25 0
-20 -23 0
-20 -22 0
-18 -25 0
-18 -21 0
-18 -19 0
-17 -25 0
-17 -24 0
-17 -22 0
-17 -20 0
-16 -22 0
-16 -21 0
-15 -25 0
-15 -21 0
-15 -18 0
-14 -24 0
-14 -21 0
-14 -17 0
-14 -16 0
-13 -25 0
-13 -24 0
-13 -23 0
-13 -21 0
-13 -18 0
-13 -15 0
-12 -23 0
-12 -21 0
-12 -20 0
-12 -16 0
-12 -14 0
-11 -24 0
-11 -23 0
-11 -19 0
-11 -13 0
-10 -24 0
-10 -19 0
-10 -18 0
-10 -17 0
-10 -14 0
-9 -21 0
-9 -19 0
-9 -16 0
-9 -14 0
-9 -12 0
-9 -11 0
-8 -23 0
-8 -20 0
-8 -15 0
-8 -12 0
-7 -24 0
-7 -17 0
-7 -15 0
-7 -14 0
-7 -10 0
-7 -8 0
-6 -24 0
-6 -23 0
-6 -22 0
-6 -16 0
-6 -13 0
-6 -11 0
-5 -19 0
-5 -15 0
-5 -11 0
-5 -9 0
-5 -8 0
-5 -7 0
-4 -22 0
-4 -16 0
-4 -15 0
-4 -8 0
-4 -7 0
-4 -6 0
-4 -5 0
-3 -22 0
-3 -19 0
-3 -18 0
-3 -16 0
-3 -10 0
-3 -6 0
-3 -4 0
-2 -25 0
-2 -22 0
-2 -20 0
-2 -19 0
-2 -17 0
-2 -11 0
-2 -9 0
-2 -5 0
-1 -23 0
-1 -20 0
-1 -19 0
-1 -18 0
-1 -12 0
-1 -10 0
-1 -8 0
-1 -3 0
1 8 12 20 23 0
2 5 9 11 19 0
3 4 6 16 22 0
7 10 14 17 24 0
13 15 18 21 25 0
