p cnf 25 105
-24 -25 0
-22 -25 0
-21 -24 0
-20 -25 0
-20 -24 0
-19 -25 0
-19 -24 0
-19 -23 0
-19 -20 0
-18 -23 0
-18 -19 0
-17 -23 0
-17 -21 0
-17 -19 0
-17 -18 0
-16 -21 0
-16 -17 0
-15 -22 0
-15 -20 0
-14 -25 0
-14 -23 0
-14 -22 0
-13 -23 0
-13 -20 0
-13 -15 0
-13 -14 0
-12 -22 0
-12 -16 0
-12 -15 0
-11 -21 0
-11 -20 0
-11 -17 0
-11 -16 0
-11 -15 0
-11 -13 0
-10 -23 0
-10 -22 0
-10 -19 0
-10 -18 0
-10 -17 0
-10 -15 0
-10 -12 0
-9 -20 0
-9 -18 0
-9 -15 0
-9 -13 0
-9 -11 0
-8 -24 0
-8 -23 0
-8 -21 0
-8 -14 0
-8 -13 0
-7 -25 0
-7 -22 0
-7 -18 0
-7 -14 0
-7 -9 0
-6 -24 0
-6 -21 0
-6 -18 0
-6 -9 0
-6 -8 0
-6 -7 0
-5 -18 0
-5 -16 0
-5 -12 0
-5 -9 0
-5 -7 0
-5 -6 0
-4 -23 0
-4 -16 0
-4 -14 0
-4 -13 0
-4 -12 0
-4 -8 0
-4 -5 0
-3 -25 0
-3 -24 0
-3 -20 0
-3 -19 0
-3 -16 0
-3 -12 0
-3 -5 0
-3 -4 0
-2 -24 0
-2 -22 0
-2 -21 0
-2 -15 0
-2 -12 0
-2 -10 0
-2 -8 0
-2 -6 0
-1 -25 0
-1 -22 0
-1 -21 0
-1 -17 0
-1 -16 0
-1 -14 0
-1 -11 0
-1 -7 0
1 7 14 22 25 0
2 6 8 21 24 0
3 4 5 12 16 0
9 11 13 15 20 0
10 17 18 19 23 0
