p cnf 20 75
-18 -20 0
-17 -20 0
-17 -19 0
-17 -18 0
-16 -20 0
-16 -18 0
-16 -17 0
-15 -20 0
-14 -16 0
-14 -15 0
-13 -18 0
-13 -15 0
-13 -14 0
-12 -20 0
-12 -15 0
-11 -12 0
-10 -19 0
-10 -11 0
-9 -19 0
-9 -18 0
-9 -13 0
-9 -10 0
-8 -19 0
-8 -17 0
-8 -12 0
-8 -11 0
-7 -20 0
-7 -18 0
-7 -17 0
-7 -16 0
-7 -11 0
-7 -10 0
-6 -19 0
-6 -16 0
-6 -14 0
-6 -10 0
-6 -9 0
-5 -19 0
-5 -17 0
-5 -15 0
-5 -14 0
-5 -13 0
-5 -8 0
-4 -16 0
-4 -14 0
-4 -12 0
-4 -11 0
-4 -8 0
-4 -6 0
-3 -20 0
-3 -19 0
-3 -15 0
-3 -12 0
-3 -10 0
-3 -9 0
-3 -6 0
-2 -18 0
-2 -13 0
-2 -12 0
-2 -11 0
-2 -9 0
-2 -8 0
-2 -4 0
-1 -15 0
-1 -14 0
-1 -13 0
-1 -11 0
-1 -10 0
-1 -7 0
-1 -5 0
1 7 10 11 0
2 9 13 18 0
3 12 15 20 0
4 6 14 16 0
5 8 17 19 0
