p cnf 25 105
-22 -25 0
-22 -23 0
-21 -23 0
-20 -23 0
-20 -22 0
-19 -24 0
-19 -23 0
-19 -22 0
-19 -20 0
-18 -20 0
-17 -18 0
-16 -24 0
-16 -21 0
-16 -19 0
-15 -23 0
-15 -21 0
-15 -18 0
-15 -17 0
-14 -25 0
-14 -24 0
-14 -19 0
-14 -16 0
-13 -24 0
-13 -20 0
-13 -18 0
-12 -21 0
-12 -17 0
-12 -16 0
-11 -24 0
-11 -17 0
-11 -13 0
-11 -12 0
-10 -25 0
-10 -23 0
-10 -21 0
-10 -15 0
-10 -14 0
-9 -25 0
-9 -20 0
-9 -18 0
-9 -14 0
-9 -13 0
-9 -10 0
-8 -21 0
-8 -20 0
-8 -18 0
-8 -16 0
-8 -13 0
-8 -12 0
-8 -9 0
-7 -24 0
-7 -19 0
-7 -18 0
-7 -17 0
-7 -16 0
-7 -15 0
-7 -14 0
-6 -25 0
-6 -24 0
-6 -22 0
-6 -13 0
-6 -11 0
-5 -25 0
-5 -17 0
-5 -14 0
-5 -12 0
-5 -11 0
-5 -10 0
-5 -9 0
-4 -24 0
-4 -23 0
-4 -21 0
-4 -15 0
-4 -13 0
-4 -11 0
-4 -10 0
-4 -6 0
-3 -23 0
-3 -22 0
-3 -20 0
-3 -19 0
-3 -17 0
-3 -12 0
-3 -11 0
-3 -5 0
-2 -25 0
-2 -22 0
-2 -21 0
-2 -16 0
-2 -12 0
-2 -8 0
-2 -6 0
-1 -25 0
-1 -22 0
-1 -18 0
-1 -17 0
-1 -15 0
-1 -7 0
-1 -6 0
-1 -2 0
1 7 15 17 18 0
2 8 12 16 21 0
3 19 20 22 23 0
4 6 11 13 24 0
5 9 10 14 25 0
