p cnf 25 105
-22 -25 0
-22 -23 0
-21 -24 0
-20 -21 0
-19 -21 0
-19 -20 0
-18 -23 0
-18 -22 0
-18 -19 0
-17 -25 0
-17 -24 0
-17 -21 0
-16 -24 0
-16 -21 0
-16 -17 0
-15 -24 0
-15 -19 0
-15 -18 0
-14 -24 0
-14 -23 0
-14 -15 0
-13 -25 0
-13 -22 0
-13 -21 0
-13 -20 0
-13 -19 0
-12 -25 0
-12 -22 0
-12 -16 0
-12 -13 0
-11 -23 0
-11 -16 0
-11 -14 0
-11 -12 0
-10 -20 0
-10 -16 0
-10 -12 0
-10 -11 0
-9 -25 0
-9 -24 0
-9 -22 0
-9 -15 0
-9 -14 0
-9 -13 0
-9 -12 0
-8 -23 0
-8 -21 0
-8 -20 0
-8 -19 0
-8 -14 0
-8 -13 0
-8 -11 0
-7 -24 0
-7 -23 0
-7 -22 0
-7 -21 0
-7 -18 0
-7 -17 0
-7 -16 0
-6 -25 0
-6 -20 0
-6 -17 0
-6 -10 0
-5 -25 0
-5 -23 0
-5 -17 0
-5 -14 0
-5 -11 0
-5 -8 0
-5 -6 0
-4 -25 0
-4 -19 0
-4 -18 0
-4 -17 0
-4 -15 0
-4 -6 0
-4 -5 0
-3 -23 0
-3 -22 0
-3 -20 0
-3 -18 0
-3 -10 0
-3 -7 0
-3 -6 0
-2 -19 0
-2 -18 0
-2 -16 0
-2 -15 0
-2 -12 0
-2 -11 0
-2 -10 0
-2 -4 0
-1 -24 0
-1 -20 0
-1 -15 0
-1 -14 0
-1 -10 0
-1 -9 0
-1 -6 0
-1 -3 0
1 9 14 15 24 0
2 10 11 12 16 0
3 7 18 22 23 0
4 5 6 17 25 0
8 13 19 20 21 0
