p cnf 20 75
-19 -20 0
-17 -19 0
-15 -18 0
-15 -17 0
-14 -20 0
-14 -16 0
-13 -19 0
-13 -18 0
-13 -17 0
-12 -16 0
-12 -14 0
-11 -20 0
-11 -19 0
-11 -12 0
-10 -17 0
-10 -15 0
-10 -12 0
-10 -11 0
-9 -18 0
-9 -13 0
-9 -12 0
-9 -11 0
-9 -10 0
-8 -18 0
-8 -16 0
-8 -15 0
-8 -14 0
-8 -12 0
-7 -20 0
-7 -17 0
-7 -15 0
-7 -14 0
-7 -10 0
-6 -20 0
-6 -19 0
-6 -16 0
-6 -11 0
-5 -20 0
-5 -19 0
-5 -18 0
-5 -15 0
-5 -11 0
-5 -8 0
-5 -6 0
-4 -18 0
-4 -16 0
-4 -13 0
-4 -9 0
-4 -6 0
-3 -17 0
-3 -16 0
-3 -15 0
-3 -10 0
-3 -7 0
-3 -6 0
-3 -4 0
-2 -20 0
-2 -18 0
-2 -14 0
-2 -13 0
-2 -9 0
-2 -7 0
-2 -4 0
-1 -19 0
-1 -17 0
-1 -16 0
-1 -14 0
-1 -13 0
-1 -12 0
-1 -8 0
1 13 17 19 0
2 7 14 20 0
3 4 6 16 0
5 8 15 18 0
9 10 11 12 0
