p cnf 25 105
-24 -25 0
-22 -24 0
-22 -23 0
-21 -23 0
-20 -25 0
-19 -25 0
-19 -21 0
-19 -20 0
-18 -21 0
-18 -19 0
-17 -23 0
-17 -22 0
-17 -18 0
-16 -24 0
-16 -22 0
-16 -21 0
-16 -19 0
-16 -18 0
-15 -25 0
-15 -23 0
-15 -22 0
-15 -20 0
-15 -19 0
-15 -17 0
-14 -25 0
-14 -24 0
-14 -18 0
-14 -17 0
-13 -25 0
-13 -24 0
-13 -14 0
-12 -23 0
-12 -21 0
-11 -23 0
-11 -22 0
-11 -17 0
-11 -15 0
-11 -13 0
-10 -23 0
-10 -21 0
-10 -20 0
-10 -12 0
-9 -25 0
-9 -20 0
-9 -19 0
-9 -15 0
-9 -12 0
-8 -18 0
-8 -17 0
-8 -14 0
-8 -12 0
-8 -9 0
-7 -24 0
-7 -22 0
-7 -16 0
-7 -12 0
-7 -9 0
-7 -8 0
-6 -21 0
-6 -19 0
-6 -18 0
-6 -16 0
-6 -13 0
-6 -11 0
-5 -20 0
-5 -13 0
-5 -11 0
-5 -10 0
-5 -6 0
-4 -20 0
-4 -18 0
-4 -17 0
-4 -14 0
-4 -10 0
-4 -8 0
-4 -5 0
-3 -13 0
-3 -12 0
-3 -11 0
-3 -9 0
-3 -8 0
-3 -7 0
-3 -6 0
-3 -5 0
-2 -24 0
-2 -22 0
-2 -20 0
-2 -16 0
-2 -10 0
-2 -7 0
-2 -5 0
-2 -4 0
-1 -25 0
-1 -24 0
-1 -23 0
-1 -21 0
-1 -14 0
-1 -13 0
-1 -12 0
-1 -10 0
1 10 12 21 23 0
2 7 16 22 24 0
3 5 6 11 13 0
4 8 14 17 18 0
9 15 19 20 25 0
