p cnf 20 75
-19 -20 0
-18 -20 0
-18 -19 0
-17 -18 0
-15 -19 0
-15 -17 0
-14 -20 0
-14 -19 0
-14 -18 0
-14 -16 0
-13 -19 0
-13 -15 0
-12 -20 0
-12 -13 0
-11 -13 0
-11 -12 0
-10 -20 0
-10 -17 0
-10 -15 0
-10 -12 0
-9 -16 0
-9 -14 0
-9 -13 0
-9 -12 0
-9 -11 0
-8 -17 0
-8 -15 0
-8 -11 0
-8 -10 0
-7 -20 0
-7 -19 0
-7 -18 0
-7 -14 0
-7 -11 0
-7 -8 0
-6 -17 0
-6 -16 0
-6 -15 0
-6 -14 0
-6 -10 0
-6 -9 0
-6 -8 0
-5 -18 0
-5 -17 0
-5 -16 0
-4 -16 0
-4 -11 0
-4 -8 0
-4 -7 0
-4 -5 0
-3 -20 0
-3 -16 0
-3 -12 0
-3 -10 0
-3 -5 0
-3 -4 0
-2 -19 0
-2 -16 0
-2 -15 0
-2 -13 0
-2 -5 0
-2 -4 0
-2 -3 0
-1 -18 0
-1 -17 0
-1 -13 0
-1 -12 0
-1 -11 0
-1 -9 0
-1 -5 0
1 5 17 18 0
2 13 15 19 0
3 10 12 20 0
4 7 8 11 0
6 9 14 16 0
