p cnf 20 75
-19 -20 0
-18 -20 0
-17 -20 0
-17 -18 0
-16 -19 0
-15 -20 0
-15 -18 0
-15 -17 0
-15 -16 0
-14 -20 0
-14 -19 0
-13 -20 0
-13 -18 0
-13 -17 0
-13 -15 0
-12 -19 0
-12 -18 0
-12 -16 0
-11 -14 0
-11 -13 0
-10 -20 0
-10 -19 0
-10 -14 0
-9 -13 0
-9 -11 0
-9 -10 0
-8 -18 0
-8 -12 0
-8 -10 0
-8 -9 0
-7 -18 0
-7 -14 0
-7 -12 0
-7 -11 0
-7 -8 0
-6 -19 0
-6 -16 0
-6 -13 0
-6 -12 0
-6 -11 0
-6 -9 0
-5 -17 0
-5 -14 0
-5 -11 0
-5 -7 0
-4 -16 0
-4 -15 0
-4 -14 0
-4 -11 0
-4 -7 0
-4 -5 0
-3 -17 0
-3 -10 0
-3 -9 0
-3 -8 0
-3 -5 0
-2 -16 0
-2 -15 0
-2 -10 0
-2 -9 0
-2 -8 0
-2 -4 0
-2 -3 0
-1 -19 0
-1 -17 0
-1 -16 0
-1 -12 0
-1 -6 0
-1 -5 0
-1 -3 0
1 3 5 17 0
2 4 15 16 0
6 9 11 13 0
7 8 12 18 0
10 14 19 20 0
