p cnf 25 105
-23 -24 0
-22 -23 0
-21 -24 0
-21 -23 0
-20 -25 0
-18 -24 0
-18 -23 0
-18 -21 0
-18 -19 0
-17 -24 0
-17 -20 0
-16 -22 0
-16 -21 0
-15 -25 0
-15 -24 0
-15 -23 0
-15 -21 0
-15 -20 0
-15 -18 0
-14 -23 0
-14 -22 0
-14 -19 0
-13 -23 0
-13 -22 0
-13 -20 0
-13 -17 0
-13 -14 0
-12 -25 0
-12 -21 0
-12 -16 0
-11 -22 0
-11 -19 0
-11 -18 0
-11 -16 0
-10 -21 0
-10 -19 0
-10 -16 0
-10 -14 0
-10 -12 0
-9 -25 0
-9 -22 0
-9 -20 0
-9 -16 0
-9 -15 0
-9 -11 0
-8 -24 0
-8 -19 0
-8 -17 0
-8 -14 0
-8 -10 0
-7 -20 0
-7 -19 0
-7 -18 0
-7 -17 0
-7 -13 0
-7 -11 0
-6 -24 0
-6 -22 0
-6 -17 0
-6 -16 0
-6 -11 0
-6 -9 0
-6 -8 0
-5 -25 0
-5 -19 0
-5 -18 0
-5 -12 0
-5 -11 0
-5 -7 0
-4 -25 0
-4 -23 0
-4 -22 0
-4 -14 0
-4 -13 0
-4 -12 0
-4 -5 0
-3 -25 0
-3 -24 0
-3 -17 0
-3 -12 0
-3 -8 0
-3 -6 0
-3 -5 0
-3 -4 0
-2 -25 0
-2 -20 0
-2 -19 0
-2 -15 0
-2 -14 0
-2 -10 0
-2 -9 0
-2 -8 0
-1 -21 0
-1 -20 0
-1 -17 0
-1 -16 0
-1 -13 0
-1 -12 0
-1 -10 0
-1 -7 0
1 10 12 16 21 0
2 9 15 20 25 0
3 6 8 17 24 0
4 13 14 22 23 0
5 7 11 18 19 0
