p cnf 20 75
-19 -20 0
-18 -20 0
-18 -19 0
-16 -20 0
-16 -19 0
-16 -18 0
-15 -19 0
-15 -17 0
-14 -17 0
-13 -18 0
-13 -17 0
-13 -15 0
-12 -16 0
-11 -17 0
-11 -16 0
-11 -15 0
-11 -13 0
-11 -12 0
-10 -19 0
-10 -15 0
-10 -12 0
-9 -20 0
-9 -17 0
-9 -15 0
-9 -13 0
-9 -11 0
-8 -20 0
-8 -19 0
-8 -18 0
-8 -17 0
-8 -16 0
-8 -14 0
-7 -18 0
-7 -13 0
-7 -12 0
-7 -10 0
-6 -20 0
-6 -14 0
-6 -9 0
-5 -20 0
-5 -12 0
-5 -10 0
-5 -9 0
-5 -7 0
-5 -6 0
-4 -17 0
-4 -14 0
-4 -12 0
-4 -10 0
-4 -8 0
-4 -7 0
-4 -5 0
-3 -16 0
-3 -14 0
-3 -12 0
-3 -11 0
-3 -6 0
-2 -18 0
-2 -14 0
-2 -13 0
-2 -7 0
-2 -6 0
-2 -3 0
-1 -19 0
-1 -15 0
-1 -14 0
-1 -10 0
-1 -6 0
-1 -3 0
-1 -2 0
1 10 15 19 0
2 7 13 18 0
3 11 12 16 0
4 8 14 17 0
5 6 9 20 0
