p cnf 25 105
-24 -25 0
-21 -23 0
-21 -22 0
-20 -23 0
-20 -21 0
-19 -25 0
-18 -25 0
-18 -23 0
-18 -19 0
-17 -25 0
-17 -24 0
-16 -25 0
-16 -24 0
-16 -22 0
-16 -17 0
-15 -24 0
-15 -20 0
-14 -22 0
-14 -20 0
-14 -16 0
-14 -15 0
-13 -25 0
-13 -20 0
-13 -19 0
-13 -18 0
-13 -15 0
-13 -14 0
-12 -22 0
-12 -21 0
-12 -17 0
-11 -19 0
-11 -17 0
-11 -12 0
-10 -23 0
-10 -21 0
-10 -20 0
-10 -19 0
-10 -11 0
-9 -23 0
-9 -18 0
-9 -17 0
-9 -12 0
-9 -11 0
-8 -20 0
-8 -17 0
-8 -15 0
-8 -14 0
-8 -13 0
-8 -12 0
-8 -11 0
-8 -9 0
-7 -24 0
-7 -22 0
-7 -21 0
-7 -15 0
-7 -12 0
-6 -22 0
-6 -19 0
-6 -16 0
-6 -14 0
-6 -11 0
-6 -10 0
-5 -24 0
-5 -19 0
-5 -15 0
-5 -11 0
-5 -10 0
-5 -7 0
-5 -6 0
-4 -23 0
-4 -22 0
-4 -18 0
-4 -16 0
-4 -14 0
-4 -9 0
-4 -6 0
-3 -25 0
-3 -22 0
-3 -21 0
-3 -19 0
-3 -18 0
-3 -13 0
-3 -12 0
-3 -7 0
-2 -25 0
-2 -24 0
-2 -23 0
-2 -21 0
-2 -20 0
-2 -17 0
-2 -16 0
-2 -10 0
-1 -24 0
-1 -23 0
-1 -18 0
-1 -15 0
-1 -9 0
-1 -7 0
-1 -5 0
-1 -4 0
1 5 7 15 24 0
2 10 20 21 23 0
3 13 18 19 25 0
4 6 14 16 22 0
8 9 11 12 17 0
