p cnf 25 105
-23 -25 0
-23 -24 0
-21 -25 0
-21 -23 0
-21 -22 0
-20 -25 0
-20 -22 0
-19 -22 0
-19 -20 0
-18 -24 0
-18 -23 0
-17 -25 0
-17 -23 0
-17 -21 0
-17 -19 0
-16 -25 0
-16 -20 0
-15 -19 0
-15 -17 0
-15 -16 0
-14 -25 0
-14 -23 0
-14 -21 0
-14 -17 0
-13 -16 0
-13 -15 0
-13 -14 0
-12 -22 0
-12 -21 0
-12 -16 0
-12 -15 0
-12 -13 0
-11 -22 0
-11 -21 0
-11 -18 0
-11 -12 0
-10 -25 0
-10 -20 0
-10 -18 0
-10 -16 0
-10 -11 0
-9 -24 0
-9 -22 0
-9 -21 0
-9 -12 0
-9 -11 0
-8 -18 0
-8 -14 0
-8 -13 0
-8 -11 0
-8 -10 0
-7 -24 0
-7 -23 0
-7 -22 0
-7 -20 0
-7 -19 0
-7 -18 0
-6 -22 0
-6 -20 0
-6 -19 0
-6 -14 0
-6 -13 0
-6 -8 0
-6 -7 0
-5 -24 0
-5 -23 0
-5 -18 0
-5 -16 0
-5 -15 0
-5 -13 0
-5 -12 0
-5 -7 0
-4 -19 0
-4 -18 0
-4 -17 0
-4 -15 0
-4 -11 0
-4 -10 0
-4 -8 0
-3 -25 0
-3 -24 0
-3 -20 0
-3 -16 0
-3 -10 0
-3 -9 0
-2 -24 0
-2 -19 0
-2 -17 0
-2 -15 0
-2 -9 0
-2 -4 0
-2 -3 0
-1 -24 0
-1 -14 0
-1 -13 0
-1 -9 0
-1 -8 0
-1 -6 0
-1 -3 0
-1 -2 0
1 2 3 9 24 0
4 8 10 11 18 0
5 12 13 15 16 0
6 7 19 20 22 0
14 17 21 23 25 0
