p cnf 20 75
-18 -19 0
-17 -20 0
-16 -17 0
-15 -20 0
-15 -19 0
-15 -18 0
-14 -19 0
-13 -20 0
-13 -19 0
-13 -17 0
-13 -14 0
-12 -16 0
-11 -20 0
-11 -16 0
-11 -15 0
-11 -12 0
-10 -17 0
-10 -16 0
-10 -14 0
-9 -19 0
-9 -18 0
-9 -17 0
-9 -16 0
-9 -15 0
-9 -10 0
-8 -18 0
-8 -14 0
-8 -10 0
-7 -20 0
-7 -18 0
-7 -17 0
-7 -13 0
-7 -8 0
-6 -18 0
-6 -16 0
-6 -12 0
-6 -11 0
-6 -8 0
-6 -7 0
-5 -20 0
-5 -17 0
-5 -13 0
-5 -12 0
-5 -7 0
-4 -19 0
-4 -16 0
-4 -14 0
-4 -13 0
-4 -12 0
-4 -11 0
-4 -6 0
-3 -20 0
-3 -15 0
-3 -14 0
-3 -11 0
-3 -10 0
-3 -8 0
-2 -14 0
-2 -12 0
-2 -10 0
-2 -8 0
-2 -5 0
-2 -3 0
-1 -19 0
-1 -18 0
-1 -15 0
-1 -12 0
-1 -9 0
-1 -5 0
-1 -2 0
1 2 5 12 0
3 11 15 20 0
4 13 14 19 0
6 7 8 18 0
9 10 16 17 0
