p cnf 25 105
-21 -25 0
-20 -25 0
-20 -23 0
-20 -21 0
-19 -23 0
-19 -22 0
-18 -23 0
-18 -21 0
-18 -19 0
-17 -25 0
-16 -24 0
-16 -22 0
-15 -22 0
-15 -19 0
-15 -17 0
-14 -25 0
-14 -24 0
-14 -17 0
-13 -23 0
-13 -20 0
-13 -17 0
-13 -15 0
-12 -24 0
-12 -22 0
-12 -19 0
-12 -15 0
-12 -14 0
-11 -25 0
-11 -24 0
-11 -21 0
-11 -20 0
-11 -16 0
-10 -24 0
-10 -17 0
-10 -16 0
-10 -15 0
-10 -13 0
-10 -11 0
-9 -23 0
-9 -22 0
-9 -20 0
-9 -16 0
-9 -13 0
-8 -24 0
-8 -23 0
-8 -20 0
-8 -14 0
-8 -13 0
-8 -12 0
-8 -9 0
-7 -25 0
-7 -22 0
-7 -17 0
-7 -16 0
-7 -14 0
-7 -9 0
-6 -24 0
-6 -23 0
-6 -19 0
-6 -18 0
-6 -16 0
-6 -11 0
-6 -10 0
-5 -25 0
-5 -23 0
-5 -19 0
-5 -18 0
-5 -17 0
-5 -14 0
-5 -7 0
-5 -6 0
-4 -21 0
-4 -18 0
-4 -17 0
-4 -15 0
-4 -13 0
-4 -10 0
-3 -22 0
-3 -21 0
-3 -18 0
-3 -16 0
-3 -9 0
-3 -7 0
-3 -4 0
-2 -25 0
-2 -22 0
-2 -21 0
-2 -20 0
-2 -19 0
-2 -15 0
-2 -12 0
-2 -11 0
-1 -24 0
-1 -21 0
-1 -18 0
-1 -14 0
-1 -12 0
-1 -8 0
-1 -4 0
-1 -3 0
1 8 12 14 24 0
2 11 20 21 25 0
3 7 9 16 22 0
4 10 13 15 17 0
5 6 18 19 23 0
