p cnf 20 75
-17 -20 0
-16 -19 0
-16 -17 0
-15 -19 0
-15 -18 0
-15 -16 0
-14 -20 0
-14 -19 0
-14 -17 0
-13 -17 0
-13 -16 0
-12 -18 0
-12 -15 0
-12 -13 0
-11 -20 0
-11 -13 0
-11 -12 0
-10 -19 0
-10 -18 0
-10 -14 0
-9 -17 0
-9 -16 0
-9 -13 0
-8 -20 0
-8 -18 0
-8 -11 0
-8 -10 0
-7 -19 0
-7 -14 0
-7 -13 0
-7 -12 0
-7 -11 0
-7 -10 0
-6 -20 0
-6 -19 0
-6 -16 0
-6 -15 0
-6 -11 0
-6 -8 0
-5 -20 0
-5 -11 0
-5 -9 0
-5 -8 0
-5 -6 0
-4 -18 0
-4 -17 0
-4 -16 0
-4 -13 0
-4 -10 0
-4 -9 0
-4 -8 0
-3 -20 0
-3 -18 0
-3 -17 0
-3 -15 0
-3 -14 0
-3 -12 0
-2 -19 0
-2 -14 0
-2 -10 0
-2 -9 0
-2 -7 0
-2 -5 0
-1 -18 0
-1 -15 0
-1 -12 0
-1 -9 0
-1 -5 0
-1 -3 0
-1 -2 0
1 2 5 9 0
3 14 17 20 0
4 8 10 18 0
6 15 16 19 0
7 11 12 13 0
