p cnf 25 105
-23 -25 0
-22 -23 0
-20 -25 0
-20 -22 0
-19 -23 0
-19 -22 0
-18 -22 0
-18 -20 0
-17 -24 0
-17 -23 0
-17 -22 0
-17 -19 0
-16 -24 0
-16 -19 0
-15 -24 0
-15 -22 0
-15 -20 0
-15 -18 0
-15 -16 0
-14 -25 0
-14 -23 0
-14 -18 0
-13 -25 0
-13 -21 0
-13 -20 0
-12 -25 0
-12 -23 0
-12 -21 0
-12 -14 0
-11 -24 0
-11 -18 0
-11 -17 0
-11 -14 0
-10 -19 0
-10 -18 0
-10 -16 0
-10 -14 0
-10 -11 0
-9 -21 0
-9 -19 0
-9 -16 0
-9 -12 0
-9 -10 0
-8 -21 0
-8 -18 0
-8 -14 0
-8 -13 0
-8 -11 0
-8 -10 0
-7 -25 0
-7 -20 0
-7 -19 0
-7 -16 0
-7 -13 0
-7 -10 0
-7 -9 0
-6 -23 0
-6 -22 0
-6 -21 0
-6 -19 0
-6 -17 0
-6 -13 0
-6 -8 0
-5 -22 0
-5 -21 0
-5 -20 0
-5 -18 0
-5 -15 0
-5 -12 0
-5 -9 0
-4 -24 0
-4 -21 0
-4 -16 0
-4 -15 0
-4 -13 0
-4 -8 0
-4 -6 0
-3 -24 0
-3 -21 0
-3 -17 0
-3 -12 0
-3 -11 0
-3 -9 0
-3 -5 0
-2 -25 0
-2 -24 0
-2 -23 0
-2 -16 0
-2 -15 0
-2 -14 0
-2 -12 0
-2 -4 0
-1 -25 0
-1 -24 0
-1 -20 0
-1 -17 0
-1 -13 0
-1 -11 0
-1 -7 0
-1 -3 0
1 7 13 20 25 0
2 4 15 16 24 0
3 5 9 12 21 0
6 17 19 22 23 0
8 10 11 14 18 0
