p cnf 20 75
-18 -19 0
-17 -20 0
-17 -19 0
-16 -20 0
-16 -18 0
-16 -17 0
-15 -18 0
-15 -16 0
-13 -20 0
-13 -17 0
-13 -16 0
-13 -14 0
-12 -14 0
-12 -13 0
-11 -18 0
-11 -16 0
-11 -15 0
-11 -14 0
-10 -19 0
-10 -17 0
-10 -14 0
-10 -11 0
-9 -19 0
-9 -17 0
-9 -15 0
-9 -10 0
-8 -20 0
-8 -15 0
-8 -9 0
-7 -20 0
-7 -14 0
-7 -11 0
-7 -10 0
-7 -8 0
-6 -19 0
-6 -17 0
-6 -12 0
-6 -10 0
-6 -9 0
-5 -15 0
-5 -14 0
-5 -13 0
-5 -12 0
-5 -9 0
-5 -8 0
-4 -20 0
-4 -19 0
-4 -18 0
-4 -8 0
-4 -7 0
-3 -20 0
-3 -12 0
-3 -8 0
-3 -7 0
-3 -6 0
-3 -4 0
-2 -19 0
-2 -18 0
-2 -14 0
-2 -13 0
-2 -12 0
-2 -5 0
-2 -4 0
-1 -18 0
-1 -16 0
-1 -15 0
-1 -12 0
-1 -11 0
-1 -6 0
-1 -3 0
1 3 6 12 0
2 4 18 19 0
5 8 9 15 0
7 10 11 14 0
13 16 17 20 0
