p cnf 36 186
-33 -34 0
-32 -35 0
-31 -36 0
-30 -36 0
-30 -34 0
-29 -33 0
-29 -31 0
-28 -33 0
-28 -32 0
-28 -29 0
-27 -36 0
-27 -32 0
-27 -31 0
-27 -28 0
-26 -35 0
-26 -32 0
-25 -35 0
-24 -36 0
-24 -35 0
-24 -31 0
-24 -27 0
-24 -25 0
-23 -36 0
-23 -35 0
-23 -32 0
-23 -30 0
-23 -26 0
-22 -36 0
-22 -33 0
-22 -30 0
-22 -29 0
-22 -28 0
-22 -23 0
-21 -26 0
-20 -36 0
-20 -34 0
-20 -33 0
-20 -31 0
-20 -27 0
-20 -24 0
-19 -34 0
-19 -31 0
-19 -30 0
-19 -29 0
-18 -26 0
-18 -25 0
-18 -21 0
-17 -33 0
-17 -29 0
-17 -28 0
-17 -26 0
-17 -22 0
-17 -21 0
-17 -18 0
-16 -36 0
-16 -31 0
-16 -27 0
-16 -26 0
-16 -24 0
-16 -21 0
-16 -20 0
-16 -18 0
-16 -17 0
-15 -32 0
-15 -28 0
-15 -27 0
-15 -25 0
-15 -18 0
-14 -35 0
-14 -34 0
-14 -33 0
-14 -32 0
-14 -26 0
-14 -23 0
-14 -20 0
-13 -35 0
-13 -32 0
-13 -31 0
-13 -29 0
-13 -26 0
-13 -23 0
-13 -19 0
-13 -14 0
-12 -34 0
-12 -33 0
-12 -21 0
-12 -20 0
-12 -14 0
-11 -31 0
-11 -29 0
-11 -25 0
-11 -19 0
-11 -18 0
-11 -15 0
-11 -13 0
-10 -32 0
-10 -28 0
-10 -27 0
-10 -21 0
-10 -15 0
-10 -12 0
-9 -35 0
-9 -34 0
-9 -30 0
-9 -25 0
-9 -24 0
-9 -19 0
-8 -35 0
-8 -33 0
-8 -29 0
-8 -28 0
-8 -25 0
-8 -24 0
-8 -22 0
-8 -17 0
-8 -9 0
-7 -34 0
-7 -32 0
-7 -30 0
-7 -28 0
-7 -27 0
-7 -19 0
-7 -15 0
-7 -10 0
-7 -9 0
-6 -36 0
-6 -30 0
-6 -25 0
-6 -23 0
-6 -22 0
-6 -18 0
-6 -15 0
-6 -11 0
-5 -31 0
-5 -29 0
-5 -21 0
-5 -19 0
-5 -13 0
-5 -12 0
-5 -11 0
-5 -10 0
-4 -35 0
-4 -25 0
-4 -24 0
-4 -21 0
-4 -12 0
-4 -10 0
-4 -9 0
-4 -8 0
-4 -5 0
-3 -36 0
-3 -30 0
-3 -23 0
-3 -22 0
-3 -21 0
-3 -12 0
-3 -10 0
-3 -6 0
-3 -5 0
-3 -4 0
-2 -34 0
-2 -30 0
-2 -26 0
-2 -21 0
-2 -19 0
-2 -18 0
-2 -17 0
-2 -16 0
-2 -9 0
-2 -7 0
-1 -34 0
-1 -33 0
-1 -25 0
-1 -20 0
-1 -18 0
-1 -15 0
-1 -14 0
-1 -12 0
-1 -11 0
-1 -6 0
1 6 11 15 18 25 0
2 7 9 19 30 34 0
3 4 5 10 12 21 0
8 17 22 28 29 33 0
13 14 23 26 32 35 0
16 20 24 27 31 36 0
