p cnf 36 186
-33 -36 0
-32 -36 0
-32 -35 0
-31 -36 0
-31 -33 0
-29 -36 0
-29 -33 0
-29 -31 0
-29 -30 0
-28 -31 0
-27 -34 0
-27 -30 0
-26 -35 0
-26 -28 0
-25 -35 0
-25 -33 0
-25 -32 0
-24 -33 0
-24 -28 0
-24 -26 0
-24 -25 0
-23 -34 0
-23 -27 0
-22 -36 0
-22 -32 0
-22 -30 0
-22 -27 0
-21 -34 0
-21 -28 0
-21 -27 0
-21 -26 0
-21 -24 0
-21 -23 0
-20 -30 0
-20 -29 0
-20 -23 0
-19 -33 0
-19 -25 0
-19 -24 0
-19 -23 0
-19 -20 0
-18 -35 0
-18 -32 0
-18 -31 0
-18 -28 0
-18 -25 0
-17 -35 0
-17 -32 0
-17 -30 0
-17 -29 0
-17 -25 0
-17 -20 0
-17 -18 0
-16 -33 0
-16 -30 0
-16 -27 0
-16 -25 0
-16 -24 0
-16 -22 0
-16 -19 0
-15 -35 0
-15 -34 0
-15 -32 0
-15 -27 0
-15 -25 0
-15 -23 0
-15 -21 0
-15 -18 0
-15 -17 0
-14 -35 0
-14 -26 0
-14 -23 0
-14 -20 0
-14 -19 0
-13 -36 0
-13 -32 0
-13 -28 0
-13 -26 0
-13 -24 0
-13 -22 0
-13 -21 0
-12 -31 0
-12 -28 0
-12 -23 0
-12 -20 0
-12 -19 0
-12 -18 0
-12 -14 0
-11 -36 0
-11 -35 0
-11 -33 0
-11 -31 0
-11 -29 0
-11 -26 0
-11 -14 0
-10 -30 0
-10 -29 0
-10 -28 0
-10 -26 0
-10 -24 0
-10 -21 0
-10 -20 0
-10 -17 0
-10 -13 0
-9 -34 0
-9 -31 0
-9 -28 0
-9 -18 0
-9 -12 0
-8 -36 0
-8 -34 0
-8 -33 0
-8 -31 0
-8 -29 0
-8 -27 0
-8 -23 0
-8 -21 0
-8 -15 0
-8 -11 0
-7 -34 0
-7 -33 0
-7 -25 0
-7 -24 0
-7 -19 0
-7 -16 0
-7 -9 0
-6 -34 0
-6 -30 0
-6 -29 0
-6 -20 0
-6 -17 0
-6 -10 0
-6 -9 0
-6 -7 0
-5 -36 0
-5 -34 0
-5 -32 0
-5 -22 0
-5 -13 0
-5 -9 0
-5 -7 0
-5 -6 0
-4 -35 0
-4 -30 0
-4 -27 0
-4 -26 0
-4 -22 0
-4 -16 0
-4 -14 0
-4 -11 0
-3 -36 0
-3 -32 0
-3 -23 0
-3 -22 0
-3 -20 0
-3 -19 0
-3 -14 0
-3 -13 0
-3 -12 0
-3 -5 0
-2 -31 0
-2 -30 0
-2 -28 0
-2 -27 0
-2 -22 0
-2 -18 0
-2 -16 0
-2 -12 0
-2 -9 0
-2 -4 0
-1 -35 0
-1 -34 0
-1 -26 0
-1 -14 0
-1 -11 0
-1 -9 0
-1 -7 0
-1 -6 0
-1 -5 0
-1 -4 0
1 4 11 14 26 35 0
2 9 12 18 28 31 0
3 5 13 22 32 36 0
6 10 17 20 29 30 0
7 16 19 24 25 33 0
8 15 21 23 27 34 0
