p cnf 30 141
-28 -29 0
-27 -30 0
-27 -29 0
-25 -30 0
-25 -27 0
-23 -29 0
-23 -27 0
-23 -26 0
-22 -30 0
-22 -24 0
-21 -29 0
-21 -28 0
-21 -26 0
-20 -26 0
-20 -24 0
-20 -23 0
-19 -30 0
-19 -22 0
-18 -29 0
-18 -28 0
-18 -24 0
-18 -21 0
-18 -20 0
-17 -28 0
-17 -26 0
-17 -23 0
-17 -20 0
-16 -25 0
-16 -19 0
-15 -29 0
-15 -28 0
-15 -25 0
-15 -21 0
-15 -18 0
-15 -16 0
-14 -24 0
-14 -20 0
-14 -19 0
-14 -18 0
-14 -16 0
-13 -30 0
-13 -27 0
-13 -26 0
-13 -25 0
-13 -21 0
-12 -29 0
-12 -27 0
-12 -23 0
-12 -19 0
-12 -16 0
-12 -14 0
-11 -28 0
-11 -24 0
-11 -22 0
-11 -17 0
-10 -30 0
-10 -26 0
-10 -23 0
-10 -22 0
-10 -20 0
-10 -19 0
-10 -17 0
-9 -30 0
-9 -29 0
-9 -28 0
-9 -22 0
-9 -21 0
-9 -19 0
-9 -18 0
-9 -15 0
-9 -10 0
-8 -29 0
-8 -27 0
-8 -24 0
-8 -23 0
-8 -22 0
-8 -12 0
-8 -11 0
-7 -30 0
-7 -28 0
-7 -27 0
-7 -25 0
-7 -17 0
-7 -13 0
-7 -11 0
-6 -28 0
-6 -19 0
-6 -17 0
-6 -16 0
-6 -14 0
-6 -12 0
-6 -11 0
-6 -7 0
-5 -30 0
-5 -27 0
-5 -25 0
-5 -24 0
-5 -20 0
-5 -18 0
-5 -14 0
-5 -13 0
-5 -7 0
-4 -26 0
-4 -24 0
-4 -22 0
-4 -21 0
-4 -13 0
-4 -11 0
-4 -8 0
-3 -26 0
-3 -21 0
-3 -19 0
-3 -16 0
-3 -14 0
-3 -13 0
-3 -12 0
-3 -6 0
-3 -4 0
-2 -26 0
-2 -25 0
-2 -23 0
-2 -20 0
-2 -17 0
-2 -16 0
-2 -15 0
-2 -10 0
-1 -25 0
-1 -24 0
-1 -22 0
-1 -16 0
-1 -15 0
-1 -11 0
-1 -8 0
-1 -4 0
-1 -2 0
1 2 15 16 25 0
3 4 13 21 26 0
5 14 18 20 24 0
6 7 11 17 28 0
8 12 23 27 29 0
9 10 19 22 30 0
