p cnf 36 186
-35 -36 0
-34 -36 0
-33 -36 0
-33 -34 0
-30 -32 0
-30 -31 0
-29 -33 0
-28 -34 0
-28 -31 0
-27 -32 0
-27 -30 0
-26 -32 0
-26 -31 0
-26 -28 0
-25 -36 0
-25 -35 0
-25 -29 0
-24 -29 0
-24 -27 0
-24 -25 0
-23 -36 0
-23 -35 0
-23 -25 0
-22 -35 0
-22 -27 0
-22 -24 0
-21 -33 0
-21 -32 0
-21 -30 0
-21 -29 0
-21 -27 0
-20 -34 0
-20 -32 0
-20 -30 0
-20 -28 0
-20 -27 0
-20 -21 0
-19 -33 0
-19 -31 0
-19 -29 0
-19 -28 0
-19 -26 0
-19 -21 0
-18 -36 0
-18 -34 0
-18 -33 0
-18 -27 0
-18 -24 0
-18 -22 0
-17 -33 0
-17 -29 0
-17 -23 0
-17 -21 0
-17 -19 0
-16 -34 0
-16 -29 0
-16 -28 0
-16 -25 0
-16 -24 0
-16 -20 0
-15 -35 0
-15 -34 0
-15 -28 0
-15 -22 0
-15 -20 0
-15 -16 0
-14 -36 0
-14 -35 0
-14 -32 0
-14 -30 0
-14 -27 0
-14 -25 0
-14 -23 0
-14 -21 0
-14 -20 0
-13 -34 0
-13 -28 0
-13 -23 0
-13 -20 0
-13 -17 0
-13 -16 0
-13 -15 0
-12 -27 0
-12 -24 0
-12 -23 0
-12 -22 0
-12 -18 0
-12 -17 0
-12 -13 0
-11 -36 0
-11 -34 0
-11 -33 0
-11 -32 0
-11 -26 0
-11 -18 0
-10 -35 0
-10 -31 0
-10 -30 0
-10 -22 0
-10 -15 0
-9 -36 0
-9 -34 0
-9 -33 0
-9 -31 0
-9 -30 0
-9 -18 0
-9 -11 0
-9 -10 0
-8 -32 0
-8 -26 0
-8 -23 0
-8 -17 0
-8 -13 0
-8 -12 0
-8 -11 0
-7 -32 0
-7 -29 0
-7 -26 0
-7 -25 0
-7 -24 0
-7 -16 0
-7 -11 0
-7 -8 0
-6 -31 0
-6 -28 0
-6 -27 0
-6 -26 0
-6 -24 0
-6 -22 0
-6 -19 0
-6 -18 0
-6 -12 0
-5 -35 0
-5 -32 0
-5 -26 0
-5 -22 0
-5 -15 0
-5 -11 0
-5 -10 0
-5 -8 0
-5 -7 0
-4 -31 0
-4 -30 0
-4 -29 0
-4 -25 0
-4 -24 0
-4 -16 0
-4 -10 0
-4 -9 0
-4 -7 0
-3 -31 0
-3 -30 0
-3 -23 0
-3 -17 0
-3 -13 0
-3 -12 0
-3 -10 0
-3 -9 0
-3 -8 0
-3 -4 0
-2 -36 0
-2 -35 0
-2 -31 0
-2 -28 0
-2 -26 0
-2 -25 0
-2 -23 0
-2 -19 0
-2 -14 0
-2 -6 0
-1 -35 0
-1 -33 0
-1 -29 0
-1 -22 0
-1 -21 0
-1 -19 0
-1 -17 0
-1 -15 0
-1 -10 0
-1 -5 0
1 17 19 21 29 33 0
2 14 23 25 35 36 0
3 4 9 10 30 31 0
5 7 8 11 26 32 0
6 12 18 22 24 27 0
13 15 16 20 28 34 0
