p cnf 30 141
-29 -30 0
-28 -30 0
-27 -28 0
-26 -28 0
-26 -27 0
-25 -27 0
-24 -30 0
-24 -29 0
-23 -30 0
-23 -29 0
-23 -27 0
-23 -25 0
-23 -24 0
-22 -30 0
-22 -29 0
-22 -26 0
-22 -24 0
-22 -23 0
-20 -30 0
-20 -28 0
-20 -25 0
-19 -27 0
-19 -25 0
-19 -23 0
-18 -24 0
-18 -21 0
-17 -29 0
-17 -28 0
-17 -27 0
-17 -26 0
-16 -24 0
-16 -19 0
-16 -18 0
-15 -30 0
-15 -28 0
-15 -20 0
-15 -19 0
-15 -16 0
-14 -28 0
-14 -27 0
-14 -26 0
-14 -21 0
-14 -17 0
-13 -26 0
-13 -22 0
-13 -19 0
-13 -16 0
-13 -15 0
-12 -25 0
-12 -21 0
-12 -20 0
-12 -14 0
-11 -26 0
-11 -22 0
-11 -21 0
-11 -18 0
-11 -13 0
-10 -30 0
-10 -29 0
-10 -24 0
-10 -23 0
-10 -22 0
-10 -21 0
-10 -14 0
-10 -12 0
-9 -28 0
-9 -27 0
-9 -26 0
-9 -24 0
-9 -18 0
-9 -17 0
-9 -16 0
-9 -14 0
-8 -30 0
-8 -28 0
-8 -21 0
-8 -20 0
-8 -18 0
-8 -15 0
-8 -11 0
-7 -29 0
-7 -25 0
-7 -20 0
-7 -17 0
-7 -12 0
-6 -27 0
-6 -25 0
-6 -23 0
-6 -21 0
-6 -19 0
-6 -18 0
-6 -11 0
-6 -8 0
-5 -25 0
-5 -24 0
-5 -20 0
-5 -18 0
-5 -16 0
-5 -12 0
-5 -9 0
-5 -7 0
-4 -29 0
-4 -19 0
-4 -17 0
-4 -16 0
-4 -15 0
-4 -13 0
-4 -7 0
-3 -29 0
-3 -21 0
-3 -18 0
-3 -17 0
-3 -11 0
-3 -8 0
-3 -7 0
-3 -6 0
-3 -4 0
-2 -21 0
-2 -19 0
-2 -16 0
-2 -15 0
-2 -14 0
-2 -13 0
-2 -12 0
-2 -10 0
-2 -4 0
-1 -26 0
-1 -25 0
-1 -22 0
-1 -20 0
-1 -13 0
-1 -12 0
-1 -11 0
-1 -7 0
-1 -5 0
1 11 13 22 26 0
2 10 12 14 21 0
3 4 7 17 29 0
5 9 16 18 24 0
6 19 23 25 27 0
8 15 20 28 30 0
