p cnf 36 186
-34 -35 0
-32 -35 0
-32 -34 0
-32 -33 0
-31 -36 0
-30 -35 0
-30 -33 0
-29 -33 0
-29 -30 0
-28 -34 0
-28 -33 0
-28 -30 0
-28 -29 0
-27 -33 0
-27 -32 0
-26 -31 0
-25 -33 0
-25 -31 0
-25 -30 0
-25 -29 0
-25 -28 0
-25 -26 0
-24 -35 0
-24 -30 0
-24 -27 0
-23 -35 0
-23 -34 0
-23 -32 0
-23 -29 0
-22 -29 0
-22 -26 0
-22 -23 0
-21 -33 0
-21 -32 0
-21 -27 0
-21 -26 0
-21 -22 0
-20 -34 0
-20 -28 0
-20 -27 0
-20 -24 0
-19 -35 0
-19 -34 0
-19 -32 0
-19 -31 0
-19 -26 0
-19 -25 0
-19 -23 0
-18 -36 0
-18 -26 0
-18 -22 0
-18 -21 0
-17 -36 0
-17 -33 0
-17 -30 0
-17 -29 0
-17 -28 0
-17 -25 0
-17 -18 0
-16 -31 0
-16 -26 0
-16 -25 0
-16 -19 0
-15 -29 0
-15 -23 0
-15 -22 0
-15 -16 0
-14 -35 0
-14 -30 0
-14 -24 0
-14 -16 0
-14 -15 0
-13 -36 0
-13 -35 0
-13 -34 0
-13 -32 0
-13 -23 0
-13 -19 0
-13 -18 0
-13 -17 0
-12 -36 0
-12 -18 0
-12 -17 0
-12 -16 0
-12 -15 0
-12 -14 0
-12 -13 0
-11 -31 0
-11 -27 0
-11 -26 0
-11 -25 0
-11 -24 0
-11 -20 0
-11 -19 0
-11 -16 0
-10 -36 0
-10 -34 0
-10 -31 0
-10 -28 0
-10 -20 0
-9 -34 0
-9 -28 0
-9 -26 0
-9 -22 0
-9 -21 0
-9 -20 0
-9 -18 0
-9 -10 0
-8 -34 0
-8 -28 0
-8 -20 0
-8 -16 0
-8 -15 0
-8 -14 0
-8 -12 0
-8 -10 0
-8 -9 0
-7 -33 0
-7 -32 0
-7 -27 0
-7 -21 0
-7 -16 0
-7 -15 0
-7 -14 0
-7 -12 0
-7 -8 0
-6 -36 0
-6 -31 0
-6 -29 0
-6 -23 0
-6 -22 0
-6 -15 0
-6 -10 0
-5 -36 0
-5 -35 0
-5 -31 0
-5 -30 0
-5 -24 0
-5 -14 0
-5 -10 0
-5 -6 0
-4 -29 0
-4 -27 0
-4 -24 0
-4 -23 0
-4 -22 0
-4 -20 0
-4 -15 0
-4 -11 0
-4 -6 0
-3 -35 0
-3 -30 0
-3 -26 0
-3 -24 0
-3 -22 0
-3 -21 0
-3 -18 0
-3 -14 0
-3 -9 0
-3 -5 0
-2 -36 0
-2 -27 0
-2 -24 0
-2 -20 0
-2 -18 0
-2 -17 0
-2 -13 0
-2 -12 0
-2 -11 0
-2 -4 0
-1 -36 0
-1 -33 0
-1 -32 0
-1 -31 0
-1 -27 0
-1 -21 0
-1 -10 0
-1 -7 0
-1 -6 0
-1 -5 0
1 7 21 27 32 33 0
2 12 13 17 18 36 0
3 5 14 24 30 35 0
4 6 15 22 23 29 0
8 9 10 20 28 34 0
11 16 19 25 26 31 0
