p cnf 30 141
-27 -28 0
-26 -30 0
-26 -29 0
-25 -29 0
-25 -26 0
-24 -29 0
-24 -28 0
-23 -30 0
-23 -29 0
-23 -24 0
-22 -28 0
-22 -27 0
-21 -22 0
-20 -28 0
-20 -25 0
-20 -24 0
-19 -30 0
-19 -28 0
-19 -27 0
-19 -23 0
-19 -22 0
-18 -21 0
-17 -29 0
-17 -26 0
-17 -25 0
-17 -21 0
-17 -18 0
-16 -29 0
-16 -27 0
-16 -24 0
-16 -23 0
-15 -27 0
-15 -25 0
-15 -20 0
-15 -16 0
-14 -29 0
-14 -24 0
-14 -23 0
-14 -22 0
-14 -21 0
-14 -16 0
-13 -28 0
-13 -24 0
-13 -21 0
-13 -20 0
-13 -18 0
-13 -17 0
-12 -28 0
-12 -27 0
-12 -22 0
-12 -19 0
-12 -18 0
-11 -30 0
-11 -26 0
-11 -22 0
-11 -21 0
-11 -14 0
-10 -25 0
-10 -20 0
-10 -18 0
-10 -15 0
-10 -12 0
-9 -25 0
-9 -22 0
-9 -21 0
-9 -20 0
-9 -15 0
-9 -14 0
-9 -11 0
-9 -10 0
-8 -30 0
-8 -23 0
-8 -21 0
-8 -19 0
-8 -18 0
-8 -17 0
-8 -13 0
-7 -30 0
-7 -28 0
-7 -26 0
-7 -24 0
-7 -20 0
-7 -13 0
-7 -11 0
-6 -29 0
-6 -28 0
-6 -27 0
-6 -26 0
-6 -25 0
-6 -22 0
-6 -19 0
-6 -17 0
-6 -12 0
-5 -29 0
-5 -24 0
-5 -23 0
-5 -18 0
-5 -16 0
-5 -14 0
-5 -12 0
-5 -10 0
-4 -30 0
-4 -27 0
-4 -26 0
-4 -16 0
-4 -15 0
-4 -11 0
-4 -7 0
-3 -30 0
-3 -26 0
-3 -18 0
-3 -12 0
-3 -11 0
-3 -10 0
-3 -7 0
-3 -5 0
-3 -4 0
-2 -27 0
-2 -21 0
-2 -18 0
-2 -17 0
-2 -16 0
-2 -15 0
-2 -13 0
-2 -8 0
-2 -4 0
-1 -30 0
-1 -25 0
-1 -23 0
-1 -20 0
-1 -19 0
-1 -15 0
-1 -10 0
-1 -9 0
-1 -8 0
1 8 19 23 30 0
2 4 15 16 27 0
3 5 10 12 18 0
6 17 25 26 29 0
7 13 20 24 28 0
9 11 14 21 22 0
