p cnf 36 186
-33 -34 0
-31 -36 0
-31 -34 0
-31 -33 0
-30 -34 0
-30 -32 0
-29 -36 0
-29 -31 0
-28 -35 0
-27 -33 0
-27 -29 0
-26 -35 0
-26 -33 0
-26 -28 0
-26 -27 0
-25 -36 0
-25 -33 0
-25 -27 0
-25 -26 0
-24 -35 0
-24 -29 0
-24 -27 0
-23 -36 0
-23 -35 0
-23 -25 0
-23 -24 0
-22 -32 0
-22 -30 0
-22 -28 0
-21 -32 0
-20 -34 0
-20 -33 0
-20 -31 0
-20 -28 0
-20 -22 0
-19 -36 0
-19 -32 0
-19 -25 0
-19 -23 0
-19 -21 0
-18 -34 0
-18 -30 0
-18 -21 0
-17 -36 0
-17 -31 0
-17 -29 0
-17 -21 0
-17 -18 0
-16 -33 0
-16 -32 0
-16 -30 0
-16 -27 0
-16 -26 0
-16 -25 0
-16 -22 0
-15 -34 0
-15 -30 0
-15 -29 0
-15 -27 0
-15 -24 0
-15 -18 0
-14 -32 0
-14 -29 0
-14 -27 0
-14 -24 0
-14 -21 0
-14 -19 0
-14 -15 0
-13 -33 0
-13 -27 0
-13 -26 0
-13 -25 0
-13 -21 0
-13 -18 0
-13 -17 0
-13 -16 0
-12 -36 0
-12 -28 0
-12 -25 0
-12 -23 0
-12 -22 0
-12 -20 0
-12 -19 0
-11 -36 0
-11 -32 0
-11 -31 0
-11 -30 0
-11 -29 0
-11 -22 0
-11 -17 0
-11 -16 0
-10 -35 0
-10 -32 0
-10 -30 0
-10 -24 0
-10 -23 0
-10 -22 0
-10 -16 0
-10 -11 0
-9 -36 0
-9 -35 0
-9 -31 0
-9 -29 0
-9 -28 0
-9 -26 0
-9 -17 0
-9 -11 0
-8 -35 0
-8 -34 0
-8 -30 0
-8 -28 0
-8 -26 0
-8 -18 0
-8 -15 0
-8 -9 0
-7 -35 0
-7 -34 0
-7 -33 0
-7 -31 0
-7 -24 0
-7 -23 0
-7 -20 0
-7 -10 0
-6 -34 0
-6 -33 0
-6 -32 0
-6 -31 0
-6 -21 0
-6 -20 0
-6 -19 0
-6 -14 0
-6 -7 0
-5 -36 0
-5 -34 0
-5 -30 0
-5 -25 0
-5 -23 0
-5 -19 0
-5 -18 0
-5 -15 0
-5 -12 0
-5 -8 0
-4 -35 0
-4 -32 0
-4 -28 0
-4 -26 0
-4 -21 0
-4 -19 0
-4 -14 0
-4 -9 0
-4 -8 0
-4 -6 0
-3 -35 0
-3 -24 0
-3 -23 0
-3 -21 0
-3 -18 0
-3 -17 0
-3 -13 0
-3 -10 0
-3 -7 0
-2 -29 0
-2 -28 0
-2 -27 0
-2 -24 0
-2 -22 0
-2 -20 0
-2 -15 0
-2 -14 0
-2 -12 0
-1 -28 0
-1 -22 0
-1 -21 0
-1 -20 0
-1 -18 0
-1 -17 0
-1 -13 0
-1 -12 0
-1 -3 0
-1 -2 0
1 3 13 17 18 21 0
2 14 15 24 27 29 0
4 8 9 26 28 35 0
5 12 19 23 25 36 0
6 7 20 31 33 34 0
10 11 16 22 30 32 0
