p cnf 30 141
-28 -30 0
-26 -30 0
-26 -27 0
-25 -27 0
-24 -30 0
-24 -28 0
-23 -25 0
-23 -24 0
-22 -30 0
-22 -29 0
-22 -28 0
-22 -24 0
-21 -27 0
-21 -26 0
-21 -24 0
-21 -23 0
-20 -28 0
-20 -25 0
-20 -23 0
-19 -29 0
-19 -27 0
-19 -25 0
-18 -28 0
-18 -20 0
-17 -27 0
-17 -25 0
-17 -19 0
-17 -18 0
-16 -25 0
-16 -23 0
-16 -20 0
-15 -29 0
-15 -22 0
-15 -18 0
-15 -17 0
-14 -29 0
-14 -25 0
-14 -23 0
-14 -22 0
-14 -20 0
-14 -16 0
-14 -15 0
-13 -18 0
-13 -17 0
-13 -16 0
-13 -15 0
-12 -30 0
-12 -28 0
-12 -24 0
-12 -22 0
-12 -16 0
-12 -13 0
-11 -29 0
-11 -19 0
-11 -16 0
-11 -13 0
-11 -12 0
-10 -29 0
-10 -28 0
-10 -20 0
-10 -19 0
-10 -18 0
-10 -11 0
-9 -30 0
-9 -26 0
-9 -25 0
-9 -23 0
-9 -20 0
-9 -16 0
-9 -14 0
-8 -29 0
-8 -24 0
-8 -23 0
-8 -21 0
-8 -19 0
-8 -11 0
-8 -10 0
-7 -30 0
-7 -29 0
-7 -26 0
-7 -19 0
-7 -11 0
-7 -10 0
-7 -9 0
-7 -8 0
-6 -24 0
-6 -23 0
-6 -21 0
-6 -18 0
-6 -17 0
-6 -15 0
-6 -13 0
-6 -8 0
-5 -30 0
-5 -26 0
-5 -18 0
-5 -17 0
-5 -15 0
-5 -13 0
-5 -9 0
-5 -7 0
-5 -6 0
-4 -28 0
-4 -27 0
-4 -26 0
-4 -21 0
-4 -20 0
-4 -18 0
-4 -10 0
-3 -27 0
-3 -26 0
-3 -21 0
-3 -16 0
-3 -13 0
-3 -12 0
-3 -11 0
-3 -4 0
-2 -30 0
-2 -28 0
-2 -27 0
-2 -25 0
-2 -24 0
-2 -22 0
-2 -19 0
-2 -17 0
-2 -12 0
-1 -29 0
-1 -27 0
-1 -26 0
-1 -22 0
-1 -21 0
-1 -15 0
-1 -14 0
-1 -4 0
-1 -3 0
1 14 15 22 29 0
2 17 19 25 27 0
3 11 12 13 16 0
4 10 18 20 28 0
5 7 9 26 30 0
6 8 21 23 24 0
