p cnf 36 186
-34 -35 0
-33 -36 0
-32 -34 0
-31 -32 0
-29 -36 0
-29 -35 0
-29 -34 0
-28 -36 0
-28 -35 0
-28 -33 0
-27 -35 0
-27 -34 0
-27 -33 0
-27 -29 0
-26 -35 0
-26 -32 0
-26 -31 0
-26 -28 0
-25 -35 0
-25 -34 0
-25 -31 0
-25 -29 0
-25 -27 0
-24 -36 0
-24 -33 0
-24 -31 0
-24 -28 0
-24 -25 0
-23 -31 0
-23 -25 0
-23 -24 0
-22 -36 0
-22 -32 0
-22 -31 0
-22 -29 0
-22 -26 0
-21 -36 0
-21 -30 0
-21 -29 0
-21 -22 0
-20 -30 0
-19 -34 0
-19 -32 0
-19 -20 0
-18 -35 0
-18 -34 0
-18 -30 0
-18 -29 0
-18 -27 0
-18 -25 0
-18 -20 0
-17 -33 0
-17 -32 0
-17 -31 0
-17 -27 0
-17 -26 0
-17 -22 0
-16 -32 0
-16 -31 0
-16 -30 0
-16 -26 0
-16 -22 0
-16 -20 0
-16 -18 0
-16 -17 0
-15 -33 0
-15 -27 0
-15 -23 0
-15 -17 0
-14 -36 0
-14 -29 0
-14 -22 0
-14 -21 0
-14 -20 0
-14 -19 0
-13 -30 0
-13 -23 0
-13 -20 0
-13 -18 0
-13 -16 0
-13 -15 0
-12 -31 0
-12 -25 0
-12 -24 0
-12 -23 0
-12 -20 0
-12 -19 0
-12 -14 0
-11 -35 0
-11 -28 0
-11 -26 0
-11 -20 0
-11 -19 0
-11 -14 0
-11 -12 0
-10 -36 0
-10 -33 0
-10 -30 0
-10 -28 0
-10 -24 0
-10 -20 0
-10 -18 0
-10 -16 0
-10 -13 0
-9 -36 0
-9 -29 0
-9 -23 0
-9 -22 0
-9 -21 0
-9 -15 0
-9 -14 0
-9 -13 0
-8 -33 0
-8 -30 0
-8 -27 0
-8 -21 0
-8 -17 0
-8 -15 0
-7 -34 0
-7 -32 0
-7 -23 0
-7 -19 0
-7 -15 0
-7 -13 0
-7 -9 0
-6 -34 0
-6 -32 0
-6 -30 0
-6 -21 0
-6 -19 0
-6 -8 0
-6 -7 0
-5 -35 0
-5 -30 0
-5 -28 0
-5 -26 0
-5 -21 0
-5 -11 0
-5 -8 0
-5 -6 0
-4 -36 0
-4 -34 0
-4 -33 0
-4 -32 0
-4 -28 0
-4 -24 0
-4 -19 0
-4 -10 0
-4 -7 0
-4 -6 0
-3 -35 0
-3 -28 0
-3 -26 0
-3 -23 0
-3 -15 0
-3 -13 0
-3 -11 0
-3 -9 0
-3 -7 0
-3 -5 0
-2 -31 0
-2 -30 0
-2 -25 0
-2 -24 0
-2 -23 0
-2 -21 0
-2 -12 0
-2 -8 0
-2 -6 0
-2 -5 0
-1 -33 0
-1 -27 0
-1 -20 0
-1 -19 0
-1 -17 0
-1 -15 0
-1 -14 0
-1 -12 0
-1 -11 0
-1 -8 0
1 8 15 17 27 33 0
2 12 23 24 25 31 0
3 5 11 26 28 35 0
4 6 7 19 32 34 0
9 14 21 22 29 36 0
10 13 16 18 20 30 0
