p cnf 36 186
-32 -33 0
-31 -33 0
-30 -32 0
-29 -35 0
-29 -34 0
-28 -34 0
-28 -33 0
-28 -31 0
-27 -35 0
-27 -31 0
-26 -36 0
-26 -30 0
-25 -36 0
-25 -35 0
-25 -27 0
-24 -35 0
-24 -29 0
-23 -35 0
-23 -33 0
-23 -32 0
-23 -27 0
-23 -25 0
-22 -34 0
-22 -28 0
-22 -24 0
-21 -30 0
-21 -26 0
-21 -24 0
-21 -22 0
-20 -32 0
-20 -31 0
-20 -30 0
-20 -27 0
-19 -35 0
-19 -30 0
-19 -27 0
-19 -26 0
-19 -25 0
-19 -23 0
-19 -21 0
-18 -33 0
-18 -32 0
-18 -24 0
-18 -23 0
-18 -22 0
-18 -21 0
-17 -36 0
-17 -34 0
-17 -29 0
-17 -25 0
-16 -34 0
-16 -30 0
-16 -29 0
-16 -26 0
-16 -21 0
-16 -19 0
-16 -17 0
-15 -36 0
-15 -32 0
-15 -30 0
-15 -25 0
-15 -20 0
-15 -17 0
-14 -34 0
-14 -31 0
-14 -29 0
-14 -27 0
-14 -20 0
-14 -17 0
-14 -16 0
-13 -36 0
-13 -33 0
-13 -32 0
-13 -26 0
-13 -23 0
-13 -18 0
-12 -34 0
-12 -33 0
-12 -32 0
-12 -29 0
-12 -23 0
-12 -18 0
-12 -17 0
-12 -16 0
-12 -14 0
-12 -13 0
-11 -31 0
-11 -27 0
-11 -24 0
-11 -22 0
-11 -21 0
-11 -20 0
-11 -18 0
-11 -14 0
-10 -35 0
-10 -33 0
-10 -31 0
-10 -29 0
-10 -28 0
-10 -24 0
-9 -36 0
-9 -35 0
-9 -29 0
-9 -26 0
-9 -24 0
-9 -13 0
-9 -10 0
-8 -36 0
-8 -31 0
-8 -27 0
-8 -26 0
-8 -20 0
-8 -14 0
-8 -13 0
-8 -11 0
-8 -9 0
-7 -35 0
-7 -32 0
-7 -30 0
-7 -29 0
-7 -24 0
-7 -20 0
-7 -15 0
-7 -10 0
-7 -9 0
-6 -35 0
-6 -34 0
-6 -28 0
-6 -27 0
-6 -25 0
-6 -23 0
-6 -22 0
-6 -19 0
-5 -36 0
-5 -34 0
-5 -28 0
-5 -26 0
-5 -22 0
-5 -13 0
-5 -9 0
-5 -8 0
-5 -6 0
-4 -34 0
-4 -32 0
-4 -30 0
-4 -28 0
-4 -22 0
-4 -20 0
-4 -15 0
-4 -7 0
-4 -6 0
-4 -5 0
-3 -36 0
-3 -25 0
-3 -24 0
-3 -22 0
-3 -21 0
-3 -18 0
-3 -17 0
-3 -15 0
-3 -11 0
-2 -33 0
-2 -31 0
-2 -30 0
-2 -28 0
-2 -26 0
-2 -21 0
-2 -19 0
-2 -16 0
-2 -10 0
-1 -36 0
-1 -33 0
-1 -31 0
-1 -28 0
-1 -25 0
-1 -17 0
-1 -15 0
-1 -10 0
-1 -3 0
-1 -2 0
1 3 15 17 25 36 0
2 16 19 21 26 30 0
4 5 6 22 28 34 0
7 9 10 24 29 35 0
8 11 14 20 27 31 0
12 13 18 23 32 33 0
