p cnf 30 141
-27 -30 0
-27 -29 0
-26 -28 0
-25 -29 0
-24 -29 0
-24 -27 0
-23 -28 0
-23 -24 0
-22 -24 0
-22 -23 0
-21 -30 0
-21 -27 0
-21 -22 0
-20 -22 0
-20 -21 0
-19 -30 0
-19 -27 0
-19 -25 0
-19 -21 0
-18 -30 0
-18 -24 0
-18 -23 0
-18 -22 0
-17 -30 0
-17 -28 0
-17 -27 0
-17 -23 0
-17 -21 0
-17 -19 0
-16 -28 0
-16 -26 0
-16 -22 0
-16 -21 0
-16 -20 0
-15 -26 0
-15 -24 0
-15 -23 0
-15 -22 0
-15 -18 0
-14 -29 0
-14 -27 0
-14 -24 0
-14 -20 0
-13 -30 0
-13 -29 0
-13 -25 0
-13 -18 0
-12 -28 0
-12 -26 0
-12 -25 0
-12 -19 0
-12 -16 0
-11 -25 0
-11 -20 0
-11 -19 0
-11 -14 0
-11 -12 0
-10 -30 0
-10 -28 0
-10 -26 0
-10 -18 0
-10 -16 0
-10 -13 0
-10 -12 0
-9 -26 0
-9 -20 0
-9 -15 0
-9 -14 0
-9 -11 0
-8 -29 0
-8 -26 0
-8 -25 0
-8 -15 0
-8 -13 0
-8 -9 0
-7 -29 0
-7 -25 0
-7 -22 0
-7 -21 0
-7 -20 0
-7 -16 0
-7 -13 0
-7 -8 0
-6 -30 0
-6 -20 0
-6 -18 0
-6 -14 0
-6 -13 0
-6 -11 0
-6 -10 0
-6 -9 0
-5 -30 0
-5 -27 0
-5 -26 0
-5 -21 0
-5 -19 0
-5 -17 0
-5 -15 0
-5 -9 0
-5 -8 0
-4 -29 0
-4 -28 0
-4 -25 0
-4 -23 0
-4 -17 0
-4 -13 0
-4 -8 0
-4 -7 0
-3 -29 0
-3 -28 0
-3 -27 0
-3 -26 0
-3 -24 0
-3 -16 0
-3 -14 0
-3 -12 0
-3 -10 0
-2 -25 0
-2 -24 0
-2 -23 0
-2 -22 0
-2 -19 0
-2 -18 0
-2 -15 0
-2 -12 0
-2 -11 0
-1 -28 0
-1 -23 0
-1 -20 0
-1 -17 0
-1 -14 0
-1 -11 0
-1 -9 0
-1 -6 0
-1 -4 0
1 4 17 23 28 0
2 11 12 19 25 0
3 14 24 27 29 0
5 8 9 15 26 0
6 10 13 18 30 0
7 16 20 21 22 0
