p cnf 36 186
-33 -34 0
-32 -36 0
-31 -36 0
-31 -32 0
-30 -35 0
-30 -34 0
-29 -36 0
-29 -33 0
-28 -35 0
-28 -30 0
-27 -34 0
-27 -31 0
-27 -30 0
-26 -35 0
-26 -31 0
-26 -27 0
-25 -35 0
-25 -30 0
-25 -28 0
-24 -35 0
-24 -26 0
-23 -33 0
-23 -31 0
-23 -29 0
-23 -27 0
-23 -26 0
-22 -35 0
-22 -32 0
-22 -26 0
-22 -24 0
-21 -31 0
-21 -28 0
-21 -27 0
-21 -26 0
-21 -23 0
-20 -36 0
-20 -32 0
-20 -31 0
-20 -24 0
-19 -36 0
-19 -34 0
-19 -33 0
-19 -32 0
-19 -31 0
-19 -20 0
-18 -36 0
-18 -34 0
-18 -30 0
-18 -29 0
-18 -27 0
-17 -31 0
-17 -27 0
-17 -26 0
-17 -25 0
-17 -23 0
-17 -21 0
-16 -35 0
-16 -34 0
-16 -33 0
-16 -26 0
-16 -24 0
-16 -22 0
-16 -19 0
-15 -34 0
-15 -30 0
-15 -27 0
-15 -24 0
-15 -20 0
-15 -18 0
-14 -25 0
-14 -24 0
-14 -20 0
-14 -17 0
-14 -15 0
-13 -33 0
-13 -32 0
-13 -29 0
-13 -23 0
-13 -22 0
-12 -34 0
-12 -33 0
-12 -28 0
-12 -21 0
-12 -19 0
-12 -16 0
-11 -33 0
-11 -29 0
-11 -24 0
-11 -23 0
-11 -20 0
-11 -15 0
-11 -14 0
-11 -13 0
-10 -35 0
-10 -33 0
-10 -30 0
-10 -29 0
-10 -28 0
-10 -25 0
-10 -23 0
-10 -13 0
-10 -11 0
-9 -36 0
-9 -35 0
-9 -29 0
-9 -26 0
-9 -24 0
-9 -22 0
-9 -18 0
-9 -16 0
-8 -36 0
-8 -29 0
-8 -25 0
-8 -18 0
-8 -17 0
-8 -14 0
-8 -9 0
-7 -32 0
-7 -25 0
-7 -22 0
-7 -17 0
-7 -14 0
-7 -13 0
-7 -8 0
-6 -32 0
-6 -28 0
-6 -22 0
-6 -21 0
-6 -13 0
-6 -12 0
-6 -7 0
-5 -34 0
-5 -32 0
-5 -30 0
-5 -27 0
-5 -22 0
-5 -18 0
-5 -15 0
-5 -13 0
-5 -7 0
-5 -6 0
-4 -34 0
-4 -33 0
-4 -25 0
-4 -19 0
-4 -17 0
-4 -16 0
-4 -14 0
-4 -12 0
-4 -8 0
-4 -7 0
-3 -36 0
-3 -35 0
-3 -32 0
-3 -31 0
-3 -30 0
-3 -28 0
-3 -25 0
-3 -20 0
-3 -19 0
-3 -10 0
-2 -36 0
-2 -29 0
-2 -28 0
-2 -21 0
-2 -18 0
-2 -12 0
-2 -9 0
-2 -8 0
-2 -6 0
-1 -28 0
-1 -24 0
-1 -21 0
-1 -20 0
-1 -15 0
-1 -14 0
-1 -12 0
-1 -11 0
-1 -6 0
-1 -2 0
1 11 14 15 20 24 0
2 8 9 18 29 36 0
3 10 25 28 30 35 0
4 12 16 19 33 34 0
5 6 7 13 22 32 0
17 21 23 26 27 31 0
