p cnf 36 186
-34 -35 0
-33 -36 0
-32 -35 0
-31 -32 0
-30 -36 0
-30 -34 0
-29 -35 0
-29 -32 0
-28 -36 0
-28 -35 0
-28 -34 0
-28 -33 0
-27 -33 0
-26 -31 0
-26 -29 0
-25 -36 0
-25 -33 0
-25 -32 0
-25 -31 0
-25 -28 0
-24 -29 0
-24 -27 0
-24 -26 0
-23 -32 0
-23 -31 0
-23 -27 0
-23 -25 0
-23 -24 0
-22 -34 0
-22 -30 0
-21 -32 0
-21 -31 0
-21 -25 0
-21 -23 0
-20 -34 0
-20 -30 0
-20 -29 0
-20 -26 0
-20 -24 0
-20 -22 0
-19 -36 0
-19 -30 0
-19 -27 0
-19 -24 0
-19 -23 0
-18 -36 0
-18 -35 0
-18 -32 0
-18 -30 0
-18 -29 0
-18 -19 0
-17 -36 0
-17 -30 0
-17 -21 0
-17 -19 0
-17 -18 0
-16 -31 0
-16 -26 0
-16 -22 0
-15 -36 0
-15 -33 0
-15 -28 0
-15 -25 0
-15 -22 0
-15 -16 0
-14 -33 0
-14 -31 0
-14 -27 0
-14 -26 0
-14 -16 0
-13 -34 0
-13 -32 0
-13 -31 0
-13 -30 0
-13 -25 0
-13 -23 0
-13 -22 0
-13 -21 0
-13 -20 0
-12 -35 0
-12 -33 0
-12 -32 0
-12 -29 0
-12 -27 0
-12 -18 0
-12 -14 0
-11 -27 0
-11 -24 0
-11 -23 0
-11 -22 0
-11 -19 0
-11 -16 0
-11 -15 0
-10 -35 0
-10 -32 0
-10 -29 0
-10 -22 0
-10 -18 0
-10 -16 0
-10 -15 0
-10 -12 0
-10 -11 0
-9 -35 0
-9 -34 0
-9 -31 0
-9 -28 0
-9 -26 0
-9 -16 0
-9 -14 0
-8 -36 0
-8 -31 0
-8 -30 0
-8 -26 0
-8 -19 0
-8 -18 0
-8 -17 0
-8 -16 0
-8 -14 0
-8 -9 0
-7 -33 0
-7 -27 0
-7 -21 0
-7 -17 0
-7 -14 0
-7 -12 0
-6 -35 0
-6 -34 0
-6 -28 0
-6 -27 0
-6 -24 0
-6 -23 0
-6 -19 0
-6 -11 0
-6 -9 0
-5 -29 0
-5 -26 0
-5 -24 0
-5 -21 0
-5 -20 0
-5 -17 0
-5 -7 0
-4 -35 0
-4 -34 0
-4 -28 0
-4 -21 0
-4 -17 0
-4 -9 0
-4 -7 0
-4 -6 0
-4 -5 0
-3 -22 0
-3 -21 0
-3 -17 0
-3 -16 0
-3 -15 0
-3 -11 0
-3 -10 0
-3 -7 0
-3 -5 0
-3 -4 0
-2 -34 0
-2 -33 0
-2 -30 0
-2 -27 0
-2 -22 0
-2 -20 0
-2 -14 0
-2 -13 0
-2 -12 0
-2 -7 0
-1 -36 0
-1 -33 0
-1 -29 0
-1 -28 0
-1 -26 0
-1 -25 0
-1 -24 0
-1 -20 0
-1 -15 0
-1 -5 0
1 15 25 28 33 36 0
2 13 20 22 30 34 0
3 4 5 7 17 21 0
6 11 19 23 24 27 0
8 9 14 16 26 31 0
10 12 18 29 32 35 0
