p cnf 36 186
-33 -36 0
-33 -35 0
-32 -36 0
-31 -36 0
-31 -33 0
-30 -34 0
-30 -32 0
-29 -35 0
-29 -34 0
-29 -30 0
-28 -31 0
-27 -35 0
-27 -29 0
-26 -35 0
-26 -33 0
-26 -28 0
-25 -32 0
-25 -30 0
-25 -27 0
-24 -34 0
-24 -27 0
-24 -25 0
-23 -32 0
-23 -30 0
-23 -25 0
-22 -28 0
-22 -27 0
-22 -26 0
-22 -25 0
-22 -24 0
-21 -35 0
-21 -34 0
-21 -33 0
-21 -26 0
-21 -24 0
-20 -32 0
-20 -31 0
-20 -30 0
-20 -28 0
-20 -25 0
-20 -23 0
-19 -36 0
-19 -32 0
-19 -28 0
-19 -26 0
-19 -22 0
-18 -36 0
-18 -33 0
-18 -31 0
-18 -27 0
-18 -25 0
-18 -24 0
-18 -22 0
-17 -36 0
-17 -33 0
-17 -31 0
-17 -23 0
-17 -18 0
-16 -36 0
-16 -32 0
-16 -19 0
-15 -34 0
-15 -31 0
-15 -28 0
-15 -24 0
-15 -21 0
-15 -20 0
-14 -27 0
-14 -25 0
-14 -24 0
-14 -22 0
-14 -18 0
-14 -16 0
-13 -35 0
-13 -33 0
-13 -26 0
-13 -21 0
-13 -16 0
-13 -14 0
-12 -35 0
-12 -33 0
-12 -32 0
-12 -30 0
-12 -26 0
-12 -25 0
-12 -23 0
-12 -21 0
-12 -20 0
-12 -13 0
-11 -35 0
-11 -29 0
-11 -27 0
-11 -23 0
-11 -17 0
-10 -31 0
-10 -28 0
-10 -20 0
-10 -16 0
-10 -15 0
-10 -14 0
-10 -13 0
-9 -36 0
-9 -34 0
-9 -32 0
-9 -24 0
-9 -21 0
-9 -19 0
-9 -16 0
-9 -15 0
-8 -34 0
-8 -30 0
-8 -29 0
-8 -16 0
-8 -14 0
-8 -13 0
-8 -10 0
-7 -34 0
-7 -30 0
-7 -29 0
-7 -28 0
-7 -26 0
-7 -22 0
-7 -19 0
-7 -8 0
-6 -28 0
-6 -26 0
-6 -23 0
-6 -22 0
-6 -19 0
-6 -17 0
-6 -11 0
-6 -7 0
-5 -36 0
-5 -35 0
-5 -32 0
-5 -29 0
-5 -27 0
-5 -19 0
-5 -16 0
-5 -11 0
-5 -9 0
-4 -23 0
-4 -17 0
-4 -16 0
-4 -14 0
-4 -13 0
-4 -11 0
-4 -10 0
-4 -8 0
-4 -6 0
-3 -34 0
-3 -24 0
-3 -23 0
-3 -21 0
-3 -17 0
-3 -15 0
-3 -11 0
-3 -9 0
-3 -6 0
-3 -4 0
-2 -35 0
-2 -31 0
-2 -29 0
-2 -28 0
-2 -27 0
-2 -20 0
-2 -15 0
-2 -11 0
-2 -10 0
-2 -5 0
-1 -36 0
-1 -34 0
-1 -33 0
-1 -31 0
-1 -30 0
-1 -29 0
-1 -18 0
-1 -17 0
-1 -8 0
-1 -7 0
1 7 8 29 30 34 0
2 10 15 20 28 31 0
3 4 6 11 17 23 0
5 9 16 19 32 36 0
12 13 21 26 33 35 0
14 18 22 24 25 27 0
