p cnf 36 186
-33 -36 0
-31 -35 0
-31 -32 0
-30 -34 0
-29 -35 0
-29 -32 0
-28 -34 0
-28 -30 0
-27 -36 0
-27 -30 0
-26 -32 0
-26 -31 0
-25 -35 0
-25 -29 0
-25 -26 0
-24 -36 0
-24 -34 0
-24 -33 0
-24 -30 0
-24 -28 0
-23 -36 0
-23 -34 0
-23 -27 0
-22 -32 0
-22 -30 0
-22 -29 0
-22 -27 0
-21 -30 0
-21 -27 0
-21 -26 0
-21 -25 0
-21 -22 0
-20 -32 0
-20 -29 0
-20 -28 0
-20 -22 0
-19 -33 0
-19 -28 0
-19 -20 0
-18 -35 0
-18 -34 0
-18 -30 0
-18 -29 0
-18 -28 0
-18 -25 0
-18 -24 0
-17 -35 0
-17 -34 0
-17 -31 0
-17 -23 0
-16 -36 0
-16 -35 0
-16 -33 0
-16 -31 0
-16 -24 0
-16 -17 0
-15 -34 0
-15 -33 0
-15 -23 0
-15 -19 0
-15 -17 0
-14 -36 0
-14 -35 0
-14 -29 0
-14 -27 0
-14 -25 0
-14 -23 0
-14 -18 0
-13 -35 0
-13 -33 0
-13 -29 0
-13 -25 0
-13 -19 0
-13 -18 0
-13 -15 0
-13 -14 0
-12 -36 0
-12 -33 0
-12 -26 0
-12 -25 0
-12 -24 0
-12 -21 0
-12 -16 0
-11 -33 0
-11 -32 0
-11 -31 0
-11 -26 0
-11 -19 0
-11 -15 0
-11 -13 0
-10 -34 0
-10 -26 0
-10 -25 0
-10 -23 0
-10 -21 0
-10 -17 0
-10 -15 0
-10 -12 0
-9 -36 0
-9 -33 0
-9 -32 0
-9 -29 0
-9 -24 0
-9 -22 0
-9 -20 0
-9 -16 0
-9 -12 0
-8 -28 0
-8 -26 0
-8 -25 0
-8 -21 0
-8 -20 0
-8 -19 0
-8 -12 0
-8 -10 0
-7 -35 0
-7 -31 0
-7 -28 0
-7 -20 0
-7 -19 0
-7 -17 0
-7 -16 0
-7 -8 0
-6 -33 0
-6 -30 0
-6 -27 0
-6 -22 0
-6 -21 0
-6 -19 0
-6 -15 0
-6 -13 0
-6 -11 0
-5 -34 0
-5 -32 0
-5 -29 0
-5 -23 0
-5 -22 0
-5 -20 0
-5 -17 0
-5 -15 0
-5 -10 0
-5 -9 0
-4 -36 0
-4 -28 0
-4 -27 0
-4 -23 0
-4 -20 0
-4 -19 0
-4 -14 0
-4 -8 0
-4 -7 0
-3 -34 0
-3 -32 0
-3 -31 0
-3 -30 0
-3 -28 0
-3 -26 0
-3 -24 0
-3 -18 0
-3 -11 0
-2 -36 0
-2 -32 0
-2 -31 0
-2 -27 0
-2 -26 0
-2 -23 0
-2 -14 0
-2 -11 0
-2 -4 0
-2 -3 0
-1 -35 0
-1 -31 0
-1 -30 0
-1 -27 0
-1 -22 0
-1 -21 0
-1 -17 0
-1 -16 0
-1 -7 0
-1 -6 0
1 7 16 17 31 35 0
2 4 14 23 27 36 0
3 18 24 28 30 34 0
5 9 20 22 29 32 0
6 11 13 15 19 33 0
8 10 12 21 25 26 0
