p cnf 30 141
-27 -30 0
-27 -29 0
-25 -29 0
-25 -27 0
-25 -26 0
-23 -26 0
-23 -25 0
-23 -24 0
-22 -30 0
-22 -27 0
-22 -26 0
-21 -29 0
-21 -28 0
-20 -28 0
-20 -24 0
-20 -23 0
-19 -29 0
-19 -24 0
-19 -23 0
-19 -21 0
-19 -20 0
-18 -29 0
-18 -27 0
-18 -25 0
-17 -30 0
-17 -29 0
-17 -21 0
-17 -19 0
-16 -30 0
-16 -28 0
-16 -20 0
-16 -17 0
-15 -30 0
-15 -24 0
-15 -17 0
-15 -16 0
-14 -30 0
-14 -28 0
-14 -27 0
-14 -22 0
-14 -21 0
-13 -30 0
-13 -27 0
-13 -24 0
-13 -23 0
-13 -22 0
-13 -20 0
-13 -19 0
-13 -14 0
-12 -29 0
-12 -26 0
-12 -22 0
-12 -21 0
-12 -19 0
-12 -17 0
-11 -28 0
-11 -26 0
-11 -22 0
-11 -20 0
-11 -16 0
-11 -12 0
-10 -26 0
-10 -22 0
-10 -18 0
-10 -12 0
-10 -11 0
-9 -26 0
-9 -24 0
-9 -22 0
-9 -15 0
-9 -12 0
-9 -11 0
-9 -10 0
-8 -30 0
-8 -26 0
-8 -25 0
-8 -23 0
-8 -17 0
-8 -16 0
-8 -15 0
-7 -29 0
-7 -28 0
-7 -27 0
-7 -25 0
-7 -20 0
-7 -18 0
-7 -16 0
-7 -11 0
-6 -24 0
-6 -23 0
-6 -20 0
-6 -19 0
-6 -18 0
-6 -13 0
-6 -10 0
-5 -28 0
-5 -26 0
-5 -25 0
-5 -23 0
-5 -21 0
-5 -14 0
-5 -8 0
-4 -29 0
-4 -27 0
-4 -25 0
-4 -24 0
-4 -18 0
-4 -15 0
-4 -9 0
-4 -7 0
-3 -28 0
-3 -21 0
-3 -18 0
-3 -14 0
-3 -10 0
-3 -6 0
-3 -5 0
-2 -28 0
-2 -24 0
-2 -21 0
-2 -15 0
-2 -14 0
-2 -9 0
-2 -5 0
-2 -4 0
-2 -3 0
-1 -30 0
-1 -18 0
-1 -17 0
-1 -16 0
-1 -15 0
-1 -10 0
-1 -8 0
-1 -6 0
-1 -3 0
1 3 6 10 18 0
2 4 9 15 24 0
5 8 23 25 26 0
7 11 16 20 28 0
12 17 19 21 29 0
13 14 22 27 30 0
