p cnf 49 301
-48 -49 0
-46 -47 0
-45 -47 0
-45 -46 0
-43 -48 0
-43 -44 0
-42 -49 0
-42 -46 0
-41 -47 0
-41 -44 0
-40 -46 0
-40 -42 0
-38 -39 0
-37 -49 0
-37 -48 0
-37 -40 0
-36 -45 0
-36 -44 0
-36 -41 0
-35 -38 0
-34 -47 0
-34 -41 0
-34 -40 0
-34 -37 0
-33 -47 0
-33 -46 0
-33 -45 0
-33 -39 0
-33 -38 0
-32 -45 0
-32 -40 0
-32 -37 0
-32 -36 0
-32 -34 0
-31 -48 0
-31 -43 0
-31 -39 0
-31 -38 0
-31 -33 0
-30 -44 0
-30 -43 0
-30 -38 0
-30 -35 0
-29 -40 0
-29 -39 0
-29 -38 0
-29 -37 0
-29 -34 0
-29 -33 0
-29 -32 0
-29 -31 0
-28 -49 0
-28 -47 0
-28 -42 0
-28 -41 0
-28 -34 0
-27 -48 0
-27 -43 0
-27 -35 0
-27 -31 0
-26 -46 0
-26 -42 0
-26 -40 0
-26 -39 0
-25 -39 0
-25 -35 0
-25 -27 0
-25 -26 0
-24 -48 0
-24 -46 0
-24 -43 0
-24 -42 0
-24 -40 0
-24 -31 0
-24 -27 0
-24 -26 0
-23 -47 0
-23 -41 0
-23 -38 0
-23 -35 0
-23 -34 0
-23 -30 0
-23 -28 0
-22 -48 0
-22 -45 0
-22 -43 0
-22 -36 0
-22 -32 0
-22 -31 0
-22 -27 0
-22 -24 0
-21 -49 0
-21 -48 0
-21 -39 0
-21 -37 0
-21 -26 0
-21 -25 0
-20 -44 0
-20 -43 0
-20 -40 0
-20 -37 0
-20 -34 0
-20 -32 0
-20 -30 0
-20 -29 0
-19 -45 0
-19 -39 0
-19 -36 0
-19 -32 0
-19 -26 0
-19 -25 0
-19 -22 0
-19 -21 0
-18 -49 0
-18 -48 0
-18 -38 0
-18 -37 0
-18 -35 0
-18 -30 0
-18 -23 0
-18 -21 0
-17 -49 0
-17 -44 0
-17 -43 0
-17 -42 0
-17 -30 0
-17 -28 0
-17 -20 0
-16 -46 0
-16 -42 0
-16 -40 0
-16 -38 0
-16 -35 0
-16 -30 0
-16 -26 0
-16 -24 0
-16 -23 0
-16 -18 0
-15 -49 0
-15 -45 0
-15 -42 0
-15 -36 0
-15 -32 0
-15 -28 0
-15 -22 0
-15 -19 0
-15 -17 0
-14 -47 0
-14 -46 0
-14 -45 0
-14 -44 0
-14 -43 0
-14 -33 0
-14 -30 0
-14 -20 0
-14 -17 0
-13 -49 0
-13 -48 0
-13 -44 0
-13 -41 0
-13 -37 0
-13 -36 0
-13 -21 0
-13 -18 0
-12 -47 0
-12 -41 0
-12 -39 0
-12 -34 0
-12 -28 0
-12 -26 0
-12 -25 0
-12 -23 0
-12 -21 0
-12 -19 0
-11 -48 0
-11 -47 0
-11 -43 0
-11 -41 0
-11 -34 0
-11 -31 0
-11 -28 0
-11 -27 0
-11 -24 0
-11 -23 0
-11 -22 0
-11 -12 0
-10 -49 0
-10 -42 0
-10 -35 0
-10 -28 0
-10 -27 0
-10 -25 0
-10 -17 0
-10 -15 0
-9 -47 0
-9 -46 0
-9 -45 0
-9 -35 0
-9 -33 0
-9 -27 0
-9 -25 0
-9 -14 0
-9 -10 0
-8 -44 0
-8 -43 0
-8 -39 0
-8 -30 0
-8 -26 0
-8 -25 0
-8 -21 0
-8 -20 0
-8 -19 0
-8 -17 0
-8 -14 0
-8 -12 0
-7 -44 0
-7 -41 0
-7 -39 0
-7 -38 0
-7 -36 0
-7 -33 0
-7 -31 0
-7 -29 0
-7 -13 0
-6 -40 0
-6 -37 0
-6 -35 0
-6 -34 0
-6 -32 0
-6 -29 0
-6 -27 0
-6 -25 0
-6 -20 0
-6 -10 0
-6 -9 0
-5 -44 0
-5 -41 0
-5 -36 0
-5 -35 0
-5 -27 0
-5 -25 0
-5 -13 0
-5 -10 0
-5 -9 0
-5 -7 0
-5 -6 0
-4 -49 0
-4 -42 0
-4 -39 0
-4 -38 0
-4 -33 0
-4 -31 0
-4 -29 0
-4 -28 0
-4 -17 0
-4 -15 0
-4 -10 0
-4 -7 0
-3 -45 0
-3 -38 0
-3 -36 0
-3 -35 0
-3 -32 0
-3 -30 0
-3 -23 0
-3 -22 0
-3 -19 0
-3 -18 0
-3 -16 0
-3 -15 0
-2 -46 0
-2 -44 0
-2 -42 0
-2 -41 0
-2 -40 0
-2 -36 0
-2 -26 0
-2 -24 0
-2 -16 0
-2 -13 0
-2 -7 0
-2 -5 0
-1 -49 0
-1 -48 0
-1 -47 0
-1 -46 0
-1 -45 0
-1 -37 0
-1 -33 0
-1 -21 0
-1 -18 0
-1 -14 0
-1 -13 0
-1 -9 0
1 9 14 33 45 46 47 0
2 5 7 13 36 41 44 0
3 16 18 23 30 35 38 0
4 10 15 17 28 42 49 0
6 20 29 32 34 37 40 0
8 12 19 21 25 26 39 0
11 22 24 27 31 43 48 0
