p cnf 49 301
-46 -47 0
-45 -49 0
-45 -47 0
-44 -47 0
-44 -45 0
-43 -48 0
-42 -46 0
-42 -44 0
-41 -47 0
-41 -45 0
-41 -44 0
-40 -48 0
-40 -47 0
-40 -46 0
-39 -49 0
-38 -49 0
-38 -47 0
-38 -46 0
-38 -40 0
-38 -39 0
-37 -49 0
-37 -46 0
-37 -45 0
-37 -42 0
-36 -49 0
-36 -48 0
-36 -43 0
-36 -39 0
-36 -38 0
-35 -49 0
-35 -39 0
-35 -38 0
-35 -36 0
-34 -35 0
-33 -48 0
-33 -46 0
-33 -43 0
-33 -42 0
-33 -37 0
-33 -36 0
-32 -44 0
-32 -42 0
-32 -34 0
-31 -43 0
-31 -41 0
-30 -47 0
-30 -45 0
-30 -44 0
-30 -41 0
-30 -39 0
-29 -47 0
-29 -46 0
-29 -40 0
-29 -38 0
-28 -48 0
-28 -40 0
-28 -39 0
-28 -30 0
-27 -48 0
-27 -44 0
-27 -42 0
-27 -40 0
-27 -32 0
-27 -28 0
-26 -47 0
-26 -46 0
-26 -40 0
-26 -38 0
-26 -34 0
-26 -32 0
-26 -29 0
-25 -49 0
-25 -48 0
-25 -45 0
-25 -40 0
-25 -37 0
-25 -28 0
-25 -27 0
-24 -41 0
-24 -31 0
-24 -29 0
-23 -48 0
-23 -43 0
-23 -36 0
-23 -33 0
-23 -29 0
-23 -24 0
-22 -46 0
-22 -42 0
-22 -39 0
-22 -37 0
-22 -33 0
-22 -30 0
-22 -28 0
-21 -43 0
-21 -39 0
-21 -31 0
-21 -30 0
-21 -28 0
-21 -22 0
-20 -49 0
-20 -45 0
-20 -37 0
-20 -34 0
-20 -32 0
-20 -26 0
-20 -25 0
-19 -49 0
-19 -41 0
-19 -39 0
-19 -38 0
-19 -36 0
-19 -35 0
-19 -31 0
-19 -24 0
-18 -49 0
-18 -45 0
-18 -43 0
-18 -37 0
-18 -31 0
-18 -25 0
-18 -21 0
-18 -20 0
-17 -48 0
-17 -47 0
-17 -45 0
-17 -44 0
-17 -43 0
-17 -41 0
-17 -36 0
-17 -33 0
-17 -30 0
-17 -23 0
-16 -49 0
-16 -44 0
-16 -42 0
-16 -39 0
-16 -38 0
-16 -36 0
-16 -35 0
-16 -32 0
-16 -27 0
-16 -19 0
-15 -47 0
-15 -46 0
-15 -43 0
-15 -40 0
-15 -38 0
-15 -31 0
-15 -29 0
-15 -26 0
-15 -21 0
-15 -18 0
-14 -44 0
-14 -43 0
-14 -42 0
-14 -32 0
-14 -31 0
-14 -27 0
-14 -21 0
-14 -18 0
-14 -16 0
-14 -15 0
-13 -44 0
-13 -42 0
-13 -32 0
-13 -29 0
-13 -27 0
-13 -24 0
-13 -23 0
-13 -16 0
-13 -14 0
-12 -48 0
-12 -40 0
-12 -35 0
-12 -34 0
-12 -28 0
-12 -27 0
-12 -25 0
-11 -41 0
-11 -34 0
-11 -32 0
-11 -31 0
-11 -26 0
-11 -24 0
-11 -20 0
-11 -19 0
-10 -46 0
-10 -42 0
-10 -41 0
-10 -37 0
-10 -33 0
-10 -31 0
-10 -24 0
-10 -22 0
-10 -19 0
-10 -11 0
-9 -46 0
-9 -42 0
-9 -37 0
-9 -35 0
-9 -34 0
-9 -33 0
-9 -22 0
-9 -12 0
-9 -10 0
-8 -49 0
-8 -45 0
-8 -37 0
-8 -29 0
-8 -25 0
-8 -24 0
-8 -23 0
-8 -20 0
-8 -18 0
-8 -13 0
-7 -48 0
-7 -43 0
-7 -36 0
-7 -34 0
-7 -33 0
-7 -32 0
-7 -26 0
-7 -23 0
-7 -20 0
-7 -17 0
-7 -11 0
-6 -39 0
-6 -34 0
-6 -32 0
-6 -30 0
-6 -28 0
-6 -26 0
-6 -22 0
-6 -21 0
-6 -20 0
-6 -11 0
-6 -7 0
-5 -39 0
-5 -30 0
-5 -29 0
-5 -28 0
-5 -24 0
-5 -23 0
-5 -22 0
-5 -21 0
-5 -13 0
-5 -8 0
-5 -6 0
-4 -47 0
-4 -45 0
-4 -44 0
-4 -41 0
-4 -35 0
-4 -34 0
-4 -30 0
-4 -17 0
-4 -12 0
-4 -9 0
-3 -43 0
-3 -35 0
-3 -34 0
-3 -31 0
-3 -21 0
-3 -18 0
-3 -15 0
-3 -14 0
-3 -12 0
-3 -9 0
-3 -4 0
-2 -35 0
-2 -34 0
-2 -29 0
-2 -24 0
-2 -23 0
-2 -13 0
-2 -12 0
-2 -9 0
-2 -8 0
-2 -5 0
-2 -4 0
-2 -3 0
-1 -48 0
-1 -41 0
-1 -40 0
-1 -31 0
-1 -28 0
-1 -27 0
-1 -25 0
-1 -24 0
-1 -19 0
-1 -12 0
-1 -11 0
-1 -10 0
1 10 11 19 24 31 41 0
2 3 4 9 12 34 35 0
5 6 21 22 28 30 39 0
7 17 23 33 36 43 48 0
8 18 20 25 37 45 49 0
13 14 16 27 32 42 44 0
15 26 29 38 40 46 47 0
