p cnf 49 301
-48 -49 0
-46 -49 0
-46 -48 0
-45 -47 0
-44 -47 0
-43 -49 0
-42 -45 0
-41 -47 0
-41 -45 0
-40 -46 0
-39 -48 0
-39 -42 0
-37 -49 0
-37 -43 0
-37 -40 0
-36 -49 0
-36 -48 0
-36 -46 0
-36 -38 0
-35 -47 0
-35 -44 0
-35 -42 0
-35 -39 0
-34 -49 0
-34 -43 0
-34 -42 0
-34 -39 0
-34 -37 0
-34 -35 0
-33 -45 0
-33 -42 0
-33 -40 0
-33 -37 0
-32 -43 0
-32 -38 0
-32 -36 0
-31 -48 0
-31 -47 0
-31 -45 0
-31 -41 0
-31 -39 0
-30 -48 0
-30 -40 0
-30 -39 0
-30 -37 0
-30 -33 0
-30 -31 0
-29 -49 0
-29 -48 0
-29 -46 0
-29 -41 0
-29 -36 0
-28 -45 0
-28 -44 0
-28 -42 0
-28 -33 0
-27 -47 0
-27 -44 0
-27 -43 0
-27 -35 0
-27 -32 0
-26 -49 0
-26 -47 0
-26 -45 0
-26 -43 0
-26 -41 0
-26 -37 0
-26 -34 0
-26 -31 0
-25 -47 0
-25 -46 0
-25 -45 0
-25 -41 0
-25 -40 0
-25 -31 0
-25 -26 0
-24 -46 0
-24 -40 0
-24 -38 0
-24 -25 0
-23 -42 0
-23 -39 0
-23 -38 0
-23 -36 0
-23 -35 0
-23 -34 0
-23 -32 0
-22 -43 0
-22 -41 0
-22 -32 0
-22 -29 0
-22 -27 0
-21 -45 0
-21 -43 0
-21 -42 0
-21 -33 0
-21 -32 0
-21 -28 0
-21 -27 0
-21 -22 0
-20 -41 0
-20 -38 0
-20 -29 0
-20 -24 0
-20 -22 0
-19 -44 0
-19 -38 0
-19 -36 0
-19 -32 0
-19 -28 0
-19 -23 0
-18 -49 0
-18 -48 0
-18 -46 0
-18 -45 0
-18 -42 0
-18 -36 0
-18 -33 0
-18 -29 0
-18 -28 0
-18 -21 0
-17 -49 0
-17 -48 0
-17 -47 0
-17 -46 0
-17 -44 0
-17 -36 0
-17 -35 0
-17 -29 0
-17 -27 0
-17 -18 0
-16 -44 0
-16 -41 0
-16 -29 0
-16 -28 0
-16 -22 0
-16 -20 0
-16 -19 0
-15 -47 0
-15 -45 0
-15 -41 0
-15 -38 0
-15 -36 0
-15 -32 0
-15 -31 0
-15 -26 0
-15 -25 0
-15 -23 0
-15 -19 0
-14 -48 0
-14 -39 0
-14 -38 0
-14 -31 0
-14 -30 0
-14 -24 0
-14 -20 0
-13 -49 0
-13 -44 0
-13 -43 0
-13 -37 0
-13 -34 0
-13 -28 0
-13 -26 0
-13 -19 0
-13 -16 0
-12 -46 0
-12 -44 0
-12 -40 0
-12 -28 0
-12 -25 0
-12 -24 0
-12 -19 0
-12 -16 0
-12 -13 0
-11 -40 0
-11 -38 0
-11 -37 0
-11 -36 0
-11 -33 0
-11 -32 0
-11 -30 0
-11 -23 0
-11 -19 0
-11 -15 0
-10 -41 0
-10 -40 0
-10 -37 0
-10 -33 0
-10 -30 0
-10 -29 0
-10 -22 0
-10 -20 0
-10 -16 0
-10 -11 0
-9 -42 0
-9 -41 0
-9 -39 0
-9 -35 0
-9 -34 0
-9 -29 0
-9 -23 0
-9 -22 0
-9 -20 0
-9 -16 0
-9 -10 0
-8 -48 0
-8 -44 0
-8 -39 0
-8 -31 0
-8 -30 0
-8 -28 0
-8 -19 0
-8 -16 0
-8 -14 0
-8 -13 0
-8 -12 0
-7 -46 0
-7 -42 0
-7 -40 0
-7 -39 0
-7 -35 0
-7 -34 0
-7 -25 0
-7 -24 0
-7 -23 0
-7 -12 0
-7 -9 0
-6 -46 0
-6 -43 0
-6 -40 0
-6 -32 0
-6 -27 0
-6 -25 0
-6 -24 0
-6 -22 0
-6 -21 0
-6 -12 0
-6 -7 0
-5 -45 0
-5 -42 0
-5 -38 0
-5 -33 0
-5 -28 0
-5 -24 0
-5 -21 0
-5 -20 0
-5 -18 0
-5 -14 0
-4 -48 0
-4 -43 0
-4 -39 0
-4 -32 0
-4 -31 0
-4 -30 0
-4 -27 0
-4 -22 0
-4 -21 0
-4 -14 0
-4 -8 0
-4 -6 0
-3 -47 0
-3 -44 0
-3 -38 0
-3 -35 0
-3 -27 0
-3 -24 0
-3 -20 0
-3 -17 0
-3 -14 0
-3 -5 0
-2 -49 0
-2 -43 0
-2 -38 0
-2 -37 0
-2 -34 0
-2 -26 0
-2 -24 0
-2 -20 0
-2 -14 0
-2 -13 0
-2 -5 0
-2 -3 0
-1 -47 0
-1 -44 0
-1 -40 0
-1 -37 0
-1 -35 0
-1 -33 0
-1 -30 0
-1 -27 0
-1 -17 0
-1 -11 0
-1 -10 0
-1 -3 0
1 3 17 27 35 44 47 0
2 13 26 34 37 43 49 0
4 8 14 30 31 39 48 0
5 18 21 28 33 42 45 0
6 7 12 24 25 40 46 0
9 10 16 20 22 29 41 0
11 15 19 23 32 36 38 0
