p cnf 42 238
-39 -41 0
-39 -40 0
-37 -40 0
-37 -39 0
-37 -38 0
-35 -42 0
-35 -41 0
-34 -42 0
-34 -38 0
-34 -37 0
-33 -36 0
-32 -40 0
-32 -33 0
-31 -42 0
-31 -34 0
-30 -42 0
-30 -40 0
-30 -34 0
-30 -32 0
-30 -31 0
-29 -41 0
-29 -39 0
-29 -38 0
-28 -42 0
-28 -38 0
-28 -35 0
-28 -29 0
-27 -42 0
-27 -41 0
-27 -39 0
-27 -34 0
-27 -31 0
-27 -30 0
-27 -29 0
-26 -41 0
-26 -39 0
-26 -33 0
-26 -32 0
-26 -29 0
-26 -27 0
-25 -41 0
-25 -39 0
-25 -36 0
-25 -29 0
-25 -27 0
-25 -26 0
-24 -40 0
-24 -39 0
-24 -37 0
-23 -41 0
-23 -35 0
-23 -31 0
-22 -42 0
-22 -35 0
-22 -33 0
-22 -32 0
-22 -28 0
-22 -26 0
-21 -40 0
-21 -39 0
-21 -37 0
-21 -31 0
-21 -24 0
-21 -23 0
-20 -38 0
-20 -31 0
-20 -29 0
-20 -28 0
-20 -23 0
-20 -21 0
-19 -40 0
-19 -38 0
-19 -32 0
-19 -30 0
-19 -29 0
-19 -28 0
-19 -20 0
-18 -42 0
-18 -34 0
-18 -31 0
-18 -30 0
-18 -27 0
-18 -24 0
-17 -36 0
-17 -25 0
-17 -24 0
-17 -18 0
-16 -41 0
-16 -40 0
-16 -35 0
-16 -32 0
-16 -30 0
-16 -23 0
-16 -19 0
-15 -42 0
-15 -36 0
-15 -35 0
-15 -28 0
-15 -25 0
-15 -22 0
-15 -17 0
-14 -41 0
-14 -38 0
-14 -37 0
-14 -35 0
-14 -34 0
-14 -23 0
-14 -16 0
-13 -41 0
-13 -35 0
-13 -24 0
-13 -23 0
-13 -18 0
-13 -17 0
-13 -16 0
-13 -14 0
-12 -38 0
-12 -37 0
-12 -36 0
-12 -34 0
-12 -25 0
-12 -17 0
-12 -15 0
-12 -14 0
-11 -40 0
-11 -39 0
-11 -37 0
-11 -36 0
-11 -33 0
-11 -24 0
-11 -21 0
-10 -42 0
-10 -36 0
-10 -34 0
-10 -33 0
-10 -31 0
-10 -30 0
-10 -27 0
-10 -18 0
-10 -11 0
-9 -38 0
-9 -29 0
-9 -28 0
-9 -24 0
-9 -20 0
-9 -19 0
-9 -18 0
-9 -17 0
-9 -13 0
-8 -36 0
-8 -31 0
-8 -25 0
-8 -23 0
-8 -21 0
-8 -20 0
-8 -17 0
-8 -15 0
-8 -12 0
-7 -38 0
-7 -37 0
-7 -34 0
-7 -33 0
-7 -32 0
-7 -26 0
-7 -22 0
-7 -14 0
-7 -12 0
-6 -41 0
-6 -36 0
-6 -35 0
-6 -33 0
-6 -23 0
-6 -16 0
-6 -14 0
-6 -13 0
-6 -11 0
-6 -10 0
-5 -40 0
-5 -36 0
-5 -32 0
-5 -30 0
-5 -25 0
-5 -19 0
-5 -17 0
-5 -16 0
-5 -15 0
-5 -12 0
-5 -8 0
-4 -38 0
-4 -36 0
-4 -33 0
-4 -29 0
-4 -28 0
-4 -20 0
-4 -19 0
-4 -11 0
-4 -10 0
-4 -9 0
-4 -6 0
-3 -33 0
-3 -32 0
-3 -31 0
-3 -26 0
-3 -23 0
-3 -22 0
-3 -21 0
-3 -20 0
-3 -8 0
-3 -7 0
-2 -42 0
-2 -40 0
-2 -39 0
-2 -37 0
-2 -35 0
-2 -28 0
-2 -24 0
-2 -22 0
-2 -21 0
-2 -15 0
-2 -11 0
-1 -33 0
-1 -32 0
-1 -26 0
-1 -24 0
-1 -22 0
-1 -18 0
-1 -17 0
-1 -13 0
-1 -9 0
-1 -7 0
-1 -3 0
1 9 13 17 18 24 0
2 15 22 28 35 42 0
3 8 20 21 23 31 0
4 6 10 11 33 36 0
5 16 19 30 32 40 0
7 12 14 34 37 38 0
25 26 27 29 39 41 0
