p cnf 42 238
-40 -41 0
-38 -42 0
-38 -40 0
-37 -41 0
-37 -40 0
-36 -42 0
-35 -42 0
-35 -36 0
-34 -41 0
-34 -35 0
-33 -40 0
-33 -38 0
-33 -36 0
-32 -39 0
-31 -41 0
-31 -34 0
-30 -42 0
-30 -38 0
-30 -37 0
-29 -41 0
-29 -34 0
-29 -31 0
-28 -42 0
-28 -36 0
-28 -35 0
-28 -31 0
-27 -41 0
-27 -40 0
-27 -37 0
-27 -32 0
-26 -37 0
-26 -36 0
-26 -33 0
-26 -30 0
-25 -41 0
-25 -39 0
-25 -34 0
-25 -32 0
-25 -31 0
-25 -29 0
-24 -40 0
-24 -39 0
-24 -38 0
-24 -33 0
-24 -32 0
-24 -25 0
-23 -37 0
-23 -31 0
-23 -30 0
-23 -28 0
-23 -26 0
-22 -39 0
-22 -37 0
-22 -32 0
-22 -30 0
-22 -26 0
-22 -25 0
-22 -24 0
-22 -23 0
-21 -42 0
-21 -39 0
-21 -36 0
-21 -35 0
-21 -32 0
-21 -28 0
-21 -25 0
-21 -24 0
-21 -22 0
-20 -42 0
-20 -41 0
-20 -38 0
-20 -34 0
-20 -31 0
-20 -30 0
-20 -29 0
-20 -25 0
-19 -40 0
-19 -38 0
-19 -33 0
-19 -31 0
-19 -28 0
-19 -24 0
-19 -23 0
-18 -41 0
-18 -36 0
-18 -34 0
-18 -33 0
-18 -31 0
-18 -29 0
-18 -26 0
-18 -25 0
-18 -20 0
-17 -32 0
-17 -31 0
-17 -28 0
-17 -27 0
-17 -23 0
-17 -19 0
-16 -40 0
-16 -38 0
-16 -33 0
-16 -29 0
-16 -24 0
-16 -19 0
-15 -32 0
-15 -29 0
-15 -27 0
-15 -17 0
-15 -16 0
-14 -37 0
-14 -30 0
-14 -29 0
-14 -26 0
-14 -23 0
-14 -22 0
-14 -16 0
-14 -15 0
-13 -42 0
-13 -41 0
-13 -40 0
-13 -37 0
-13 -36 0
-13 -35 0
-13 -28 0
-13 -27 0
-13 -21 0
-12 -42 0
-12 -38 0
-12 -32 0
-12 -30 0
-12 -27 0
-12 -20 0
-12 -17 0
-12 -15 0
-11 -41 0
-11 -40 0
-11 -39 0
-11 -37 0
-11 -27 0
-11 -13 0
-10 -42 0
-10 -36 0
-10 -35 0
-10 -29 0
-10 -28 0
-10 -21 0
-10 -16 0
-10 -15 0
-10 -14 0
-10 -13 0
-9 -35 0
-9 -34 0
-9 -32 0
-9 -27 0
-9 -17 0
-9 -15 0
-9 -12 0
-8 -42 0
-8 -39 0
-8 -38 0
-8 -30 0
-8 -20 0
-8 -12 0
-8 -11 0
-7 -39 0
-7 -31 0
-7 -28 0
-7 -23 0
-7 -19 0
-7 -17 0
-7 -11 0
-7 -8 0
-6 -39 0
-6 -29 0
-6 -16 0
-6 -15 0
-6 -14 0
-6 -11 0
-6 -10 0
-6 -8 0
-6 -7 0
-5 -36 0
-5 -33 0
-5 -32 0
-5 -27 0
-5 -26 0
-5 -18 0
-5 -17 0
-5 -15 0
-5 -12 0
-5 -9 0
-4 -40 0
-4 -38 0
-4 -35 0
-4 -34 0
-4 -33 0
-4 -24 0
-4 -19 0
-4 -16 0
-4 -9 0
-3 -37 0
-3 -35 0
-3 -34 0
-3 -30 0
-3 -26 0
-3 -23 0
-3 -22 0
-3 -14 0
-3 -9 0
-3 -4 0
-2 -39 0
-2 -35 0
-2 -34 0
-2 -11 0
-2 -9 0
-2 -8 0
-2 -7 0
-2 -6 0
-2 -4 0
-2 -3 0
-1 -39 0
-1 -36 0
-1 -33 0
-1 -26 0
-1 -18 0
-1 -11 0
-1 -8 0
-1 -7 0
-1 -6 0
-1 -5 0
-1 -2 0
1 5 18 26 33 36 0
2 3 4 9 34 35 0
6 10 14 15 16 29 0
7 17 19 23 28 31 0
8 12 20 30 38 42 0
11 13 27 37 40 41 0
21 22 24 25 32 39 0
