p cnf 42 238
-40 -42 0
-40 -41 0
-37 -38 0
-36 -39 0
-36 -37 0
-35 -39 0
-34 -38 0
-33 -41 0
-33 -40 0
-32 -42 0
-32 -40 0
-32 -38 0
-32 -37 0
-31 -39 0
-31 -35 0
-30 -41 0
-30 -31 0
-29 -41 0
-29 -38 0
-29 -37 0
-29 -32 0
-29 -30 0
-28 -42 0
-28 -41 0
-28 -30 0
-28 -29 0
-27 -42 0
-27 -38 0
-27 -34 0
-27 -28 0
-26 -35 0
-26 -33 0
-25 -42 0
-25 -39 0
-25 -35 0
-25 -31 0
-25 -28 0
-25 -27 0
-24 -42 0
-24 -40 0
-24 -32 0
-24 -31 0
-24 -30 0
-23 -38 0
-23 -34 0
-23 -31 0
-23 -30 0
-23 -27 0
-23 -24 0
-22 -42 0
-22 -40 0
-22 -35 0
-22 -32 0
-22 -26 0
-22 -24 0
-21 -41 0
-21 -34 0
-21 -30 0
-21 -29 0
-21 -28 0
-20 -38 0
-20 -35 0
-20 -34 0
-20 -27 0
-20 -26 0
-20 -23 0
-20 -22 0
-19 -39 0
-19 -36 0
-19 -33 0
-19 -26 0
-18 -42 0
-18 -40 0
-18 -34 0
-18 -32 0
-18 -24 0
-18 -22 0
-18 -21 0
-17 -37 0
-17 -36 0
-17 -34 0
-17 -21 0
-17 -18 0
-16 -41 0
-16 -35 0
-16 -30 0
-16 -29 0
-16 -28 0
-16 -26 0
-16 -22 0
-16 -21 0
-16 -20 0
-15 -42 0
-15 -37 0
-15 -36 0
-15 -28 0
-15 -27 0
-15 -25 0
-15 -17 0
-14 -42 0
-14 -33 0
-14 -28 0
-14 -27 0
-14 -26 0
-14 -25 0
-14 -19 0
-14 -15 0
-13 -41 0
-13 -39 0
-13 -36 0
-13 -30 0
-13 -29 0
-13 -28 0
-13 -21 0
-13 -19 0
-13 -16 0
-12 -38 0
-12 -37 0
-12 -33 0
-12 -32 0
-12 -29 0
-12 -26 0
-12 -19 0
-12 -14 0
-11 -33 0
-11 -31 0
-11 -30 0
-11 -26 0
-11 -24 0
-11 -23 0
-11 -19 0
-11 -14 0
-11 -12 0
-10 -37 0
-10 -36 0
-10 -31 0
-10 -30 0
-10 -24 0
-10 -23 0
-10 -17 0
-10 -15 0
-10 -11 0
-9 -41 0
-9 -40 0
-9 -37 0
-9 -36 0
-9 -33 0
-9 -17 0
-9 -15 0
-9 -10 0
-8 -37 0
-8 -36 0
-8 -35 0
-8 -26 0
-8 -22 0
-8 -20 0
-8 -17 0
-8 -16 0
-8 -15 0
-8 -10 0
-8 -9 0
-7 -34 0
-7 -33 0
-7 -26 0
-7 -21 0
-7 -19 0
-7 -18 0
-7 -17 0
-7 -14 0
-7 -12 0
-7 -11 0
-6 -41 0
-6 -40 0
-6 -39 0
-6 -35 0
-6 -33 0
-6 -31 0
-6 -25 0
-6 -9 0
-5 -41 0
-5 -40 0
-5 -38 0
-5 -34 0
-5 -33 0
-5 -27 0
-5 -23 0
-5 -20 0
-5 -9 0
-5 -6 0
-4 -39 0
-4 -35 0
-4 -34 0
-4 -31 0
-4 -25 0
-4 -21 0
-4 -18 0
-4 -17 0
-4 -7 0
-4 -6 0
-3 -42 0
-3 -40 0
-3 -39 0
-3 -36 0
-3 -32 0
-3 -24 0
-3 -22 0
-3 -19 0
-3 -18 0
-3 -13 0
-2 -39 0
-2 -38 0
-2 -37 0
-2 -35 0
-2 -32 0
-2 -31 0
-2 -29 0
-2 -25 0
-2 -12 0
-2 -6 0
-2 -4 0
-1 -39 0
-1 -38 0
-1 -36 0
-1 -34 0
-1 -27 0
-1 -23 0
-1 -20 0
-1 -19 0
-1 -13 0
-1 -5 0
-1 -3 0
1 3 13 19 36 39 0
2 12 29 32 37 38 0
4 7 17 18 21 34 0
5 6 9 33 40 41 0
8 16 20 22 26 35 0
10 11 23 24 30 31 0
14 15 25 27 28 42 0
