p cnf 49 301
-45 -49 0
-43 -48 0
-42 -49 0
-42 -46 0
-41 -48 0
-41 -46 0
-41 -42 0
-40 -45 0
-40 -44 0
-39 -44 0
-39 -43 0
-39 -40 0
-38 -47 0
-38 -44 0
-37 -49 0
-37 -47 0
-37 -45 0
-36 -49 0
-36 -45 0
-36 -44 0
-36 -38 0
-36 -37 0
-35 -49 0
-35 -48 0
-35 -43 0
-35 -42 0
-34 -44 0
-34 -38 0
-34 -36 0
-33 -45 0
-33 -40 0
-32 -49 0
-32 -45 0
-32 -43 0
-32 -39 0
-32 -37 0
-32 -36 0
-31 -48 0
-31 -41 0
-31 -34 0
-30 -46 0
-30 -44 0
-30 -40 0
-30 -39 0
-29 -48 0
-29 -47 0
-29 -41 0
-29 -38 0
-29 -31 0
-28 -47 0
-28 -37 0
-28 -34 0
-28 -31 0
-27 -49 0
-27 -42 0
-27 -35 0
-27 -33 0
-26 -47 0
-26 -46 0
-26 -38 0
-26 -30 0
-26 -29 0
-25 -48 0
-25 -44 0
-25 -41 0
-25 -40 0
-25 -39 0
-25 -31 0
-25 -30 0
-25 -29 0
-24 -49 0
-24 -48 0
-24 -45 0
-24 -41 0
-24 -37 0
-24 -36 0
-24 -32 0
-24 -31 0
-24 -29 0
-24 -25 0
-23 -46 0
-23 -44 0
-23 -42 0
-23 -41 0
-23 -38 0
-23 -36 0
-23 -34 0
-22 -46 0
-22 -34 0
-22 -31 0
-22 -30 0
-22 -28 0
-22 -26 0
-21 -48 0
-21 -45 0
-21 -43 0
-21 -40 0
-21 -35 0
-21 -33 0
-20 -49 0
-20 -46 0
-20 -45 0
-20 -37 0
-20 -36 0
-20 -32 0
-20 -30 0
-20 -26 0
-20 -24 0
-20 -22 0
-19 -49 0
-19 -44 0
-19 -42 0
-19 -40 0
-19 -39 0
-19 -35 0
-19 -30 0
-19 -27 0
-19 -25 0
-18 -49 0
-18 -47 0
-18 -42 0
-18 -38 0
-18 -35 0
-18 -29 0
-18 -27 0
-18 -26 0
-18 -19 0
-17 -47 0
-17 -37 0
-17 -33 0
-17 -28 0
-17 -27 0
-16 -48 0
-16 -44 0
-16 -43 0
-16 -38 0
-16 -36 0
-16 -35 0
-16 -34 0
-16 -23 0
-16 -21 0
-15 -46 0
-15 -33 0
-15 -30 0
-15 -27 0
-15 -26 0
-15 -22 0
-15 -20 0
-15 -17 0
-14 -47 0
-14 -45 0
-14 -40 0
-14 -38 0
-14 -33 0
-14 -29 0
-14 -26 0
-14 -21 0
-14 -18 0
-13 -47 0
-13 -44 0
-13 -40 0
-13 -39 0
-13 -37 0
-13 -30 0
-13 -28 0
-13 -25 0
-13 -19 0
-13 -17 0
-12 -45 0
-12 -40 0
-12 -34 0
-12 -33 0
-12 -31 0
-12 -28 0
-12 -22 0
-12 -21 0
-12 -14 0
-11 -43 0
-11 -39 0
-11 -33 0
-11 -32 0
-11 -27 0
-11 -17 0
-11 -15 0
-10 -48 0
-10 -41 0
-10 -33 0
-10 -31 0
-10 -29 0
-10 -27 0
-10 -25 0
-10 -24 0
-10 -17 0
-10 -15 0
-10 -11 0
-9 -49 0
-9 -42 0
-9 -35 0
-9 -34 0
-9 -31 0
-9 -28 0
-9 -27 0
-9 -22 0
-9 -19 0
-9 -18 0
-9 -12 0
-8 -46 0
-8 -43 0
-8 -42 0
-8 -41 0
-8 -39 0
-8 -32 0
-8 -23 0
-8 -11 0
-7 -43 0
-7 -39 0
-7 -34 0
-7 -32 0
-7 -31 0
-7 -28 0
-7 -22 0
-7 -12 0
-7 -11 0
-7 -9 0
-7 -8 0
-6 -46 0
-6 -45 0
-6 -42 0
-6 -41 0
-6 -40 0
-6 -33 0
-6 -23 0
-6 -21 0
-6 -14 0
-6 -12 0
-6 -8 0
-5 -47 0
-5 -43 0
-5 -39 0
-5 -38 0
-5 -32 0
-5 -29 0
-5 -26 0
-5 -18 0
-5 -14 0
-5 -11 0
-5 -8 0
-5 -7 0
-4 -48 0
-4 -46 0
-4 -43 0
-4 -35 0
-4 -30 0
-4 -26 0
-4 -22 0
-4 -21 0
-4 -20 0
-4 -16 0
-4 -15 0
-3 -47 0
-3 -46 0
-3 -42 0
-3 -41 0
-3 -37 0
-3 -28 0
-3 -23 0
-3 -17 0
-3 -13 0
-3 -8 0
-3 -6 0
-2 -44 0
-2 -38 0
-2 -36 0
-2 -34 0
-2 -33 0
-2 -27 0
-2 -23 0
-2 -17 0
-2 -16 0
-2 -15 0
-2 -11 0
-2 -10 0
-1 -48 0
-1 -47 0
-1 -43 0
-1 -37 0
-1 -35 0
-1 -28 0
-1 -21 0
-1 -17 0
-1 -16 0
-1 -13 0
-1 -4 0
-1 -3 0
1 3 13 17 28 37 47 0
2 16 23 34 36 38 44 0
4 15 20 22 26 30 46 0
5 7 8 11 32 39 43 0
6 12 14 21 33 40 45 0
9 18 19 27 35 42 49 0
10 24 25 29 31 41 48 0
