p cnf 49 301
-47 -48 0
-46 -49 0
-43 -45 0
-43 -44 0
-42 -49 0
-42 -45 0
-42 -43 0
-40 -47 0
-39 -48 0
-39 -47 0
-39 -44 0
-39 -43 0
-38 -48 0
-38 -47 0
-38 -45 0
-38 -39 0
-37 -48 0
-37 -47 0
-37 -46 0
-37 -39 0
-37 -38 0
-36 -46 0
-36 -40 0
-36 -37 0
-35 -47 0
-35 -45 0
-35 -43 0
-35 -42 0
-35 -40 0
-34 -41 0
-34 -40 0
-34 -36 0
-33 -49 0
-33 -42 0
-33 -41 0
-32 -46 0
-32 -37 0
-32 -36 0
-31 -44 0
-31 -43 0
-31 -41 0
-31 -39 0
-31 -33 0
-30 -49 0
-30 -47 0
-30 -46 0
-30 -40 0
-30 -35 0
-29 -44 0
-29 -41 0
-29 -34 0
-28 -49 0
-28 -46 0
-28 -45 0
-28 -38 0
-28 -30 0
-27 -47 0
-27 -40 0
-27 -35 0
-27 -32 0
-27 -30 0
-26 -48 0
-26 -47 0
-26 -41 0
-26 -39 0
-26 -38 0
-26 -37 0
-26 -34 0
-26 -29 0
-25 -45 0
-25 -40 0
-25 -38 0
-25 -36 0
-25 -34 0
-25 -28 0
-24 -48 0
-24 -45 0
-24 -43 0
-24 -42 0
-24 -35 0
-23 -47 0
-23 -44 0
-23 -40 0
-23 -35 0
-23 -30 0
-23 -29 0
-23 -27 0
-22 -49 0
-22 -46 0
-22 -44 0
-22 -43 0
-22 -39 0
-22 -31 0
-22 -30 0
-22 -28 0
-21 -45 0
-21 -44 0
-21 -38 0
-21 -29 0
-21 -28 0
-21 -25 0
-21 -23 0
-20 -49 0
-20 -42 0
-20 -33 0
-20 -32 0
-20 -27 0
-19 -48 0
-19 -41 0
-19 -33 0
-19 -31 0
-19 -24 0
-18 -46 0
-18 -45 0
-18 -43 0
-18 -42 0
-18 -37 0
-18 -36 0
-18 -35 0
-18 -32 0
-18 -24 0
-17 -45 0
-17 -41 0
-17 -38 0
-17 -33 0
-17 -31 0
-17 -28 0
-17 -25 0
-17 -21 0
-17 -19 0
-16 -45 0
-16 -43 0
-16 -42 0
-16 -41 0
-16 -35 0
-16 -34 0
-16 -29 0
-16 -26 0
-16 -24 0
-16 -18 0
-15 -41 0
-15 -34 0
-15 -32 0
-15 -29 0
-15 -27 0
-15 -26 0
-15 -20 0
-15 -16 0
-14 -49 0
-14 -44 0
-14 -42 0
-14 -33 0
-14 -29 0
-14 -23 0
-14 -21 0
-14 -20 0
-13 -48 0
-13 -32 0
-13 -27 0
-13 -24 0
-13 -20 0
-13 -19 0
-13 -15 0
-12 -46 0
-12 -44 0
-12 -37 0
-12 -36 0
-12 -32 0
-12 -29 0
-12 -23 0
-12 -21 0
-12 -18 0
-12 -14 0
-11 -49 0
-11 -48 0
-11 -46 0
-11 -30 0
-11 -28 0
-11 -24 0
-11 -22 0
-11 -19 0
-11 -13 0
-10 -46 0
-10 -41 0
-10 -37 0
-10 -36 0
-10 -33 0
-10 -32 0
-10 -31 0
-10 -19 0
-10 -18 0
-10 -17 0
-10 -12 0
-9 -44 0
-9 -43 0
-9 -39 0
-9 -32 0
-9 -31 0
-9 -27 0
-9 -22 0
-9 -20 0
-9 -15 0
-9 -13 0
-8 -49 0
-8 -46 0
-8 -41 0
-8 -34 0
-8 -30 0
-8 -29 0
-8 -28 0
-8 -26 0
-8 -22 0
-8 -16 0
-8 -15 0
-8 -11 0
-7 -49 0
-7 -42 0
-7 -40 0
-7 -36 0
-7 -34 0
-7 -33 0
-7 -25 0
-7 -20 0
-7 -14 0
-6 -45 0
-6 -38 0
-6 -32 0
-6 -28 0
-6 -27 0
-6 -25 0
-6 -21 0
-6 -20 0
-6 -17 0
-6 -15 0
-6 -13 0
-6 -9 0
-5 -49 0
-5 -48 0
-5 -47 0
-5 -42 0
-5 -39 0
-5 -38 0
-5 -37 0
-5 -33 0
-5 -26 0
-5 -20 0
-5 -14 0
-5 -7 0
-4 -44 0
-4 -43 0
-4 -40 0
-4 -39 0
-4 -36 0
-4 -34 0
-4 -31 0
-4 -25 0
-4 -22 0
-4 -9 0
-4 -7 0
-3 -48 0
-3 -40 0
-3 -36 0
-3 -34 0
-3 -25 0
-3 -24 0
-3 -19 0
-3 -13 0
-3 -11 0
-3 -7 0
-3 -4 0
-2 -47 0
-2 -41 0
-2 -40 0
-2 -35 0
-2 -33 0
-2 -31 0
-2 -30 0
-2 -27 0
-2 -23 0
-2 -19 0
-2 -17 0
-2 -10 0
-1 -48 0
-1 -44 0
-1 -29 0
-1 -24 0
-1 -23 0
-1 -21 0
-1 -19 0
-1 -14 0
-1 -13 0
-1 -12 0
-1 -11 0
-1 -3 0
1 3 11 13 19 24 48 0
2 23 27 30 35 40 47 0
4 9 22 31 39 43 44 0
5 7 14 20 33 42 49 0
6 17 21 25 28 38 45 0
8 15 16 26 29 34 41 0
10 12 18 32 36 37 46 0
