p cnf 49 301
-46 -47 0
-45 -47 0
-44 -49 0
-44 -47 0
-44 -45 0
-43 -49 0
-43 -44 0
-42 -48 0
-42 -46 0
-41 -49 0
-41 -47 0
-41 -46 0
-40 -49 0
-40 -44 0
-40 -43 0
-39 -46 0
-39 -42 0
-38 -47 0
-38 -46 0
-38 -43 0
-38 -41 0
-37 -40 0
-36 -39 0
-35 -48 0
-35 -45 0
-34 -36 0
-33 -49 0
-33 -44 0
-33 -43 0
-33 -40 0
-33 -36 0
-33 -34 0
-32 -40 0
-32 -37 0
-32 -34 0
-31 -37 0
-31 -36 0
-31 -34 0
-31 -33 0
-30 -43 0
-30 -38 0
-30 -34 0
-30 -32 0
-29 -47 0
-29 -45 0
-29 -44 0
-29 -37 0
-29 -31 0
-28 -49 0
-28 -41 0
-28 -39 0
-28 -36 0
-27 -45 0
-27 -40 0
-27 -37 0
-27 -35 0
-27 -32 0
-26 -46 0
-26 -45 0
-26 -42 0
-26 -39 0
-26 -35 0
-26 -27 0
-25 -48 0
-25 -35 0
-25 -34 0
-25 -32 0
-25 -30 0
-24 -49 0
-24 -41 0
-24 -37 0
-24 -31 0
-24 -29 0
-24 -28 0
-23 -48 0
-23 -42 0
-23 -36 0
-23 -34 0
-23 -33 0
-23 -31 0
-22 -49 0
-22 -41 0
-22 -34 0
-22 -32 0
-22 -30 0
-22 -28 0
-22 -25 0
-22 -24 0
-21 -46 0
-21 -42 0
-21 -39 0
-21 -37 0
-21 -31 0
-21 -29 0
-21 -26 0
-21 -24 0
-20 -43 0
-20 -38 0
-20 -37 0
-20 -31 0
-20 -30 0
-20 -29 0
-20 -24 0
-20 -21 0
-19 -49 0
-19 -46 0
-19 -44 0
-19 -43 0
-19 -42 0
-19 -40 0
-19 -39 0
-19 -33 0
-19 -26 0
-19 -21 0
-18 -48 0
-18 -39 0
-18 -36 0
-18 -35 0
-18 -28 0
-18 -25 0
-17 -45 0
-17 -43 0
-17 -38 0
-17 -35 0
-17 -30 0
-17 -27 0
-17 -26 0
-17 -20 0
-16 -47 0
-16 -46 0
-16 -41 0
-16 -38 0
-16 -36 0
-16 -34 0
-16 -33 0
-16 -31 0
-16 -23 0
-15 -43 0
-15 -39 0
-15 -38 0
-15 -36 0
-15 -30 0
-15 -28 0
-15 -20 0
-15 -18 0
-15 -17 0
-14 -47 0
-14 -45 0
-14 -44 0
-14 -34 0
-14 -32 0
-14 -30 0
-14 -29 0
-14 -25 0
-14 -22 0
-13 -45 0
-13 -36 0
-13 -35 0
-13 -34 0
-13 -33 0
-13 -31 0
-13 -27 0
-13 -26 0
-13 -23 0
-13 -17 0
-13 -16 0
-12 -48 0
-12 -47 0
-12 -46 0
-12 -41 0
-12 -38 0
-12 -35 0
-12 -25 0
-12 -18 0
-12 -16 0
-11 -48 0
-11 -47 0
-11 -45 0
-11 -44 0
-11 -42 0
-11 -29 0
-11 -23 0
-11 -14 0
-10 -49 0
-10 -48 0
-10 -42 0
-10 -41 0
-10 -28 0
-10 -24 0
-10 -23 0
-10 -22 0
-10 -11 0
-9 -49 0
-9 -45 0
-9 -41 0
-9 -35 0
-9 -28 0
-9 -27 0
-9 -26 0
-9 -24 0
-9 -22 0
-9 -17 0
-9 -13 0
-9 -10 0
-8 -48 0
-8 -42 0
-8 -40 0
-8 -37 0
-8 -32 0
-8 -27 0
-8 -23 0
-8 -11 0
-8 -10 0
-7 -49 0
-7 -48 0
-7 -44 0
-7 -43 0
-7 -40 0
-7 -35 0
-7 -33 0
-7 -25 0
-7 -19 0
-7 -18 0
-7 -12 0
-6 -47 0
-6 -45 0
-6 -44 0
-6 -39 0
-6 -36 0
-6 -29 0
-6 -28 0
-6 -18 0
-6 -15 0
-6 -14 0
-6 -11 0
-5 -48 0
-5 -43 0
-5 -42 0
-5 -38 0
-5 -30 0
-5 -23 0
-5 -20 0
-5 -17 0
-5 -15 0
-5 -11 0
-5 -10 0
-5 -8 0
-4 -47 0
-4 -46 0
-4 -41 0
-4 -40 0
-4 -38 0
-4 -37 0
-4 -32 0
-4 -27 0
-4 -16 0
-4 -12 0
-4 -8 0
-3 -40 0
-3 -39 0
-3 -37 0
-3 -36 0
-3 -32 0
-3 -28 0
-3 -27 0
-3 -18 0
-3 -15 0
-3 -8 0
-3 -6 0
-3 -4 0
-2 -48 0
-2 -37 0
-2 -35 0
-2 -31 0
-2 -29 0
-2 -25 0
-2 -24 0
-2 -21 0
-2 -20 0
-2 -18 0
-2 -12 0
-2 -7 0
-1 -46 0
-1 -42 0
-1 -39 0
-1 -34 0
-1 -32 0
-1 -30 0
-1 -26 0
-1 -25 0
-1 -22 0
-1 -21 0
-1 -19 0
-1 -14 0
1 14 22 25 30 32 34 0
2 20 21 24 29 31 37 0
3 6 15 18 28 36 39 0
4 12 16 38 41 46 47 0
5 8 10 11 23 42 48 0
7 19 33 40 43 44 49 0
9 13 17 26 27 35 45 0
