p cnf 49 301
-47 -48 0
-46 -48 0
-46 -47 0
-44 -46 0
-43 -48 0
-42 -49 0
-42 -48 0
-42 -47 0
-42 -46 0
-41 -49 0
-41 -45 0
-41 -42 0
-40 -47 0
-40 -45 0
-40 -41 0
-39 -44 0
-38 -48 0
-38 -47 0
-38 -46 0
-38 -42 0
-38 -39 0
-37 -49 0
-36 -43 0
-36 -39 0
-36 -38 0
-35 -47 0
-35 -40 0
-34 -46 0
-34 -45 0
-34 -44 0
-34 -41 0
-34 -40 0
-33 -45 0
-33 -41 0
-33 -40 0
-33 -39 0
-33 -38 0
-33 -36 0
-33 -34 0
-32 -48 0
-32 -47 0
-32 -46 0
-32 -45 0
-32 -42 0
-32 -38 0
-31 -47 0
-31 -44 0
-31 -40 0
-31 -39 0
-31 -35 0
-30 -46 0
-30 -44 0
-30 -35 0
-30 -34 0
-29 -37 0
-28 -48 0
-28 -47 0
-28 -46 0
-28 -42 0
-28 -38 0
-28 -37 0
-28 -32 0
-28 -29 0
-27 -47 0
-27 -40 0
-27 -35 0
-27 -31 0
-27 -29 0
-26 -48 0
-26 -43 0
-26 -35 0
-26 -30 0
-25 -49 0
-25 -42 0
-25 -41 0
-25 -29 0
-25 -27 0
-24 -45 0
-24 -44 0
-24 -39 0
-24 -32 0
-24 -31 0
-23 -44 0
-23 -39 0
-23 -37 0
-23 -31 0
-23 -29 0
-23 -28 0
-23 -24 0
-22 -45 0
-22 -35 0
-22 -32 0
-22 -30 0
-22 -26 0
-22 -24 0
-21 -48 0
-21 -44 0
-21 -43 0
-21 -39 0
-21 -31 0
-21 -26 0
-21 -24 0
-21 -23 0
-20 -37 0
-20 -35 0
-20 -30 0
-20 -29 0
-20 -28 0
-20 -26 0
-20 -23 0
-20 -22 0
-19 -49 0
-19 -47 0
-19 -40 0
-19 -37 0
-19 -35 0
-19 -31 0
-19 -27 0
-18 -46 0
-18 -44 0
-18 -34 0
-18 -30 0
-18 -29 0
-18 -27 0
-18 -25 0
-17 -49 0
-17 -45 0
-17 -37 0
-17 -32 0
-17 -24 0
-17 -22 0
-17 -19 0
-16 -39 0
-16 -38 0
-16 -36 0
-16 -35 0
-16 -33 0
-16 -30 0
-16 -26 0
-16 -22 0
-16 -20 0
-15 -43 0
-15 -37 0
-15 -36 0
-15 -29 0
-15 -28 0
-15 -23 0
-15 -20 0
-14 -45 0
-14 -32 0
-14 -29 0
-14 -27 0
-14 -25 0
-14 -24 0
-14 -22 0
-14 -18 0
-14 -17 0
-13 -45 0
-13 -41 0
-13 -40 0
-13 -37 0
-13 -34 0
-13 -33 0
-13 -29 0
-13 -28 0
-13 -23 0
-13 -20 0
-13 -15 0
-12 -49 0
-12 -46 0
-12 -44 0
-12 -37 0
-12 -34 0
-12 -30 0
-12 -19 0
-12 -18 0
-12 -17 0
-11 -49 0
-11 -39 0
-11 -38 0
-11 -37 0
-11 -36 0
-11 -33 0
-11 -19 0
-11 -17 0
-11 -16 0
-11 -12 0
-10 -49 0
-10 -44 0
-10 -42 0
-10 -41 0
-10 -39 0
-10 -31 0
-10 -25 0
-10 -24 0
-10 -23 0
-10 -21 0
-9 -45 0
-9 -43 0
-9 -36 0
-9 -32 0
-9 -24 0
-9 -22 0
-9 -17 0
-9 -15 0
-9 -14 0
-8 -49 0
-8 -42 0
-8 -41 0
-8 -35 0
-8 -30 0
-8 -26 0
-8 -25 0
-8 -22 0
-8 -20 0
-8 -16 0
-8 -10 0
-7 -48 0
-7 -43 0
-7 -29 0
-7 -27 0
-7 -26 0
-7 -25 0
-7 -21 0
-7 -18 0
-7 -14 0
-6 -46 0
-6 -44 0
-6 -43 0
-6 -36 0
-6 -34 0
-6 -30 0
-6 -18 0
-6 -15 0
-6 -12 0
-6 -9 0
-5 -47 0
-5 -43 0
-5 -40 0
-5 -36 0
-5 -35 0
-5 -31 0
-5 -27 0
-5 -19 0
-5 -15 0
-5 -9 0
-5 -6 0
-4 -39 0
-4 -38 0
-4 -36 0
-4 -33 0
-4 -29 0
-4 -27 0
-4 -25 0
-4 -18 0
-4 -16 0
-4 -14 0
-4 -11 0
-4 -7 0
-3 -48 0
-3 -45 0
-3 -43 0
-3 -41 0
-3 -40 0
-3 -34 0
-3 -33 0
-3 -26 0
-3 -21 0
-3 -13 0
-3 -7 0
-2 -49 0
-2 -43 0
-2 -42 0
-2 -41 0
-2 -36 0
-2 -25 0
-2 -15 0
-2 -10 0
-2 -9 0
-2 -8 0
-2 -6 0
-2 -5 0
-1 -49 0
-1 -48 0
-1 -43 0
-1 -37 0
-1 -26 0
-1 -21 0
-1 -19 0
-1 -17 0
-1 -12 0
-1 -11 0
-1 -7 0
-1 -3 0
1 11 12 17 19 37 49 0
2 5 6 9 15 36 43 0
3 13 33 34 40 41 45 0
4 7 14 18 25 27 29 0
8 16 20 22 26 30 35 0
10 21 23 24 31 39 44 0
28 32 38 42 46 47 48 0
