p cnf 49 301
-46 -48 0
-45 -48 0
-44 -47 0
-43 -49 0
-42 -45 0
-42 -44 0
-41 -44 0
-41 -43 0
-41 -42 0
-40 -48 0
-40 -45 0
-39 -48 0
-39 -47 0
-39 -45 0
-39 -44 0
-39 -40 0
-38 -49 0
-37 -49 0
-37 -48 0
-37 -45 0
-37 -40 0
-37 -39 0
-37 -38 0
-36 -49 0
-36 -43 0
-35 -47 0
-35 -45 0
-35 -42 0
-34 -44 0
-34 -42 0
-34 -41 0
-34 -36 0
-33 -43 0
-33 -41 0
-33 -38 0
-32 -47 0
-32 -40 0
-32 -35 0
-31 -49 0
-31 -48 0
-31 -46 0
-31 -43 0
-31 -36 0
-30 -45 0
-30 -42 0
-30 -35 0
-29 -48 0
-29 -46 0
-29 -31 0
-29 -30 0
-28 -48 0
-28 -46 0
-28 -38 0
-28 -33 0
-28 -31 0
-28 -29 0
-27 -48 0
-27 -45 0
-27 -40 0
-27 -39 0
-27 -37 0
-27 -36 0
-27 -34 0
-26 -40 0
-26 -38 0
-26 -33 0
-26 -32 0
-26 -28 0
-25 -47 0
-25 -43 0
-25 -41 0
-25 -35 0
-25 -33 0
-25 -32 0
-24 -49 0
-24 -38 0
-24 -37 0
-24 -30 0
-24 -29 0
-23 -46 0
-23 -45 0
-23 -42 0
-23 -35 0
-23 -30 0
-22 -48 0
-22 -47 0
-22 -46 0
-22 -35 0
-22 -32 0
-22 -31 0
-22 -29 0
-22 -28 0
-22 -25 0
-21 -38 0
-21 -36 0
-21 -34 0
-21 -33 0
-21 -28 0
-21 -27 0
-21 -26 0
-20 -43 0
-20 -41 0
-20 -33 0
-20 -30 0
-20 -29 0
-20 -25 0
-20 -24 0
-19 -49 0
-19 -44 0
-19 -42 0
-19 -41 0
-19 -38 0
-19 -37 0
-19 -34 0
-19 -24 0
-18 -49 0
-18 -47 0
-18 -38 0
-18 -37 0
-18 -35 0
-18 -32 0
-18 -25 0
-18 -24 0
-18 -22 0
-18 -19 0
-17 -44 0
-17 -42 0
-17 -41 0
-17 -40 0
-17 -34 0
-17 -32 0
-17 -26 0
-17 -19 0
-16 -49 0
-16 -47 0
-16 -44 0
-16 -43 0
-16 -39 0
-16 -36 0
-16 -31 0
-15 -46 0
-15 -36 0
-15 -34 0
-15 -27 0
-15 -23 0
-15 -21 0
-14 -45 0
-14 -42 0
-14 -38 0
-14 -35 0
-14 -33 0
-14 -30 0
-14 -28 0
-14 -26 0
-14 -23 0
-14 -21 0
-13 -47 0
-13 -44 0
-13 -39 0
-13 -38 0
-13 -33 0
-13 -28 0
-13 -26 0
-13 -21 0
-13 -16 0
-13 -14 0
-12 -47 0
-12 -44 0
-12 -39 0
-12 -30 0
-12 -29 0
-12 -24 0
-12 -20 0
-12 -16 0
-12 -13 0
-11 -46 0
-11 -43 0
-11 -41 0
-11 -33 0
-11 -25 0
-11 -23 0
-11 -20 0
-11 -15 0
-10 -49 0
-10 -45 0
-10 -43 0
-10 -42 0
-10 -36 0
-10 -35 0
-10 -31 0
-10 -30 0
-10 -23 0
-10 -16 0
-10 -14 0
-9 -36 0
-9 -34 0
-9 -30 0
-9 -29 0
-9 -27 0
-9 -24 0
-9 -21 0
-9 -20 0
-9 -15 0
-9 -12 0
-8 -47 0
-8 -36 0
-8 -35 0
-8 -34 0
-8 -32 0
-8 -27 0
-8 -25 0
-8 -22 0
-8 -21 0
-8 -18 0
-8 -15 0
-8 -9 0
-7 -40 0
-7 -32 0
-7 -30 0
-7 -29 0
-7 -26 0
-7 -24 0
-7 -20 0
-7 -17 0
-7 -12 0
-7 -9 0
-6 -48 0
-6 -45 0
-6 -43 0
-6 -41 0
-6 -40 0
-6 -39 0
-6 -37 0
-6 -33 0
-6 -27 0
-6 -25 0
-6 -20 0
-6 -11 0
-5 -47 0
-5 -46 0
-5 -44 0
-5 -39 0
-5 -23 0
-5 -16 0
-5 -15 0
-5 -13 0
-5 -12 0
-5 -11 0
-4 -49 0
-4 -43 0
-4 -40 0
-4 -36 0
-4 -32 0
-4 -31 0
-4 -26 0
-4 -17 0
-4 -16 0
-4 -10 0
-4 -7 0
-3 -49 0
-3 -46 0
-3 -38 0
-3 -37 0
-3 -24 0
-3 -23 0
-3 -19 0
-3 -18 0
-3 -15 0
-3 -11 0
-3 -5 0
-2 -48 0
-2 -46 0
-2 -44 0
-2 -42 0
-2 -41 0
-2 -34 0
-2 -31 0
-2 -29 0
-2 -28 0
-2 -22 0
-2 -19 0
-2 -17 0
-1 -46 0
-1 -40 0
-1 -32 0
-1 -26 0
-1 -23 0
-1 -17 0
-1 -15 0
-1 -11 0
-1 -7 0
-1 -5 0
-1 -4 0
-1 -3 0
1 4 7 17 26 32 40 0
2 22 28 29 31 46 48 0
3 18 19 24 37 38 49 0
5 12 13 16 39 44 47 0
6 11 20 25 33 41 43 0
8 9 15 21 27 34 36 0
10 14 23 30 35 42 45 0
