p cnf 42 238
-39 -42 0
-39 -41 0
-38 -41 0
-38 -39 0
-37 -38 0
-36 -41 0
-35 -38 0
-35 -37 0
-35 -36 0
-34 -40 0
-33 -36 0
-33 -35 0
-33 -34 0
-32 -40 0
-31 -37 0
-31 -34 0
-31 -33 0
-30 -40 0
-30 -32 0
-29 -40 0
-29 -38 0
-29 -37 0
-29 -35 0
-29 -34 0
-28 -42 0
-28 -40 0
-28 -39 0
-28 -34 0
-28 -29 0
-27 -38 0
-27 -37 0
-27 -35 0
-27 -32 0
-27 -29 0
-26 -40 0
-26 -37 0
-26 -32 0
-26 -31 0
-26 -30 0
-25 -32 0
-25 -27 0
-24 -38 0
-24 -37 0
-24 -35 0
-24 -30 0
-24 -29 0
-24 -27 0
-23 -42 0
-23 -39 0
-23 -36 0
-23 -35 0
-23 -33 0
-23 -28 0
-22 -34 0
-22 -33 0
-22 -32 0
-22 -31 0
-22 -27 0
-22 -25 0
-21 -37 0
-21 -31 0
-21 -26 0
-21 -25 0
-20 -42 0
-20 -34 0
-20 -33 0
-20 -31 0
-20 -22 0
-19 -40 0
-19 -36 0
-19 -35 0
-19 -33 0
-19 -32 0
-19 -30 0
-19 -26 0
-19 -23 0
-18 -42 0
-18 -38 0
-18 -37 0
-18 -35 0
-18 -29 0
-18 -27 0
-18 -24 0
-18 -20 0
-17 -40 0
-17 -34 0
-17 -29 0
-17 -28 0
-17 -25 0
-17 -21 0
-16 -41 0
-16 -39 0
-16 -38 0
-16 -34 0
-16 -33 0
-16 -31 0
-16 -22 0
-16 -20 0
-15 -42 0
-15 -40 0
-15 -32 0
-15 -30 0
-15 -26 0
-15 -20 0
-15 -19 0
-15 -18 0
-14 -42 0
-14 -39 0
-14 -37 0
-14 -31 0
-14 -28 0
-14 -26 0
-14 -23 0
-14 -21 0
-13 -41 0
-13 -40 0
-13 -36 0
-13 -34 0
-13 -29 0
-13 -28 0
-13 -17 0
-12 -41 0
-12 -40 0
-12 -39 0
-12 -38 0
-12 -32 0
-12 -30 0
-12 -26 0
-12 -19 0
-12 -16 0
-12 -15 0
-11 -42 0
-11 -39 0
-11 -30 0
-11 -28 0
-11 -24 0
-11 -23 0
-11 -14 0
-10 -34 0
-10 -33 0
-10 -31 0
-10 -30 0
-10 -24 0
-10 -22 0
-10 -20 0
-10 -16 0
-10 -11 0
-9 -42 0
-9 -25 0
-9 -21 0
-9 -20 0
-9 -18 0
-9 -17 0
-9 -15 0
-8 -41 0
-8 -36 0
-8 -30 0
-8 -24 0
-8 -13 0
-8 -11 0
-8 -10 0
-7 -36 0
-7 -35 0
-7 -33 0
-7 -25 0
-7 -23 0
-7 -21 0
-7 -19 0
-7 -17 0
-7 -9 0
-6 -41 0
-6 -36 0
-6 -32 0
-6 -27 0
-6 -25 0
-6 -22 0
-6 -13 0
-6 -8 0
-5 -42 0
-5 -39 0
-5 -32 0
-5 -28 0
-5 -27 0
-5 -25 0
-5 -23 0
-5 -22 0
-5 -14 0
-5 -11 0
-5 -6 0
-4 -41 0
-4 -39 0
-4 -38 0
-4 -25 0
-4 -21 0
-4 -17 0
-4 -16 0
-4 -12 0
-4 -9 0
-4 -7 0
-3 -42 0
-3 -41 0
-3 -36 0
-3 -20 0
-3 -18 0
-3 -15 0
-3 -13 0
-3 -9 0
-3 -8 0
-3 -6 0
-2 -30 0
-2 -25 0
-2 -24 0
-2 -21 0
-2 -17 0
-2 -11 0
-2 -10 0
-2 -9 0
-2 -8 0
-2 -7 0
-2 -4 0
-1 -41 0
-1 -37 0
-1 -36 0
-1 -31 0
-1 -26 0
-1 -21 0
-1 -14 0
-1 -13 0
-1 -8 0
-1 -6 0
-1 -3 0
1 14 21 26 31 37 0
2 8 10 11 24 30 0
3 9 15 18 20 42 0
4 12 16 38 39 41 0
5 6 22 25 27 32 0
7 19 23 33 35 36 0
13 17 28 29 34 40 0
