p cnf 42 238
-39 -42 0
-39 -40 0
-36 -37 0
-35 -37 0
-34 -40 0
-34 -38 0
-33 -40 0
-33 -36 0
-33 -34 0
-32 -38 0
-32 -37 0
-32 -36 0
-32 -34 0
-31 -42 0
-31 -39 0
-31 -36 0
-31 -33 0
-30 -41 0
-30 -35 0
-29 -41 0
-29 -36 0
-29 -33 0
-29 -31 0
-28 -36 0
-28 -33 0
-28 -31 0
-28 -29 0
-27 -40 0
-27 -39 0
-27 -28 0
-26 -42 0
-26 -38 0
-25 -42 0
-25 -28 0
-25 -27 0
-25 -26 0
-24 -41 0
-24 -38 0
-24 -30 0
-24 -26 0
-23 -41 0
-23 -40 0
-23 -39 0
-23 -29 0
-23 -27 0
-22 -42 0
-22 -41 0
-22 -29 0
-22 -26 0
-22 -25 0
-22 -23 0
-21 -40 0
-21 -39 0
-21 -35 0
-21 -30 0
-21 -27 0
-21 -23 0
-20 -40 0
-20 -39 0
-20 -38 0
-20 -27 0
-20 -26 0
-20 -24 0
-20 -23 0
-20 -21 0
-19 -41 0
-19 -30 0
-19 -28 0
-19 -27 0
-19 -25 0
-19 -24 0
-18 -41 0
-18 -37 0
-18 -36 0
-18 -32 0
-18 -30 0
-18 -24 0
-18 -19 0
-17 -42 0
-17 -41 0
-17 -39 0
-17 -31 0
-17 -30 0
-17 -24 0
-17 -19 0
-17 -18 0
-16 -42 0
-16 -35 0
-16 -30 0
-16 -26 0
-16 -25 0
-16 -22 0
-16 -21 0
-15 -42 0
-15 -39 0
-15 -37 0
-15 -35 0
-15 -31 0
-15 -17 0
-14 -40 0
-14 -37 0
-14 -35 0
-14 -34 0
-14 -33 0
-14 -15 0
-13 -38 0
-13 -37 0
-13 -35 0
-13 -26 0
-13 -24 0
-13 -20 0
-13 -15 0
-13 -14 0
-12 -40 0
-12 -39 0
-12 -37 0
-12 -36 0
-12 -32 0
-12 -27 0
-12 -23 0
-12 -21 0
-12 -20 0
-12 -18 0
-11 -37 0
-11 -35 0
-11 -28 0
-11 -27 0
-11 -25 0
-11 -19 0
-11 -15 0
-11 -14 0
-11 -13 0
-10 -42 0
-10 -37 0
-10 -36 0
-10 -32 0
-10 -26 0
-10 -25 0
-10 -22 0
-10 -18 0
-10 -16 0
-10 -12 0
-9 -38 0
-9 -36 0
-9 -33 0
-9 -31 0
-9 -29 0
-9 -28 0
-9 -26 0
-9 -24 0
-9 -20 0
-9 -13 0
-8 -36 0
-8 -35 0
-8 -33 0
-8 -31 0
-8 -30 0
-8 -29 0
-8 -28 0
-8 -21 0
-8 -16 0
-8 -9 0
-7 -41 0
-7 -40 0
-7 -34 0
-7 -33 0
-7 -30 0
-7 -24 0
-7 -19 0
-7 -18 0
-7 -17 0
-7 -14 0
-6 -41 0
-6 -38 0
-6 -34 0
-6 -32 0
-6 -29 0
-6 -23 0
-6 -22 0
-5 -42 0
-5 -40 0
-5 -34 0
-5 -33 0
-5 -26 0
-5 -25 0
-5 -22 0
-5 -16 0
-5 -14 0
-5 -10 0
-5 -7 0
-4 -38 0
-4 -35 0
-4 -34 0
-4 -32 0
-4 -30 0
-4 -21 0
-4 -16 0
-4 -8 0
-4 -6 0
-3 -38 0
-3 -34 0
-3 -32 0
-3 -28 0
-3 -27 0
-3 -25 0
-3 -19 0
-3 -11 0
-3 -6 0
-3 -4 0
-2 -41 0
-2 -37 0
-2 -35 0
-2 -29 0
-2 -23 0
-2 -22 0
-2 -15 0
-2 -14 0
-2 -13 0
-2 -11 0
-2 -6 0
-1 -42 0
-1 -39 0
-1 -38 0
-1 -34 0
-1 -32 0
-1 -31 0
-1 -17 0
-1 -15 0
-1 -6 0
-1 -4 0
-1 -3 0
1 15 17 31 39 42 0
2 6 22 23 29 41 0
3 11 19 25 27 28 0
4 8 16 21 30 35 0
5 7 14 33 34 40 0
9 13 20 24 26 38 0
10 12 18 32 36 37 0
