p cnf 42 238
-39 -42 0
-39 -41 0
-38 -42 0
-38 -39 0
-37 -40 0
-37 -38 0
-36 -40 0
-36 -37 0
-35 -42 0
-34 -40 0
-33 -41 0
-32 -35 0
-31 -41 0
-31 -39 0
-30 -38 0
-30 -37 0
-30 -35 0
-30 -32 0
-29 -36 0
-29 -35 0
-29 -32 0
-29 -30 0
-28 -41 0
-28 -39 0
-28 -34 0
-28 -31 0
-27 -41 0
-27 -33 0
-27 -32 0
-26 -33 0
-26 -31 0
-25 -41 0
-25 -38 0
-25 -37 0
-25 -33 0
-25 -30 0
-25 -27 0
-24 -40 0
-24 -37 0
-24 -36 0
-24 -32 0
-24 -27 0
-23 -42 0
-23 -40 0
-23 -37 0
-23 -36 0
-23 -35 0
-23 -24 0
-22 -41 0
-22 -40 0
-22 -34 0
-22 -33 0
-22 -27 0
-22 -25 0
-21 -34 0
-21 -33 0
-21 -28 0
-21 -26 0
-20 -42 0
-20 -41 0
-20 -35 0
-20 -33 0
-20 -27 0
-20 -25 0
-20 -23 0
-20 -22 0
-19 -42 0
-19 -35 0
-19 -31 0
-19 -26 0
-19 -23 0
-19 -20 0
-18 -41 0
-18 -39 0
-18 -35 0
-18 -32 0
-18 -31 0
-18 -30 0
-18 -29 0
-18 -28 0
-17 -42 0
-17 -35 0
-17 -34 0
-17 -28 0
-17 -23 0
-17 -21 0
-17 -20 0
-17 -19 0
-16 -36 0
-16 -31 0
-16 -29 0
-16 -26 0
-16 -19 0
-15 -40 0
-15 -34 0
-15 -31 0
-15 -26 0
-15 -22 0
-15 -19 0
-15 -16 0
-14 -41 0
-14 -40 0
-14 -39 0
-14 -37 0
-14 -36 0
-14 -31 0
-14 -28 0
-14 -24 0
-14 -23 0
-14 -18 0
-13 -42 0
-13 -39 0
-13 -38 0
-13 -33 0
-13 -26 0
-13 -21 0
-12 -35 0
-12 -33 0
-12 -32 0
-12 -30 0
-12 -29 0
-12 -26 0
-12 -21 0
-12 -18 0
-12 -13 0
-11 -40 0
-11 -35 0
-11 -34 0
-11 -32 0
-11 -30 0
-11 -29 0
-11 -22 0
-11 -18 0
-11 -15 0
-11 -12 0
-10 -34 0
-10 -32 0
-10 -28 0
-10 -27 0
-10 -24 0
-10 -21 0
-10 -17 0
-9 -42 0
-9 -39 0
-9 -38 0
-9 -36 0
-9 -29 0
-9 -16 0
-9 -13 0
-8 -41 0
-8 -36 0
-8 -33 0
-8 -29 0
-8 -27 0
-8 -25 0
-8 -22 0
-8 -20 0
-8 -16 0
-8 -9 0
-7 -40 0
-7 -37 0
-7 -36 0
-7 -33 0
-7 -26 0
-7 -24 0
-7 -23 0
-7 -21 0
-7 -14 0
-7 -13 0
-7 -12 0
-6 -36 0
-6 -34 0
-6 -29 0
-6 -28 0
-6 -21 0
-6 -17 0
-6 -16 0
-6 -10 0
-6 -9 0
-6 -8 0
-5 -42 0
-5 -40 0
-5 -39 0
-5 -38 0
-5 -34 0
-5 -22 0
-5 -15 0
-5 -13 0
-5 -11 0
-5 -9 0
-4 -38 0
-4 -37 0
-4 -34 0
-4 -30 0
-4 -28 0
-4 -25 0
-4 -21 0
-4 -17 0
-4 -10 0
-4 -6 0
-3 -42 0
-3 -39 0
-3 -38 0
-3 -32 0
-3 -27 0
-3 -24 0
-3 -13 0
-3 -10 0
-3 -9 0
-3 -5 0
-2 -32 0
-2 -31 0
-2 -27 0
-2 -26 0
-2 -24 0
-2 -19 0
-2 -16 0
-2 -15 0
-2 -10 0
-2 -3 0
-1 -38 0
-1 -37 0
-1 -31 0
-1 -30 0
-1 -26 0
-1 -25 0
-1 -19 0
-1 -16 0
-1 -15 0
-1 -4 0
-1 -2 0
1 4 25 30 37 38 0
2 3 10 24 27 32 0
5 11 15 22 34 40 0
6 8 9 16 29 36 0
7 12 13 21 26 33 0
14 18 28 31 39 41 0
17 19 20 23 35 42 0
