p cnf 49 301
-46 -48 0
-45 -49 0
-45 -47 0
-44 -49 0
-44 -47 0
-43 -47 0
-43 -44 0
-42 -48 0
-42 -47 0
-42 -45 0
-41 -46 0
-40 -49 0
-40 -45 0
-39 -49 0
-39 -44 0
-38 -43 0
-38 -39 0
-37 -46 0
-37 -41 0
-36 -49 0
-36 -44 0
-36 -39 0
-35 -40 0
-34 -49 0
-34 -45 0
-34 -40 0
-34 -37 0
-33 -37 0
-33 -35 0
-33 -34 0
-32 -43 0
-32 -38 0
-32 -36 0
-31 -47 0
-31 -45 0
-31 -42 0
-31 -39 0
-31 -38 0
-30 -48 0
-30 -42 0
-30 -40 0
-30 -35 0
-29 -46 0
-29 -41 0
-29 -40 0
-29 -37 0
-29 -35 0
-29 -30 0
-28 -41 0
-28 -35 0
-28 -33 0
-27 -48 0
-27 -42 0
-27 -41 0
-27 -30 0
-27 -28 0
-26 -46 0
-26 -43 0
-26 -41 0
-26 -38 0
-26 -37 0
-26 -32 0
-26 -29 0
-25 -47 0
-25 -44 0
-25 -43 0
-25 -41 0
-25 -28 0
-25 -27 0
-24 -49 0
-24 -44 0
-24 -39 0
-24 -36 0
-24 -35 0
-24 -33 0
-24 -28 0
-23 -43 0
-23 -38 0
-23 -35 0
-23 -33 0
-23 -32 0
-23 -28 0
-23 -26 0
-23 -24 0
-22 -47 0
-22 -46 0
-22 -45 0
-22 -42 0
-22 -41 0
-22 -37 0
-22 -31 0
-22 -29 0
-22 -26 0
-21 -49 0
-21 -45 0
-21 -43 0
-21 -40 0
-21 -38 0
-21 -34 0
-21 -32 0
-21 -26 0
-21 -23 0
-20 -49 0
-20 -48 0
-20 -44 0
-20 -42 0
-20 -39 0
-20 -36 0
-20 -30 0
-20 -27 0
-20 -24 0
-19 -40 0
-19 -39 0
-19 -38 0
-19 -35 0
-19 -31 0
-19 -30 0
-19 -29 0
-18 -47 0
-18 -45 0
-18 -42 0
-18 -36 0
-18 -32 0
-18 -31 0
-18 -22 0
-17 -49 0
-17 -45 0
-17 -41 0
-17 -40 0
-17 -34 0
-17 -28 0
-17 -27 0
-17 -25 0
-17 -21 0
-16 -49 0
-16 -46 0
-16 -44 0
-16 -41 0
-16 -39 0
-16 -37 0
-16 -36 0
-16 -29 0
-16 -26 0
-16 -24 0
-16 -22 0
-16 -20 0
-15 -48 0
-15 -43 0
-15 -42 0
-15 -38 0
-15 -32 0
-15 -30 0
-15 -27 0
-15 -26 0
-15 -23 0
-15 -21 0
-15 -20 0
-14 -39 0
-14 -38 0
-14 -37 0
-14 -34 0
-14 -33 0
-14 -31 0
-14 -19 0
-13 -41 0
-13 -39 0
-13 -38 0
-13 -31 0
-13 -28 0
-13 -27 0
-13 -25 0
-13 -19 0
-13 -17 0
-13 -14 0
-12 -47 0
-12 -44 0
-12 -43 0
-12 -40 0
-12 -35 0
-12 -30 0
-12 -29 0
-12 -25 0
-12 -19 0
-11 -48 0
-11 -42 0
-11 -37 0
-11 -34 0
-11 -33 0
-11 -30 0
-11 -27 0
-11 -20 0
-11 -15 0
-11 -14 0
-10 -48 0
-10 -46 0
-10 -36 0
-10 -32 0
-10 -18 0
-9 -47 0
-9 -44 0
-9 -43 0
-9 -37 0
-9 -34 0
-9 -33 0
-9 -25 0
-9 -14 0
-9 -12 0
-9 -11 0
-8 -48 0
-8 -46 0
-8 -35 0
-8 -33 0
-8 -28 0
-8 -24 0
-8 -23 0
-8 -10 0
-7 -49 0
-7 -48 0
-7 -46 0
-7 -45 0
-7 -40 0
-7 -34 0
-7 -21 0
-7 -17 0
-7 -10 0
-7 -8 0
-6 -48 0
-6 -47 0
-6 -46 0
-6 -44 0
-6 -43 0
-6 -25 0
-6 -12 0
-6 -10 0
-6 -9 0
-6 -8 0
-6 -7 0
-5 -37 0
-5 -36 0
-5 -34 0
-5 -33 0
-5 -32 0
-5 -18 0
-5 -14 0
-5 -11 0
-5 -10 0
-5 -9 0
-4 -40 0
-4 -36 0
-4 -35 0
-4 -32 0
-4 -30 0
-4 -29 0
-4 -19 0
-4 -18 0
-4 -12 0
-4 -10 0
-4 -5 0
-3 -41 0
-3 -36 0
-3 -32 0
-3 -28 0
-3 -27 0
-3 -25 0
-3 -18 0
-3 -17 0
-3 -13 0
-3 -10 0
-3 -5 0
-3 -4 0
-2 -48 0
-2 -46 0
-2 -39 0
-2 -38 0
-2 -31 0
-2 -19 0
-2 -14 0
-2 -13 0
-2 -10 0
-2 -8 0
-2 -7 0
-2 -6 0
-1 -47 0
-1 -45 0
-1 -42 0
-1 -35 0
-1 -33 0
-1 -31 0
-1 -28 0
-1 -24 0
-1 -23 0
-1 -22 0
-1 -18 0
-1 -8 0
1 18 22 31 42 45 47 0
2 6 7 8 10 46 48 0
3 13 17 25 27 28 41 0
4 12 19 29 30 35 40 0
5 9 11 14 33 34 37 0
15 21 23 26 32 38 43 0
16 20 24 36 39 44 49 0
