p cnf 49 301
-46 -48 0
-45 -49 0
-44 -49 0
-44 -45 0
-43 -44 0
-42 -48 0
-42 -45 0
-41 -49 0
-41 -48 0
-41 -46 0
-41 -45 0
-41 -44 0
-40 -44 0
-40 -43 0
-39 -48 0
-39 -44 0
-39 -43 0
-39 -42 0
-39 -40 0
-38 -49 0
-38 -47 0
-38 -45 0
-38 -44 0
-38 -41 0
-37 -48 0
-37 -46 0
-37 -41 0
-37 -40 0
-35 -46 0
-35 -45 0
-35 -42 0
-34 -47 0
-34 -40 0
-34 -38 0
-34 -37 0
-33 -48 0
-33 -47 0
-33 -42 0
-33 -39 0
-33 -38 0
-33 -34 0
-32 -43 0
-32 -36 0
-31 -46 0
-31 -44 0
-31 -43 0
-31 -40 0
-31 -39 0
-31 -35 0
-30 -47 0
-30 -46 0
-30 -38 0
-30 -35 0
-30 -34 0
-30 -33 0
-30 -31 0
-29 -49 0
-29 -40 0
-29 -37 0
-29 -34 0
-28 -44 0
-28 -43 0
-28 -40 0
-28 -39 0
-28 -36 0
-28 -31 0
-27 -48 0
-27 -47 0
-27 -46 0
-27 -41 0
-27 -37 0
-26 -47 0
-26 -44 0
-26 -43 0
-26 -40 0
-26 -39 0
-26 -31 0
-26 -28 0
-26 -27 0
-25 -47 0
-25 -38 0
-25 -36 0
-25 -34 0
-25 -33 0
-25 -30 0
-25 -28 0
-24 -49 0
-24 -46 0
-24 -35 0
-24 -31 0
-24 -30 0
-24 -29 0
-23 -43 0
-23 -32 0
-22 -48 0
-22 -42 0
-22 -39 0
-22 -36 0
-22 -33 0
-22 -32 0
-21 -47 0
-21 -45 0
-21 -42 0
-21 -35 0
-21 -27 0
-21 -26 0
-20 -40 0
-20 -37 0
-20 -34 0
-20 -29 0
-20 -23 0
-19 -46 0
-19 -36 0
-19 -35 0
-19 -32 0
-19 -31 0
-19 -30 0
-19 -24 0
-19 -22 0
-18 -49 0
-18 -48 0
-18 -42 0
-18 -39 0
-18 -33 0
-18 -29 0
-18 -24 0
-18 -22 0
-17 -49 0
-17 -45 0
-17 -44 0
-17 -41 0
-17 -38 0
-17 -23 0
-17 -20 0
-16 -49 0
-16 -47 0
-16 -29 0
-16 -27 0
-16 -26 0
-16 -24 0
-16 -21 0
-16 -18 0
-15 -48 0
-15 -46 0
-15 -43 0
-15 -41 0
-15 -37 0
-15 -32 0
-15 -27 0
-15 -23 0
-14 -40 0
-14 -37 0
-14 -36 0
-14 -34 0
-14 -32 0
-14 -29 0
-14 -22 0
-14 -20 0
-14 -19 0
-13 -45 0
-13 -42 0
-13 -40 0
-13 -37 0
-13 -35 0
-13 -34 0
-13 -29 0
-13 -21 0
-13 -20 0
-13 -14 0
-12 -45 0
-12 -42 0
-12 -36 0
-12 -35 0
-12 -28 0
-12 -25 0
-12 -21 0
-12 -13 0
-11 -49 0
-11 -45 0
-11 -44 0
-11 -41 0
-11 -38 0
-11 -36 0
-11 -32 0
-11 -22 0
-11 -19 0
-11 -17 0
-11 -14 0
-10 -48 0
-10 -46 0
-10 -41 0
-10 -37 0
-10 -36 0
-10 -28 0
-10 -27 0
-10 -25 0
-10 -15 0
-10 -12 0
-9 -49 0
-9 -36 0
-9 -29 0
-9 -28 0
-9 -25 0
-9 -24 0
-9 -18 0
-9 -16 0
-9 -12 0
-9 -10 0
-8 -36 0
-8 -28 0
-8 -25 0
-8 -23 0
-8 -20 0
-8 -17 0
-8 -12 0
-8 -10 0
-8 -9 0
-7 -47 0
-7 -27 0
-7 -26 0
-7 -23 0
-7 -21 0
-7 -20 0
-7 -17 0
-7 -16 0
-7 -8 0
-6 -46 0
-6 -35 0
-6 -31 0
-6 -30 0
-6 -24 0
-6 -23 0
-6 -20 0
-6 -19 0
-6 -17 0
-6 -8 0
-6 -7 0
-5 -47 0
-5 -36 0
-5 -32 0
-5 -27 0
-5 -26 0
-5 -22 0
-5 -21 0
-5 -19 0
-5 -16 0
-5 -14 0
-5 -11 0
-5 -7 0
-4 -45 0
-4 -43 0
-4 -42 0
-4 -35 0
-4 -32 0
-4 -23 0
-4 -21 0
-4 -15 0
-4 -13 0
-4 -12 0
-3 -49 0
-3 -43 0
-3 -32 0
-3 -29 0
-3 -24 0
-3 -23 0
-3 -18 0
-3 -16 0
-3 -15 0
-3 -9 0
-3 -4 0
-2 -48 0
-2 -42 0
-2 -39 0
-2 -33 0
-2 -23 0
-2 -22 0
-2 -20 0
-2 -18 0
-2 -17 0
-2 -8 0
-2 -7 0
-2 -6 0
-1 -47 0
-1 -43 0
-1 -38 0
-1 -34 0
-1 -33 0
-1 -32 0
-1 -30 0
-1 -25 0
-1 -23 0
-1 -15 0
-1 -4 0
-1 -3 0
1 3 4 15 23 32 43 0
2 18 22 33 39 42 48 0
5 7 16 21 26 27 47 0
6 19 24 30 31 35 46 0
8 9 10 12 25 28 36 0
11 17 38 41 44 45 49 0
13 14 20 29 34 37 40 0
