p cnf 49 301
-48 -49 0
-47 -49 0
-45 -46 0
-44 -49 0
-44 -48 0
-43 -45 0
-42 -45 0
-42 -43 0
-41 -48 0
-41 -47 0
-40 -49 0
-40 -47 0
-39 -46 0
-39 -43 0
-38 -49 0
-38 -47 0
-38 -46 0
-38 -40 0
-38 -39 0
-37 -45 0
-37 -43 0
-37 -42 0
-36 -46 0
-36 -45 0
-35 -48 0
-35 -46 0
-35 -41 0
-35 -39 0
-35 -38 0
-34 -37 0
-34 -36 0
-33 -49 0
-33 -48 0
-33 -44 0
-33 -42 0
-32 -42 0
-32 -33 0
-31 -48 0
-31 -41 0
-31 -40 0
-31 -35 0
-30 -49 0
-30 -48 0
-30 -44 0
-30 -43 0
-30 -39 0
-30 -33 0
-29 -46 0
-29 -44 0
-29 -39 0
-29 -38 0
-29 -35 0
-28 -46 0
-28 -45 0
-28 -36 0
-28 -32 0
-27 -48 0
-27 -41 0
-27 -35 0
-27 -32 0
-27 -31 0
-27 -28 0
-26 -42 0
-26 -36 0
-26 -34 0
-26 -33 0
-26 -32 0
-25 -49 0
-25 -47 0
-25 -45 0
-25 -43 0
-25 -42 0
-25 -40 0
-25 -38 0
-25 -37 0
-24 -49 0
-24 -48 0
-24 -46 0
-24 -45 0
-24 -44 0
-24 -36 0
-24 -33 0
-24 -30 0
-24 -28 0
-23 -46 0
-23 -39 0
-23 -38 0
-23 -37 0
-23 -35 0
-23 -34 0
-23 -29 0
-22 -47 0
-22 -41 0
-22 -37 0
-22 -34 0
-22 -23 0
-21 -42 0
-21 -40 0
-21 -33 0
-21 -32 0
-21 -31 0
-21 -26 0
-20 -44 0
-20 -40 0
-20 -31 0
-20 -29 0
-20 -21 0
-19 -46 0
-19 -42 0
-19 -39 0
-19 -38 0
-19 -35 0
-19 -33 0
-19 -32 0
-19 -29 0
-19 -26 0
-19 -23 0
-19 -21 0
-18 -43 0
-18 -40 0
-18 -39 0
-18 -31 0
-18 -30 0
-18 -21 0
-18 -20 0
-17 -48 0
-17 -41 0
-17 -36 0
-17 -35 0
-17 -34 0
-17 -31 0
-17 -27 0
-17 -26 0
-16 -47 0
-16 -43 0
-16 -41 0
-16 -39 0
-16 -30 0
-16 -22 0
-16 -18 0
-15 -37 0
-15 -34 0
-15 -32 0
-15 -28 0
-15 -27 0
-15 -23 0
-15 -22 0
-14 -47 0
-14 -46 0
-14 -45 0
-14 -41 0
-14 -36 0
-14 -28 0
-14 -24 0
-14 -22 0
-14 -16 0
-13 -43 0
-13 -39 0
-13 -36 0
-13 -34 0
-13 -30 0
-13 -26 0
-13 -18 0
-13 -17 0
-13 -16 0
-12 -49 0
-12 -47 0
-12 -40 0
-12 -38 0
-12 -32 0
-12 -28 0
-12 -27 0
-12 -25 0
-12 -15 0
-11 -46 0
-11 -45 0
-11 -40 0
-11 -36 0
-11 -31 0
-11 -28 0
-11 -24 0
-11 -21 0
-11 -20 0
-11 -18 0
-11 -14 0
-10 -43 0
-10 -39 0
-10 -32 0
-10 -30 0
-10 -28 0
-10 -27 0
-10 -18 0
-10 -16 0
-10 -15 0
-10 -13 0
-10 -12 0
-9 -48 0
-9 -45 0
-9 -43 0
-9 -42 0
-9 -41 0
-9 -37 0
-9 -35 0
-9 -31 0
-9 -27 0
-9 -25 0
-9 -17 0
-8 -47 0
-8 -44 0
-8 -41 0
-8 -29 0
-8 -22 0
-8 -20 0
-8 -16 0
-8 -14 0
-7 -40 0
-7 -37 0
-7 -34 0
-7 -31 0
-7 -23 0
-7 -22 0
-7 -21 0
-7 -20 0
-7 -18 0
-7 -15 0
-7 -11 0
-6 -47 0
-6 -42 0
-6 -41 0
-6 -33 0
-6 -32 0
-6 -26 0
-6 -22 0
-6 -21 0
-6 -19 0
-6 -16 0
-6 -14 0
-6 -8 0
-5 -44 0
-5 -36 0
-5 -34 0
-5 -29 0
-5 -26 0
-5 -20 0
-5 -17 0
-5 -13 0
-5 -8 0
-4 -45 0
-4 -44 0
-4 -43 0
-4 -42 0
-4 -37 0
-4 -29 0
-4 -25 0
-4 -20 0
-4 -9 0
-4 -8 0
-4 -5 0
-3 -49 0
-3 -47 0
-3 -40 0
-3 -38 0
-3 -36 0
-3 -34 0
-3 -26 0
-3 -25 0
-3 -17 0
-3 -13 0
-3 -12 0
-3 -5 0
-2 -44 0
-2 -32 0
-2 -29 0
-2 -28 0
-2 -27 0
-2 -20 0
-2 -15 0
-2 -12 0
-2 -10 0
-2 -8 0
-2 -5 0
-2 -4 0
-1 -49 0
-1 -48 0
-1 -44 0
-1 -37 0
-1 -34 0
-1 -33 0
-1 -30 0
-1 -24 0
-1 -23 0
-1 -22 0
-1 -15 0
-1 -7 0
1 7 15 22 23 34 37 0
2 4 5 8 20 29 44 0
3 12 25 38 40 47 49 0
6 19 21 26 32 33 42 0
9 17 27 31 35 41 48 0
10 13 16 18 30 39 43 0
11 14 24 28 36 45 46 0
