p cnf 56 372
-53 -54 0
-52 -56 0
-51 -56 0
-51 -55 0
-51 -52 0
-49 -55 0
-49 -52 0
-48 -52 0
-48 -50 0
-48 -49 0
-47 -56 0
-47 -53 0
-46 -53 0
-46 -47 0
-45 -56 0
-45 -52 0
-45 -51 0
-45 -50 0
-43 -54 0
-43 -53 0
-43 -44 0
-42 -46 0
-42 -44 0
-42 -43 0
-41 -52 0
-41 -49 0
-41 -48 0
-40 -54 0
-40 -44 0
-39 -55 0
-39 -50 0
-39 -49 0
-39 -45 0
-38 -56 0
-38 -55 0
-38 -49 0
-38 -47 0
-38 -39 0
-37 -44 0
-37 -41 0
-37 -40 0
-36 -53 0
-36 -47 0
-36 -46 0
-36 -44 0
-36 -40 0
-36 -37 0
-35 -50 0
-35 -48 0
-35 -44 0
-35 -40 0
-35 -37 0
-35 -36 0
-34 -50 0
-34 -48 0
-34 -46 0
-34 -42 0
-34 -35 0
-33 -55 0
-33 -51 0
-33 -50 0
-33 -48 0
-33 -35 0
-33 -34 0
-32 -50 0
-32 -45 0
-32 -44 0
-32 -43 0
-32 -42 0
-32 -39 0
-31 -54 0
-31 -52 0
-31 -49 0
-31 -48 0
-31 -41 0
-31 -40 0
-30 -50 0
-30 -45 0
-30 -41 0
-30 -39 0
-30 -37 0
-30 -32 0
-29 -56 0
-29 -47 0
-29 -44 0
-29 -43 0
-29 -42 0
-29 -38 0
-29 -32 0
-28 -56 0
-28 -52 0
-28 -51 0
-28 -45 0
-28 -44 0
-28 -40 0
-28 -37 0
-28 -36 0
-28 -35 0
-27 -54 0
-27 -50 0
-27 -45 0
-27 -40 0
-27 -39 0
-27 -32 0
-27 -31 0
-27 -30 0
-26 -55 0
-26 -54 0
-26 -51 0
-26 -40 0
-26 -33 0
-26 -31 0
-26 -27 0
-25 -56 0
-25 -50 0
-25 -48 0
-25 -47 0
-25 -38 0
-25 -35 0
-25 -34 0
-25 -33 0
-25 -29 0
-24 -54 0
-24 -53 0
-24 -50 0
-24 -48 0
-24 -43 0
-24 -35 0
-24 -34 0
-24 -33 0
-24 -25 0
-23 -55 0
-23 -49 0
-23 -39 0
-23 -38 0
-22 -54 0
-22 -46 0
-22 -42 0
-22 -40 0
-22 -34 0
-22 -31 0
-22 -27 0
-22 -26 0
-21 -55 0
-21 -51 0
-21 -41 0
-21 -37 0
-21 -33 0
-21 -30 0
-21 -26 0
-20 -54 0
-20 -40 0
-20 -31 0
-20 -27 0
-20 -26 0
-20 -23 0
-20 -22 0
-19 -52 0
-19 -49 0
-19 -48 0
-19 -44 0
-19 -43 0
-19 -42 0
-19 -41 0
-19 -32 0
-19 -31 0
-19 -29 0
-18 -53 0
-18 -52 0
-18 -49 0
-18 -48 0
-18 -47 0
-18 -46 0
-18 -41 0
-18 -36 0
-18 -31 0
-18 -19 0
-17 -56 0
-17 -54 0
-17 -47 0
-17 -40 0
-17 -38 0
-17 -31 0
-17 -29 0
-17 -27 0
-17 -26 0
-17 -25 0
-17 -22 0
-17 -20 0
-16 -55 0
-16 -54 0
-16 -53 0
-16 -49 0
-16 -43 0
-16 -39 0
-16 -38 0
-16 -24 0
-16 -23 0
-15 -44 0
-15 -43 0
-15 -42 0
-15 -32 0
-15 -29 0
-15 -23 0
-15 -20 0
-15 -19 0
-14 -50 0
-14 -48 0
-14 -35 0
-14 -34 0
-14 -33 0
-14 -25 0
-14 -24 0
-14 -23 0
-14 -20 0
-14 -15 0
-13 -55 0
-13 -51 0
-13 -44 0
-13 -43 0
-13 -42 0
-13 -33 0
-13 -32 0
-13 -29 0
-13 -26 0
-13 -21 0
-13 -19 0
-13 -15 0
-12 -55 0
-12 -53 0
-12 -51 0
-12 -47 0
-12 -46 0
-12 -36 0
-12 -33 0
-12 -26 0
-12 -21 0
-12 -18 0
-12 -13 0
-11 -56 0
-11 -52 0
-11 -51 0
-11 -46 0
-11 -45 0
-11 -42 0
-11 -34 0
-11 -28 0
-11 -22 0
-10 -54 0
-10 -53 0
-10 -43 0
-10 -41 0
-10 -37 0
-10 -30 0
-10 -24 0
-10 -21 0
-10 -16 0
-9 -56 0
-9 -54 0
-9 -53 0
-9 -52 0
-9 -51 0
-9 -45 0
-9 -43 0
-9 -28 0
-9 -24 0
-9 -16 0
-9 -11 0
-9 -10 0
-8 -41 0
-8 -37 0
-8 -30 0
-8 -23 0
-8 -21 0
-8 -20 0
-8 -15 0
-8 -14 0
-8 -10 0
-7 -55 0
-7 -49 0
-7 -46 0
-7 -42 0
-7 -39 0
-7 -38 0
-7 -34 0
-7 -23 0
-7 -22 0
-7 -16 0
-7 -11 0
-6 -56 0
-6 -52 0
-6 -51 0
-6 -45 0
-6 -28 0
-6 -23 0
-6 -20 0
-6 -15 0
-6 -14 0
-6 -11 0
-6 -9 0
-6 -8 0
-5 -46 0
-5 -42 0
-5 -41 0
-5 -37 0
-5 -34 0
-5 -30 0
-5 -22 0
-5 -21 0
-5 -11 0
-5 -10 0
-5 -8 0
-5 -7 0
-4 -56 0
-4 -47 0
-4 -41 0
-4 -38 0
-4 -37 0
-4 -30 0
-4 -29 0
-4 -25 0
-4 -21 0
-4 -17 0
-4 -10 0
-4 -8 0
-4 -5 0
-3 -55 0
-3 -49 0
-3 -44 0
-3 -40 0
-3 -39 0
-3 -38 0
-3 -37 0
-3 -36 0
-3 -35 0
-3 -28 0
-3 -23 0
-3 -16 0
-3 -7 0
-2 -53 0
-2 -50 0
-2 -47 0
-2 -46 0
-2 -45 0
-2 -39 0
-2 -36 0
-2 -32 0
-2 -30 0
-2 -27 0
-2 -18 0
-2 -12 0
-1 -53 0
-1 -47 0
-1 -46 0
-1 -36 0
-1 -23 0
-1 -20 0
-1 -18 0
-1 -15 0
-1 -14 0
-1 -12 0
-1 -8 0
-1 -6 0
-1 -2 0
1 6 8 14 15 20 23 0
2 27 30 32 39 45 50 0
3 28 35 36 37 40 44 0
4 17 25 29 38 47 56 0
5 7 11 22 34 42 46 0
9 10 16 24 43 53 54 0
12 13 21 26 33 51 55 0
18 19 31 41 48 49 52 0
