p cnf 56 372
-53 -54 0
-51 -56 0
-50 -56 0
-49 -51 0
-48 -56 0
-48 -52 0
-48 -50 0
-47 -56 0
-47 -54 0
-47 -53 0
-47 -50 0
-47 -48 0
-46 -56 0
-46 -54 0
-46 -51 0
-45 -52 0
-44 -54 0
-44 -49 0
-44 -46 0
-43 -51 0
-43 -50 0
-43 -49 0
-42 -56 0
-42 -55 0
-42 -51 0
-42 -46 0
-41 -56 0
-41 -55 0
-41 -50 0
-41 -48 0
-41 -47 0
-40 -51 0
-40 -49 0
-40 -43 0
-39 -52 0
-39 -51 0
-39 -49 0
-39 -48 0
-39 -43 0
-39 -40 0
-38 -56 0
-38 -53 0
-38 -51 0
-38 -46 0
-38 -42 0
-37 -54 0
-37 -46 0
-37 -44 0
-37 -40 0
-36 -53 0
-36 -50 0
-36 -43 0
-36 -38 0
-35 -55 0
-35 -51 0
-35 -49 0
-35 -43 0
-35 -41 0
-35 -40 0
-35 -39 0
-34 -40 0
-34 -37 0
-33 -54 0
-33 -53 0
-33 -51 0
-33 -49 0
-33 -47 0
-33 -43 0
-33 -40 0
-33 -39 0
-33 -35 0
-32 -55 0
-32 -54 0
-32 -46 0
-32 -44 0
-32 -41 0
-32 -37 0
-32 -35 0
-31 -53 0
-31 -52 0
-31 -48 0
-31 -39 0
-31 -38 0
-31 -36 0
-30 -53 0
-30 -49 0
-30 -44 0
-30 -38 0
-30 -36 0
-30 -31 0
-29 -56 0
-29 -50 0
-29 -48 0
-29 -47 0
-29 -41 0
-29 -40 0
-29 -37 0
-29 -34 0
-28 -56 0
-28 -50 0
-28 -48 0
-28 -47 0
-28 -45 0
-28 -41 0
-28 -29 0
-27 -55 0
-27 -50 0
-27 -43 0
-27 -42 0
-27 -36 0
-26 -54 0
-26 -53 0
-26 -52 0
-26 -47 0
-26 -45 0
-26 -33 0
-25 -55 0
-25 -41 0
-25 -35 0
-25 -34 0
-25 -32 0
-24 -52 0
-24 -48 0
-24 -39 0
-24 -34 0
-24 -31 0
-24 -25 0
-23 -55 0
-23 -49 0
-23 -44 0
-23 -42 0
-23 -30 0
-23 -27 0
-22 -55 0
-22 -53 0
-22 -41 0
-22 -38 0
-22 -36 0
-22 -35 0
-22 -32 0
-22 -31 0
-22 -30 0
-22 -25 0
-21 -56 0
-21 -50 0
-21 -49 0
-21 -48 0
-21 -47 0
-21 -44 0
-21 -41 0
-21 -30 0
-21 -29 0
-21 -28 0
-21 -23 0
-20 -52 0
-20 -45 0
-20 -40 0
-20 -37 0
-20 -34 0
-20 -29 0
-20 -26 0
-19 -54 0
-19 -52 0
-19 -48 0
-19 -46 0
-19 -44 0
-19 -39 0
-19 -37 0
-19 -32 0
-19 -31 0
-19 -24 0
-18 -55 0
-18 -52 0
-18 -45 0
-18 -41 0
-18 -35 0
-18 -32 0
-18 -26 0
-18 -25 0
-18 -22 0
-18 -20 0
-17 -56 0
-17 -52 0
-17 -51 0
-17 -46 0
-17 -45 0
-17 -42 0
-17 -38 0
-17 -26 0
-17 -20 0
-17 -18 0
-16 -49 0
-16 -44 0
-16 -34 0
-16 -30 0
-16 -25 0
-16 -24 0
-16 -23 0
-16 -21 0
-15 -53 0
-15 -45 0
-15 -38 0
-15 -36 0
-15 -31 0
-15 -30 0
-15 -28 0
-15 -22 0
-14 -55 0
-14 -42 0
-14 -40 0
-14 -37 0
-14 -34 0
-14 -29 0
-14 -27 0
-14 -23 0
-14 -20 0
-13 -53 0
-13 -40 0
-13 -38 0
-13 -37 0
-13 -36 0
-13 -34 0
-13 -31 0
-13 -30 0
-13 -29 0
-13 -22 0
-13 -20 0
-13 -15 0
-13 -14 0
-12 -50 0
-12 -43 0
-12 -36 0
-12 -34 0
-12 -27 0
-12 -25 0
-12 -24 0
-12 -16 0
-11 -56 0
-11 -51 0
-11 -46 0
-11 -42 0
-11 -38 0
-11 -34 0
-11 -25 0
-11 -24 0
-11 -17 0
-11 -16 0
-11 -12 0
-10 -55 0
-10 -54 0
-10 -53 0
-10 -47 0
-10 -42 0
-10 -33 0
-10 -27 0
-10 -26 0
-10 -23 0
-10 -14 0
-9 -52 0
-9 -50 0
-9 -45 0
-9 -43 0
-9 -36 0
-9 -27 0
-9 -26 0
-9 -20 0
-9 -18 0
-9 -17 0
-9 -12 0
-8 -54 0
-8 -46 0
-8 -45 0
-8 -44 0
-8 -37 0
-8 -32 0
-8 -28 0
-8 -19 0
-8 -15 0
-7 -54 0
-7 -53 0
-7 -47 0
-7 -34 0
-7 -33 0
-7 -26 0
-7 -25 0
-7 -24 0
-7 -16 0
-7 -12 0
-7 -11 0
-7 -10 0
-6 -55 0
-6 -52 0
-6 -48 0
-6 -42 0
-6 -39 0
-6 -31 0
-6 -27 0
-6 -24 0
-6 -23 0
-6 -19 0
-6 -14 0
-6 -10 0
-5 -51 0
-5 -49 0
-5 -45 0
-5 -43 0
-5 -40 0
-5 -39 0
-5 -35 0
-5 -33 0
-5 -28 0
-5 -15 0
-5 -8 0
-4 -45 0
-4 -34 0
-4 -28 0
-4 -25 0
-4 -24 0
-4 -16 0
-4 -15 0
-4 -12 0
-4 -11 0
-4 -8 0
-4 -7 0
-4 -5 0
-3 -54 0
-3 -50 0
-3 -46 0
-3 -44 0
-3 -43 0
-3 -37 0
-3 -36 0
-3 -32 0
-3 -27 0
-3 -19 0
-3 -12 0
-3 -9 0
-3 -8 0
-2 -52 0
-2 -49 0
-2 -45 0
-2 -44 0
-2 -30 0
-2 -26 0
-2 -23 0
-2 -21 0
-2 -20 0
-2 -18 0
-2 -17 0
-2 -16 0
-2 -9 0
-1 -55 0
-1 -45 0
-1 -42 0
-1 -28 0
-1 -27 0
-1 -23 0
-1 -15 0
-1 -14 0
-1 -10 0
-1 -8 0
-1 -6 0
-1 -5 0
-1 -4 0
1 4 5 8 15 28 45 0
2 16 21 23 30 44 49 0
3 9 12 27 36 43 50 0
6 19 24 31 39 48 52 0
7 10 26 33 47 53 54 0
11 17 38 42 46 51 56 0
13 14 20 29 34 37 40 0
18 22 25 32 35 41 55 0
