p cnf 56 372
-54 -55 0
-53 -56 0
-51 -56 0
-51 -53 0
-50 -53 0
-49 -53 0
-49 -52 0
-49 -50 0
-47 -53 0
-47 -50 0
-47 -49 0
-46 -56 0
-46 -47 0
-45 -48 0
-44 -52 0
-44 -51 0
-44 -49 0
-43 -53 0
-43 -50 0
-43 -49 0
-43 -47 0
-43 -45 0
-42 -56 0
-42 -54 0
-42 -53 0
-42 -51 0
-41 -52 0
-41 -47 0
-41 -46 0
-40 -51 0
-40 -45 0
-40 -44 0
-40 -43 0
-39 -52 0
-39 -45 0
-39 -43 0
-39 -41 0
-39 -40 0
-38 -54 0
-38 -47 0
-38 -46 0
-38 -42 0
-38 -41 0
-37 -55 0
-36 -55 0
-36 -54 0
-36 -48 0
-36 -45 0
-35 -55 0
-35 -54 0
-35 -52 0
-35 -41 0
-35 -39 0
-35 -36 0
-34 -56 0
-34 -46 0
-34 -37 0
-33 -56 0
-33 -53 0
-33 -52 0
-33 -51 0
-33 -42 0
-33 -41 0
-33 -39 0
-33 -35 0
-32 -55 0
-32 -48 0
-32 -37 0
-31 -54 0
-31 -50 0
-31 -42 0
-31 -38 0
-30 -48 0
-30 -45 0
-30 -37 0
-30 -36 0
-30 -34 0
-29 -54 0
-29 -48 0
-29 -42 0
-29 -38 0
-29 -32 0
-29 -31 0
-28 -50 0
-28 -48 0
-28 -45 0
-28 -36 0
-28 -31 0
-28 -30 0
-27 -53 0
-27 -50 0
-27 -49 0
-27 -47 0
-27 -43 0
-27 -37 0
-27 -34 0
-27 -30 0
-26 -55 0
-26 -52 0
-26 -49 0
-26 -44 0
-26 -37 0
-26 -32 0
-25 -52 0
-25 -48 0
-25 -41 0
-25 -39 0
-25 -35 0
-25 -33 0
-25 -32 0
-25 -29 0
-24 -56 0
-24 -50 0
-24 -46 0
-24 -34 0
-24 -31 0
-24 -28 0
-23 -54 0
-23 -52 0
-23 -49 0
-23 -44 0
-23 -42 0
-23 -38 0
-23 -31 0
-23 -29 0
-23 -26 0
-22 -56 0
-22 -55 0
-22 -54 0
-22 -46 0
-22 -36 0
-22 -35 0
-22 -34 0
-22 -24 0
-21 -55 0
-21 -54 0
-21 -51 0
-21 -44 0
-21 -40 0
-21 -36 0
-21 -35 0
-21 -22 0
-20 -53 0
-20 -50 0
-20 -49 0
-20 -48 0
-20 -47 0
-20 -43 0
-20 -32 0
-20 -29 0
-20 -27 0
-20 -25 0
-19 -56 0
-19 -53 0
-19 -51 0
-19 -48 0
-19 -45 0
-19 -42 0
-19 -36 0
-19 -33 0
-19 -30 0
-19 -28 0
-18 -55 0
-18 -45 0
-18 -43 0
-18 -40 0
-18 -39 0
-18 -37 0
-18 -32 0
-18 -26 0
-17 -52 0
-17 -41 0
-17 -39 0
-17 -37 0
-17 -35 0
-17 -34 0
-17 -33 0
-17 -30 0
-17 -27 0
-17 -25 0
-16 -51 0
-16 -47 0
-16 -46 0
-16 -44 0
-16 -41 0
-16 -40 0
-16 -38 0
-16 -21 0
-15 -51 0
-15 -44 0
-15 -40 0
-15 -37 0
-15 -34 0
-15 -30 0
-15 -27 0
-15 -21 0
-15 -17 0
-15 -16 0
-14 -51 0
-14 -48 0
-14 -44 0
-14 -40 0
-14 -32 0
-14 -29 0
-14 -25 0
-14 -21 0
-14 -20 0
-14 -16 0
-14 -15 0
-13 -56 0
-13 -52 0
-13 -49 0
-13 -46 0
-13 -44 0
-13 -34 0
-13 -26 0
-13 -24 0
-13 -23 0
-13 -22 0
-12 -48 0
-12 -47 0
-12 -46 0
-12 -45 0
-12 -41 0
-12 -38 0
-12 -36 0
-12 -30 0
-12 -28 0
-12 -19 0
-12 -16 0
-11 -56 0
-11 -46 0
-11 -45 0
-11 -43 0
-11 -40 0
-11 -39 0
-11 -34 0
-11 -24 0
-11 -22 0
-11 -18 0
-11 -13 0
-10 -55 0
-10 -50 0
-10 -37 0
-10 -32 0
-10 -31 0
-10 -28 0
-10 -26 0
-10 -24 0
-10 -18 0
-9 -52 0
-9 -49 0
-9 -48 0
-9 -45 0
-9 -44 0
-9 -36 0
-9 -30 0
-9 -28 0
-9 -26 0
-9 -23 0
-9 -19 0
-9 -13 0
-9 -12 0
-8 -52 0
-8 -50 0
-8 -41 0
-8 -39 0
-8 -35 0
-8 -33 0
-8 -31 0
-8 -28 0
-8 -25 0
-8 -24 0
-8 -17 0
-8 -10 0
-7 -56 0
-7 -55 0
-7 -53 0
-7 -51 0
-7 -42 0
-7 -37 0
-7 -33 0
-7 -32 0
-7 -26 0
-7 -19 0
-7 -18 0
-7 -10 0
-6 -55 0
-6 -54 0
-6 -53 0
-6 -50 0
-6 -49 0
-6 -47 0
-6 -43 0
-6 -36 0
-6 -35 0
-6 -27 0
-6 -22 0
-6 -21 0
-6 -20 0
-5 -51 0
-5 -50 0
-5 -44 0
-5 -40 0
-5 -31 0
-5 -28 0
-5 -24 0
-5 -21 0
-5 -16 0
-5 -15 0
-5 -14 0
-5 -10 0
-5 -8 0
-4 -55 0
-4 -47 0
-4 -46 0
-4 -41 0
-4 -38 0
-4 -37 0
-4 -32 0
-4 -26 0
-4 -18 0
-4 -16 0
-4 -12 0
-4 -10 0
-4 -7 0
-3 -54 0
-3 -45 0
-3 -43 0
-3 -42 0
-3 -40 0
-3 -39 0
-3 -38 0
-3 -31 0
-3 -29 0
-3 -23 0
-3 -18 0
-3 -11 0
-2 -54 0
-2 -42 0
-2 -38 0
-2 -37 0
-2 -34 0
-2 -31 0
-2 -30 0
-2 -29 0
-2 -27 0
-2 -23 0
-2 -17 0
-2 -15 0
-2 -3 0
-1 -56 0
-1 -48 0
-1 -46 0
-1 -34 0
-1 -32 0
-1 -29 0
-1 -25 0
-1 -24 0
-1 -22 0
-1 -20 0
-1 -14 0
-1 -13 0
-1 -11 0
1 14 20 25 29 32 48 0
2 15 17 27 30 34 37 0
3 11 18 39 40 43 45 0
4 12 16 38 41 46 47 0
5 8 10 24 28 31 50 0
6 21 22 35 36 54 55 0
7 19 33 42 51 53 56 0
9 13 23 26 44 49 52 0
