p cnf 56 372
-53 -56 0
-51 -53 0
-50 -56 0
-47 -55 0
-47 -49 0
-46 -56 0
-46 -50 0
-46 -49 0
-46 -47 0
-45 -56 0
-45 -53 0
-45 -48 0
-44 -52 0
-44 -50 0
-43 -55 0
-43 -54 0
-42 -49 0
-42 -48 0
-42 -47 0
-42 -46 0
-42 -45 0
-41 -55 0
-41 -48 0
-41 -45 0
-41 -43 0
-41 -42 0
-40 -56 0
-40 -54 0
-40 -50 0
-40 -46 0
-39 -56 0
-39 -52 0
-39 -50 0
-39 -46 0
-39 -40 0
-38 -55 0
-38 -50 0
-38 -47 0
-38 -44 0
-37 -51 0
-37 -48 0
-37 -45 0
-37 -42 0
-37 -41 0
-36 -53 0
-36 -51 0
-36 -50 0
-36 -44 0
-36 -38 0
-35 -56 0
-35 -55 0
-35 -50 0
-35 -46 0
-35 -43 0
-35 -41 0
-35 -40 0
-35 -39 0
-34 -54 0
-34 -51 0
-34 -43 0
-34 -37 0
-33 -52 0
-33 -48 0
-33 -44 0
-32 -49 0
-32 -48 0
-32 -33 0
-31 -55 0
-31 -53 0
-31 -51 0
-31 -43 0
-31 -41 0
-31 -36 0
-31 -35 0
-30 -53 0
-30 -52 0
-30 -51 0
-30 -39 0
-30 -36 0
-30 -31 0
-29 -50 0
-29 -49 0
-29 -44 0
-29 -38 0
-29 -36 0
-29 -32 0
-28 -54 0
-28 -48 0
-28 -45 0
-28 -42 0
-28 -41 0
-28 -40 0
-28 -37 0
-27 -55 0
-27 -52 0
-27 -44 0
-27 -43 0
-27 -41 0
-27 -35 0
-27 -33 0
-27 -31 0
-26 -56 0
-26 -53 0
-26 -49 0
-26 -45 0
-26 -32 0
-26 -29 0
-25 -56 0
-25 -51 0
-25 -50 0
-25 -46 0
-25 -40 0
-25 -39 0
-25 -37 0
-25 -35 0
-25 -34 0
-24 -56 0
-24 -55 0
-24 -53 0
-24 -47 0
-24 -45 0
-24 -38 0
-24 -26 0
-23 -51 0
-23 -49 0
-23 -37 0
-23 -34 0
-23 -32 0
-23 -29 0
-23 -26 0
-23 -25 0
-22 -55 0
-22 -51 0
-22 -47 0
-22 -38 0
-22 -37 0
-22 -34 0
-22 -25 0
-22 -24 0
-22 -23 0
-21 -55 0
-21 -48 0
-21 -47 0
-21 -38 0
-21 -33 0
-21 -32 0
-21 -24 0
-21 -22 0
-20 -56 0
-20 -53 0
-20 -52 0
-20 -45 0
-20 -44 0
-20 -33 0
-20 -27 0
-20 -26 0
-20 -24 0
-19 -56 0
-19 -54 0
-19 -53 0
-19 -45 0
-19 -43 0
-19 -34 0
-19 -26 0
-19 -24 0
-19 -20 0
-18 -52 0
-18 -48 0
-18 -45 0
-18 -42 0
-18 -41 0
-18 -39 0
-18 -37 0
-18 -30 0
-18 -28 0
-17 -55 0
-17 -49 0
-17 -43 0
-17 -41 0
-17 -35 0
-17 -32 0
-17 -31 0
-17 -29 0
-17 -27 0
-17 -26 0
-17 -23 0
-16 -54 0
-16 -52 0
-16 -43 0
-16 -39 0
-16 -34 0
-16 -30 0
-16 -19 0
-16 -18 0
-15 -56 0
-15 -50 0
-15 -48 0
-15 -46 0
-15 -40 0
-15 -39 0
-15 -35 0
-15 -33 0
-15 -32 0
-15 -25 0
-15 -21 0
-14 -55 0
-14 -54 0
-14 -47 0
-14 -40 0
-14 -38 0
-14 -28 0
-14 -24 0
-14 -22 0
-14 -21 0
-13 -52 0
-13 -49 0
-13 -39 0
-13 -32 0
-13 -30 0
-13 -29 0
-13 -26 0
-13 -23 0
-13 -18 0
-13 -17 0
-13 -16 0
-12 -52 0
-12 -49 0
-12 -47 0
-12 -46 0
-12 -44 0
-12 -42 0
-12 -33 0
-12 -27 0
-12 -20 0
-11 -50 0
-11 -48 0
-11 -45 0
-11 -44 0
-11 -42 0
-11 -41 0
-11 -38 0
-11 -37 0
-11 -36 0
-11 -29 0
-11 -28 0
-11 -18 0
-10 -55 0
-10 -52 0
-10 -47 0
-10 -39 0
-10 -38 0
-10 -30 0
-10 -24 0
-10 -22 0
-10 -21 0
-10 -18 0
-10 -16 0
-10 -14 0
-10 -13 0
-9 -54 0
-9 -48 0
-9 -43 0
-9 -34 0
-9 -33 0
-9 -32 0
-9 -21 0
-9 -19 0
-9 -16 0
-9 -15 0
-8 -53 0
-8 -51 0
-8 -49 0
-8 -47 0
-8 -46 0
-8 -42 0
-8 -36 0
-8 -31 0
-8 -30 0
-8 -12 0
-7 -54 0
-7 -53 0
-7 -51 0
-7 -40 0
-7 -36 0
-7 -31 0
-7 -30 0
-7 -28 0
-7 -14 0
-7 -8 0
-6 -53 0
-6 -51 0
-6 -48 0
-6 -36 0
-6 -33 0
-6 -32 0
-6 -31 0
-6 -30 0
-6 -21 0
-6 -15 0
-6 -9 0
-6 -8 0
-6 -7 0
-5 -52 0
-5 -51 0
-5 -44 0
-5 -37 0
-5 -34 0
-5 -33 0
-5 -27 0
-5 -25 0
-5 -23 0
-5 -22 0
-5 -20 0
-5 -12 0
-4 -54 0
-4 -49 0
-4 -40 0
-4 -32 0
-4 -29 0
-4 -28 0
-4 -26 0
-4 -23 0
-4 -17 0
-4 -14 0
-4 -13 0
-4 -7 0
-3 -54 0
-3 -49 0
-3 -47 0
-3 -46 0
-3 -43 0
-3 -42 0
-3 -34 0
-3 -19 0
-3 -16 0
-3 -12 0
-3 -9 0
-3 -8 0
-2 -54 0
-2 -50 0
-2 -44 0
-2 -43 0
-2 -38 0
-2 -36 0
-2 -34 0
-2 -29 0
-2 -19 0
-2 -16 0
-2 -11 0
-2 -9 0
-2 -3 0
-1 -54 0
-1 -52 0
-1 -44 0
-1 -40 0
-1 -33 0
-1 -28 0
-1 -27 0
-1 -20 0
-1 -14 0
-1 -12 0
-1 -7 0
-1 -5 0
-1 -4 0
1 4 7 14 28 40 54 0
2 11 29 36 38 44 50 0
3 8 12 42 46 47 49 0
5 22 23 25 34 37 51 0
6 9 15 21 32 33 48 0
10 13 16 18 30 39 52 0
17 27 31 35 41 43 55 0
19 20 24 26 45 53 56 0
