p cnf 56 372
-51 -56 0
-51 -53 0
-50 -54 0
-49 -54 0
-49 -50 0
-48 -55 0
-48 -53 0
-48 -51 0
-47 -55 0
-47 -54 0
-47 -50 0
-47 -49 0
-47 -48 0
-46 -55 0
-45 -56 0
-45 -51 0
-44 -55 0
-44 -52 0
-44 -46 0
-43 -49 0
-43 -45 0
-42 -54 0
-41 -56 0
-41 -54 0
-41 -42 0
-40 -55 0
-40 -48 0
-40 -47 0
-40 -45 0
-40 -43 0
-39 -56 0
-39 -55 0
-39 -51 0
-39 -46 0
-39 -45 0
-39 -44 0
-38 -56 0
-38 -46 0
-38 -41 0
-37 -54 0
-37 -53 0
-37 -51 0
-37 -48 0
-37 -42 0
-37 -41 0
-36 -56 0
-36 -54 0
-36 -51 0
-36 -50 0
-36 -49 0
-36 -47 0
-36 -45 0
-36 -39 0
-35 -53 0
-35 -52 0
-34 -53 0
-34 -42 0
-34 -35 0
-33 -46 0
-33 -45 0
-33 -43 0
-33 -40 0
-33 -38 0
-32 -49 0
-32 -43 0
-32 -42 0
-32 -34 0
-31 -53 0
-31 -52 0
-31 -51 0
-31 -48 0
-31 -44 0
-31 -37 0
-30 -53 0
-30 -51 0
-30 -49 0
-30 -48 0
-30 -43 0
-30 -37 0
-30 -32 0
-30 -31 0
-29 -55 0
-29 -53 0
-29 -46 0
-29 -44 0
-29 -39 0
-29 -35 0
-29 -34 0
-28 -56 0
-28 -50 0
-28 -41 0
-28 -38 0
-27 -54 0
-27 -52 0
-27 -50 0
-27 -49 0
-27 -47 0
-27 -44 0
-27 -36 0
-27 -31 0
-26 -56 0
-26 -51 0
-26 -45 0
-26 -42 0
-26 -39 0
-26 -36 0
-26 -34 0
-26 -32 0
-25 -46 0
-25 -42 0
-25 -38 0
-25 -34 0
-25 -33 0
-25 -32 0
-25 -26 0
-24 -52 0
-24 -50 0
-24 -35 0
-24 -28 0
-23 -55 0
-23 -52 0
-23 -48 0
-23 -47 0
-23 -40 0
-23 -35 0
-23 -24 0
-22 -56 0
-22 -52 0
-22 -51 0
-22 -45 0
-22 -39 0
-22 -36 0
-22 -35 0
-22 -26 0
-22 -24 0
-22 -23 0
-21 -54 0
-21 -53 0
-21 -50 0
-21 -49 0
-21 -47 0
-21 -36 0
-21 -35 0
-21 -34 0
-21 -29 0
-21 -27 0
-20 -52 0
-20 -45 0
-20 -44 0
-20 -43 0
-20 -40 0
-20 -33 0
-20 -31 0
-20 -27 0
-19 -54 0
-19 -45 0
-19 -43 0
-19 -42 0
-19 -41 0
-19 -40 0
-19 -37 0
-19 -33 0
-19 -20 0
-18 -50 0
-18 -42 0
-18 -34 0
-18 -32 0
-18 -28 0
-18 -26 0
-18 -25 0
-18 -24 0
-17 -54 0
-17 -52 0
-17 -42 0
-17 -41 0
-17 -37 0
-17 -35 0
-17 -24 0
-17 -23 0
-17 -22 0
-17 -19 0
-16 -55 0
-16 -48 0
-16 -47 0
-16 -42 0
-16 -40 0
-16 -34 0
-16 -32 0
-16 -26 0
-16 -25 0
-16 -23 0
-16 -18 0
-15 -53 0
-15 -45 0
-15 -43 0
-15 -40 0
-15 -35 0
-15 -34 0
-15 -33 0
-15 -29 0
-15 -21 0
-15 -20 0
-15 -19 0
-14 -56 0
-14 -53 0
-14 -41 0
-14 -38 0
-14 -35 0
-14 -34 0
-14 -29 0
-14 -28 0
-14 -21 0
-14 -15 0
-13 -55 0
-13 -50 0
-13 -46 0
-13 -44 0
-13 -39 0
-13 -29 0
-13 -28 0
-13 -24 0
-13 -18 0
-12 -55 0
-12 -49 0
-12 -46 0
-12 -44 0
-12 -43 0
-12 -39 0
-12 -32 0
-12 -30 0
-12 -29 0
-12 -13 0
-11 -56 0
-11 -52 0
-11 -44 0
-11 -41 0
-11 -38 0
-11 -31 0
-11 -28 0
-11 -27 0
-11 -20 0
-11 -14 0
-10 -50 0
-10 -45 0
-10 -43 0
-10 -40 0
-10 -33 0
-10 -28 0
-10 -24 0
-10 -20 0
-10 -19 0
-10 -18 0
-10 -15 0
-10 -13 0
-9 -53 0
-9 -51 0
-9 -48 0
-9 -46 0
-9 -38 0
-9 -37 0
-9 -33 0
-9 -31 0
-9 -30 0
-9 -25 0
-8 -52 0
-8 -44 0
-8 -42 0
-8 -34 0
-8 -32 0
-8 -31 0
-8 -27 0
-8 -26 0
-8 -25 0
-8 -20 0
-8 -18 0
-8 -16 0
-8 -11 0
-7 -52 0
-7 -46 0
-7 -38 0
-7 -35 0
-7 -33 0
-7 -25 0
-7 -24 0
-7 -23 0
-7 -22 0
-7 -17 0
-7 -9 0
-6 -52 0
-6 -49 0
-6 -43 0
-6 -35 0
-6 -32 0
-6 -30 0
-6 -24 0
-6 -23 0
-6 -22 0
-6 -17 0
-6 -12 0
-6 -7 0
-5 -56 0
-5 -55 0
-5 -48 0
-5 -47 0
-5 -41 0
-5 -40 0
-5 -38 0
-5 -28 0
-5 -23 0
-5 -16 0
-5 -14 0
-5 -11 0
-4 -55 0
-4 -54 0
-4 -46 0
-4 -44 0
-4 -42 0
-4 -41 0
-4 -39 0
-4 -37 0
-4 -29 0
-4 -19 0
-4 -17 0
-4 -13 0
-4 -12 0
-3 -53 0
-3 -51 0
-3 -50 0
-3 -48 0
-3 -37 0
-3 -31 0
-3 -30 0
-3 -28 0
-3 -24 0
-3 -18 0
-3 -13 0
-3 -10 0
-3 -9 0
-2 -56 0
-2 -49 0
-2 -43 0
-2 -41 0
-2 -38 0
-2 -32 0
-2 -30 0
-2 -28 0
-2 -14 0
-2 -12 0
-2 -11 0
-2 -6 0
-2 -5 0
-1 -54 0
-1 -50 0
-1 -49 0
-1 -47 0
-1 -46 0
-1 -38 0
-1 -36 0
-1 -33 0
-1 -27 0
-1 -25 0
-1 -21 0
-1 -9 0
-1 -7 0
1 7 9 25 33 38 46 0
2 6 12 30 32 43 49 0
3 10 13 18 24 28 50 0
4 17 19 37 41 42 54 0
5 16 23 40 47 48 55 0
8 11 20 27 31 44 52 0
14 15 21 29 34 35 53 0
22 26 36 39 45 51 56 0
