p cnf 56 372
-54 -56 0
-53 -56 0
-53 -55 0
-53 -54 0
-51 -52 0
-50 -55 0
-48 -55 0
-48 -53 0
-48 -52 0
-48 -51 0
-47 -56 0
-47 -54 0
-47 -53 0
-47 -52 0
-46 -56 0
-45 -55 0
-45 -53 0
-45 -48 0
-44 -56 0
-44 -49 0
-44 -46 0
-43 -51 0
-42 -49 0
-42 -44 0
-41 -43 0
-41 -42 0
-40 -56 0
-40 -55 0
-40 -50 0
-40 -46 0
-40 -44 0
-39 -56 0
-39 -46 0
-39 -45 0
-39 -44 0
-39 -40 0
-38 -56 0
-38 -54 0
-38 -53 0
-38 -50 0
-38 -47 0
-37 -51 0
-37 -49 0
-37 -44 0
-37 -43 0
-37 -42 0
-36 -49 0
-36 -45 0
-36 -39 0
-35 -55 0
-35 -51 0
-35 -50 0
-35 -43 0
-35 -40 0
-35 -37 0
-34 -51 0
-34 -45 0
-34 -43 0
-34 -39 0
-34 -37 0
-34 -36 0
-34 -35 0
-33 -50 0
-33 -43 0
-33 -41 0
-33 -38 0
-32 -56 0
-32 -46 0
-32 -44 0
-32 -43 0
-32 -41 0
-32 -40 0
-32 -39 0
-32 -33 0
-31 -54 0
-31 -45 0
-31 -39 0
-31 -36 0
-31 -34 0
-30 -56 0
-30 -54 0
-30 -53 0
-30 -47 0
-30 -42 0
-30 -41 0
-30 -38 0
-29 -52 0
-29 -49 0
-29 -47 0
-29 -44 0
-29 -42 0
-29 -37 0
-28 -52 0
-28 -47 0
-28 -45 0
-28 -39 0
-28 -36 0
-28 -34 0
-28 -31 0
-28 -29 0
-27 -45 0
-27 -42 0
-27 -41 0
-27 -39 0
-27 -36 0
-27 -34 0
-27 -31 0
-27 -30 0
-27 -28 0
-26 -52 0
-26 -51 0
-26 -49 0
-26 -48 0
-26 -36 0
-25 -49 0
-25 -46 0
-25 -36 0
-25 -26 0
-24 -55 0
-24 -50 0
-24 -42 0
-24 -41 0
-24 -40 0
-24 -35 0
-24 -30 0
-24 -27 0
-23 -54 0
-23 -52 0
-23 -51 0
-23 -48 0
-23 -31 0
-23 -26 0
-22 -51 0
-22 -46 0
-22 -43 0
-22 -37 0
-22 -35 0
-22 -34 0
-22 -25 0
-21 -54 0
-21 -46 0
-21 -31 0
-21 -25 0
-21 -23 0
-21 -22 0
-20 -54 0
-20 -49 0
-20 -44 0
-20 -42 0
-20 -37 0
-20 -31 0
-20 -29 0
-20 -23 0
-20 -21 0
-19 -55 0
-19 -53 0
-19 -48 0
-19 -45 0
-19 -43 0
-19 -41 0
-19 -33 0
-19 -32 0
-18 -55 0
-18 -50 0
-18 -49 0
-18 -40 0
-18 -36 0
-18 -35 0
-18 -26 0
-18 -25 0
-18 -24 0
-17 -56 0
-17 -54 0
-17 -53 0
-17 -49 0
-17 -47 0
-17 -38 0
-17 -36 0
-17 -30 0
-17 -26 0
-17 -25 0
-17 -18 0
-16 -52 0
-16 -47 0
-16 -43 0
-16 -41 0
-16 -33 0
-16 -32 0
-16 -29 0
-16 -28 0
-16 -19 0
-15 -56 0
-15 -52 0
-15 -51 0
-15 -48 0
-15 -46 0
-15 -44 0
-15 -40 0
-15 -39 0
-15 -32 0
-15 -26 0
-15 -23 0
-14 -56 0
-14 -54 0
-14 -53 0
-14 -51 0
-14 -47 0
-14 -43 0
-14 -38 0
-14 -37 0
-14 -35 0
-14 -34 0
-14 -30 0
-14 -22 0
-14 -17 0
-13 -52 0
-13 -51 0
-13 -48 0
-13 -42 0
-13 -41 0
-13 -30 0
-13 -27 0
-13 -26 0
-13 -24 0
-13 -23 0
-13 -15 0
-12 -46 0
-12 -42 0
-12 -41 0
-12 -30 0
-12 -27 0
-12 -25 0
-12 -24 0
-12 -22 0
-12 -21 0
-12 -13 0
-11 -50 0
-11 -46 0
-11 -38 0
-11 -33 0
-11 -25 0
-11 -22 0
-11 -21 0
-11 -12 0
-10 -50 0
-10 -45 0
-10 -39 0
-10 -38 0
-10 -36 0
-10 -34 0
-10 -33 0
-10 -31 0
-10 -28 0
-10 -27 0
-10 -11 0
-9 -52 0
-9 -47 0
-9 -46 0
-9 -29 0
-9 -28 0
-9 -25 0
-9 -22 0
-9 -21 0
-9 -16 0
-9 -12 0
-9 -11 0
-8 -55 0
-8 -54 0
-8 -50 0
-8 -40 0
-8 -35 0
-8 -31 0
-8 -24 0
-8 -23 0
-8 -21 0
-8 -20 0
-8 -18 0
-7 -55 0
-7 -52 0
-7 -50 0
-7 -47 0
-7 -40 0
-7 -35 0
-7 -29 0
-7 -28 0
-7 -24 0
-7 -18 0
-7 -16 0
-7 -9 0
-7 -8 0
-6 -52 0
-6 -51 0
-6 -50 0
-6 -48 0
-6 -38 0
-6 -33 0
-6 -26 0
-6 -23 0
-6 -15 0
-6 -13 0
-6 -11 0
-6 -10 0
-5 -55 0
-5 -53 0
-5 -48 0
-5 -46 0
-5 -45 0
-5 -25 0
-5 -22 0
-5 -21 0
-5 -19 0
-5 -12 0
-5 -11 0
-5 -9 0
-4 -50 0
-4 -49 0
-4 -44 0
-4 -42 0
-4 -38 0
-4 -37 0
-4 -33 0
-4 -29 0
-4 -20 0
-4 -11 0
-4 -10 0
-4 -6 0
-3 -54 0
-3 -43 0
-3 -41 0
-3 -33 0
-3 -32 0
-3 -31 0
-3 -23 0
-3 -21 0
-3 -20 0
-3 -19 0
-3 -16 0
-3 -8 0
-2 -55 0
-2 -53 0
-2 -49 0
-2 -48 0
-2 -45 0
-2 -44 0
-2 -42 0
-2 -37 0
-2 -29 0
-2 -20 0
-2 -19 0
-2 -5 0
-2 -4 0
-1 -49 0
-1 -43 0
-1 -41 0
-1 -36 0
-1 -33 0
-1 -32 0
-1 -26 0
-1 -25 0
-1 -19 0
-1 -18 0
-1 -17 0
-1 -16 0
-1 -3 0
1 17 18 25 26 36 49 0
2 5 19 45 48 53 55 0
3 8 20 21 23 31 54 0
4 6 10 11 33 38 50 0
7 9 16 28 29 47 52 0
12 13 24 27 30 41 42 0
14 22 34 35 37 43 51 0
15 32 39 40 44 46 56 0
