p cnf 56 372
-54 -56 0
-51 -55 0
-50 -56 0
-50 -54 0
-50 -53 0
-48 -52 0
-47 -56 0
-47 -55 0
-47 -54 0
-47 -51 0
-47 -50 0
-46 -55 0
-45 -56 0
-44 -49 0
-44 -45 0
-43 -55 0
-43 -52 0
-43 -51 0
-43 -48 0
-43 -47 0
-42 -55 0
-42 -54 0
-42 -46 0
-41 -49 0
-41 -46 0
-40 -53 0
-40 -50 0
-40 -49 0
-40 -41 0
-39 -46 0
-39 -45 0
-39 -44 0
-39 -41 0
-38 -52 0
-38 -49 0
-38 -48 0
-38 -44 0
-38 -43 0
-37 -54 0
-37 -51 0
-37 -42 0
-36 -56 0
-36 -49 0
-36 -45 0
-36 -41 0
-36 -40 0
-35 -53 0
-35 -52 0
-34 -51 0
-34 -49 0
-34 -44 0
-34 -38 0
-34 -37 0
-33 -55 0
-33 -53 0
-33 -51 0
-33 -47 0
-33 -43 0
-33 -35 0
-32 -55 0
-32 -49 0
-32 -46 0
-32 -44 0
-32 -42 0
-32 -38 0
-32 -34 0
-31 -53 0
-31 -51 0
-31 -50 0
-31 -40 0
-31 -37 0
-31 -34 0
-30 -55 0
-30 -51 0
-30 -49 0
-30 -47 0
-30 -43 0
-30 -41 0
-30 -40 0
-30 -36 0
-30 -33 0
-29 -53 0
-29 -50 0
-29 -45 0
-29 -44 0
-29 -40 0
-29 -39 0
-29 -31 0
-28 -56 0
-28 -54 0
-28 -50 0
-28 -48 0
-28 -47 0
-27 -56 0
-27 -54 0
-27 -50 0
-27 -47 0
-27 -46 0
-27 -41 0
-27 -39 0
-27 -28 0
-26 -56 0
-26 -54 0
-26 -52 0
-26 -50 0
-26 -47 0
-26 -35 0
-26 -28 0
-26 -27 0
-25 -53 0
-25 -46 0
-25 -41 0
-25 -39 0
-25 -35 0
-25 -33 0
-25 -27 0
-24 -52 0
-24 -48 0
-24 -46 0
-24 -43 0
-24 -41 0
-24 -39 0
-24 -38 0
-24 -27 0
-24 -25 0
-23 -53 0
-23 -48 0
-23 -35 0
-23 -33 0
-23 -28 0
-23 -25 0
-22 -52 0
-22 -49 0
-22 -41 0
-22 -40 0
-22 -36 0
-22 -35 0
-22 -30 0
-22 -26 0
-21 -53 0
-21 -49 0
-21 -44 0
-21 -38 0
-21 -35 0
-21 -34 0
-21 -33 0
-21 -32 0
-21 -25 0
-21 -23 0
-20 -52 0
-20 -51 0
-20 -37 0
-20 -35 0
-20 -34 0
-20 -31 0
-20 -26 0
-20 -22 0
-19 -54 0
-19 -45 0
-19 -44 0
-19 -42 0
-19 -39 0
-19 -37 0
-19 -29 0
-18 -56 0
-18 -52 0
-18 -48 0
-18 -45 0
-18 -43 0
-18 -38 0
-18 -36 0
-18 -24 0
-17 -56 0
-17 -54 0
-17 -50 0
-17 -49 0
-17 -47 0
-17 -44 0
-17 -38 0
-17 -34 0
-17 -32 0
-17 -28 0
-17 -27 0
-17 -26 0
-17 -21 0
-16 -55 0
-16 -48 0
-16 -46 0
-16 -42 0
-16 -32 0
-16 -28 0
-16 -23 0
-15 -54 0
-15 -53 0
-15 -42 0
-15 -37 0
-15 -35 0
-15 -33 0
-15 -25 0
-15 -23 0
-15 -21 0
-15 -19 0
-14 -54 0
-14 -49 0
-14 -42 0
-14 -41 0
-14 -40 0
-14 -37 0
-14 -36 0
-14 -30 0
-14 -22 0
-14 -19 0
-14 -15 0
-13 -56 0
-13 -55 0
-13 -46 0
-13 -45 0
-13 -42 0
-13 -36 0
-13 -32 0
-13 -18 0
-13 -16 0
-12 -56 0
-12 -51 0
-12 -45 0
-12 -37 0
-12 -36 0
-12 -34 0
-12 -31 0
-12 -20 0
-12 -18 0
-12 -13 0
-11 -55 0
-11 -52 0
-11 -46 0
-11 -42 0
-11 -35 0
-11 -32 0
-11 -26 0
-11 -22 0
-11 -20 0
-11 -16 0
-11 -13 0
-10 -48 0
-10 -45 0
-10 -44 0
-10 -39 0
-10 -29 0
-10 -28 0
-10 -23 0
-10 -19 0
-10 -16 0
-9 -54 0
-9 -52 0
-9 -48 0
-9 -43 0
-9 -42 0
-9 -38 0
-9 -37 0
-9 -24 0
-9 -19 0
-9 -18 0
-9 -15 0
-9 -14 0
-8 -49 0
-8 -48 0
-8 -41 0
-8 -40 0
-8 -36 0
-8 -30 0
-8 -28 0
-8 -23 0
-8 -22 0
-8 -16 0
-8 -14 0
-8 -10 0
-7 -55 0
-7 -51 0
-7 -47 0
-7 -45 0
-7 -44 0
-7 -43 0
-7 -39 0
-7 -33 0
-7 -30 0
-7 -29 0
-7 -19 0
-7 -10 0
-6 -51 0
-6 -48 0
-6 -37 0
-6 -34 0
-6 -31 0
-6 -28 0
-6 -23 0
-6 -20 0
-6 -16 0
-6 -12 0
-6 -10 0
-6 -8 0
-5 -52 0
-5 -45 0
-5 -44 0
-5 -39 0
-5 -35 0
-5 -29 0
-5 -26 0
-5 -22 0
-5 -20 0
-5 -19 0
-5 -11 0
-5 -10 0
-5 -7 0
-4 -51 0
-4 -46 0
-4 -41 0
-4 -39 0
-4 -37 0
-4 -34 0
-4 -31 0
-4 -27 0
-4 -25 0
-4 -24 0
-4 -20 0
-4 -12 0
-4 -6 0
-3 -55 0
-3 -53 0
-3 -50 0
-3 -46 0
-3 -42 0
-3 -40 0
-3 -32 0
-3 -31 0
-3 -29 0
-3 -16 0
-3 -13 0
-3 -11 0
-2 -56 0
-2 -53 0
-2 -45 0
-2 -36 0
-2 -35 0
-2 -33 0
-2 -25 0
-2 -23 0
-2 -21 0
-2 -18 0
-2 -15 0
-2 -13 0
-2 -12 0
-1 -53 0
-1 -52 0
-1 -50 0
-1 -48 0
-1 -43 0
-1 -40 0
-1 -38 0
-1 -31 0
-1 -29 0
-1 -24 0
-1 -18 0
-1 -9 0
-1 -3 0
1 3 29 31 40 50 53 0
2 12 13 18 36 45 56 0
4 24 25 27 39 41 46 0
5 11 20 22 26 35 52 0
6 8 10 16 23 28 48 0
7 30 33 43 47 51 55 0
9 14 15 19 37 42 54 0
17 21 32 34 38 44 49 0
