p cnf 72 549
-69 -70 0
-67 -72 0
-65 -72 0
-65 -69 0
-64 -71 0
-64 -68 0
-63 -70 0
-63 -69 0
-63 -68 0
-63 -64 0
-62 -71 0
-61 -71 0
-61 -70 0
-61 -69 0
-61 -63 0
-61 -62 0
-60 -71 0
-60 -69 0
-60 -65 0
-60 -64 0
-59 -72 0
-59 -68 0
-59 -67 0
-58 -71 0
-58 -64 0
-58 -60 0
-57 -66 0
-56 -68 0
-56 -64 0
-56 -63 0
-56 -57 0
-55 -72 0
-55 -67 0
-55 -62 0
-55 -59 0
-54 -67 0
-53 -72 0
-53 -68 0
-53 -65 0
-53 -64 0
-53 -63 0
-53 -56 0
-52 -69 0
-52 -66 0
-52 -65 0
-52 -60 0
-51 -70 0
-51 -68 0
-51 -59 0
-50 -67 0
-50 -58 0
-50 -54 0
-49 -71 0
-49 -68 0
-49 -62 0
-49 -61 0
-49 -59 0
-49 -51 0
-48 -71 0
-48 -62 0
-48 -61 0
-48 -49 0
-47 -69 0
-47 -65 0
-47 -62 0
-47 -60 0
-47 -55 0
-47 -52 0
-46 -72 0
-46 -65 0
-46 -58 0
-46 -53 0
-46 -50 0
-45 -58 0
-45 -57 0
-45 -56 0
-45 -50 0
-45 -46 0
-44 -69 0
-44 -65 0
-44 -60 0
-44 -57 0
-44 -56 0
-44 -52 0
-44 -47 0
-44 -45 0
-43 -68 0
-43 -59 0
-43 -58 0
-43 -51 0
-43 -50 0
-43 -49 0
-43 -46 0
-43 -45 0
-42 -71 0
-42 -70 0
-42 -64 0
-42 -60 0
-42 -58 0
-42 -51 0
-41 -71 0
-41 -66 0
-41 -62 0
-41 -61 0
-41 -52 0
-41 -49 0
-41 -48 0
-40 -72 0
-40 -70 0
-40 -65 0
-40 -53 0
-40 -51 0
-40 -46 0
-40 -42 0
-39 -71 0
-39 -66 0
-39 -64 0
-39 -60 0
-39 -58 0
-39 -57 0
-39 -42 0
-38 -66 0
-38 -62 0
-38 -57 0
-38 -55 0
-38 -47 0
-38 -39 0
-37 -62 0
-37 -58 0
-37 -55 0
-37 -50 0
-37 -47 0
-37 -46 0
-37 -45 0
-37 -43 0
-37 -38 0
-36 -70 0
-36 -69 0
-36 -63 0
-36 -61 0
-36 -54 0
-35 -58 0
-35 -50 0
-35 -48 0
-35 -46 0
-35 -45 0
-35 -43 0
-35 -37 0
-34 -72 0
-34 -66 0
-34 -65 0
-34 -57 0
-34 -53 0
-34 -46 0
-34 -40 0
-34 -39 0
-34 -38 0
-33 -70 0
-33 -69 0
-33 -63 0
-33 -61 0
-33 -58 0
-33 -50 0
-33 -46 0
-33 -45 0
-33 -43 0
-33 -37 0
-33 -36 0
-33 -35 0
-32 -68 0
-32 -64 0
-32 -63 0
-32 -56 0
-32 -53 0
-32 -48 0
-32 -35 0
-31 -70 0
-31 -57 0
-31 -56 0
-31 -51 0
-31 -45 0
-31 -44 0
-31 -42 0
-31 -40 0
-30 -69 0
-30 -65 0
-30 -60 0
-30 -52 0
-30 -48 0
-30 -47 0
-30 -44 0
-30 -35 0
-30 -32 0
-29 -68 0
-29 -67 0
-29 -64 0
-29 -63 0
-29 -56 0
-29 -54 0
-29 -53 0
-29 -50 0
-29 -32 0
-28 -72 0
-28 -70 0
-28 -69 0
-28 -67 0
-28 -63 0
-28 -61 0
-28 -59 0
-28 -55 0
-28 -36 0
-28 -33 0
-27 -66 0
-27 -57 0
-27 -48 0
-27 -39 0
-27 -38 0
-27 -35 0
-27 -34 0
-27 -32 0
-27 -30 0
-26 -70 0
-26 -51 0
-26 -48 0
-26 -42 0
-26 -40 0
-26 -35 0
-26 -32 0
-26 -31 0
-26 -30 0
-26 -27 0
-25 -66 0
-25 -58 0
-25 -52 0
-25 -50 0
-25 -46 0
-25 -45 0
-25 -43 0
-25 -41 0
-25 -37 0
-25 -35 0
-25 -33 0
-24 -72 0
-24 -67 0
-24 -66 0
-24 -59 0
-24 -55 0
-24 -52 0
-24 -41 0
-24 -28 0
-24 -25 0
-23 -69 0
-23 -68 0
-23 -65 0
-23 -60 0
-23 -59 0
-23 -52 0
-23 -51 0
-23 -49 0
-23 -47 0
-23 -44 0
-23 -43 0
-23 -30 0
-22 -71 0
-22 -62 0
-22 -61 0
-22 -57 0
-22 -56 0
-22 -49 0
-22 -48 0
-22 -45 0
-22 -44 0
-22 -41 0
-22 -31 0
-21 -70 0
-21 -66 0
-21 -52 0
-21 -51 0
-21 -42 0
-21 -41 0
-21 -40 0
-21 -31 0
-21 -26 0
-21 -25 0
-21 -24 0
-20 -69 0
-20 -67 0
-20 -65 0
-20 -60 0
-20 -54 0
-20 -52 0
-20 -50 0
-20 -47 0
-20 -44 0
-20 -30 0
-20 -29 0
-20 -23 0
-19 -72 0
-19 -67 0
-19 -59 0
-19 -55 0
-19 -48 0
-19 -35 0
-19 -32 0
-19 -30 0
-19 -28 0
-19 -27 0
-19 -26 0
-19 -24 0
-18 -54 0
-18 -48 0
-18 -36 0
-18 -35 0
-18 -32 0
-18 -30 0
-18 -27 0
-18 -26 0
-18 -19 0
-17 -70 0
-17 -62 0
-17 -55 0
-17 -51 0
-17 -47 0
-17 -42 0
-17 -40 0
-17 -38 0
-17 -37 0
-17 -31 0
-17 -26 0
-17 -21 0
-16 -72 0
-16 -67 0
-16 -59 0
-16 -57 0
-16 -56 0
-16 -55 0
-16 -45 0
-16 -44 0
-16 -31 0
-16 -28 0
-16 -24 0
-16 -22 0
-16 -19 0
-15 -68 0
-15 -66 0
-15 -59 0
-15 -57 0
-15 -51 0
-15 -49 0
-15 -43 0
-15 -39 0
-15 -38 0
-15 -34 0
-15 -27 0
-15 -23 0
-14 -68 0
-14 -66 0
-14 -64 0
-14 -63 0
-14 -56 0
-14 -53 0
-14 -52 0
-14 -41 0
-14 -32 0
-14 -29 0
-14 -25 0
-14 -24 0
-14 -21 0
-13 -70 0
-13 -69 0
-13 -66 0
-13 -63 0
-13 -61 0
-13 -57 0
-13 -39 0
-13 -38 0
-13 -36 0
-13 -34 0
-13 -33 0
-13 -28 0
-13 -27 0
-13 -15 0
-12 -62 0
-12 -55 0
-12 -54 0
-12 -47 0
-12 -38 0
-12 -37 0
-12 -36 0
-12 -18 0
-12 -17 0
-11 -72 0
-11 -65 0
-11 -54 0
-11 -53 0
-11 -46 0
-11 -40 0
-11 -36 0
-11 -34 0
-11 -18 0
-11 -12 0
-10 -71 0
-10 -64 0
-10 -60 0
-10 -58 0
-10 -54 0
-10 -42 0
-10 -39 0
-10 -36 0
-10 -18 0
-10 -12 0
-10 -11 0
-9 -66 0
-9 -54 0
-9 -52 0
-9 -41 0
-9 -36 0
-9 -25 0
-9 -24 0
-9 -21 0
-9 -18 0
-9 -14 0
-9 -12 0
-9 -11 0
-9 -10 0
-8 -68 0
-8 -59 0
-8 -54 0
-8 -51 0
-8 -49 0
-8 -43 0
-8 -36 0
-8 -23 0
-8 -18 0
-8 -15 0
-8 -12 0
-8 -11 0
-8 -10 0
-8 -9 0
-7 -57 0
-7 -56 0
-7 -54 0
-7 -45 0
-7 -44 0
-7 -36 0
-7 -31 0
-7 -22 0
-7 -18 0
-7 -16 0
-7 -12 0
-7 -11 0
-7 -10 0
-7 -9 0
-7 -8 0
-6 -67 0
-6 -66 0
-6 -57 0
-6 -54 0
-6 -50 0
-6 -39 0
-6 -38 0
-6 -34 0
-6 -29 0
-6 -27 0
-6 -20 0
-6 -15 0
-6 -13 0
-5 -72 0
-5 -71 0
-5 -65 0
-5 -62 0
-5 -61 0
-5 -53 0
-5 -49 0
-5 -48 0
-5 -46 0
-5 -41 0
-5 -40 0
-5 -34 0
-5 -22 0
-5 -11 0
-4 -70 0
-4 -67 0
-4 -54 0
-4 -51 0
-4 -50 0
-4 -42 0
-4 -40 0
-4 -31 0
-4 -29 0
-4 -26 0
-4 -21 0
-4 -20 0
-4 -17 0
-4 -6 0
-3 -68 0
-3 -64 0
-3 -63 0
-3 -62 0
-3 -56 0
-3 -55 0
-3 -53 0
-3 -47 0
-3 -38 0
-3 -37 0
-3 -32 0
-3 -29 0
-3 -17 0
-3 -14 0
-3 -12 0
-2 -72 0
-2 -71 0
-2 -67 0
-2 -64 0
-2 -60 0
-2 -59 0
-2 -58 0
-2 -55 0
-2 -42 0
-2 -39 0
-2 -28 0
-2 -24 0
-2 -19 0
-2 -16 0
-2 -10 0
-1 -71 0
-1 -67 0
-1 -62 0
-1 -61 0
-1 -54 0
-1 -50 0
-1 -49 0
-1 -48 0
-1 -41 0
-1 -29 0
-1 -22 0
-1 -20 0
-1 -6 0
-1 -5 0
-1 -4 0
1 4 6 20 29 50 54 67 0
2 10 39 42 58 60 64 71 0
3 12 17 37 38 47 55 62 0
5 11 34 40 46 53 65 72 0
7 16 22 31 44 45 56 57 0
8 15 23 43 49 51 59 68 0
9 14 21 24 25 41 52 66 0
13 28 33 36 61 63 69 70 0
18 19 26 27 30 32 35 48 0
