p cnf 24 102
-15 16 24 0
-14 -16 -24 0
-14 17 23 0
-13 17 22 0
-13 18 20 0
-12 -13 -17 0
-12 23 -24 0
-11 -21 -22 0
-11 -20 -24 0
-11 14 18 0
-10 16 -19 0
-9 -20 24 0
-9 -15 -20 0
-9 -14 -19 0
-9 -11 -24 0
-9 10 -14 0
-9 12 20 0
-8 -15 21 0
-8 13 -22 0
-7 -12 14 0
-7 12 13 0
-7 17 24 0
-6 9 14 0
-6 10 -21 0
-6 13 18 0
-6 18 -24 0
-6 19 23 0
-5 -19 21 0
-5 -18 -20 0
-5 -13 18 0
-5 -9 -11 0
-5 -6 -17 0
-5 13 20 0
-5 16 22 0
-4 11 12 0
-3 -13 18 0
-3 -11 15 0
-3 -4 18 0
-3 6 -14 0
-3 6 16 0
-2 -14 21 0
-2 -6 13 0
-2 4 -21 0
-2 11 13 0
-2 12 -13 0
-1 -15 -20 0
-1 -7 15 0
-1 -4 -22 0
-1 3 10 0
-1 4 -5 0
-1 6 -24 0
-1 8 11 0
-1 9 15 0
1 -18 20 0
1 -13 17 0
1 -12 21 0
1 3 18 0
1 11 -19 0
1 16 17 0
2 -19 -24 0
2 -15 16 0
2 -3 -18 0
2 4 -5 0
2 8 16 0
3 -14 18 0
3 -10 22 0
3 6 -10 0
3 6 15 0
3 12 -17 0
3 19 23 0
4 -7 -16 0
4 11 -16 0
5 -10 17 0
5 -6 -15 0
6 -18 -21 0
6 15 24 0
6 17 -24 0
7 -19 20 0
7 -15 21 0
7 -14 18 0
7 -13 -24 0
7 14 -15 0
8 -19 24 0
8 -13 17 0
8 -11 15 0
8 9 -11 0
8 10 -18 0
8 20 24 0
9 -12 -18 0
9 10 -24 0
10 -19 -22 0
10 13 -18 0
11 15 -23 0
12 -18 19 0
12 -17 23 0
13 -16 22 0
14 18 19 0
14 23 -24 0
15 -21 24 0
16 17 -21 0
16 20 23 0
18 -20 -24 0
