p cnf 150 525
-125 127 -150 0
-123 -138 145 0
-121 131 143 0
-117 123 -129 0
-117 129 -133 0
-113 140 150 0
-110 -120 149 0
-108 -129 141 0
-100 104 -122 0
-99 -129 -149 0
-96 106 110 0
-94 142 146 0
-92 124 129 0
-91 106 150 0
-87 94 98 0
-87 95 -97 0
-85 -111 122 0
-85 101 129 0
-83 -91 125 0
-83 105 -134 0
-82 97 111 0
-80 -85 114 0
-80 81 121 0
-77 96 129 0
-76 97 -116 0
-74 123 133 0
-74 134 144 0
-73 -113 148 0
-73 111 -144 0
-70 -107 130 0
-70 -94 103 0
-69 74 -144 0
-69 76 80 0
-68 -97 127 0
-68 -73 -95 0
-67 68 -92 0
-67 90 -99 0
-67 134 142 0
-65 140 149 0
-64 -95 96 0
-64 -76 90 0
-64 -76 139 0
-64 -70 119 0
-63 -107 125 0
-63 -65 -128 0
-63 67 -88 0
-63 139 146 0
-62 -73 -74 0
-62 92 -138 0
-61 -87 111 0
-61 -78 -117 0
-61 -68 -76 0
-60 75 94 0
-60 135 141 0
-59 60 -128 0
-59 89 113 0
-59 101 144 0
-59 116 118 0
-58 -76 128 0
-58 -66 -135 0
-58 68 85 0
-58 70 -77 0
-57 -65 -122 0
-55 -93 -102 0
-55 -71 113 0
-55 83 -100 0
-54 -92 128 0
-54 -90 -106 0
-54 82 118 0
-54 131 -147 0
-53 -116 -121 0
-53 -103 -106 0
-52 -96 -117 0
-52 -63 110 0
-52 68 -102 0
-51 -93 -119 0
-51 -89 91 0
-51 94 -146 0
-51 117 135 0
-50 -120 -129 0
-50 -80 132 0
-50 -52 -108 0
-50 53 -91 0
-50 57 -78 0
-49 87 130 0
-49 96 121 0
-49 111 -119 0
-47 -84 115 0
-47 54 -88 0
-46 -104 -121 0
-46 -64 -95 0
-46 59 -134 0
-46 70 -102 0
-45 -47 -123 0
-45 65 122 0
-45 114 144 0
-44 -142 -146 0
-44 -107 -127 0
-44 -74 148 0
-44 -56 -58 0
-44 -51 69 0
-44 57 -150 0
-44 61 77 0
-43 -64 -100 0
-43 -46 -102 0
-43 44 -104 0
-43 55 -132 0
-43 57 -133 0
-43 72 114 0
-43 110 131 0
-42 -72 -120 0
-42 63 -117 0
-42 71 -96 0
-41 -76 140 0
-41 -60 61 0
-41 47 64 0
-41 51 88 0
-41 59 -126 0
-40 -107 -140 0
-40 56 129 0
-40 77 -110 0
-40 77 121 0
-40 120 -149 0
-39 -69 -93 0
-39 -62 -90 0
-39 41 -119 0
-39 54 -112 0
-39 133 -138 0
-38 48 -85 0
-38 86 108 0
-37 -83 128 0
-36 -111 138 0
-36 -56 -120 0
-36 -53 -121 0
-36 91 -143 0
-35 -94 112 0
-35 -78 -97 0
-35 -63 -104 0
-35 47 -67 0
-35 48 -137 0
-35 76 -128 0
-35 110 -112 0
-35 124 128 0
-34 -110 131 0
-34 70 110 0
-33 -51 -58 0
-33 -40 104 0
-33 81 -102 0
-33 99 -142 0
-32 -113 118 0
-32 50 -54 0
-32 57 118 0
-32 66 -71 0
-32 75 79 0
-31 -61 -75 0
-31 -34 -90 0
-31 82 143 0
-31 84 -85 0
-30 -74 119 0
-30 61 -141 0
-30 96 146 0
-29 -92 -124 0
-29 47 83 0
-29 78 -115 0
-28 -79 -96 0
-28 45 140 0
-28 58 -62 0
-27 127 -143 0
-26 -111 145 0
-26 -82 104 0
-26 116 141 0
-25 89 -97 0
-25 126 -133 0
-24 76 79 0
-24 79 -116 0
-22 -34 -61 0
-22 93 -118 0
-21 -40 -61 0
-21 32 112 0
-20 -83 131 0
-20 -80 137 0
-19 -43 77 0
-19 109 -118 0
-18 -74 77 0
-18 55 108 0
-18 59 -120 0
-18 87 -96 0
-17 -101 -109 0
-17 41 -114 0
-17 53 132 0
-17 58 75 0
-17 72 -92 0
-17 81 -145 0
-16 28 -70 0
-16 28 140 0
-16 52 120 0
-16 58 -86 0
-15 -74 -131 0
-15 -16 -33 0
-15 59 63 0
-14 -69 146 0
-14 -68 147 0
-14 -59 138 0
-14 26 78 0
-14 74 -122 0
-13 -80 109 0
-13 -69 -111 0
-12 -92 -100 0
-12 -60 -77 0
-12 -21 -86 0
-12 -13 -41 0
-11 -16 -30 0
-11 35 -42 0
-11 50 -79 0
-11 67 -105 0
-11 68 -72 0
-10 -74 -133 0
-10 34 -136 0
-10 65 -118 0
-10 98 108 0
-9 -141 148 0
-9 -46 102 0
-9 -22 -64 0
-9 -18 -44 0
-9 37 51 0
-9 85 150 0
-9 102 -131 0
-8 -76 114 0
-8 10 -92 0
-8 26 58 0
-8 81 -146 0
-7 14 -49 0
-7 49 55 0
-6 -35 61 0
-6 43 118 0
-6 93 101 0
-6 108 130 0
-5 -52 -103 0
-5 36 127 0
-5 43 149 0
-5 57 -134 0
-5 97 124 0
-5 98 -121 0
-4 -108 111 0
-4 -46 -123 0
-4 -37 -126 0
-4 -37 -93 0
-4 11 -130 0
-4 69 -142 0
-4 94 -115 0
-3 15 -72 0
-3 29 110 0
-3 32 148 0
-2 -81 -128 0
-2 -81 -86 0
-2 -81 141 0
-2 -53 65 0
-2 -39 -112 0
-2 -3 148 0
-2 42 -140 0
-2 59 -146 0
-2 75 -135 0
-1 -35 -110 0
-1 -34 -63 0
-1 14 -43 0
-1 49 -141 0
-1 51 132 0
-1 108 142 0
1 -87 124 0
1 -36 128 0
1 -33 59 0
1 -12 -129 0
2 -43 66 0
2 30 114 0
3 -115 140 0
3 -43 61 0
3 57 143 0
4 -35 -131 0
4 -5 -83 0
4 13 -122 0
4 14 -85 0
4 16 139 0
4 72 123 0
4 92 115 0
4 114 149 0
5 -76 -137 0
5 -51 135 0
5 -40 119 0
5 30 -111 0
5 40 54 0
5 64 -83 0
5 72 126 0
6 -128 -149 0
6 35 137 0
7 -42 -118 0
7 49 121 0
7 79 122 0
7 86 134 0
7 95 -112 0
7 141 -148 0
8 -74 -87 0
8 -35 68 0
8 -32 84 0
8 -23 133 0
9 -81 86 0
9 -22 116 0
9 21 -91 0
9 37 130 0
10 -123 -144 0
10 -96 124 0
10 -76 128 0
10 -59 -94 0
10 -34 -76 0
10 28 103 0
10 35 -108 0
11 -14 -137 0
11 21 115 0
11 32 89 0
12 -136 141 0
12 -99 133 0
12 -98 125 0
12 -82 -108 0
12 -36 112 0
13 -41 -67 0
13 20 59 0
13 31 -97 0
14 -45 -112 0
14 18 -123 0
14 28 96 0
14 65 83 0
14 101 -118 0
15 -37 -48 0
15 -21 89 0
15 55 147 0
15 78 147 0
15 136 148 0
16 -93 129 0
16 37 -83 0
16 40 -123 0
16 63 -118 0
16 63 101 0
17 -104 109 0
17 -46 116 0
17 -41 -106 0
17 -41 69 0
17 -21 -23 0
17 63 122 0
17 121 -123 0
17 126 134 0
18 -81 -115 0
18 -74 -148 0
18 -30 139 0
18 25 114 0
18 41 56 0
18 113 -127 0
19 -46 -123 0
19 21 99 0
19 33 -66 0
20 -116 118 0
20 -48 -65 0
20 39 -121 0
20 93 -129 0
20 108 -110 0
21 -86 -130 0
21 -52 87 0
21 26 91 0
21 65 -131 0
22 -82 110 0
22 35 130 0
22 120 -147 0
23 -83 105 0
23 -55 149 0
23 -30 -135 0
23 61 -115 0
23 133 147 0
23 139 -145 0
24 -63 -69 0
24 -61 127 0
24 92 120 0
25 -104 118 0
25 -101 -125 0
25 -84 -133 0
25 -72 -91 0
25 -61 130 0
25 34 -110 0
26 -65 66 0
26 -63 111 0
26 -30 -32 0
26 44 -146 0
26 110 -117 0
28 -34 107 0
28 88 101 0
29 129 -137 0
30 -38 -67 0
30 33 -113 0
30 55 -63 0
30 76 -87 0
30 111 139 0
31 -75 -134 0
31 -59 76 0
31 34 40 0
31 86 131 0
32 -110 -135 0
32 -103 137 0
32 -92 113 0
32 84 -86 0
33 -68 131 0
34 -69 -116 0
34 45 -83 0
34 48 106 0
34 61 -121 0
35 -46 111 0
35 53 61 0
35 83 130 0
35 110 121 0
36 -102 -131 0
36 -74 -146 0
36 -38 124 0
36 61 -127 0
36 107 150 0
37 67 75 0
37 108 -138 0
37 132 -136 0
38 -140 146 0
39 -85 90 0
39 -62 70 0
40 -70 -112 0
40 -44 54 0
40 95 111 0
41 -96 -112 0
41 -70 105 0
41 45 82 0
41 85 132 0
41 115 -133 0
42 -93 139 0
42 53 -81 0
42 65 110 0
43 -68 113 0
43 55 -93 0
43 72 122 0
43 103 -119 0
44 -80 129 0
44 -68 -74 0
44 -62 147 0
44 93 117 0
45 -69 105 0
46 -145 147 0
47 -83 -119 0
47 -77 128 0
47 -57 -105 0
48 49 -98 0
48 81 121 0
49 -73 145 0
49 -63 81 0
49 91 100 0
51 -78 -146 0
51 78 -85 0
51 101 117 0
52 84 -130 0
53 -78 133 0
53 64 81 0
53 65 141 0
54 -139 -143 0
54 71 -93 0
55 -96 -101 0
56 -100 -114 0
56 -72 123 0
57 90 -124 0
57 119 148 0
58 66 -68 0
58 91 -138 0
59 66 79 0
59 70 -76 0
59 70 145 0
60 -78 95 0
60 65 -103 0
60 131 -143 0
61 -92 -143 0
61 -84 118 0
61 68 109 0
63 -123 -144 0
64 -99 -112 0
65 73 -113 0
65 77 -94 0
66 103 -126 0
66 115 127 0
67 -93 -106 0
67 100 -110 0
71 88 -101 0
72 98 127 0
73 -82 131 0
73 116 139 0
74 90 -144 0
74 91 -115 0
74 101 -119 0
75 -135 142 0
75 114 -147 0
76 -121 137 0
76 -97 -110 0
77 103 134 0
78 82 -135 0
79 -129 -142 0
80 132 -150 0
81 136 144 0
82 -136 -138 0
82 86 121 0
83 89 101 0
85 104 -123 0
87 100 128 0
88 -130 139 0
89 105 -143 0
90 108 -114 0
91 -102 -127 0
94 -99 132 0
94 132 -134 0
95 -97 115 0
96 98 107 0
98 -111 -139 0
98 -105 120 0
98 -100 -102 0
106 114 115 0
106 115 -122 0
121 -126 131 0
129 135 145 0
130 -131 142 0
