p cnf 20 85
-15 16 20 0
-13 -14 16 0
-12 17 19 0
-12 18 20 0
-11 14 20 0
-9 12 -13 0
-9 12 18 0
-9 17 18 0
-8 -19 -20 0
-8 -13 -17 0
-8 -9 10 0
-8 10 -17 0
-8 11 -20 0
-8 12 -17 0
-8 15 19 0
-7 -15 -19 0
-7 -15 20 0
-7 8 13 0
-7 10 -20 0
-7 10 17 0
-7 15 -17 0
-6 -7 20 0
-6 8 -13 0
-6 10 14 0
-6 15 17 0
-5 -9 -13 0
-5 -6 10 0
-4 6 -15 0
-4 10 -14 0
-4 11 -17 0
-3 -13 -17 0
-3 -9 16 0
-3 4 -11 0
-3 8 11 0
-3 15 20 0
-2 -11 14 0
-2 -6 9 0
-2 -6 10 0
-2 4 -8 0
-2 5 -14 0
-2 10 19 0
-2 11 13 0
-2 18 20 0
-1 -9 -16 0
-1 -2 -8 0
-1 10 15 0
1 3 -20 0
1 3 -15 0
1 12 -19 0
2 -11 20 0
2 3 5 0
2 8 17 0
3 -9 18 0
3 -8 -9 0
3 -7 -17 0
3 -5 -16 0
3 -5 16 0
3 8 12 0
3 12 -20 0
3 18 20 0
4 -6 18 0
4 6 -19 0
4 9 -20 0
4 10 -17 0
4 11 20 0
5 6 11 0
5 13 -20 0
5 18 -19 0
6 -13 -19 0
6 -12 13 0
6 7 -13 0
6 8 -18 0
6 18 20 0
7 -15 17 0
7 -9 -15 0
7 -8 15 0
8 -16 18 0
8 -11 -12 0
8 -11 15 0
9 -12 -15 0
9 13 -20 0
11 -13 -18 0
12 16 -20 0
14 15 19 0
14 16 20 0
