p cnf 24 102
-17 18 23 0
-15 -21 -22 0
-15 -18 23 0
-14 16 19 0
-12 -18 19 0
-12 14 -17 0
-11 -14 -17 0
-10 15 20 0
-9 -20 23 0
-9 12 22 0
-9 21 23 0
-8 -22 -23 0
-8 -17 23 0
-8 -10 -11 0
-8 10 -20 0
-7 -10 15 0
-7 12 -22 0
-6 -14 18 0
-6 -12 14 0
-6 10 -21 0
-6 14 -23 0
-5 -10 17 0
-5 12 -18 0
-5 12 14 0
-5 13 -15 0
-5 16 24 0
-4 -12 -19 0
-4 -5 -17 0
-4 6 19 0
-4 19 24 0
-3 -19 24 0
-3 -16 18 0
-3 -12 20 0
-3 -11 -21 0
-3 -11 14 0
-3 -5 14 0
-3 4 5 0
-3 5 -8 0
-2 -3 -9 0
-2 4 24 0
-2 5 -6 0
-2 6 14 0
-2 14 20 0
-2 15 -18 0
-1 -17 -21 0
-1 -10 -11 0
-1 -3 -21 0
-1 -2 -16 0
-1 -2 13 0
-1 3 -11 0
-1 11 19 0
1 -14 -19 0
1 -8 10 0
1 -3 13 0
1 2 -5 0
1 7 -21 0
2 -19 -20 0
2 -10 20 0
2 -3 24 0
2 14 -21 0
2 14 16 0
3 4 -20 0
3 5 10 0
3 7 -16 0
3 7 11 0
3 9 -10 0
3 10 -15 0
4 -13 17 0
4 -12 22 0
4 7 -12 0
4 8 -12 0
4 8 9 0
4 9 -15 0
5 -14 -15 0
5 -6 9 0
5 6 -13 0
5 6 10 0
6 -13 22 0
6 -8 13 0
6 8 14 0
6 16 24 0
7 -8 21 0
7 9 18 0
7 10 -21 0
7 13 -14 0
8 -16 21 0
8 11 -14 0
8 15 -19 0
9 -17 22 0
9 -13 -16 0
9 -10 18 0
9 11 24 0
10 21 -24 0
11 -16 20 0
11 -12 14 0
11 12 -17 0
12 -18 21 0
12 13 -14 0
12 19 -20 0
13 -16 -22 0
15 -16 -17 0
19 21 -23 0
