p cnf 60 255
-52 -54 58 0
-43 -44 47 0
-42 -45 54 0
-38 49 -55 0
-38 52 57 0
-37 43 56 0
-36 38 48 0
-35 -36 44 0
-35 46 48 0
-33 -45 50 0
-32 33 44 0
-31 -41 58 0
-31 36 -41 0
-30 -40 60 0
-30 -36 42 0
-30 -31 39 0
-30 37 47 0
-29 -41 -60 0
-29 38 -54 0
-29 55 -59 0
-28 -32 -36 0
-28 40 -44 0
-28 43 48 0
-27 -35 44 0
-27 -32 -51 0
-27 46 54 0
-26 -50 56 0
-26 -43 59 0
-26 31 -37 0
-24 -25 -57 0
-23 -31 -55 0
-23 29 39 0
-23 30 47 0
-23 38 52 0
-22 28 -35 0
-22 39 -43 0
-21 34 -41 0
-21 50 58 0
-21 51 -52 0
-20 -27 52 0
-19 30 -45 0
-18 -43 46 0
-18 -23 -27 0
-18 34 36 0
-18 35 -51 0
-17 -18 -39 0
-17 43 59 0
-17 53 55 0
-16 -50 -57 0
-15 -33 -45 0
-15 -27 31 0
-15 34 -48 0
-15 46 51 0
-14 23 -56 0
-14 29 -39 0
-14 32 53 0
-13 -26 -38 0
-13 -22 -47 0
-13 -16 56 0
-13 15 56 0
-13 33 41 0
-13 39 -41 0
-12 -39 41 0
-12 -19 22 0
-12 -15 43 0
-12 31 -57 0
-12 38 54 0
-11 -36 -37 0
-11 -33 -34 0
-10 -30 -41 0
-10 -30 54 0
-10 -14 -21 0
-10 -14 16 0
-10 16 -21 0
-10 31 51 0
-9 -18 60 0
-9 -10 -32 0
-9 47 57 0
-9 52 53 0
-8 -17 -45 0
-8 -13 59 0
-8 9 36 0
-8 14 15 0
-7 -26 -39 0
-7 -16 -29 0
-7 9 -55 0
-7 10 31 0
-7 20 55 0
-7 36 -60 0
-7 49 60 0
-6 -40 -50 0
-6 -21 58 0
-6 -13 -15 0
-6 -9 39 0
-6 11 22 0
-6 13 -17 0
-6 15 23 0
-6 23 -29 0
-6 26 44 0
-5 -39 44 0
-5 -19 44 0
-5 -17 -36 0
-5 -15 32 0
-5 21 40 0
-5 46 -56 0
-4 49 59 0
-3 -50 -59 0
-3 -34 -45 0
-3 -32 37 0
-3 -4 -51 0
-3 9 -30 0
-3 22 -35 0
-3 38 -45 0
-3 54 -55 0
-2 -26 -41 0
-2 -20 43 0
-2 -12 45 0
-2 6 -22 0
-2 22 59 0
-2 25 -27 0
-1 -43 -55 0
-1 -25 -27 0
-1 -17 -23 0
-1 -17 60 0
-1 3 57 0
-1 5 31 0
-1 19 55 0
-1 44 -60 0
1 -4 42 0
1 24 52 0
1 25 -34 0
1 26 52 0
2 -40 50 0
2 -27 -41 0
2 -18 21 0
2 19 -23 0
2 20 30 0
3 -42 -47 0
3 -32 -38 0
3 -20 36 0
3 -11 -17 0
3 38 47 0
4 -42 -60 0
4 -27 43 0
4 10 -43 0
4 21 -56 0
5 -22 -48 0
5 -21 -56 0
5 -20 -37 0
5 -9 29 0
5 22 -31 0
5 26 50 0
5 27 49 0
6 -35 45 0
6 13 48 0
6 21 -44 0
7 -51 -58 0
7 -24 26 0
7 9 22 0
7 18 -57 0
7 35 53 0
8 -41 -54 0
8 -28 -52 0
8 -26 33 0
8 -25 27 0
8 10 41 0
8 12 -58 0
8 25 53 0
8 41 54 0
9 -45 -60 0
9 11 46 0
9 14 -45 0
9 21 -51 0
9 30 53 0
9 45 -49 0
10 -32 34 0
10 -27 43 0
10 -11 52 0
10 18 -20 0
10 23 58 0
10 25 -60 0
10 28 34 0
11 20 28 0
11 29 39 0
11 46 52 0
11 49 54 0
12 -35 -37 0
12 19 36 0
12 35 48 0
12 45 49 0
13 -35 -46 0
13 -34 50 0
13 -33 54 0
13 -15 19 0
13 40 60 0
13 50 58 0
14 -42 -58 0
14 -26 -38 0
14 -23 38 0
15 -43 60 0
15 -23 41 0
15 -19 -44 0
15 28 38 0
15 39 -52 0
16 -47 -58 0
16 -31 -41 0
16 -25 -36 0
17 46 -58 0
18 -40 -45 0
18 -36 -50 0
18 29 -50 0
19 -53 -59 0
19 -42 46 0
19 -35 59 0
19 45 57 0
20 -21 36 0
20 22 -53 0
20 32 53 0
20 33 45 0
21 -27 -43 0
21 26 60 0
21 38 42 0
21 41 -54 0
22 -27 40 0
23 51 -57 0
24 39 -44 0
25 -28 48 0
25 29 31 0
25 30 -47 0
25 44 -59 0
26 -43 52 0
26 -27 35 0
27 -42 53 0
27 -37 -56 0
28 -51 60 0
28 48 53 0
31 -36 59 0
31 35 45 0
31 41 46 0
31 54 -57 0
33 40 -53 0
35 46 -53 0
35 47 -48 0
37 39 -41 0
38 -50 -55 0
38 -44 -49 0
38 -43 49 0
38 42 -48 0
39 49 52 0
44 45 -53 0
45 -52 -53 0
45 49 58 0
46 -51 -52 0
47 54 -58 0
49 -50 56 0
