p cnf 220 928
-170 -194 -204 0
-168 217 220 0
-167 192 -208 0
-166 -176 -190 0
-165 184 -194 0
-164 -173 180 0
-164 166 202 0
-163 -194 207 0
-162 -167 181 0
-160 171 195 0
-160 185 201 0
-156 -164 206 0
-153 -173 189 0
-151 188 -200 0
-149 -193 -208 0
-149 168 180 0
-149 181 -183 0
-147 -148 -208 0
-146 -194 -211 0
-145 -201 209 0
-144 -165 -166 0
-142 -177 -219 0
-140 155 211 0
-139 -179 187 0
-139 206 207 0
-136 -156 204 0
-135 -155 211 0
-135 183 194 0
-134 -199 -202 0
-134 -191 212 0
-133 -141 -213 0
-133 190 212 0
-132 185 -197 0
-131 181 197 0
-130 -179 181 0
-129 149 -217 0
-129 170 202 0
-128 156 -214 0
-128 190 218 0
-127 -128 182 0
-127 149 -175 0
-126 138 -157 0
-125 150 -156 0
-125 174 192 0
-124 -175 -190 0
-124 202 -216 0
-123 193 209 0
-122 -162 211 0
-121 -144 -199 0
-120 131 -196 0
-117 128 149 0
-117 144 212 0
-116 -182 200 0
-116 134 -150 0
-115 -174 175 0
-115 -131 208 0
-115 122 -182 0
-115 135 -187 0
-113 -179 -186 0
-112 -166 212 0
-111 124 199 0
-110 -121 138 0
-110 124 -196 0
-110 161 -210 0
-110 197 -214 0
-109 171 -178 0
-107 -150 185 0
-107 -135 -187 0
-106 137 154 0
-105 -121 177 0
-105 120 130 0
-104 128 -189 0
-104 149 -199 0
-102 -179 181 0
-101 107 -168 0
-100 -115 199 0
-99 108 -134 0
-96 -146 -192 0
-96 -105 125 0
-96 99 -219 0
-94 -109 180 0
-94 114 116 0
-94 130 180 0
-94 138 162 0
-93 -186 204 0
-93 -147 -190 0
-93 -119 -169 0
-93 -111 -129 0
-93 -105 -170 0
-92 99 -203 0
-91 110 -201 0
-90 -190 -195 0
-90 -155 -203 0
-90 -149 -162 0
-90 -146 149 0
-89 -182 -191 0
-89 -115 127 0
-88 -179 211 0
-87 110 147 0
-86 -134 -205 0
-86 -103 117 0
-86 105 169 0
-85 -168 217 0
-85 89 -172 0
-85 102 -135 0
-85 162 -174 0
-84 -143 -157 0
-83 123 -206 0
-82 106 144 0
-82 125 130 0
-82 133 193 0
-82 147 220 0
-81 -211 -219 0
-81 127 -206 0
-80 -129 -173 0
-79 -107 151 0
-79 -93 -155 0
-79 88 -124 0
-78 -156 -199 0
-78 -147 161 0
-78 -85 175 0
-78 80 90 0
-77 81 154 0
-77 94 -218 0
-76 -144 -181 0
-75 -144 164 0
-75 161 198 0
-74 -134 -165 0
-74 -111 -205 0
-74 -97 144 0
-73 -141 -174 0
-73 -128 162 0
-73 -128 205 0
-73 -106 -206 0
-73 155 -164 0
-73 176 187 0
-72 -111 169 0
-72 -96 177 0
-72 84 196 0
-72 187 -220 0
-70 -109 -113 0
-69 74 181 0
-69 105 207 0
-69 110 -134 0
-68 -121 -178 0
-68 -89 -100 0
-68 98 110 0
-68 189 -198 0
-67 -122 219 0
-67 139 -153 0
-66 -92 -214 0
-66 135 -203 0
-65 -71 -164 0
-65 130 149 0
-65 187 -220 0
-65 187 189 0
-64 76 183 0
-63 -144 -191 0
-63 -77 160 0
-63 76 157 0
-63 80 184 0
-63 83 -184 0
-63 90 -164 0
-63 106 158 0
-62 -97 148 0
-62 -87 178 0
-62 148 -218 0
-62 162 -170 0
-61 -214 216 0
-61 -122 189 0
-61 -105 -109 0
-61 175 -177 0
-60 -135 -180 0
-60 105 171 0
-59 -124 -199 0
-59 70 -199 0
-59 86 160 0
-58 94 105 0
-58 96 -155 0
-58 101 139 0
-58 146 -191 0
-57 -148 -218 0
-57 -137 208 0
-57 -125 195 0
-57 -120 -135 0
-57 -60 202 0
-57 82 109 0
-57 129 -160 0
-57 167 -200 0
-56 91 -210 0
-56 119 -162 0
-55 -152 194 0
-55 -149 -170 0
-55 -81 -198 0
-55 -66 -109 0
-54 -102 128 0
-54 63 69 0
-54 74 -189 0
-54 160 172 0
-53 -94 168 0
-53 57 142 0
-52 -120 182 0
-52 86 -168 0
-51 97 -154 0
-50 -89 -106 0
-50 -68 -113 0
-50 98 159 0
-49 -130 -150 0
-49 -126 -161 0
-49 -125 -146 0
-49 -83 158 0
-49 53 209 0
-49 113 -114 0
-48 -168 -216 0
-48 -142 214 0
-48 -68 174 0
-48 61 132 0
-48 77 -198 0
-48 77 -110 0
-48 164 175 0
-47 -153 166 0
-47 -116 -185 0
-47 106 161 0
-47 113 -184 0
-46 -100 154 0
-46 -54 145 0
-46 48 -136 0
-46 113 -206 0
-45 -102 110 0
-45 -77 -189 0
-45 -74 91 0
-45 90 177 0
-45 114 139 0
-44 -138 -140 0
-44 -120 175 0
-44 -114 158 0
-44 -108 -205 0
-44 137 -213 0
-43 -139 154 0
-43 -90 -173 0
-43 -48 65 0
-43 180 189 0
-42 65 -192 0
-42 112 -148 0
-42 157 170 0
-42 174 210 0
-41 -146 -198 0
-41 -87 102 0
-40 -110 218 0
-40 -100 -173 0
-40 -98 189 0
-40 -92 -205 0
-40 -80 -198 0
-40 -73 -147 0
-40 61 -217 0
-39 -107 217 0
-39 -87 -150 0
-39 -66 98 0
-39 141 -163 0
-38 -163 -208 0
-38 -73 143 0
-38 -49 -150 0
-38 71 -76 0
-38 83 -185 0
-38 176 -203 0
-37 -145 -188 0
-37 -63 202 0
-37 -62 -134 0
-37 56 -126 0
-37 78 193 0
-36 99 160 0
-36 160 193 0
-35 -132 143 0
-35 -95 112 0
-35 58 -146 0
-35 148 215 0
-34 -68 133 0
-34 -61 66 0
-34 54 -96 0
-34 58 78 0
-34 64 -155 0
-34 78 -187 0
-34 190 217 0
-33 67 -107 0
-33 74 -81 0
-33 165 214 0
-32 -173 -181 0
-32 -65 -86 0
-32 -56 -71 0
-32 123 -140 0
-32 128 143 0
-32 148 -217 0
-32 152 164 0
-31 -169 174 0
-31 -140 -204 0
-31 -87 158 0
-31 -34 -192 0
-31 87 -205 0
-31 89 -146 0
-31 115 146 0
-30 44 -144 0
-30 56 -96 0
-29 -144 -205 0
-29 -129 167 0
-29 -89 -207 0
-29 -33 136 0
-28 -85 183 0
-28 -54 158 0
-28 -47 -217 0
-28 -39 130 0
-27 31 -134 0
-27 81 161 0
-26 -134 -162 0
-26 36 -182 0
-26 37 184 0
-26 86 -209 0
-25 -150 188 0
-25 -145 212 0
-25 -120 -160 0
-25 -106 -199 0
-25 -81 141 0
-25 44 -107 0
-25 173 181 0
-24 -61 -190 0
-24 -54 -206 0
-24 33 -159 0
-24 155 -156 0
-24 190 191 0
-23 -25 -192 0
-23 164 -210 0
-23 171 -214 0
-22 -160 -201 0
-22 -92 180 0
-22 55 -144 0
-21 -24 123 0
-21 30 -164 0
-21 30 94 0
-21 35 130 0
-21 40 -57 0
-21 81 -133 0
-21 92 177 0
-20 -148 -215 0
-20 -138 -161 0
-20 -96 -135 0
-20 -70 133 0
-20 34 215 0
-20 36 -102 0
-20 106 161 0
-19 -91 196 0
-19 -22 177 0
-19 37 51 0
-19 46 136 0
-19 97 -109 0
-18 -19 205 0
-18 23 -44 0
-18 181 207 0
-17 -156 213 0
-17 96 209 0
-16 -139 193 0
-16 -111 -149 0
-16 -85 -204 0
-16 -83 217 0
-16 -63 85 0
-16 22 23 0
-16 46 107 0
-15 -154 174 0
-15 17 -42 0
-15 36 -145 0
-15 65 163 0
-15 113 142 0
-14 -64 -215 0
-14 -29 160 0
-14 -18 -70 0
-14 68 -186 0
-14 79 -84 0
-13 36 159 0
-13 36 179 0
-12 -198 207 0
-12 -95 -184 0
-12 -58 148 0
-12 -23 -63 0
-12 30 -104 0
-12 40 -94 0
-12 148 157 0
-11 -97 -113 0
-11 -61 -209 0
-11 -33 -69 0
-11 14 127 0
-11 64 101 0
-10 77 -193 0
-10 118 -128 0
-9 -65 198 0
-9 -64 93 0
-9 -33 194 0
-9 -12 -95 0
-9 30 -207 0
-9 70 144 0
-9 78 -166 0
-8 -119 -141 0
-8 -71 218 0
-8 -70 -214 0
-8 -68 -91 0
-8 -58 -70 0
-8 34 183 0
-8 59 187 0
-8 96 -154 0
-7 -145 -203 0
-7 -122 220 0
-7 -116 179 0
-7 -66 198 0
-7 58 220 0
-7 63 -133 0
-7 153 197 0
-6 -109 -156 0
-6 -74 99 0
-6 31 -52 0
-6 60 137 0
-6 102 109 0
-5 -127 -159 0
-5 -68 -192 0
-5 -15 59 0
-4 -44 -82 0
-4 -11 -143 0
-4 24 -98 0
-4 34 88 0
-4 95 -194 0
-4 141 178 0
-3 -42 -76 0
-3 55 -75 0
-3 57 88 0
-3 85 87 0
-3 157 207 0
-2 -32 -61 0
-2 82 160 0
-1 -185 210 0
-1 10 -50 0
-1 31 94 0
-1 82 169 0
-1 104 -157 0
1 -147 -175 0
1 -47 -62 0
1 -11 -99 0
1 50 92 0
1 68 -218 0
1 93 138 0
1 168 184 0
1 174 -204 0
2 -205 -212 0
2 -166 -213 0
2 -130 173 0
2 -69 73 0
2 -69 133 0
2 -52 157 0
2 -50 170 0
2 36 -195 0
2 79 192 0
2 120 -131 0
2 161 198 0
3 -52 -193 0
3 95 -216 0
3 108 -188 0
3 110 147 0
3 140 167 0
4 -85 -128 0
4 -66 133 0
4 20 -27 0
4 56 158 0
4 74 139 0
4 79 -80 0
4 82 194 0
4 101 197 0
4 110 158 0
5 -161 198 0
5 -126 209 0
5 -66 99 0
5 83 173 0
5 91 -117 0
5 98 124 0
6 -55 114 0
6 130 135 0
6 137 -145 0
6 161 175 0
7 -41 152 0
7 15 181 0
7 19 -180 0
7 19 64 0
7 49 71 0
7 65 -195 0
7 105 -115 0
7 186 213 0
8 -163 198 0
8 -131 172 0
8 -95 -167 0
8 -89 152 0
8 -18 -129 0
8 72 76 0
8 74 188 0
8 100 219 0
8 139 -203 0
9 -145 218 0
9 17 57 0
9 82 -132 0
9 112 -140 0
9 114 -127 0
10 -214 -215 0
10 -124 -173 0
10 -49 105 0
10 -13 197 0
10 12 -53 0
10 28 161 0
10 70 -129 0
11 -151 194 0
11 -128 -170 0
11 -120 207 0
11 -64 -182 0
11 -34 165 0
11 31 -163 0
11 68 -146 0
11 83 122 0
12 -99 203 0
12 -55 176 0
12 -54 -211 0
12 35 -106 0
12 91 -94 0
12 113 -124 0
13 -134 -141 0
13 -129 -154 0
13 -118 124 0
13 -96 -123 0
13 -79 193 0
13 -14 -183 0
13 34 -68 0
13 154 178 0
14 -186 -201 0
14 -74 195 0
14 -70 149 0
14 -37 77 0
14 125 -209 0
15 27 148 0
15 57 -138 0
15 130 204 0
15 186 212 0
16 44 162 0
16 72 117 0
16 77 -97 0
16 113 -130 0
16 120 -203 0
16 164 213 0
17 -57 -179 0
17 83 -94 0
17 86 -97 0
17 100 189 0
17 142 -154 0
18 27 -118 0
18 44 -49 0
18 52 -192 0
18 55 202 0
19 -148 -208 0
19 -73 -170 0
19 -41 128 0
19 35 175 0
19 49 -69 0
19 73 128 0
19 122 -156 0
19 190 -191 0
20 22 164 0
20 59 -193 0
20 78 -105 0
20 79 -126 0
20 109 158 0
20 183 -194 0
21 -121 180 0
21 -105 -195 0
22 -75 -152 0
22 -46 -61 0
22 -38 217 0
22 31 -80 0
22 53 -74 0
23 -106 175 0
23 -56 -180 0
23 -54 -110 0
23 -49 189 0
23 24 147 0
23 37 45 0
23 141 188 0
23 176 -199 0
24 -147 -179 0
25 -112 -126 0
25 -96 205 0
25 76 167 0
25 109 -191 0
25 110 146 0
26 -178 208 0
26 111 -199 0
26 155 157 0
27 -190 -199 0
27 -75 -215 0
27 -31 200 0
27 58 -177 0
27 101 103 0
27 105 206 0
27 151 191 0
28 -86 212 0
28 -84 199 0
28 -51 164 0
28 -45 -125 0
28 33 -135 0
28 126 184 0
28 163 192 0
28 169 191 0
29 -73 75 0
29 34 -59 0
29 129 140 0
29 131 177 0
29 166 -218 0
30 -97 114 0
30 -75 214 0
30 47 -83 0
30 50 167 0
30 142 -159 0
31 -135 -191 0
31 -98 -168 0
31 -71 -197 0
31 -42 75 0
31 -35 -190 0
31 114 116 0
31 145 -166 0
32 -104 -210 0
32 -83 -100 0
33 -156 -199 0
33 -88 153 0
33 -62 -126 0
33 -35 -188 0
33 38 -150 0
33 41 -175 0
33 125 151 0
34 -69 200 0
34 -59 146 0
34 39 -65 0
34 65 81 0
34 67 133 0
34 171 220 0
35 -102 143 0
35 -87 -142 0
35 -58 -90 0
35 -37 -49 0
35 138 -141 0
35 154 165 0
35 198 212 0
36 -90 -194 0
36 -51 161 0
36 60 219 0
37 -111 145 0
37 56 213 0
37 58 -216 0
37 77 107 0
38 -118 194 0
38 -50 114 0
39 -86 213 0
39 -44 103 0
39 -42 214 0
40 -89 190 0
40 -46 98 0
41 -51 -167 0
41 -43 153 0
41 164 -165 0
42 -84 -154 0
42 -78 -162 0
42 -45 66 0
43 60 169 0
43 110 198 0
44 -114 136 0
44 -81 -214 0
44 -80 -209 0
44 59 166 0
44 97 -162 0
45 -132 -179 0
46 -54 151 0
46 59 187 0
46 103 -110 0
46 137 -191 0
46 168 -197 0
46 183 209 0
47 -53 -194 0
47 79 113 0
47 99 183 0
47 106 175 0
48 -138 164 0
48 -79 132 0
48 50 106 0
48 75 -187 0
48 75 119 0
48 100 181 0
49 99 210 0
50 -139 143 0
50 -116 -174 0
50 -72 -137 0
50 -52 60 0
50 52 -54 0
50 118 -192 0
50 152 -184 0
51 -200 201 0
51 -165 167 0
51 -75 -82 0
51 -57 117 0
51 88 -205 0
51 91 100 0
53 -150 163 0
53 -103 -162 0
53 -93 -132 0
53 -85 155 0
53 63 -96 0
53 81 -198 0
53 124 -181 0
54 123 136 0
54 192 -211 0
55 -140 170 0
55 -73 205 0
55 -64 -170 0
55 77 -131 0
55 78 147 0
55 111 -136 0
56 -73 202 0
56 -60 131 0
56 58 212 0
56 108 172 0
56 147 -211 0
57 -174 193 0
57 -73 184 0
57 161 -168 0
58 -176 210 0
59 -97 119 0
59 70 -82 0
59 212 220 0
60 109 144 0
60 113 -167 0
60 134 197 0
61 -68 109 0
61 70 171 0
61 154 -198 0
62 -111 188 0
62 201 -211 0
63 -100 179 0
63 98 -175 0
64 -79 149 0
64 86 -163 0
64 133 -137 0
64 152 -181 0
65 -151 -184 0
66 89 -212 0
66 168 -205 0
66 200 211 0
67 -105 108 0
67 -71 92 0
67 90 -101 0
67 161 215 0
67 190 217 0
68 -126 -190 0
68 -118 136 0
68 96 188 0
68 150 164 0
68 172 219 0
69 -113 156 0
69 -101 -155 0
69 96 158 0
70 -195 199 0
70 -163 196 0
70 194 -216 0
71 -126 198 0
71 -117 -208 0
71 135 -141 0
71 166 218 0
72 -148 -210 0
72 -89 -191 0
72 74 104 0
72 121 183 0
72 178 -182 0
73 97 -127 0
73 138 -184 0
74 -119 -220 0
74 -108 -139 0
74 76 217 0
74 80 -164 0
74 129 155 0
75 -99 183 0
75 102 -104 0
75 103 -191 0
76 -135 212 0
76 86 -142 0
76 172 206 0
77 -94 -150 0
77 150 -153 0
78 -182 211 0
78 -169 206 0
78 -132 -138 0
78 143 -169 0
78 183 -218 0
79 -139 -142 0
79 -138 217 0
79 -100 -142 0
79 85 118 0
79 116 142 0
79 141 218 0
79 151 -197 0
79 208 220 0
80 156 173 0
81 -109 160 0
81 130 -198 0
81 170 184 0
82 108 217 0
83 -146 193 0
83 -98 -173 0
83 139 146 0
84 -111 -160 0
84 100 -107 0
84 143 185 0
86 -133 -165 0
86 88 -161 0
86 89 -115 0
86 141 -218 0
88 -119 -189 0
88 -92 -118 0
88 182 193 0
89 -191 -200 0
89 -164 -189 0
91 -132 -172 0
91 -130 167 0
91 -104 172 0
91 107 214 0
92 -148 186 0
92 -135 210 0
92 -124 165 0
92 140 162 0
92 189 -196 0
93 -192 -202 0
93 138 151 0
95 -152 162 0
95 -123 -220 0
95 96 -168 0
95 171 -195 0
96 -145 200 0
98 -181 215 0
98 -117 -164 0
98 115 164 0
99 -133 145 0
99 -124 -201 0
101 -112 190 0
101 -107 157 0
102 140 -146 0
102 186 198 0
103 -124 -154 0
103 109 -126 0
103 140 -220 0
103 143 -172 0
105 111 145 0
106 125 -144 0
106 129 163 0
106 133 193 0
107 -160 174 0
107 182 -189 0
108 146 183 0
109 -201 -206 0
109 -137 192 0
110 -127 -139 0
110 -119 -193 0
112 -159 219 0
113 -142 -177 0
113 162 -205 0
115 -125 207 0
115 121 -184 0
116 -172 220 0
116 -163 217 0
116 135 218 0
116 156 -194 0
118 140 184 0
119 -123 -148 0
120 -172 -190 0
120 -124 164 0
121 -143 -167 0
121 -126 -138 0
124 -170 -218 0
125 -144 -161 0
126 138 160 0
128 -148 215 0
130 -158 162 0
130 -153 159 0
130 -134 -178 0
131 -137 199 0
131 146 199 0
131 169 -181 0
132 -197 -211 0
132 -143 170 0
132 -134 216 0
133 142 -207 0
133 144 182 0
133 157 -220 0
134 -157 200 0
135 -173 176 0
135 -158 -179 0
137 -161 -194 0
138 160 216 0
138 165 179 0
141 -154 210 0
142 154 190 0
143 -165 -181 0
143 157 210 0
143 170 -203 0
144 -178 213 0
144 178 186 0
144 200 217 0
147 166 -193 0
150 160 -175 0
152 193 -214 0
153 -197 -201 0
157 -191 -215 0
157 162 208 0
158 202 -207 0
159 -179 -197 0
160 -169 187 0
163 176 212 0
168 -213 219 0
171 -173 208 0
174 -195 212 0
174 198 218 0
178 185 -200 0
180 203 -219 0
181 194 213 0
186 -187 -205 0
