p cnf 32 136
-27 -28 32 0
-27 29 -30 0
-22 23 -32 0
-22 25 28 0
-22 26 -32 0
-21 -23 29 0
-21 -22 -27 0
-20 -26 27 0
-20 23 30 0
-19 -20 -28 0
-19 21 -30 0
-18 19 24 0
-17 22 -30 0
-16 -25 26 0
-16 17 -21 0
-16 25 -28 0
-15 -30 31 0
-15 -19 -31 0
-15 -17 -29 0
-15 19 -27 0
-14 -22 29 0
-13 -23 -29 0
-13 -21 22 0
-12 -19 22 0
-12 -14 20 0
-12 -13 -21 0
-12 -13 17 0
-12 15 -30 0
-11 -18 -22 0
-11 -14 -26 0
-10 -30 -32 0
-10 12 -29 0
-10 13 -22 0
-9 -21 31 0
-9 -13 28 0
-9 26 -30 0
-8 -22 29 0
-8 -18 -30 0
-8 -10 15 0
-7 -27 -32 0
-7 -25 -28 0
-7 14 27 0
-7 29 -31 0
-6 -10 -17 0
-6 7 -12 0
-6 10 30 0
-6 11 12 0
-5 11 -23 0
-5 11 23 0
-4 -19 25 0
-4 -7 -9 0
-4 -5 32 0
-4 10 30 0
-4 12 19 0
-4 18 -31 0
-3 -10 -13 0
-3 6 15 0
-3 12 27 0
-3 13 -25 0
-3 16 26 0
-3 23 -26 0
-2 -12 20 0
-1 -14 15 0
-1 -11 23 0
-1 -8 12 0
-1 -8 15 0
-1 -4 10 0
-1 -3 -26 0
-1 -3 -22 0
-1 3 30 0
-1 4 -19 0
1 -27 -32 0
1 -19 30 0
1 -16 -32 0
1 -14 -17 0
1 -12 32 0
1 -9 20 0
1 -5 12 0
1 -3 -11 0
1 2 -21 0
1 11 -14 0
1 15 19 0
1 26 31 0
2 -3 23 0
2 4 -15 0
2 5 -14 0
2 8 10 0
3 9 13 0
3 19 20 0
4 -9 14 0
4 -9 29 0
4 -8 -21 0
4 7 -32 0
4 7 -30 0
5 -21 27 0
5 -17 -18 0
5 -7 -27 0
5 12 20 0
5 16 -32 0
6 -8 -16 0
6 -8 28 0
6 19 29 0
7 -25 -32 0
7 -24 26 0
7 -12 29 0
7 8 27 0
7 16 18 0
8 -18 19 0
8 14 -16 0
8 14 19 0
9 -26 31 0
9 -17 -20 0
9 -11 20 0
9 15 24 0
9 18 -31 0
9 22 -30 0
10 11 25 0
10 22 24 0
11 -17 24 0
12 -28 -32 0
12 -13 -22 0
12 16 -26 0
12 18 28 0
13 -25 29 0
13 16 -29 0
14 16 24 0
15 -27 -31 0
15 -26 -28 0
15 21 31 0
16 -24 27 0
16 -21 22 0
18 26 30 0
20 23 -29 0
20 29 31 0
23 24 31 0
24 -25 29 0
