p cnf 70 298
-52 57 59 0
-51 67 68 0
-50 -57 62 0
-49 60 67 0
-45 60 63 0
-44 46 -65 0
-43 -48 -51 0
-43 -45 -53 0
-40 65 -70 0
-39 43 -54 0
-39 64 -65 0
-38 -52 59 0
-38 -44 -58 0
-38 -39 -59 0
-37 -63 -69 0
-37 -51 -53 0
-37 38 52 0
-37 40 -66 0
-36 -39 -69 0
-36 -37 70 0
-34 37 -49 0
-34 40 53 0
-33 -37 -64 0
-33 45 -69 0
-32 -35 42 0
-32 -35 57 0
-32 35 44 0
-30 -66 -69 0
-30 47 54 0
-29 35 -66 0
-29 59 67 0
-28 -60 -66 0
-28 -44 66 0
-28 55 68 0
-27 -31 -68 0
-27 -30 60 0
-27 29 64 0
-26 -47 54 0
-26 -33 -39 0
-26 50 -69 0
-25 -34 -59 0
-25 31 -59 0
-25 53 63 0
-24 -44 64 0
-24 -28 -58 0
-24 33 69 0
-24 41 49 0
-23 24 -61 0
-23 27 -31 0
-23 39 62 0
-22 -49 54 0
-22 29 -32 0
-22 33 48 0
-22 42 49 0
-21 -53 61 0
-21 -50 51 0
-21 -34 -69 0
-20 -48 61 0
-20 -40 54 0
-20 -32 -51 0
-20 59 -64 0
-19 -55 68 0
-19 33 57 0
-18 -47 -57 0
-17 -47 61 0
-17 -27 -69 0
-16 -37 -66 0
-16 20 49 0
-16 31 -59 0
-15 -31 -53 0
-15 -26 39 0
-15 -22 -51 0
-15 -17 -56 0
-15 16 61 0
-15 16 64 0
-14 -39 65 0
-14 -21 -43 0
-14 -18 43 0
-14 18 66 0
-14 29 41 0
-13 18 -28 0
-13 33 64 0
-13 50 66 0
-13 59 -60 0
-12 -31 46 0
-12 23 49 0
-12 41 60 0
-12 52 -66 0
-11 -18 43 0
-11 16 -22 0
-11 24 58 0
-10 -25 47 0
-10 -20 -57 0
-10 11 -39 0
-10 27 -63 0
-9 -14 -30 0
-9 -14 22 0
-9 53 63 0
-9 57 -67 0
-9 60 68 0
-8 -20 68 0
-8 -19 48 0
-8 22 31 0
-8 25 60 0
-8 41 47 0
-7 -36 -67 0
-7 -27 58 0
-7 -26 -59 0
-7 -19 -49 0
-7 -15 65 0
-7 15 -48 0
-6 -39 64 0
-6 -33 52 0
-6 -13 60 0
-6 -7 30 0
-6 23 -41 0
-6 25 64 0
-6 26 -50 0
-6 36 -41 0
-5 -28 -58 0
-5 -11 -22 0
-5 -8 -37 0
-5 35 65 0
-5 43 61 0
-4 -25 -33 0
-4 -22 52 0
-4 -18 57 0
-4 -10 -69 0
-4 29 -53 0
-3 -52 58 0
-3 -14 -69 0
-3 22 69 0
-3 33 -43 0
-3 48 55 0
-3 57 66 0
-2 -38 46 0
-2 -17 -60 0
-2 -9 -22 0
-2 -4 31 0
-2 13 38 0
-2 22 60 0
-2 29 -47 0
-2 38 -52 0
-1 -62 69 0
-1 -4 46 0
-1 4 33 0
1 -37 -56 0
1 -23 -37 0
1 -15 16 0
1 -13 -15 0
1 7 -57 0
1 18 44 0
1 32 67 0
1 36 -51 0
2 -48 64 0
2 -10 69 0
2 52 63 0
2 55 -67 0
3 -50 -70 0
3 -48 -60 0
3 13 42 0
3 17 27 0
3 30 46 0
3 34 37 0
4 -34 -65 0
4 -34 -47 0
4 -19 -63 0
4 -18 31 0
4 -15 28 0
5 -22 69 0
5 -16 55 0
5 40 49 0
5 66 67 0
6 -58 -68 0
6 -14 57 0
6 19 -61 0
6 20 32 0
6 54 63 0
7 -48 60 0
7 -45 70 0
7 -38 63 0
7 -22 30 0
8 -37 -45 0
8 -33 -44 0
8 -27 -58 0
8 -10 -26 0
8 25 -34 0
8 33 54 0
9 -27 48 0
9 -23 -54 0
9 -17 -62 0
9 -12 54 0
9 -11 -13 0
9 16 60 0
9 52 67 0
9 60 70 0
10 -33 70 0
10 -25 26 0
10 18 50 0
10 30 -31 0
11 -49 -54 0
11 -24 -62 0
11 -15 -31 0
11 13 -30 0
11 21 43 0
11 29 32 0
12 -38 47 0
12 -36 65 0
12 -24 -66 0
12 -13 56 0
12 16 -48 0
12 20 -45 0
12 44 -52 0
13 -51 53 0
13 19 56 0
13 21 46 0
13 25 42 0
13 33 -39 0
13 47 59 0
14 -34 36 0
15 16 30 0
15 20 -40 0
15 35 40 0
15 54 -65 0
16 -45 65 0
16 39 -58 0
16 49 -57 0
16 59 -60 0
17 -42 -53 0
17 -38 -70 0
17 -18 -19 0
17 19 60 0
18 -32 -60 0
18 53 -68 0
18 58 -63 0
19 -42 45 0
19 -34 -64 0
19 -30 -39 0
19 -24 52 0
19 43 49 0
20 -59 70 0
20 -33 -54 0
20 -28 43 0
21 -39 -68 0
21 -36 67 0
21 -32 -62 0
21 -25 -58 0
21 -24 -44 0
21 25 -51 0
21 35 55 0
22 23 48 0
22 48 -52 0
22 59 -63 0
23 -34 -52 0
23 -34 69 0
23 41 50 0
25 -55 60 0
25 -39 -40 0
25 -29 -35 0
25 31 -49 0
26 -51 -68 0
26 -47 67 0
26 -31 -34 0
26 58 -65 0
27 -49 58 0
27 -31 -58 0
27 29 30 0
27 54 -55 0
27 58 -67 0
28 31 63 0
29 -31 35 0
30 -41 63 0
30 47 62 0
30 56 -57 0
31 -41 66 0
31 53 68 0
32 -55 -67 0
34 -54 65 0
34 42 45 0
34 43 -61 0
34 45 -62 0
35 -45 -58 0
35 67 70 0
37 52 -54 0
38 47 -50 0
39 50 69 0
42 58 -66 0
43 -53 -57 0
43 44 68 0
43 47 52 0
48 -54 64 0
48 51 -56 0
49 51 59 0
50 -60 64 0
53 55 61 0
55 -62 69 0
55 60 70 0
60 63 -65 0
