p cnf 50 213
-44 -45 48 0
-38 43 -50 0
-38 44 47 0
-37 -45 -48 0
-33 39 -50 0
-32 -34 -43 0
-32 35 39 0
-31 -36 45 0
-31 -35 -44 0
-31 -35 49 0
-31 -34 39 0
-30 34 -41 0
-30 42 -43 0
-29 34 -42 0
-29 39 43 0
-28 -32 -44 0
-28 39 47 0
-26 44 48 0
-24 -27 -42 0
-24 26 46 0
-24 27 -36 0
-24 33 35 0
-23 -38 44 0
-23 -37 -48 0
-23 -33 41 0
-23 30 -43 0
-22 -38 -39 0
-22 -26 -35 0
-21 -37 41 0
-21 -22 30 0
-19 -28 38 0
-18 -34 -47 0
-18 -22 26 0
-17 -46 -47 0
-17 -21 25 0
-17 20 -43 0
-17 24 28 0
-16 -33 -44 0
-16 17 32 0
-16 20 -43 0
-16 26 -48 0
-15 -33 34 0
-15 -28 -39 0
-15 -28 36 0
-15 19 33 0
-15 27 -49 0
-15 27 -40 0
-15 35 43 0
-14 -33 42 0
-14 -32 -50 0
-14 38 42 0
-13 -36 43 0
-13 -28 -38 0
-13 -20 -24 0
-13 -15 18 0
-13 15 -25 0
-13 41 -42 0
-12 -27 -29 0
-12 -17 -41 0
-12 37 48 0
-11 -28 -36 0
-11 -13 17 0
-10 -11 15 0
-10 17 20 0
-10 22 -31 0
-9 -33 47 0
-9 -19 22 0
-9 22 -36 0
-9 31 48 0
-8 -35 -49 0
-8 -29 39 0
-8 -9 15 0
-8 13 33 0
-8 24 -38 0
-7 -39 43 0
-7 10 11 0
-7 12 20 0
-7 24 32 0
-7 27 49 0
-6 -36 -39 0
-6 -27 -48 0
-6 -23 38 0
-6 26 -49 0
-5 -14 49 0
-5 -8 -12 0
-5 7 -33 0
-5 11 42 0
-5 12 -38 0
-5 21 -26 0
-5 24 -33 0
-5 27 -39 0
-5 33 -50 0
-5 35 41 0
-5 40 -50 0
-4 -35 -44 0
-4 -35 42 0
-4 -27 -30 0
-4 -19 39 0
-4 27 32 0
-4 29 -38 0
-3 -35 -36 0
-3 -21 25 0
-3 -19 24 0
-3 16 -37 0
-2 -41 -47 0
-2 -18 -32 0
-2 -10 34 0
-2 -3 -7 0
-2 -3 34 0
-2 4 -34 0
-2 13 -21 0
-1 -25 50 0
-1 -10 31 0
-1 -2 -32 0
-1 8 49 0
1 -34 -50 0
1 -25 35 0
1 -4 -45 0
1 6 -24 0
1 30 -40 0
1 31 38 0
2 -25 -30 0
2 -4 27 0
3 -14 -36 0
3 -5 -23 0
3 25 50 0
3 34 35 0
4 -24 26 0
4 -12 -50 0
4 26 37 0
4 27 30 0
5 -7 -26 0
5 10 32 0
5 21 -45 0
5 25 -28 0
5 33 -50 0
5 34 -47 0
6 -16 27 0
6 25 -40 0
7 -29 33 0
7 -20 38 0
7 -18 37 0
7 -13 -22 0
7 14 -26 0
7 18 40 0
7 27 -30 0
8 -32 -48 0
8 -22 35 0
8 11 14 0
8 17 -25 0
9 -19 -28 0
9 -18 23 0
9 -10 -43 0
9 10 42 0
9 23 33 0
9 26 -32 0
9 33 -43 0
10 -41 -50 0
10 -35 -46 0
10 -26 -29 0
10 22 36 0
10 32 -33 0
10 36 44 0
11 -22 34 0
11 -19 -41 0
11 28 32 0
11 31 38 0
12 -37 -38 0
12 -14 -22 0
13 -23 -25 0
13 -18 36 0
13 15 20 0
13 26 -50 0
13 42 -50 0
13 43 44 0
14 -36 47 0
14 21 47 0
15 -21 38 0
15 -21 39 0
15 -20 -43 0
15 16 -41 0
15 18 39 0
16 -41 48 0
16 -27 -50 0
16 -25 39 0
17 -44 47 0
17 26 -30 0
18 -23 -46 0
18 21 46 0
18 22 29 0
19 -35 -39 0
20 -47 -48 0
20 28 40 0
20 30 -44 0
21 -28 -33 0
21 -26 -48 0
22 -25 -36 0
23 -27 36 0
24 30 41 0
24 34 -40 0
25 -31 50 0
26 -39 46 0
26 36 -46 0
27 -46 -50 0
27 -41 -49 0
27 -37 48 0
29 -44 -48 0
29 -43 48 0
29 -39 49 0
29 32 -41 0
29 38 39 0
30 35 -45 0
32 -43 45 0
