p cnf 50 213
-36 -37 -45 0
-32 -44 50 0
-31 -33 -41 0
-31 39 -45 0
-30 -39 40 0
-30 -31 47 0
-30 31 45 0
-30 35 43 0
-29 -33 37 0
-29 30 44 0
-29 32 44 0
-29 40 -50 0
-28 -44 -46 0
-28 -36 47 0
-27 29 -49 0
-27 38 49 0
-26 -42 -44 0
-26 -32 -33 0
-26 36 38 0
-26 41 49 0
-25 31 -45 0
-24 27 41 0
-23 -38 40 0
-23 -29 33 0
-22 -41 46 0
-22 -36 50 0
-22 -27 44 0
-22 45 -46 0
-21 33 35 0
-20 -35 -48 0
-20 44 -47 0
-19 -30 -38 0
-19 21 -47 0
-19 35 -44 0
-18 -43 48 0
-18 -38 -48 0
-18 -28 -34 0
-18 -26 33 0
-18 19 -27 0
-17 -47 50 0
-17 -25 -31 0
-17 -22 -31 0
-17 31 33 0
-17 37 -48 0
-16 -18 19 0
-15 -33 -39 0
-15 17 31 0
-14 -28 46 0
-14 -16 19 0
-14 16 -28 0
-14 26 -48 0
-14 34 -50 0
-13 -19 30 0
-13 16 22 0
-13 17 35 0
-13 18 44 0
-12 26 -46 0
-12 36 44 0
-11 -24 33 0
-11 13 -44 0
-11 14 36 0
-11 18 -28 0
-10 -38 -45 0
-10 -25 49 0
-10 -21 -33 0
-10 20 33 0
-10 32 -38 0
-10 39 -46 0
-9 -37 42 0
-9 -21 32 0
-9 11 -42 0
-9 16 -40 0
-9 16 36 0
-9 21 -22 0
-9 31 39 0
-8 -29 49 0
-8 10 -20 0
-7 -15 -50 0
-7 -9 42 0
-7 26 28 0
-7 27 -47 0
-6 -12 -38 0
-6 -11 33 0
-6 30 -41 0
-6 33 -50 0
-5 -38 -45 0
-5 -18 25 0
-5 6 -38 0
-5 19 -40 0
-5 27 29 0
-4 -29 -43 0
-4 -28 -45 0
-4 -20 -49 0
-4 -13 -20 0
-4 -8 -9 0
-4 12 -31 0
-4 16 30 0
-3 -19 -46 0
-3 -18 -41 0
-3 -11 -28 0
-3 6 39 0
-3 9 -35 0
-3 14 -38 0
-3 23 30 0
-2 -30 47 0
-2 -29 36 0
-2 -22 48 0
-2 -12 -15 0
-2 -3 33 0
-2 6 -43 0
-2 15 -46 0
-2 24 -29 0
-2 26 -36 0
-2 32 34 0
-2 35 -36 0
-2 38 50 0
-1 -31 42 0
-1 -20 -50 0
-1 -8 -13 0
-1 -7 -23 0
-1 2 8 0
1 -18 43 0
1 -16 -36 0
1 3 -28 0
1 7 -45 0
1 43 47 0
1 45 -46 0
2 -30 -35 0
2 -29 36 0
2 -25 47 0
2 4 40 0
2 27 -28 0
3 -29 -36 0
3 -27 37 0
3 -12 -39 0
3 -10 -14 0
3 -5 -8 0
3 -4 38 0
3 9 -39 0
3 11 -47 0
3 11 13 0
3 39 46 0
4 -36 40 0
4 -10 33 0
4 -9 25 0
4 7 -37 0
4 26 -35 0
4 28 34 0
4 39 -50 0
5 -40 -49 0
5 -16 31 0
5 34 46 0
5 46 49 0
6 12 -49 0
6 33 -35 0
7 -40 42 0
7 -34 -44 0
7 -21 30 0
7 12 -27 0
8 -32 -39 0
8 -24 26 0
8 -21 -50 0
8 -20 -48 0
8 -20 -40 0
8 -19 34 0
8 -11 -36 0
8 38 48 0
9 -29 -46 0
9 -18 -44 0
9 -11 38 0
9 44 45 0
10 -26 30 0
10 -15 -29 0
10 17 30 0
10 21 33 0
11 -34 -40 0
11 -27 -44 0
11 -12 -16 0
11 37 -50 0
11 42 44 0
11 46 -47 0
12 -19 38 0
12 34 43 0
13 -22 -23 0
13 19 39 0
13 23 47 0
13 24 35 0
15 -35 42 0
15 -19 -43 0
15 -17 -46 0
16 22 36 0
16 32 40 0
18 -23 30 0
18 19 40 0
18 22 -33 0
18 40 45 0
20 -21 -27 0
21 -25 38 0
21 -24 49 0
21 26 50 0
21 42 -45 0
23 -26 30 0
24 28 42 0
27 -47 -48 0
27 29 48 0
30 -31 -37 0
31 37 -50 0
32 -43 46 0
32 -36 -43 0
33 -37 41 0
34 -35 40 0
35 -42 46 0
35 36 -39 0
