p cnf 55 234
-35 -36 48 0
-35 40 47 0
-31 -45 -47 0
-29 -30 38 0
-29 32 -51 0
-28 33 50 0
-27 52 -53 0
-26 -39 50 0
-26 -31 46 0
-26 36 55 0
-25 -45 54 0
-25 -27 34 0
-25 45 53 0
-24 -29 -37 0
-24 41 42 0
-24 44 48 0
-22 -37 -45 0
-22 -30 -33 0
-22 -30 49 0
-21 -44 -54 0
-21 22 -44 0
-20 39 40 0
-19 -39 41 0
-19 34 41 0
-18 -24 -31 0
-18 35 -46 0
-18 38 -49 0
-17 -42 -49 0
-17 19 32 0
-17 24 -42 0
-17 24 -35 0
-17 41 -50 0
-17 41 54 0
-16 -42 -49 0
-16 -23 -27 0
-16 -22 53 0
-16 27 35 0
-16 28 -49 0
-16 44 -52 0
-16 47 52 0
-15 -22 28 0
-15 23 -37 0
-14 -43 48 0
-14 -28 38 0
-14 -22 24 0
-14 18 -30 0
-14 47 52 0
-13 -24 33 0
-13 21 -43 0
-12 -23 -24 0
-12 -22 -28 0
-12 23 25 0
-12 28 50 0
-11 -40 -51 0
-11 -35 51 0
-11 -17 24 0
-11 38 45 0
-10 -20 -55 0
-10 -15 -28 0
-10 30 -48 0
-10 33 38 0
-9 -30 -47 0
-9 -15 24 0
-9 10 26 0
-9 12 -37 0
-9 12 -26 0
-9 24 -27 0
-9 28 44 0
-8 -13 -38 0
-8 -11 38 0
-8 22 -36 0
-8 47 53 0
-7 9 53 0
-7 10 27 0
-7 39 43 0
-6 -39 41 0
-6 -13 -27 0
-6 -13 -21 0
-6 7 10 0
-6 17 -31 0
-6 19 -46 0
-6 20 -46 0
-6 28 -39 0
-5 -28 -45 0
-5 -16 22 0
-5 9 -45 0
-5 16 26 0
-5 19 -38 0
-5 35 -46 0
-5 41 44 0
-4 -35 44 0
-4 10 23 0
-4 29 -45 0
-4 29 30 0
-3 -23 53 0
-3 -22 50 0
-3 -21 54 0
-3 13 40 0
-3 18 52 0
-3 23 -55 0
-2 -42 45 0
-2 -39 42 0
-2 -24 43 0
-2 -17 20 0
-2 -13 -16 0
-2 19 40 0
-2 42 -44 0
-1 -36 -40 0
-1 -14 -52 0
-1 -14 39 0
-1 20 34 0
-1 28 -43 0
-1 34 -39 0
1 -30 -40 0
1 -15 44 0
1 40 -47 0
2 -29 -40 0
2 -26 35 0
2 -19 37 0
2 -14 34 0
2 -13 49 0
2 5 -15 0
2 10 54 0
2 16 52 0
2 18 -31 0
3 -17 22 0
3 -15 20 0
3 16 39 0
3 23 28 0
3 32 47 0
4 -40 -43 0
4 -26 -51 0
4 -17 -51 0
4 -15 29 0
4 11 -55 0
4 22 -41 0
4 22 53 0
4 24 -38 0
4 25 44 0
4 27 -52 0
4 35 -45 0
5 -18 51 0
5 7 19 0
5 18 -53 0
6 -41 -42 0
6 -29 -30 0
6 -8 50 0
6 26 46 0
6 31 -35 0
6 36 49 0
6 44 52 0
6 47 53 0
7 -36 -54 0
7 8 31 0
7 17 -45 0
7 21 -46 0
7 26 52 0
8 -20 -42 0
8 -11 28 0
8 -10 20 0
8 26 -42 0
9 -27 -55 0
9 13 -55 0
9 35 47 0
10 -32 40 0
10 -27 37 0
10 -26 -27 0
10 -14 -35 0
10 -11 -38 0
10 25 -36 0
11 -44 -45 0
11 -26 -47 0
11 16 -27 0
11 17 32 0
11 23 -42 0
12 -48 50 0
12 13 51 0
12 20 -45 0
12 26 -34 0
13 -37 -55 0
13 -33 50 0
13 44 -51 0
14 -30 -37 0
14 28 -50 0
15 -32 -34 0
15 -16 29 0
16 -25 30 0
16 17 43 0
16 24 -50 0
16 44 -54 0
16 45 52 0
17 -44 -46 0
18 -31 -53 0
19 -36 53 0
19 -34 -42 0
19 -22 34 0
19 20 55 0
19 33 -54 0
19 36 47 0
20 -31 -52 0
20 -22 -28 0
21 -44 -55 0
21 22 36 0
21 36 53 0
23 -26 49 0
23 24 32 0
23 40 -49 0
24 -41 47 0
24 -30 -39 0
24 51 55 0
25 33 54 0
26 -40 52 0
26 -36 49 0
26 -32 -46 0
27 -50 -51 0
27 -29 -40 0
27 44 49 0
28 -37 -51 0
28 44 47 0
29 -34 47 0
29 35 -38 0
30 44 51 0
31 -36 47 0
32 33 -42 0
33 -51 -53 0
33 -48 53 0
34 44 47 0
35 -40 -51 0
37 38 -46 0
38 -50 -51 0
39 41 -46 0
41 -44 47 0
41 54 55 0
42 45 54 0
