p cnf 100 360
-85 -91 -92 0
-75 -79 81 0
-74 -87 99 0
-73 -83 -85 0
-73 81 99 0
-63 84 -90 0
-62 80 95 0
-61 65 79 0
-60 -94 -98 0
-60 -92 -97 0
-58 -63 -88 0
-58 85 88 0
-57 -60 67 0
-55 -79 95 0
-55 -56 -88 0
-52 69 -91 0
-51 -95 -98 0
-51 -89 97 0
-51 66 70 0
-51 90 -96 0
-50 -68 -82 0
-50 -51 77 0
-49 -64 -66 0
-48 69 87 0
-47 -69 94 0
-46 -81 88 0
-46 86 97 0
-45 -81 100 0
-45 -55 86 0
-45 61 -64 0
-43 -46 -74 0
-41 52 -71 0
-39 71 -75 0
-38 -55 -76 0
-38 -44 58 0
-38 -41 -96 0
-38 64 88 0
-37 68 -97 0
-36 -49 -85 0
-36 73 -78 0
-35 44 -55 0
-34 -72 84 0
-34 -47 -100 0
-34 -35 -44 0
-34 40 75 0
-34 84 -99 0
-33 -56 -58 0
-33 -47 -76 0
-33 41 -43 0
-32 -53 -76 0
-32 36 -67 0
-31 -66 96 0
-31 -45 -74 0
-31 38 -88 0
-31 41 69 0
-31 87 -89 0
-30 40 74 0
-29 -34 46 0
-29 -34 54 0
-29 45 68 0
-29 56 71 0
-29 73 -94 0
-28 -75 91 0
-28 -40 95 0
-28 -33 -95 0
-28 29 58 0
-28 33 94 0
-28 50 52 0
-28 59 96 0
-27 -65 72 0
-27 -41 97 0
-27 -33 100 0
-27 37 90 0
-26 -72 -81 0
-26 50 -51 0
-25 -38 -91 0
-25 -37 69 0
-25 -28 -44 0
-24 -78 94 0
-24 -50 86 0
-24 27 32 0
-24 35 -71 0
-23 -46 -48 0
-23 53 86 0
-22 -32 58 0
-22 -27 -100 0
-21 -75 97 0
-21 -36 48 0
-21 28 84 0
-21 86 -96 0
-20 -26 -63 0
-20 -22 -59 0
-20 50 90 0
-19 -67 84 0
-19 -62 -81 0
-19 -56 -69 0
-18 26 -94 0
-18 42 69 0
-18 52 -63 0
-18 86 -100 0
-17 -84 -90 0
-17 -43 99 0
-17 -36 -66 0
-17 -32 -81 0
-17 -23 34 0
-17 -19 88 0
-17 32 61 0
-17 44 -58 0
-17 44 73 0
-17 54 55 0
-17 70 100 0
-17 81 -89 0
-16 -71 76 0
-16 -30 -64 0
-16 -29 -79 0
-16 61 -97 0
-16 68 70 0
-15 39 83 0
-15 49 74 0
-14 -15 27 0
-14 21 -49 0
-14 38 -56 0
-13 -31 -64 0
-13 51 53 0
-13 65 96 0
-13 82 -85 0
-12 -30 51 0
-12 -17 -34 0
-12 14 -58 0
-12 21 40 0
-12 57 96 0
-11 -91 98 0
-11 -55 63 0
-11 -43 -99 0
-11 -34 -66 0
-11 -32 -78 0
-11 -22 -59 0
-11 22 -34 0
-11 71 84 0
-10 -80 -91 0
-10 -42 -68 0
-10 -32 -40 0
-9 -62 -71 0
-9 -35 41 0
-9 -16 -22 0
-8 -82 -100 0
-8 -45 97 0
-8 -24 -52 0
-8 -19 68 0
-8 -14 -65 0
-8 19 89 0
-7 -25 80 0
-7 63 -79 0
-6 22 32 0
-6 30 86 0
-5 -62 68 0
-5 -7 -85 0
-5 10 -51 0
-5 27 88 0
-4 -53 -56 0
-4 -38 99 0
-4 -18 -94 0
-4 -16 40 0
-4 -14 -54 0
-4 29 -61 0
-3 -28 91 0
-3 -27 -69 0
-3 -26 -82 0
-3 9 51 0
-3 25 73 0
-3 31 -52 0
-3 33 -75 0
-3 36 -39 0
-3 53 -55 0
-2 -44 99 0
-2 -41 -55 0
-2 -16 74 0
-2 -13 73 0
-2 14 18 0
-2 16 90 0
-2 58 -75 0
-1 -70 -94 0
-1 -41 65 0
-1 44 63 0
-1 94 -97 0
1 -42 92 0
1 -8 -100 0
1 6 -32 0
1 18 -61 0
1 18 25 0
1 23 32 0
1 34 36 0
1 66 -100 0
2 -57 -63 0
2 11 -33 0
2 16 60 0
2 85 88 0
3 -71 89 0
3 -50 -77 0
3 -4 -64 0
3 31 -50 0
3 36 -94 0
3 44 -48 0
3 64 93 0
3 89 93 0
4 -52 89 0
4 -9 -81 0
5 -33 -42 0
5 -11 57 0
5 12 -93 0
6 -12 -88 0
6 16 -56 0
6 43 -46 0
7 -49 70 0
7 -44 -81 0
7 -18 -81 0
7 -8 77 0
7 58 -84 0
7 72 -84 0
8 -57 65 0
8 -56 -82 0
8 38 -42 0
9 -56 84 0
9 -20 44 0
9 13 91 0
9 46 77 0
9 54 68 0
9 66 81 0
10 -70 84 0
10 -38 -58 0
10 -22 -29 0
10 -20 -58 0
10 12 -30 0
10 14 -63 0
10 21 -96 0
11 55 91 0
12 -14 -75 0
12 41 60 0
13 -68 -83 0
13 -39 68 0
13 -37 55 0
13 -30 54 0
13 -20 65 0
13 23 54 0
14 -47 -52 0
14 49 -82 0
14 62 94 0
14 67 80 0
14 87 -98 0
15 -25 -28 0
15 61 95 0
16 -74 89 0
16 -23 -38 0
16 -23 30 0
16 19 24 0
16 35 38 0
16 65 -98 0
17 -45 -69 0
17 28 93 0
17 30 -32 0
18 -42 -53 0
18 -20 85 0
18 23 63 0
18 46 -70 0
18 52 -72 0
18 61 87 0
19 46 55 0
19 63 70 0
20 -53 -62 0
20 71 -76 0
21 33 40 0
22 -30 -44 0
23 -25 34 0
23 26 -100 0
23 28 -99 0
23 29 -56 0
23 50 -98 0
24 48 -53 0
24 53 100 0
24 55 -86 0
25 -64 -70 0
25 31 57 0
26 -72 80 0
26 -71 -86 0
26 -64 -85 0
26 42 -48 0
27 -81 -96 0
27 -37 99 0
27 33 -39 0
28 76 100 0
29 65 79 0
30 -35 -86 0
30 31 -99 0
30 54 -84 0
31 -64 -88 0
31 -40 -82 0
31 -40 -52 0
31 68 -72 0
32 39 -98 0
32 43 60 0
33 -41 66 0
33 68 -89 0
34 -90 -96 0
35 -41 70 0
36 -51 -77 0
37 -78 -98 0
37 49 -75 0
38 -80 -84 0
38 -74 93 0
38 -43 53 0
39 -52 -67 0
40 -70 -97 0
40 -48 68 0
41 -54 -75 0
41 -53 -82 0
41 -52 62 0
41 64 -88 0
41 70 99 0
42 81 -91 0
43 -95 98 0
43 46 85 0
44 -68 -92 0
44 -49 93 0
44 -46 -48 0
45 -67 -78 0
46 -64 70 0
46 -57 61 0
47 66 94 0
47 74 -83 0
48 70 72 0
49 -98 100 0
49 -51 -96 0
50 65 71 0
51 -76 -97 0
52 -76 -84 0
52 60 -73 0
54 -80 100 0
55 -66 -68 0
55 66 -95 0
56 -70 -78 0
56 61 -71 0
57 -74 87 0
57 89 -91 0
58 -61 -100 0
58 63 69 0
58 91 96 0
62 -78 87 0
62 72 -90 0
63 71 78 0
64 80 -92 0
68 71 91 0
68 75 80 0
71 80 -99 0
72 76 78 0
73 76 84 0
77 -91 96 0
79 -85 95 0
83 -95 -96 0
87 -98 99 0
87 -89 -96 0
