p cnf 30 128
-27 29 -30 0
-26 28 -29 0
-22 24 -26 0
-21 -25 27 0
-20 21 -26 0
-19 -24 28 0
-16 -17 24 0
-16 24 25 0
-15 18 19 0
-14 15 28 0
-13 -22 28 0
-12 16 -25 0
-11 -13 -18 0
-11 14 16 0
-11 25 28 0
-10 -24 -27 0
-10 -20 -22 0
-10 -16 -22 0
-10 13 -30 0
-10 17 25 0
-9 13 30 0
-9 14 17 0
-9 14 25 0
-9 23 27 0
-8 9 29 0
-8 16 -17 0
-8 20 21 0
-7 -21 -27 0
-7 -17 -27 0
-7 8 10 0
-7 9 -12 0
-7 9 28 0
-7 18 -29 0
-7 21 -30 0
-7 26 29 0
-6 -21 -26 0
-6 -20 -22 0
-6 -9 28 0
-6 13 30 0
-5 -23 -24 0
-5 -18 23 0
-5 15 -25 0
-5 18 27 0
-4 -7 30 0
-3 -12 29 0
-3 -9 -30 0
-3 7 -26 0
-3 7 -12 0
-3 9 -20 0
-3 9 -17 0
-3 12 21 0
-2 -21 25 0
-2 -9 -21 0
-2 6 27 0
-2 9 -21 0
-2 13 24 0
-1 -18 22 0
-1 -13 22 0
-1 -10 -22 0
-1 -3 -24 0
-1 3 26 0
-1 8 18 0
-1 10 22 0
-1 16 -22 0
-1 19 21 0
1 -14 17 0
1 6 -27 0
1 7 23 0
1 12 25 0
1 20 30 0
2 -15 -29 0
2 -7 -16 0
2 -3 -11 0
2 7 -12 0
2 18 -19 0
3 -19 -22 0
3 -19 30 0
3 -10 -29 0
3 -9 -23 0
3 10 -11 0
4 -10 -26 0
4 17 -24 0
5 8 -11 0
5 11 -28 0
6 -19 27 0
6 -18 20 0
6 -15 -23 0
6 -8 9 0
6 9 24 0
6 10 -12 0
6 20 25 0
6 28 -29 0
7 -24 -27 0
7 14 -16 0
7 21 -28 0
7 23 -26 0
7 28 29 0
8 -25 29 0
8 -19 26 0
8 -11 19 0
8 13 -25 0
8 18 -23 0
9 -23 27 0
9 17 24 0
10 -27 -29 0
10 -19 24 0
10 13 -22 0
11 18 28 0
11 26 27 0
12 -20 22 0
12 -17 27 0
12 13 22 0
12 21 27 0
12 26 27 0
13 -23 24 0
14 -15 18 0
14 19 -27 0
14 26 30 0
15 18 -25 0
15 20 -28 0
17 -21 29 0
17 20 30 0
17 24 30 0
18 -28 29 0
18 25 27 0
19 21 26 0
20 26 27 0
21 -23 -30 0
