p cnf 45 191
-41 -43 44 0
-39 42 45 0
-38 40 45 0
-32 34 -45 0
-29 -33 45 0
-28 -31 -34 0
-26 30 -45 0
-25 -29 -37 0
-25 -29 40 0
-21 23 -43 0
-21 30 44 0
-20 -36 41 0
-20 -24 28 0
-20 32 39 0
-19 -23 39 0
-19 23 -40 0
-19 24 45 0
-18 -24 33 0
-18 -19 -42 0
-18 25 -40 0
-18 25 29 0
-17 -30 33 0
-17 -21 -34 0
-17 29 -42 0
-16 -21 36 0
-16 19 24 0
-16 23 -41 0
-16 25 -29 0
-15 -22 -33 0
-15 -21 -25 0
-15 -19 -30 0
-15 40 -45 0
-14 -29 40 0
-14 -20 32 0
-13 -41 42 0
-13 -19 -29 0
-13 -16 -28 0
-13 -14 -45 0
-13 18 42 0
-13 28 -30 0
-12 19 -42 0
-12 31 -36 0
-12 39 -40 0
-11 -35 -43 0
-11 -24 27 0
-11 -24 30 0
-11 -20 -28 0
-10 -28 -42 0
-10 -25 -44 0
-10 -21 36 0
-10 14 33 0
-10 15 34 0
-10 16 45 0
-9 -36 37 0
-9 -17 33 0
-9 -15 26 0
-9 17 38 0
-8 -40 44 0
-8 -25 31 0
-8 -12 14 0
-8 10 32 0
-8 15 32 0
-7 -35 37 0
-7 -16 -21 0
-7 -11 17 0
-7 25 -43 0
-6 -31 38 0
-6 -15 30 0
-6 -9 -43 0
-6 -9 -11 0
-6 7 -28 0
-6 28 -43 0
-5 -36 -37 0
-5 -11 -13 0
-5 -7 -42 0
-5 11 17 0
-5 12 -26 0
-5 22 -45 0
-4 -15 39 0
-4 36 43 0
-3 -22 35 0
-3 -17 -35 0
-3 -9 18 0
-3 12 13 0
-3 13 40 0
-3 18 -38 0
-3 25 32 0
-3 29 41 0
-2 -19 24 0
-2 -13 44 0
-2 -10 34 0
-2 -5 21 0
-2 16 -24 0
-2 27 42 0
-1 -36 44 0
-1 -24 -28 0
-1 2 -14 0
-1 8 24 0
-1 9 -42 0
-1 31 -34 0
1 2 -29 0
1 10 -18 0
2 -16 -34 0
2 -12 30 0
2 -11 22 0
2 6 17 0
2 10 42 0
2 33 -39 0
3 8 -32 0
3 16 41 0
3 20 -36 0
3 38 -44 0
3 39 40 0
3 42 45 0
4 -33 -43 0
4 -26 33 0
4 -25 42 0
4 -17 -19 0
4 -5 9 0
4 7 -23 0
4 8 -45 0
4 13 37 0
4 28 39 0
5 -40 44 0
5 -28 -35 0
5 -10 -35 0
5 -10 -23 0
6 15 -17 0
6 16 -26 0
6 35 -39 0
7 -40 41 0
7 -39 -44 0
7 -30 -42 0
7 -17 -20 0
7 15 -16 0
7 17 42 0
8 -34 36 0
8 -31 -45 0
8 -24 -33 0
8 -23 39 0
8 -13 -31 0
8 -11 38 0
8 9 40 0
8 10 -18 0
8 27 38 0
9 -20 21 0
9 -11 -25 0
9 16 -45 0
10 -33 -42 0
10 -17 -30 0
10 18 -41 0
10 25 38 0
10 29 -45 0
10 31 36 0
12 -35 -38 0
12 -26 36 0
12 -16 -38 0
13 27 -36 0
13 33 44 0
14 -29 39 0
14 -24 -28 0
14 15 -16 0
14 32 33 0
15 -24 26 0
15 -21 30 0
15 37 44 0
16 25 39 0
17 19 24 0
17 21 45 0
17 22 -34 0
17 30 39 0
18 -33 37 0
19 -31 36 0
20 -28 36 0
20 -23 -36 0
20 -23 40 0
20 -21 -34 0
21 -25 40 0
21 31 40 0
22 -25 -37 0
22 29 -42 0
22 33 -42 0
23 -26 34 0
23 -25 27 0
23 35 -37 0
25 -26 -29 0
26 -32 35 0
26 39 -44 0
28 -42 -43 0
28 32 35 0
38 -39 -45 0
