p cnf 55 234
-45 -49 -55 0
-43 50 52 0
-39 -40 46 0
-39 43 49 0
-39 47 51 0
-38 52 -53 0
-35 37 -48 0
-31 32 -50 0
-31 32 -33 0
-30 37 40 0
-30 53 55 0
-28 -45 50 0
-28 29 -49 0
-27 -35 -49 0
-27 -33 48 0
-27 37 44 0
-26 29 -45 0
-26 46 -47 0
-25 -31 44 0
-25 -31 47 0
-25 -26 46 0
-24 27 53 0
-24 34 -38 0
-23 -43 53 0
-23 -29 -37 0
-22 -42 49 0
-22 30 -32 0
-22 47 53 0
-21 29 -39 0
-19 -45 -48 0
-18 -29 55 0
-18 -25 -38 0
-18 -25 -36 0
-17 23 -35 0
-17 29 -48 0
-17 43 44 0
-16 -37 -49 0
-16 -27 -33 0
-16 40 55 0
-16 44 -49 0
-15 -38 48 0
-15 18 -35 0
-15 18 48 0
-15 20 21 0
-15 23 -43 0
-14 -29 -50 0
-14 -25 39 0
-14 -19 -27 0
-14 44 -52 0
-14 50 -53 0
-13 -28 30 0
-13 -18 36 0
-13 20 -54 0
-12 13 26 0
-12 48 53 0
-11 -33 47 0
-11 -18 -42 0
-11 20 29 0
-10 -53 55 0
-10 -21 -54 0
-10 11 -40 0
-10 16 -35 0
-10 20 -39 0
-10 32 -54 0
-10 38 -40 0
-9 -28 -52 0
-9 -26 34 0
-9 -22 -54 0
-9 -13 16 0
-9 26 -28 0
-9 34 44 0
-8 12 -22 0
-8 47 55 0
-7 -49 53 0
-7 -33 49 0
-7 -23 -38 0
-7 16 -41 0
-7 19 52 0
-7 32 38 0
-6 -29 -35 0
-6 -10 51 0
-6 11 -45 0
-6 25 -45 0
-6 38 -54 0
-5 -39 44 0
-5 -7 -18 0
-5 13 -29 0
-5 47 54 0
-4 -39 -41 0
-4 -34 47 0
-4 -7 -41 0
-4 -5 27 0
-4 21 23 0
-4 25 -46 0
-4 29 -39 0
-4 42 -44 0
-4 51 55 0
-3 -36 49 0
-3 -31 39 0
-3 -15 36 0
-3 -8 -36 0
-3 4 -5 0
-3 19 46 0
-3 21 -27 0
-2 -26 40 0
-2 -19 21 0
-2 -14 31 0
-2 -10 20 0
-2 5 32 0
-2 15 22 0
-2 23 41 0
-2 37 -48 0
-1 -30 45 0
-1 -16 -17 0
-1 -15 -44 0
-1 11 55 0
-1 42 44 0
1 -51 54 0
1 -28 -32 0
1 -22 24 0
1 -20 23 0
1 -12 38 0
1 -11 -21 0
1 -2 -38 0
1 2 -48 0
1 5 8 0
1 12 -25 0
1 35 -38 0
2 -34 37 0
2 -31 -51 0
2 -22 41 0
2 -4 42 0
2 7 -33 0
2 12 52 0
2 25 31 0
2 52 -54 0
3 -33 46 0
3 -29 30 0
3 -20 -32 0
3 -10 18 0
3 -7 -52 0
3 7 -8 0
3 9 -17 0
3 10 45 0
3 16 -48 0
3 16 19 0
3 19 34 0
3 20 24 0
3 25 52 0
3 38 41 0
4 -29 46 0
4 -5 -26 0
4 8 27 0
5 -28 34 0
5 -18 41 0
5 -17 33 0
5 -14 50 0
5 -6 -54 0
5 7 52 0
5 35 -47 0
6 -20 -27 0
6 -20 45 0
6 -17 20 0
6 -11 32 0
6 -7 17 0
6 19 -34 0
7 -24 45 0
7 13 39 0
7 21 -38 0
7 26 43 0
7 27 52 0
7 29 -40 0
8 -39 46 0
8 -36 -43 0
8 -24 -27 0
8 15 46 0
8 24 55 0
9 -45 -54 0
9 -19 54 0
10 -21 -32 0
10 15 29 0
10 18 37 0
10 33 -50 0
11 -41 -50 0
11 -31 35 0
11 -21 -42 0
11 -21 27 0
11 -16 -28 0
12 -31 36 0
12 -27 39 0
12 14 42 0
12 33 47 0
14 19 -22 0
14 25 -32 0
15 44 47 0
16 -37 40 0
16 -25 -26 0
16 -21 42 0
16 -17 -49 0
16 23 43 0
16 28 -40 0
17 -34 -51 0
18 -43 54 0
18 40 -55 0
19 -42 53 0
19 -32 54 0
19 -28 52 0
19 22 47 0
19 25 53 0
19 29 -46 0
19 32 48 0
19 43 51 0
20 -46 49 0
20 -27 32 0
20 38 -52 0
20 49 53 0
21 39 51 0
22 25 41 0
22 36 49 0
22 36 53 0
23 -41 54 0
23 24 -37 0
23 29 51 0
25 40 -42 0
26 -44 54 0
26 -31 46 0
28 -35 -45 0
29 -38 -48 0
29 -32 -39 0
33 50 -53 0
34 46 -47 0
34 47 -49 0
40 -43 -49 0
41 -45 -49 0
