p cnf 35 149
-22 -23 26 0
-21 23 32 0
-20 -23 25 0
-19 27 29 0
-17 -19 -31 0
-17 21 24 0
-16 33 35 0
-15 -27 -33 0
-15 -17 34 0
-15 21 -32 0
-15 25 33 0
-14 -17 21 0
-13 -23 -26 0
-13 17 28 0
-12 -25 -33 0
-12 -14 22 0
-12 18 -28 0
-12 18 -19 0
-11 -27 33 0
-11 19 34 0
-11 20 31 0
-11 22 26 0
-11 22 32 0
-10 -32 33 0
-10 -19 23 0
-10 24 29 0
-9 -20 -22 0
-9 -12 -21 0
-9 13 -22 0
-9 18 21 0
-8 -18 29 0
-8 -16 35 0
-7 -20 26 0
-7 8 23 0
-7 13 31 0
-7 16 -35 0
-6 -22 -34 0
-6 -21 25 0
-6 -19 -27 0
-6 -10 -21 0
-6 -8 9 0
-6 14 31 0
-5 -20 -25 0
-5 -15 -30 0
-5 -8 31 0
-5 13 19 0
-5 20 -27 0
-4 -28 -29 0
-4 -16 25 0
-4 -16 30 0
-4 -12 -35 0
-4 10 13 0
-4 10 29 0
-4 11 16 0
-4 12 14 0
-3 -24 -33 0
-3 -23 32 0
-3 6 14 0
-3 7 35 0
-3 9 -15 0
-3 25 30 0
-2 -25 29 0
-2 -19 28 0
-2 -13 23 0
-2 4 17 0
-2 11 15 0
-1 -5 33 0
-1 19 29 0
-1 28 -32 0
1 -22 -31 0
1 -17 -21 0
1 -9 -25 0
1 -8 -19 0
1 -6 -7 0
1 7 32 0
2 -26 29 0
2 -20 33 0
2 -15 23 0
2 -13 20 0
2 -7 -23 0
2 -6 32 0
2 5 -24 0
2 14 -34 0
2 14 25 0
2 16 -35 0
2 16 -26 0
2 17 -22 0
2 23 -35 0
3 -18 -26 0
3 -13 -22 0
3 -9 -32 0
3 8 13 0
3 9 -21 0
3 14 30 0
3 16 -27 0
3 16 26 0
3 17 23 0
4 -13 -17 0
4 -11 -21 0
4 23 -29 0
4 24 29 0
5 -13 21 0
5 -8 -34 0
5 6 -32 0
5 6 20 0
5 7 -35 0
6 -21 -34 0
6 -11 22 0
6 7 30 0
6 10 -33 0
6 19 -20 0
7 -11 22 0
7 -8 32 0
7 8 -27 0
7 14 32 0
8 -21 35 0
8 -15 27 0
8 9 -20 0
8 11 34 0
9 -22 26 0
9 -21 26 0
9 10 -34 0
10 -25 28 0
10 -22 -32 0
11 -22 27 0
11 -19 21 0
11 -12 -18 0
12 -23 25 0
12 15 33 0
12 29 -31 0
13 15 -30 0
13 22 33 0
14 16 33 0
14 20 30 0
15 -21 -29 0
16 -33 -34 0
16 -26 -27 0
16 -21 -26 0
17 -25 -30 0
17 23 -27 0
17 25 -27 0
18 25 34 0
19 -20 21 0
19 27 34 0
23 24 28 0
24 -31 -34 0
24 -27 32 0
24 -26 -28 0
25 -27 29 0
