p cnf 32 136
-20 -28 -29 0
-20 -22 -32 0
-20 24 30 0
-18 -21 -30 0
-17 22 -26 0
-16 -21 -26 0
-16 17 27 0
-15 -16 -25 0
-14 -29 30 0
-14 -27 30 0
-14 -21 32 0
-13 -19 -23 0
-13 -14 25 0
-13 14 -32 0
-13 18 -24 0
-12 -17 -24 0
-12 15 -26 0
-11 -13 -15 0
-10 -24 26 0
-10 -13 -14 0
-10 -13 32 0
-10 -11 15 0
-9 -18 31 0
-9 -16 21 0
-9 -12 -31 0
-9 -10 -32 0
-9 16 -26 0
-8 -23 -32 0
-8 -23 -28 0
-8 -17 19 0
-8 11 -20 0
-8 16 -29 0
-8 17 -21 0
-7 -10 25 0
-7 8 -31 0
-6 7 9 0
-6 12 28 0
-5 -17 31 0
-5 -11 20 0
-5 8 14 0
-5 11 20 0
-4 -25 32 0
-4 -24 28 0
-4 -19 -31 0
-4 -16 26 0
-4 -14 16 0
-4 -9 15 0
-4 10 -21 0
-4 12 17 0
-4 24 32 0
-3 -12 -18 0
-3 -7 28 0
-3 6 15 0
-3 12 -31 0
-3 13 -23 0
-3 13 15 0
-2 -19 -25 0
-2 4 19 0
-2 12 -14 0
-2 14 20 0
-1 -10 17 0
-1 -8 14 0
-1 -8 16 0
-1 -4 -22 0
-1 2 -7 0
-1 2 18 0
-1 15 -32 0
-1 16 -19 0
1 -7 29 0
1 9 12 0
1 19 27 0
1 21 -22 0
1 21 29 0
2 15 21 0
2 16 -23 0
3 -17 -21 0
3 -7 -18 0
3 18 -32 0
3 19 20 0
4 -17 19 0
4 -8 23 0
4 8 -21 0
4 11 -30 0
4 22 28 0
5 -22 -25 0
5 -9 -12 0
5 7 -31 0
5 9 -10 0
5 14 30 0
5 27 -29 0
6 7 29 0
6 11 26 0
6 16 24 0
6 19 32 0
6 20 -25 0
6 21 -22 0
7 -23 28 0
7 -10 32 0
7 12 22 0
7 13 -15 0
7 14 -28 0
8 -25 -29 0
8 -24 30 0
8 -20 -23 0
8 -14 31 0
8 -10 27 0
8 -9 -31 0
8 16 21 0
8 20 -29 0
8 26 28 0
9 -28 -30 0
9 -12 29 0
9 14 -23 0
10 16 26 0
11 -31 -32 0
11 -23 -28 0
11 -23 27 0
11 -15 30 0
12 -14 15 0
12 17 -31 0
13 -19 -32 0
13 23 24 0
14 -18 -31 0
14 -17 21 0
14 -15 -19 0
14 18 22 0
15 -29 -32 0
15 17 -24 0
15 26 30 0
16 -18 -28 0
17 -24 29 0
21 23 30 0
22 24 -26 0
24 -25 -30 0
24 26 -28 0
28 -31 -32 0
