p cnf 32 136
-24 -26 -29 0
-23 -28 31 0
-23 -24 25 0
-20 -29 -32 0
-20 21 -28 0
-19 -23 -24 0
-18 -20 -29 0
-18 23 -24 0
-18 24 -26 0
-17 -22 -24 0
-17 -21 -25 0
-17 22 31 0
-17 23 -26 0
-16 -21 27 0
-16 18 -25 0
-16 21 -23 0
-15 20 23 0
-14 -25 -26 0
-14 16 26 0
-13 -19 27 0
-13 -16 32 0
-13 20 31 0
-12 21 -32 0
-11 17 24 0
-11 24 -29 0
-10 -23 31 0
-9 -28 -32 0
-9 -20 22 0
-9 -18 -30 0
-9 13 31 0
-9 20 -29 0
-8 -20 21 0
-8 -20 23 0
-8 -16 -30 0
-8 12 14 0
-8 17 -18 0
-8 21 -26 0
-7 -18 22 0
-7 -18 32 0
-7 -16 -26 0
-7 -12 23 0
-6 -18 -19 0
-6 -16 17 0
-6 -7 20 0
-6 7 -12 0
-6 21 -27 0
-5 -21 -27 0
-5 -16 19 0
-5 -12 -31 0
-5 16 20 0
-5 18 -23 0
-3 -11 -12 0
-3 -6 -7 0
-3 -6 15 0
-3 6 28 0
-3 17 -27 0
-2 -27 30 0
-2 -20 26 0
-2 -5 11 0
-2 -3 -13 0
-2 5 23 0
-2 7 -15 0
-2 16 26 0
-1 -19 25 0
-1 -11 32 0
-1 -8 14 0
-1 -7 20 0
-1 8 28 0
-1 11 -12 0
1 -29 32 0
1 -17 24 0
1 -7 15 0
1 -4 6 0
1 3 30 0
1 4 28 0
1 18 -19 0
1 23 -32 0
2 -13 17 0
2 -13 28 0
2 -8 -19 0
2 -5 -20 0
2 3 -16 0
2 3 -7 0
2 10 -21 0
3 -14 -23 0
3 -7 -11 0
3 -4 32 0
3 6 8 0
3 17 -23 0
4 -11 17 0
4 5 -30 0
4 9 -25 0
4 13 21 0
4 18 26 0
4 22 27 0
5 -6 -21 0
5 8 -30 0
5 8 28 0
5 14 17 0
5 20 21 0
5 29 31 0
6 -31 -32 0
6 15 -19 0
6 23 -29 0
7 20 -23 0
8 10 26 0
9 -15 -22 0
9 -15 22 0
9 -14 23 0
9 11 26 0
9 20 -28 0
10 -19 20 0
10 15 -28 0
10 22 -29 0
11 12 -18 0
12 -13 -24 0
12 23 30 0
13 -27 30 0
13 -25 -31 0
13 -16 18 0
13 24 29 0
13 27 -32 0
14 21 -29 0
15 -25 -30 0
15 23 31 0
16 -20 29 0
16 22 -31 0
16 30 32 0
17 -19 -22 0
17 -18 -28 0
17 27 31 0
18 -19 -24 0
19 21 27 0
20 -25 -28 0
20 27 32 0
22 -29 -32 0
