p cnf 90 383
-72 -75 79 0
-66 -72 75 0
-63 77 -85 0
-61 -65 -75 0
-60 -76 -88 0
-57 65 -72 0
-56 -77 -80 0
-53 -69 72 0
-53 81 84 0
-51 -67 -90 0
-51 79 -88 0
-50 56 65 0
-49 -51 56 0
-48 -55 -62 0
-48 -49 -67 0
-48 59 -80 0
-48 67 -90 0
-47 -60 -70 0
-47 51 52 0
-47 66 -82 0
-46 -69 -85 0
-46 -62 75 0
-45 -56 84 0
-44 -50 67 0
-44 60 -67 0
-44 87 88 0
-43 -77 -85 0
-43 63 -90 0
-43 63 81 0
-43 64 -77 0
-42 -75 -84 0
-42 -68 -74 0
-42 -48 89 0
-42 74 -90 0
-41 -53 -79 0
-41 -43 -82 0
-41 50 69 0
-40 48 76 0
-38 -47 64 0
-37 -57 -65 0
-37 -50 -51 0
-37 39 -66 0
-37 42 50 0
-37 55 -84 0
-36 -63 74 0
-36 37 -78 0
-34 35 81 0
-34 68 -80 0
-33 -34 -75 0
-32 -45 88 0
-32 42 45 0
-31 -63 -84 0
-31 -63 90 0
-30 -64 72 0
-30 -40 -51 0
-30 38 54 0
-30 40 -46 0
-30 41 -68 0
-30 69 89 0
-29 -71 -83 0
-29 53 65 0
-28 -76 -82 0
-28 -54 -61 0
-28 -43 53 0
-28 -33 71 0
-28 40 -64 0
-28 66 68 0
-27 -56 -83 0
-27 43 53 0
-27 45 50 0
-26 33 44 0
-26 54 73 0
-26 69 -77 0
-26 72 79 0
-25 -87 -90 0
-25 -30 61 0
-25 -26 74 0
-25 31 80 0
-25 75 -88 0
-24 -25 -58 0
-24 26 -82 0
-24 33 54 0
-23 -39 -84 0
-23 -29 89 0
-23 38 -63 0
-23 68 -73 0
-22 -56 87 0
-21 -38 56 0
-21 43 -47 0
-21 78 81 0
-20 -75 -85 0
-20 -54 65 0
-20 -34 87 0
-20 -33 -85 0
-20 36 77 0
-20 47 64 0
-19 -26 -75 0
-18 -46 -62 0
-18 -21 -74 0
-18 24 46 0
-18 39 74 0
-17 21 -63 0
-17 43 -74 0
-16 34 44 0
-15 -64 -89 0
-15 -56 58 0
-15 -37 -62 0
-15 -34 82 0
-15 -25 -61 0
-15 -24 -45 0
-15 -23 -42 0
-15 23 -32 0
-15 45 -81 0
-15 54 84 0
-14 -63 83 0
-14 -40 69 0
-14 -18 -84 0
-14 53 75 0
-14 54 -81 0
-13 -55 80 0
-13 -26 31 0
-13 -25 69 0
-13 -17 68 0
-13 51 -69 0
-13 52 -69 0
-13 54 57 0
-13 82 -86 0
-12 -60 -90 0
-12 -48 85 0
-12 -47 -67 0
-12 -27 51 0
-12 -21 39 0
-12 51 89 0
-11 -66 -82 0
-11 -51 61 0
-11 -23 75 0
-11 21 58 0
-10 -14 -53 0
-10 20 -45 0
-10 32 -38 0
-10 60 -84 0
-10 61 -79 0
-9 -45 -70 0
-9 11 -18 0
-9 76 79 0
-8 -71 76 0
-8 -64 -70 0
-8 -48 -76 0
-8 -22 90 0
-8 22 82 0
-7 -18 -28 0
-7 -12 -62 0
-7 17 30 0
-7 26 58 0
-7 44 -74 0
-6 42 -43 0
-6 48 63 0
-5 -36 -81 0
-5 -32 38 0
-5 -26 68 0
-5 -20 -27 0
-5 13 19 0
-4 -61 76 0
-4 -58 79 0
-4 -56 -77 0
-4 -43 -53 0
-4 -32 42 0
-4 -22 -58 0
-4 42 -65 0
-3 7 73 0
-3 14 83 0
-3 18 77 0
-2 -49 -59 0
-2 -3 37 0
-2 13 -65 0
-2 31 62 0
-2 36 -48 0
-2 44 89 0
-2 81 86 0
-1 -66 -87 0
-1 -53 -64 0
-1 -52 -83 0
-1 -13 88 0
-1 11 38 0
-1 28 43 0
1 2 -24 0
1 15 20 0
1 20 -65 0
1 28 51 0
1 55 86 0
2 -45 -64 0
2 -42 88 0
2 -16 -25 0
2 46 48 0
3 -47 81 0
3 -46 -49 0
3 -43 53 0
3 -30 -73 0
3 4 22 0
3 4 58 0
3 9 82 0
3 10 -44 0
3 23 -57 0
3 41 -43 0
3 46 61 0
4 -82 -89 0
4 -23 86 0
4 -8 44 0
4 34 -62 0
4 44 69 0
4 57 70 0
5 -53 78 0
5 -38 -40 0
5 -32 -60 0
5 29 -48 0
5 45 75 0
5 54 -63 0
6 -29 81 0
6 -16 -86 0
6 8 -27 0
6 28 49 0
6 35 -59 0
6 40 61 0
6 62 -89 0
6 69 72 0
6 76 -81 0
6 83 85 0
7 -43 -56 0
7 -20 -46 0
7 10 42 0
7 17 -66 0
7 68 83 0
8 -20 47 0
8 -15 35 0
8 24 -28 0
8 55 -64 0
8 67 -81 0
8 68 -78 0
9 -54 -68 0
9 -14 -33 0
9 -12 49 0
9 16 88 0
9 22 56 0
9 63 -85 0
10 -75 -77 0
10 -26 -27 0
10 -25 -61 0
10 16 -46 0
10 18 -19 0
10 18 88 0
10 32 52 0
11 -62 71 0
11 14 30 0
11 44 -72 0
12 -24 78 0
12 -13 68 0
12 19 -29 0
12 23 -79 0
12 43 60 0
13 -87 -89 0
13 -45 -48 0
13 -17 -52 0
13 20 -36 0
14 -46 80 0
14 -16 83 0
14 30 83 0
14 38 83 0
14 54 -59 0
15 -64 69 0
15 -58 78 0
15 -50 74 0
15 25 70 0
15 42 -56 0
16 -86 90 0
16 -18 -23 0
16 32 -54 0
16 64 -87 0
17 -54 -68 0
17 -45 75 0
17 -38 39 0
17 -32 79 0
17 53 -57 0
17 54 -86 0
17 61 -66 0
18 -25 73 0
18 23 29 0
18 26 -80 0
18 27 72 0
18 30 -70 0
18 30 -41 0
19 -58 -74 0
19 54 90 0
19 70 -87 0
20 -39 65 0
20 -38 61 0
20 -32 58 0
20 -29 49 0
20 23 81 0
21 -76 -77 0
22 -55 -74 0
22 -53 59 0
22 38 85 0
23 -38 40 0
23 -31 -42 0
23 -26 -36 0
23 33 78 0
23 63 -86 0
24 40 -73 0
24 63 83 0
25 70 -88 0
26 -67 -87 0
26 52 -76 0
26 58 -63 0
27 -63 -65 0
27 -31 -37 0
27 63 81 0
28 -59 -84 0
28 -54 61 0
28 -52 83 0
28 -39 42 0
28 -35 -66 0
28 -31 58 0
28 29 -87 0
28 35 90 0
28 79 -83 0
29 -67 82 0
29 32 -74 0
29 36 88 0
30 -40 88 0
30 41 -66 0
30 50 -81 0
31 -65 66 0
31 -60 -85 0
31 -35 80 0
32 -49 83 0
32 40 65 0
33 -69 89 0
33 39 56 0
34 -55 -72 0
34 36 -58 0
34 53 56 0
35 -48 64 0
36 -47 -66 0
36 -47 -64 0
36 65 -80 0
37 52 -58 0
37 76 80 0
38 -44 47 0
39 -61 -79 0
39 69 -76 0
40 -44 -70 0
40 -43 57 0
40 52 -69 0
41 -64 69 0
41 63 -75 0
42 48 -62 0
42 63 -88 0
43 60 82 0
43 65 79 0
44 -79 -81 0
45 -68 90 0
45 -60 -88 0
46 -78 -88 0
46 -47 -54 0
47 -84 -85 0
48 -49 -58 0
48 57 62 0
49 -54 57 0
50 80 -89 0
51 -60 76 0
52 -66 -87 0
53 -78 -81 0
54 -62 -75 0
56 -81 85 0
56 -71 -81 0
56 62 85 0
57 69 78 0
57 83 -85 0
58 -83 -88 0
63 73 90 0
65 67 -81 0
71 -82 87 0
76 79 -87 0
