p cnf 100 425
-91 -96 -99 0
-81 -96 97 0
-75 85 -97 0
-74 -77 -81 0
-72 -82 -95 0
-72 79 98 0
-67 -70 91 0
-62 -68 72 0
-60 -72 74 0
-59 -64 -81 0
-59 76 87 0
-58 -91 96 0
-58 61 -80 0
-56 81 -100 0
-54 61 75 0
-53 -63 78 0
-52 79 97 0
-52 90 -100 0
-51 -84 -86 0
-51 53 61 0
-50 -83 -85 0
-48 -87 92 0
-48 76 -100 0
-46 -94 -99 0
-46 -71 82 0
-46 -62 -75 0
-46 57 72 0
-46 80 83 0
-45 49 86 0
-45 68 -79 0
-45 77 -96 0
-45 95 -96 0
-42 -70 -71 0
-41 42 -59 0
-40 -94 -96 0
-40 -60 90 0
-40 50 -81 0
-39 -57 69 0
-39 80 94 0
-37 -73 95 0
-37 -65 -70 0
-37 44 -58 0
-37 72 97 0
-36 -58 79 0
-36 -40 76 0
-34 -57 -63 0
-34 -35 39 0
-34 38 82 0
-34 44 -85 0
-34 44 -77 0
-34 96 99 0
-33 56 68 0
-33 72 -91 0
-32 -73 -76 0
-32 -61 98 0
-32 33 -93 0
-32 42 74 0
-32 53 97 0
-31 -40 -79 0
-31 32 53 0
-30 -32 -36 0
-30 48 -65 0
-29 30 -89 0
-29 47 70 0
-28 53 -54 0
-28 57 -83 0
-27 -64 -79 0
-27 -45 -88 0
-27 -32 -34 0
-27 -31 -50 0
-27 36 -49 0
-27 44 -79 0
-26 -62 -98 0
-26 -56 -88 0
-26 -40 -78 0
-26 -35 70 0
-26 -29 89 0
-26 66 83 0
-26 81 92 0
-25 -33 -99 0
-25 74 94 0
-24 -45 -50 0
-24 -33 38 0
-24 48 -80 0
-23 -55 65 0
-23 -24 -93 0
-23 34 -61 0
-23 66 -70 0
-23 89 -92 0
-22 -53 -73 0
-22 -29 -68 0
-22 49 80 0
-22 56 64 0
-22 75 -78 0
-21 -55 97 0
-21 51 93 0
-20 -24 -88 0
-20 39 44 0
-20 50 -93 0
-19 -59 80 0
-19 -31 -65 0
-19 32 -67 0
-19 70 -97 0
-18 -43 78 0
-18 -37 -81 0
-18 -35 -79 0
-18 -23 49 0
-18 47 -88 0
-17 -32 -72 0
-17 -32 -43 0
-17 -25 68 0
-17 24 42 0
-17 42 -100 0
-17 42 67 0
-16 -36 69 0
-16 29 -77 0
-16 32 -48 0
-16 32 49 0
-16 75 -92 0
-15 -24 -40 0
-15 -22 -82 0
-15 29 -53 0
-15 45 57 0
-15 46 97 0
-14 -23 -79 0
-14 -20 76 0
-14 17 -59 0
-14 19 62 0
-14 66 75 0
-13 -65 -80 0
-13 -50 84 0
-13 -28 -97 0
-13 -24 49 0
-12 -87 99 0
-12 -84 -98 0
-12 -52 53 0
-12 23 -25 0
-12 55 -56 0
-12 56 64 0
-11 25 -56 0
-11 31 63 0
-10 -53 -94 0
-10 -44 -79 0
-10 -31 84 0
-10 -26 48 0
-10 -17 -90 0
-10 83 -85 0
-9 -64 -65 0
-9 41 67 0
-8 -66 -95 0
-8 17 -100 0
-8 32 51 0
-8 45 -83 0
-8 50 -73 0
-8 55 58 0
-8 59 -78 0
-7 -39 69 0
-7 -23 -76 0
-7 35 52 0
-5 -60 84 0
-5 -30 71 0
-5 9 -81 0
-5 35 -71 0
-5 62 64 0
-4 -62 71 0
-4 -54 -67 0
-4 -46 50 0
-4 -42 -56 0
-4 -30 -77 0
-4 10 83 0
-4 16 76 0
-4 19 -69 0
-4 46 74 0
-4 55 -80 0
-3 -42 85 0
-3 -8 -32 0
-3 -5 31 0
-3 12 83 0
-3 14 44 0
-3 43 89 0
-2 -45 94 0
-2 46 -62 0
-2 55 77 0
-1 -47 54 0
-1 -43 68 0
-1 -37 92 0
-1 18 88 0
-1 20 63 0
-1 43 81 0
-1 73 97 0
1 -37 87 0
1 -30 -81 0
1 -18 32 0
1 -16 82 0
1 5 -67 0
1 78 98 0
2 -64 92 0
2 -49 59 0
2 -10 22 0
2 -10 70 0
2 9 -71 0
2 21 -97 0
2 27 73 0
3 -24 -80 0
3 -20 51 0
3 -15 -42 0
3 -10 -80 0
3 -5 -61 0
3 -4 -86 0
3 7 -44 0
3 26 54 0
3 49 77 0
3 54 -86 0
3 81 -84 0
3 82 89 0
4 -51 78 0
4 -51 86 0
4 14 94 0
4 61 -84 0
5 -23 -42 0
5 -7 19 0
5 6 -55 0
5 37 -43 0
5 56 64 0
6 -40 41 0
6 -30 -46 0
6 -28 87 0
6 9 -57 0
7 -52 54 0
7 -49 -62 0
7 -14 89 0
7 10 -42 0
7 16 23 0
7 35 44 0
7 73 89 0
8 -68 86 0
8 -40 -95 0
8 -23 35 0
8 10 62 0
8 30 35 0
8 45 -80 0
8 86 95 0
9 -64 -71 0
9 -37 -63 0
9 -33 -69 0
9 -33 -44 0
9 -33 -37 0
9 -19 -47 0
9 14 33 0
9 15 -24 0
9 24 33 0
9 38 -71 0
9 42 -54 0
9 49 -70 0
10 -36 -73 0
10 -17 61 0
10 14 82 0
10 59 81 0
10 71 85 0
11 -57 -85 0
11 -28 -97 0
11 -17 -58 0
11 24 58 0
11 41 -54 0
12 -71 -89 0
12 16 24 0
12 27 -93 0
12 62 71 0
13 -62 -76 0
13 -52 77 0
13 -26 -72 0
13 -21 -67 0
13 43 55 0
13 68 96 0
14 -56 -80 0
14 50 80 0
15 -30 -59 0
15 45 -55 0
15 46 97 0
16 -62 -67 0
16 -61 -97 0
16 -58 93 0
16 -29 93 0
16 41 81 0
16 51 -95 0
16 54 -96 0
17 -39 -88 0
17 23 -39 0
17 35 -95 0
17 56 80 0
18 -42 50 0
18 -34 76 0
18 -32 -78 0
18 -20 91 0
19 -29 69 0
19 -27 30 0
19 -27 42 0
20 -41 76 0
20 33 74 0
20 49 52 0
20 63 -94 0
21 -56 68 0
21 -51 67 0
21 -38 45 0
21 -38 63 0
21 27 79 0
22 -35 -72 0
22 -25 46 0
22 33 -39 0
22 76 -94 0
23 -31 -50 0
23 57 94 0
23 74 -97 0
23 77 91 0
24 -49 -82 0
24 52 86 0
24 56 -57 0
24 81 93 0
25 -47 73 0
25 -43 -87 0
25 -43 44 0
25 58 72 0
25 84 -87 0
26 -69 -77 0
26 -46 -64 0
26 -46 -61 0
26 -41 56 0
26 45 89 0
26 51 70 0
27 -58 -73 0
27 -36 50 0
27 50 66 0
27 53 -80 0
27 57 -64 0
28 -32 83 0
28 35 79 0
29 -64 87 0
29 -63 69 0
29 -56 -58 0
29 38 -79 0
30 33 -66 0
30 46 -62 0
30 67 99 0
30 68 73 0
31 -78 92 0
31 -51 -63 0
31 -42 -81 0
31 73 78 0
32 -45 -96 0
32 57 81 0
33 -56 -87 0
33 -37 53 0
33 35 -65 0
33 60 62 0
33 61 96 0
34 -70 -75 0
35 -67 -95 0
35 -46 56 0
35 -42 62 0
36 37 51 0
36 50 69 0
36 75 -88 0
37 40 -94 0
38 -79 -93 0
38 -72 -88 0
38 -60 -80 0
38 39 49 0
39 -53 82 0
39 45 89 0
39 88 -91 0
40 -88 -97 0
40 -79 81 0
40 -74 -80 0
40 -67 -90 0
41 77 88 0
41 93 97 0
42 59 -72 0
43 -83 -99 0
43 -45 74 0
43 -44 91 0
43 49 83 0
43 52 -53 0
45 -69 83 0
45 -65 93 0
45 58 -72 0
45 71 -84 0
46 -59 96 0
47 -55 -85 0
47 58 76 0
48 57 -82 0
48 77 94 0
49 -74 89 0
49 -51 -77 0
50 72 -75 0
51 -71 -92 0
51 53 -65 0
52 -88 94 0
52 -54 -84 0
53 70 -82 0
53 85 -87 0
55 -78 93 0
55 -76 -93 0
56 -57 -74 0
57 -76 99 0
58 85 99 0
59 66 -69 0
61 -62 77 0
61 64 90 0
62 67 85 0
63 -70 -99 0
65 -76 91 0
65 85 90 0
66 -68 -74 0
67 85 -95 0
68 84 99 0
69 -76 87 0
69 -73 94 0
70 -84 91 0
73 -79 -99 0
74 -90 -93 0
74 77 -89 0
75 -91 -99 0
75 89 -100 0
76 -77 92 0
80 90 -91 0
