p cnf 90 383
-71 -84 -85 0
-67 83 -84 0
-63 -65 -88 0
-59 -61 65 0
-55 57 71 0
-54 -55 78 0
-53 -73 85 0
-52 57 65 0
-50 -57 -78 0
-50 -52 60 0
-49 -69 -74 0
-49 -63 66 0
-49 -58 -84 0
-49 69 -79 0
-48 55 85 0
-47 -53 87 0
-47 -50 -73 0
-46 48 52 0
-46 63 -68 0
-45 -75 -81 0
-44 -65 -86 0
-44 53 72 0
-44 56 71 0
-43 -74 90 0
-43 47 55 0
-42 -56 87 0
-41 -60 84 0
-41 -45 81 0
-41 42 73 0
-41 47 -84 0
-41 47 -81 0
-41 51 70 0
-40 -64 -85 0
-39 56 -86 0
-38 -59 -86 0
-38 -55 -80 0
-38 69 -88 0
-38 82 -86 0
-37 68 -87 0
-36 -55 -87 0
-36 55 -83 0
-35 -72 -77 0
-35 -68 -74 0
-35 -59 -87 0
-35 75 79 0
-34 -61 -78 0
-34 -51 -71 0
-34 -48 -79 0
-33 -57 77 0
-33 -35 80 0
-33 39 82 0
-32 -67 -70 0
-32 50 -60 0
-32 69 74 0
-31 32 -58 0
-31 41 60 0
-31 42 82 0
-29 -33 -35 0
-29 33 44 0
-29 75 -76 0
-28 32 44 0
-28 42 -67 0
-27 -66 -72 0
-27 -41 -58 0
-27 50 -52 0
-27 69 70 0
-25 55 57 0
-24 -34 65 0
-24 -27 -69 0
-24 33 -53 0
-24 40 -70 0
-24 58 86 0
-24 80 -86 0
-23 -66 -70 0
-23 -41 -72 0
-23 27 -31 0
-23 45 48 0
-22 64 -67 0
-21 -70 -87 0
-21 23 -31 0
-21 46 59 0
-21 55 61 0
-20 -57 -80 0
-20 -37 41 0
-20 -33 -89 0
-20 -30 -57 0
-20 34 36 0
-20 54 76 0
-19 -45 -69 0
-19 -30 79 0
-19 -29 -77 0
-19 22 81 0
-19 32 -84 0
-19 44 49 0
-18 -58 -76 0
-18 -44 -59 0
-18 24 -52 0
-18 26 80 0
-18 37 -61 0
-18 56 -84 0
-18 57 -82 0
-17 -65 74 0
-17 -56 -90 0
-17 -33 42 0
-17 -23 -74 0
-17 34 52 0
-17 61 -70 0
-16 -60 61 0
-16 -29 -46 0
-16 25 -72 0
-16 53 73 0
-15 54 74 0
-14 -80 82 0
-14 -61 -88 0
-14 -43 -61 0
-14 16 -69 0
-13 -37 -80 0
-13 -22 -46 0
-13 24 56 0
-13 46 -66 0
-12 -59 -84 0
-12 -45 88 0
-12 15 35 0
-12 21 43 0
-11 -82 -85 0
-11 -32 89 0
-11 -30 76 0
-11 -29 -37 0
-11 34 -54 0
-11 80 85 0
-10 -71 -81 0
-10 -66 -86 0
-10 19 48 0
-10 39 84 0
-10 40 69 0
-10 51 -81 0
-9 -22 26 0
-9 -22 76 0
-9 -19 -38 0
-9 17 36 0
-9 19 38 0
-9 33 -41 0
-9 39 52 0
-9 55 -57 0
-8 -86 89 0
-8 9 36 0
-8 22 -26 0
-8 22 72 0
-8 24 -71 0
-8 43 -68 0
-8 51 -89 0
-8 70 -89 0
-7 -85 -88 0
-7 -61 77 0
-7 -45 -64 0
-7 -19 85 0
-7 -14 -20 0
-7 -14 84 0
-7 13 -15 0
-7 32 36 0
-7 42 64 0
-7 42 85 0
-7 54 -66 0
-7 54 73 0
-6 -30 -80 0
-6 10 -57 0
-6 22 -43 0
-6 45 -59 0
-6 62 73 0
-5 29 82 0
-4 -8 45 0
-4 9 26 0
-4 15 -39 0
-4 39 66 0
-3 -54 66 0
-3 -37 -54 0
-3 19 65 0
-3 78 -87 0
-2 -75 80 0
-2 -54 60 0
-2 -29 39 0
-2 -25 -37 0
-2 -13 -59 0
-2 4 88 0
-2 12 -48 0
-2 22 -28 0
-1 -78 82 0
-1 -14 89 0
-1 -5 -80 0
-1 2 -47 0
-1 3 -8 0
-1 9 28 0
-1 22 -50 0
-1 30 31 0
-1 40 83 0
-1 46 -86 0
1 -54 65 0
1 -44 -45 0
1 -10 -23 0
1 29 -43 0
1 51 -69 0
1 65 -77 0
2 -52 -59 0
2 -40 72 0
2 -36 42 0
2 -4 54 0
2 -3 -13 0
2 29 48 0
2 30 53 0
2 32 -60 0
2 57 73 0
3 -55 81 0
3 -20 -27 0
3 35 -56 0
3 43 -86 0
3 43 -62 0
4 -56 73 0
4 68 71 0
5 -48 72 0
5 -46 -65 0
5 -10 58 0
5 8 -50 0
5 9 66 0
6 -68 -83 0
6 -35 88 0
6 31 -39 0
6 47 -65 0
6 61 85 0
7 -78 85 0
7 -26 -46 0
7 -16 -41 0
7 19 -71 0
7 27 45 0
7 27 72 0
7 40 55 0
8 -55 -56 0
8 -47 57 0
8 -26 -51 0
8 -18 -74 0
8 -10 -12 0
9 -35 -80 0
9 -11 -73 0
9 11 -90 0
9 30 -44 0
9 37 -59 0
9 50 -54 0
9 60 -67 0
10 -61 -63 0
10 -45 79 0
10 24 -31 0
11 -33 43 0
11 34 -42 0
11 34 -39 0
11 34 60 0
11 34 67 0
11 67 75 0
12 -67 89 0
12 -13 -74 0
12 30 -89 0
12 31 -56 0
12 70 -72 0
13 -55 -88 0
13 -52 -88 0
13 -35 74 0
13 -24 54 0
13 18 -52 0
13 19 -25 0
13 21 -87 0
13 59 -61 0
13 77 82 0
14 -20 -54 0
14 29 -42 0
14 47 -57 0
15 -48 73 0
15 17 19 0
15 20 34 0
15 32 38 0
15 49 -78 0
15 62 -90 0
15 69 -73 0
15 83 89 0
16 -26 -54 0
16 65 -75 0
17 -72 76 0
17 -48 57 0
18 -59 -73 0
18 -24 -27 0
18 -22 66 0
18 21 -78 0
18 50 80 0
19 -62 -81 0
19 -37 -90 0
19 -34 40 0
19 34 -51 0
19 62 66 0
19 70 71 0
20 -72 -74 0
20 35 61 0
20 60 63 0
20 61 -73 0
21 -64 89 0
21 67 -73 0
22 34 77 0
22 49 -53 0
23 -66 -74 0
23 49 -73 0
23 55 -73 0
24 -32 67 0
24 29 82 0
24 39 76 0
24 47 48 0
25 -81 -87 0
25 -69 89 0
25 -38 -40 0
25 -29 46 0
25 26 -60 0
25 30 61 0
26 -36 85 0
26 38 -81 0
26 40 -52 0
26 67 -77 0
26 77 -81 0
27 -37 -82 0
28 -42 77 0
28 29 -86 0
28 54 66 0
29 -64 67 0
29 -58 67 0
29 78 83 0
31 -49 88 0
31 -46 -77 0
31 -40 -73 0
31 75 -83 0
31 88 89 0
32 -33 -67 0
32 51 -89 0
32 52 55 0
33 38 42 0
33 56 74 0
34 44 54 0
35 36 74 0
36 53 89 0
36 58 88 0
37 73 -85 0
38 -70 -75 0
38 -67 -86 0
38 -40 -82 0
38 57 -60 0
40 -80 -83 0
40 -65 -88 0
40 69 -76 0
41 -57 84 0
41 49 -57 0
42 45 76 0
42 63 88 0
42 65 88 0
43 69 87 0
45 -49 63 0
46 -47 -54 0
47 -56 -74 0
48 50 -74 0
49 -59 62 0
49 68 -84 0
50 53 -85 0
51 -65 87 0
51 52 82 0
52 -60 -82 0
53 59 -65 0
54 64 -80 0
54 73 78 0
57 59 71 0
58 59 86 0
59 -84 89 0
60 -71 75 0
61 -73 -79 0
61 63 76 0
62 -74 84 0
63 -85 90 0
64 -84 89 0
64 67 -81 0
70 -72 -78 0
80 -81 -83 0
83 -85 -89 0
