p cnf 220 928
-193 195 211 0
-187 -191 192 0
-181 -196 218 0
-178 -196 -214 0
-175 176 -197 0
-175 192 196 0
-170 184 -212 0
-169 203 219 0
-163 -178 -208 0
-161 -182 -202 0
-159 -165 180 0
-153 169 -205 0
-153 193 211 0
-152 -168 -175 0
-151 -157 159 0
-151 166 181 0
-150 -152 -219 0
-148 -156 -167 0
-147 175 197 0
-146 159 172 0
-146 213 -218 0
-145 -165 171 0
-144 159 212 0
-143 151 188 0
-140 -155 209 0
-140 161 -178 0
-139 -157 -188 0
-137 -163 -199 0
-135 -201 -203 0
-135 159 164 0
-134 135 -177 0
-134 137 196 0
-134 143 208 0
-132 -179 -192 0
-131 177 -201 0
-130 171 182 0
-130 171 187 0
-128 -129 210 0
-127 155 -217 0
-126 182 -187 0
-125 192 -198 0
-124 148 -200 0
-124 183 218 0
-122 -144 198 0
-120 -187 -215 0
-120 184 186 0
-119 -145 -212 0
-119 -121 131 0
-119 134 150 0
-119 143 188 0
-119 216 217 0
-117 -121 -219 0
-117 131 202 0
-115 -187 192 0
-115 120 216 0
-113 -193 -200 0
-113 -188 220 0
-113 -136 183 0
-113 189 198 0
-112 -201 206 0
-112 128 -211 0
-110 -179 193 0
-110 -122 -180 0
-108 -191 195 0
-108 -162 207 0
-108 172 184 0
-107 -162 164 0
-105 116 -200 0
-105 118 139 0
-105 155 213 0
-104 -179 204 0
-103 -157 -212 0
-103 109 -220 0
-103 141 151 0
-102 -142 201 0
-102 -115 -147 0
-102 136 -183 0
-101 -169 -184 0
-101 129 -131 0
-101 161 168 0
-100 111 -213 0
-100 179 -210 0
-99 -177 -197 0
-99 -121 -148 0
-99 -106 215 0
-99 109 133 0
-98 141 -162 0
-97 -181 189 0
-96 116 -220 0
-96 152 165 0
-95 -200 209 0
-94 -165 196 0
-94 110 142 0
-94 127 152 0
-94 150 156 0
-93 105 208 0
-92 109 -121 0
-92 130 220 0
-91 -165 -188 0
-91 -144 -216 0
-90 -91 -104 0
-89 -166 -197 0
-89 -101 -143 0
-89 158 -165 0
-88 176 -213 0
-87 128 188 0
-87 149 219 0
-86 -137 161 0
-86 135 -169 0
-86 197 -219 0
-84 -107 -179 0
-83 86 -124 0
-83 131 207 0
-82 98 197 0
-82 120 -147 0
-81 131 -220 0
-81 168 -215 0
-79 -127 220 0
-79 -108 176 0
-79 113 -148 0
-79 123 162 0
-79 126 -219 0
-79 136 -141 0
-78 133 -166 0
-78 164 -194 0
-78 218 219 0
-76 -179 -213 0
-76 90 -126 0
-76 113 -150 0
-75 -132 -167 0
-75 -110 125 0
-75 116 188 0
-75 150 -175 0
-73 -125 -145 0
-73 -123 159 0
-73 77 -213 0
-73 87 -189 0
-72 -125 -209 0
-72 -77 79 0
-71 -200 -217 0
-71 -144 191 0
-71 -88 -105 0
-71 90 -112 0
-71 100 121 0
-71 122 169 0
-71 165 198 0
-70 -96 -141 0
-70 110 -144 0
-70 146 158 0
-69 -125 -188 0
-69 -86 -156 0
-69 82 174 0
-69 165 -194 0
-68 120 -180 0
-68 194 208 0
-67 -70 90 0
-66 69 -78 0
-66 109 200 0
-66 128 196 0
-65 -186 212 0
-65 -124 204 0
-65 -108 -137 0
-65 169 -182 0
-64 70 160 0
-64 84 -97 0
-64 95 -197 0
-63 -199 212 0
-63 -124 218 0
-63 -76 -185 0
-63 88 -132 0
-63 97 116 0
-63 135 167 0
-63 137 -186 0
-63 145 -172 0
-62 -102 -147 0
-62 -94 -209 0
-62 110 164 0
-62 143 -199 0
-61 -142 187 0
-61 -119 -207 0
-61 -117 156 0
-61 -83 172 0
-60 -205 -207 0
-60 -147 153 0
-60 -114 213 0
-60 72 189 0
-60 116 -172 0
-60 136 168 0
-58 160 -190 0
-57 -65 -107 0
-57 -59 -97 0
-57 90 -153 0
-56 -72 136 0
-56 92 -195 0
-55 -107 117 0
-55 -106 189 0
-55 57 110 0
-55 101 203 0
-55 108 -146 0
-54 -193 -209 0
-54 -148 -199 0
-54 -57 -157 0
-54 65 -187 0
-53 79 -191 0
-53 82 134 0
-53 87 117 0
-53 111 -135 0
-53 145 154 0
-52 -154 -160 0
-52 -141 219 0
-52 103 -134 0
-52 120 -154 0
-51 -138 191 0
-51 -102 -149 0
-51 -52 153 0
-51 54 79 0
-51 74 -90 0
-50 -137 204 0
-50 74 -147 0
-50 110 -216 0
-50 180 218 0
-49 -142 208 0
-49 72 200 0
-49 73 -144 0
-48 -97 206 0
-48 57 170 0
-47 -144 178 0
-47 -57 217 0
-47 111 -151 0
-47 123 143 0
-46 -77 -150 0
-46 -64 -83 0
-46 -49 -199 0
-46 71 76 0
-46 130 -201 0
-45 -174 -186 0
-45 -120 -152 0
-45 -107 -139 0
-45 -69 -117 0
-45 88 -183 0
-44 -73 -201 0
-44 60 68 0
-43 -57 -145 0
-43 49 206 0
-43 61 185 0
-43 84 171 0
-43 118 158 0
-43 124 -139 0
-42 -138 -156 0
-42 -90 178 0
-42 50 72 0
-42 104 191 0
-42 125 -145 0
-41 -132 -148 0
-41 -52 103 0
-41 -50 179 0
-41 172 187 0
-40 -186 -189 0
-40 -116 -201 0
-40 -85 -220 0
-40 -85 152 0
-40 59 176 0
-40 125 -210 0
-40 169 -186 0
-39 -210 218 0
-39 -172 -176 0
-39 -158 -181 0
-39 -156 196 0
-39 -68 -158 0
-39 128 193 0
-39 148 -183 0
-38 -57 -220 0
-38 -54 129 0
-38 67 172 0
-38 125 -161 0
-38 138 169 0
-37 -75 130 0
-37 46 100 0
-37 49 -173 0
-37 52 80 0
-37 123 -220 0
-37 146 -150 0
-36 -167 197 0
-36 -101 -107 0
-35 -58 134 0
-35 97 -180 0
-35 102 136 0
-35 115 182 0
-34 -53 122 0
-34 -42 -147 0
-34 43 -200 0
-34 102 -186 0
-34 140 196 0
-33 -141 185 0
-33 -132 -145 0
-33 35 138 0
-33 37 -134 0
-32 -140 190 0
-32 -112 -178 0
-32 -44 171 0
-31 -128 -143 0
-31 -37 87 0
-31 40 122 0
-31 103 -168 0
-30 -102 205 0
-30 -40 -163 0
-30 46 -86 0
-30 132 192 0
-30 206 -207 0
-29 -66 -87 0
-29 -62 76 0
-28 -179 -185 0
-28 -99 -201 0
-28 64 149 0
-28 122 206 0
-27 -63 67 0
-27 76 -209 0
-27 111 202 0
-27 125 195 0
-26 -116 157 0
-26 -87 185 0
-26 -55 -90 0
-26 -42 -146 0
-26 -30 -176 0
-26 92 208 0
-26 93 175 0
-25 -168 -211 0
-25 -32 101 0
-25 29 198 0
-25 69 -188 0
-25 157 -181 0
-24 -150 -152 0
-24 -145 153 0
-24 -39 193 0
-24 42 -112 0
-24 134 170 0
-24 139 183 0
-24 146 -212 0
-23 -114 169 0
-23 -113 193 0
-23 -60 -201 0
-23 73 -188 0
-23 129 -180 0
-22 -77 -157 0
-22 49 -90 0
-22 137 189 0
-22 143 189 0
-21 -112 178 0
-21 81 133 0
-20 90 -201 0
-19 -77 135 0
-19 83 128 0
-19 104 123 0
-19 106 -185 0
-19 158 -204 0
-18 -108 135 0
-18 -77 109 0
-18 -63 178 0
-18 -53 -136 0
-18 195 -210 0
-17 -81 -164 0
-17 -30 -217 0
-17 43 118 0
-17 75 -200 0
-16 -142 -180 0
-16 50 -62 0
-16 100 -129 0
-15 -139 154 0
-15 88 124 0
-14 -112 -172 0
-14 -99 -214 0
-14 -97 -203 0
-14 -29 -192 0
-14 -15 -40 0
-14 34 163 0
-14 63 -78 0
-14 69 -164 0
-14 197 -218 0
-13 -45 118 0
-13 14 64 0
-13 44 209 0
-13 115 -201 0
-12 -111 127 0
-12 60 133 0
-12 98 162 0
-12 99 -175 0
-12 154 -164 0
-11 -120 -208 0
-11 -111 -150 0
-11 -55 83 0
-11 -41 -178 0
-11 -26 -202 0
-11 -13 -15 0
-11 18 -156 0
-11 45 107 0
-11 49 -141 0
-11 55 130 0
-11 67 79 0
-10 -146 154 0
-10 -95 208 0
-10 -19 106 0
-10 31 127 0
-9 -68 185 0
-9 -21 205 0
-9 101 165 0
-8 -126 151 0
-8 -86 -160 0
-8 -42 -165 0
-8 23 81 0
-8 26 108 0
-8 39 -108 0
-8 54 213 0
-7 -101 -120 0
-7 -23 193 0
-7 14 -135 0
-7 28 80 0
-7 77 85 0
-7 82 218 0
-7 136 216 0
-6 -114 -147 0
-6 -14 34 0
-6 28 109 0
-6 95 -165 0
-6 156 202 0
-5 -133 138 0
-5 -73 192 0
-5 15 -143 0
-5 26 -209 0
-5 105 120 0
-5 150 -158 0
-4 -193 -211 0
-4 -71 -146 0
-4 6 163 0
-4 55 211 0
-4 83 -152 0
-4 171 -191 0
-3 -125 -216 0
-3 -99 -135 0
-3 -75 -157 0
-3 -17 31 0
-3 -10 22 0
-3 23 205 0
-3 40 220 0
-3 60 207 0
-2 -151 189 0
-2 -104 -197 0
-2 -4 -6 0
-2 15 -114 0
-2 63 141 0
-2 103 110 0
-2 173 200 0
-1 -71 -106 0
-1 -30 197 0
-1 9 -103 0
-1 16 -102 0
-1 31 41 0
-1 58 -169 0
-1 110 -149 0
-1 128 170 0
1 -70 -170 0
1 -18 32 0
1 -17 49 0
1 60 136 0
1 111 219 0
1 162 -216 0
2 -114 -128 0
2 -68 199 0
2 -46 153 0
2 -15 -79 0
2 9 157 0
2 17 96 0
2 17 114 0
2 73 -183 0
2 129 157 0
2 187 203 0
3 -40 44 0
3 69 -98 0
3 139 207 0
4 -165 198 0
4 -139 189 0
4 -72 85 0
4 -20 89 0
4 45 74 0
4 63 164 0
4 103 -114 0
5 -75 -214 0
5 -21 -200 0
5 29 30 0
5 66 104 0
5 111 -115 0
5 133 -203 0
5 208 218 0
6 -133 171 0
6 -79 -100 0
6 -78 156 0
6 -70 200 0
6 -54 -189 0
6 -20 86 0
6 38 174 0
6 56 122 0
6 58 211 0
6 84 156 0
6 163 -180 0
7 -161 199 0
7 -73 197 0
7 -37 -133 0
7 -12 -45 0
8 -109 -187 0
8 -104 212 0
8 -73 -190 0
8 -71 -212 0
8 -32 189 0
8 21 117 0
9 -108 162 0
9 20 112 0
9 34 169 0
9 103 -126 0
10 -112 -178 0
10 -100 -193 0
10 13 -32 0
10 15 198 0
10 27 216 0
10 29 150 0
10 135 210 0
11 -168 -215 0
11 -113 129 0
11 -92 98 0
11 -57 -114 0
11 -42 101 0
11 47 160 0
11 63 102 0
11 146 205 0
12 -193 -209 0
12 -188 -199 0
12 -186 190 0
12 -138 195 0
12 25 61 0
12 38 153 0
12 57 -112 0
12 61 -88 0
12 147 -184 0
12 195 199 0
13 -23 -51 0
13 14 215 0
13 16 -21 0
13 37 130 0
13 46 -89 0
14 -27 206 0
14 21 110 0
14 32 83 0
14 45 105 0
14 152 -181 0
14 163 -166 0
15 -68 140 0
16 -126 -151 0
16 -17 81 0
16 31 143 0
17 -168 -214 0
17 -136 -172 0
17 -84 166 0
17 -45 86 0
17 -38 102 0
17 -22 106 0
17 28 -85 0
17 47 -108 0
17 72 -171 0
17 131 -171 0
18 -147 176 0
18 -107 -190 0
18 -67 -148 0
18 -35 -132 0
18 -33 88 0
18 41 80 0
18 106 -185 0
18 121 -127 0
19 -70 110 0
19 -61 -190 0
19 -47 142 0
19 24 -61 0
19 54 -166 0
19 55 118 0
19 85 206 0
19 103 209 0
20 -92 175 0
20 -78 -211 0
20 -40 -57 0
20 21 -90 0
20 24 -154 0
20 123 170 0
20 137 139 0
20 173 193 0
21 -128 201 0
21 -32 -142 0
21 55 -184 0
21 146 -207 0
22 -129 166 0
22 -28 139 0
22 33 105 0
22 112 122 0
22 155 -192 0
24 -59 100 0
24 -55 189 0
24 -42 -153 0
24 60 -96 0
24 206 213 0
25 -192 194 0
25 -103 125 0
25 -101 170 0
25 -55 -212 0
25 28 -94 0
25 83 -95 0
26 -34 49 0
26 45 -95 0
26 84 103 0
26 94 122 0
27 -28 -123 0
27 133 -200 0
28 -140 178 0
28 -83 -203 0
28 -70 -93 0
28 -36 -44 0
28 29 -52 0
28 46 -113 0
29 -71 206 0
29 47 137 0
29 110 135 0
29 128 -172 0
30 -48 -114 0
30 42 79 0
30 45 -112 0
30 99 -146 0
32 -161 -195 0
32 -93 -217 0
32 72 109 0
33 79 156 0
34 -139 -146 0
34 -36 168 0
34 115 -166 0
35 -109 169 0
35 -81 -126 0
35 -61 126 0
36 -147 159 0
36 -114 202 0
36 -81 -207 0
36 -80 146 0
36 72 -204 0
36 162 198 0
37 -41 -162 0
37 52 57 0
37 86 -136 0
37 95 -163 0
37 107 -156 0
37 153 203 0
38 -197 -217 0
38 -163 176 0
38 -144 -189 0
38 -107 -154 0
38 -49 -140 0
38 63 -141 0
38 163 180 0
39 56 -159 0
39 59 -69 0
39 111 -183 0
39 119 -131 0
39 120 -220 0
39 153 -163 0
40 -95 155 0
40 -43 152 0
40 -41 -140 0
40 42 155 0
41 111 133 0
41 141 192 0
41 150 160 0
42 -90 140 0
42 50 134 0
42 55 -85 0
42 177 198 0
43 -135 168 0
44 128 212 0
45 -174 191 0
45 -114 123 0
45 -81 -137 0
45 166 -200 0
46 -94 -149 0
46 103 113 0
46 176 205 0
47 111 -210 0
47 150 -155 0
47 177 213 0
48 -153 -158 0
48 -104 181 0
48 -87 -193 0
48 160 -182 0
49 -91 129 0
49 -87 100 0
49 113 156 0
50 -68 -172 0
50 -67 -132 0
50 80 -183 0
50 101 190 0
50 132 202 0
51 -90 -99 0
51 -66 144 0
52 -182 218 0
52 -159 200 0
52 83 -196 0
52 103 142 0
52 120 -173 0
53 -151 -187 0
53 60 176 0
54 -72 97 0
54 65 176 0
54 66 79 0
54 69 189 0
55 -150 198 0
55 -89 109 0
55 -85 214 0
55 58 83 0
55 86 185 0
55 149 -185 0
56 -211 -219 0
56 -132 -220 0
56 -129 -208 0
56 -75 152 0
56 126 -130 0
56 139 -147 0
57 -83 206 0
57 -65 112 0
57 58 110 0
57 113 -195 0
57 148 -178 0
58 -139 177 0
58 -76 121 0
58 145 -170 0
59 -62 -119 0
59 71 -132 0
59 94 206 0
59 106 -199 0
60 64 213 0
61 -138 194 0
61 64 215 0
61 76 147 0
61 139 -140 0
61 173 192 0
62 -102 169 0
62 -92 165 0
62 82 -208 0
63 -179 194 0
63 -100 -176 0
63 64 216 0
63 67 140 0
63 122 -133 0
63 138 -203 0
63 217 -220 0
64 -80 -186 0
64 165 192 0
65 -67 -89 0
66 -96 158 0
66 -72 -93 0
66 177 -205 0
67 -192 211 0
67 -117 -149 0
67 148 -162 0
67 182 -208 0
67 202 220 0
68 -199 200 0
68 -165 -203 0
68 70 129 0
68 86 188 0
68 92 104 0
68 114 122 0
68 167 -172 0
69 -104 188 0
69 99 -199 0
69 116 175 0
69 136 -155 0
70 -159 -183 0
70 -126 162 0
70 -99 117 0
70 88 -125 0
71 -117 -119 0
71 -106 -140 0
71 -74 -187 0
71 113 142 0
71 115 174 0
72 -134 -216 0
72 -103 130 0
72 83 -166 0
72 83 163 0
72 194 -219 0
73 -195 -199 0
73 -99 120 0
73 -74 115 0
73 104 121 0
73 128 209 0
73 158 -194 0
73 197 216 0
74 -108 -122 0
74 -82 -197 0
74 79 89 0
74 89 213 0
74 116 -196 0
74 146 184 0
74 163 -172 0
75 94 163 0
75 104 214 0
75 135 212 0
76 -114 156 0
76 97 113 0
77 -193 -204 0
77 78 141 0
78 -199 214 0
78 -131 198 0
78 -112 123 0
78 -106 141 0
78 -87 90 0
78 191 -210 0
79 -184 -201 0
79 -134 -161 0
79 -81 -111 0
80 -187 -200 0
80 -87 -173 0
80 181 200 0
82 -161 181 0
82 90 142 0
82 142 -183 0
83 84 -184 0
83 89 -117 0
84 -184 199 0
84 -155 217 0
84 -115 132 0
84 -99 -206 0
84 -93 128 0
84 188 -208 0
85 -173 -202 0
85 97 197 0
85 106 -150 0
85 106 162 0
85 152 -166 0
86 -156 159 0
86 115 -156 0
88 -121 -164 0
88 115 -183 0
88 119 -160 0
89 -144 -195 0
89 103 -167 0
89 126 170 0
89 134 135 0
89 165 166 0
90 -129 183 0
90 -97 207 0
90 -94 101 0
90 -93 -174 0
90 164 -167 0
91 -157 -215 0
91 -98 -186 0
91 115 173 0
92 103 144 0
93 -108 208 0
94 -173 185 0
94 -102 159 0
95 -112 162 0
95 105 -174 0
95 174 -207 0
96 -107 -219 0
96 151 -201 0
97 -113 214 0
98 -169 -214 0
98 108 204 0
99 -195 -199 0
100 128 143 0
100 131 147 0
101 -188 -195 0
101 196 -217 0
103 120 180 0
105 126 201 0
105 160 171 0
106 -134 -187 0
107 -141 151 0
107 -110 -148 0
107 118 152 0
110 166 177 0
113 181 -207 0
115 -139 217 0
115 -124 153 0
115 -122 -149 0
115 125 -185 0
116 -199 213 0
117 178 -206 0
118 -176 -219 0
118 -132 209 0
120 -137 -162 0
121 -193 215 0
121 -124 154 0
121 129 208 0
121 203 -220 0
123 149 -197 0
125 -152 168 0
126 -155 192 0
130 -168 -198 0
130 -146 -204 0
131 -146 -160 0
131 -135 -174 0
131 180 198 0
132 167 186 0
135 -184 192 0
135 150 205 0
136 -141 -156 0
139 -184 196 0
141 163 208 0
142 -165 186 0
143 -192 -203 0
143 -179 195 0
143 -151 -153 0
143 153 -191 0
144 -172 -216 0
145 167 -189 0
150 -178 194 0
153 156 206 0
154 155 214 0
156 -181 -185 0
156 191 215 0
159 -192 220 0
164 176 -216 0
165 -169 -181 0
171 -173 -207 0
173 206 215 0
186 -195 -219 0
