p cnf 120 510
-110 117 -119 0
-96 101 102 0
-95 96 100 0
-88 -100 -106 0
-84 99 -109 0
-80 -93 -112 0
-76 -101 120 0
-76 77 101 0
-74 92 106 0
-70 97 -107 0
-68 76 -104 0
-68 93 -114 0
-67 80 113 0
-64 -86 88 0
-64 -66 120 0
-64 82 93 0
-61 -74 -89 0
-59 -70 -119 0
-56 -101 116 0
-56 -95 104 0
-55 -111 118 0
-55 -76 -111 0
-55 -68 -95 0
-55 -56 93 0
-55 99 102 0
-54 -97 -116 0
-53 -99 112 0
-52 -73 -109 0
-51 -96 -118 0
-51 -94 -96 0
-51 -92 117 0
-51 -80 104 0
-51 -65 -107 0
-51 54 -79 0
-51 105 -111 0
-49 -55 -120 0
-49 73 -88 0
-49 92 -95 0
-49 96 110 0
-49 99 104 0
-48 60 92 0
-48 62 -99 0
-48 88 -96 0
-47 51 59 0
-47 56 -73 0
-47 58 95 0
-47 66 86 0
-46 105 108 0
-44 -79 108 0
-44 -74 -107 0
-44 47 80 0
-44 99 -111 0
-43 65 -104 0
-42 -72 96 0
-42 -63 -82 0
-42 -57 -105 0
-42 -53 110 0
-42 47 -81 0
-42 69 -74 0
-41 60 102 0
-41 95 108 0
-40 -85 120 0
-40 -62 81 0
-40 63 111 0
-38 93 -101 0
-37 -103 119 0
-37 -90 -103 0
-37 -55 -86 0
-37 44 66 0
-36 -111 -118 0
-36 -90 104 0
-36 -46 -85 0
-36 49 -62 0
-36 77 -111 0
-36 79 -117 0
-35 36 56 0
-34 -41 90 0
-34 62 -107 0
-34 79 -117 0
-33 -103 -115 0
-33 -72 -73 0
-33 59 60 0
-33 99 107 0
-32 -63 -90 0
-32 -36 -48 0
-32 37 106 0
-31 -104 116 0
-31 -58 -112 0
-31 54 118 0
-30 32 80 0
-30 82 -103 0
-30 109 120 0
-29 -83 101 0
-28 -68 -115 0
-28 -62 -119 0
-28 74 84 0
-27 -79 81 0
-27 -77 78 0
-27 -74 88 0
-27 -48 -85 0
-27 30 65 0
-27 105 -115 0
-26 -99 107 0
-26 -43 -102 0
-26 -43 -60 0
-25 -92 106 0
-25 -91 109 0
-25 -68 -120 0
-25 -45 85 0
-25 -44 46 0
-25 27 -31 0
-25 32 -108 0
-25 32 -53 0
-25 91 -114 0
-24 -67 -91 0
-24 -55 59 0
-24 -32 -73 0
-24 42 89 0
-24 45 -62 0
-23 -77 102 0
-23 -59 111 0
-23 -58 96 0
-23 26 -82 0
-23 37 -88 0
-23 87 94 0
-22 -93 -109 0
-22 -44 -96 0
-22 -29 92 0
-22 24 55 0
-21 -52 62 0
-21 -50 95 0
-21 -37 -67 0
-21 -26 -110 0
-21 38 75 0
-20 -97 99 0
-20 -81 115 0
-20 21 -54 0
-20 24 69 0
-20 47 107 0
-20 63 86 0
-19 -37 38 0
-19 39 -89 0
-19 81 95 0
-19 89 103 0
-18 46 111 0
-17 36 -42 0
-16 -85 94 0
-16 -53 -91 0
-16 -22 -46 0
-16 17 108 0
-16 19 -73 0
-16 24 -42 0
-16 54 -93 0
-16 66 -77 0
-15 -84 -107 0
-15 -66 -101 0
-15 -46 -102 0
-15 16 -32 0
-15 19 -69 0
-15 57 107 0
-15 77 99 0
-14 -94 -98 0
-14 -65 116 0
-14 -47 -96 0
-14 -46 99 0
-14 -37 -60 0
-14 -37 89 0
-14 -17 -69 0
-14 61 -68 0
-14 75 -82 0
-14 92 105 0
-14 94 115 0
-13 26 115 0
-13 27 101 0
-13 34 106 0
-13 54 -120 0
-13 81 117 0
-12 -73 93 0
-11 -30 33 0
-11 24 -84 0
-11 33 53 0
-11 41 57 0
-11 55 84 0
-10 -18 -65 0
-10 17 82 0
-10 41 -55 0
-10 43 -118 0
-10 46 -77 0
-10 96 114 0
-9 -19 22 0
-9 -16 -48 0
-9 13 36 0
-9 22 -101 0
-8 13 69 0
-8 19 -26 0
-8 41 -65 0
-8 64 -110 0
-8 79 -82 0
-7 -61 -118 0
-7 -31 -64 0
-7 -16 -66 0
-7 16 -81 0
-7 16 36 0
-7 57 -100 0
-6 -66 100 0
-5 -57 60 0
-5 -23 28 0
-5 49 74 0
-5 66 114 0
-5 74 -93 0
-4 -12 85 0
-4 -7 -37 0
-4 11 107 0
-4 12 94 0
-4 33 37 0
-4 63 -81 0
-3 -39 115 0
-3 -32 95 0
-3 -16 114 0
-3 13 -99 0
-2 -116 -119 0
-2 -74 -89 0
-2 -26 75 0
-2 49 -54 0
-2 83 -113 0
-1 -52 -91 0
-1 -52 -61 0
-1 -8 15 0
-1 21 -66 0
-1 58 -59 0
1 -69 92 0
1 -57 -105 0
1 -53 56 0
1 -31 45 0
1 30 86 0
2 -97 -117 0
2 -28 50 0
2 -20 72 0
2 -8 -26 0
2 16 -24 0
2 26 -83 0
3 -93 -103 0
3 -47 -88 0
3 -5 -69 0
3 10 -87 0
3 51 65 0
3 63 -120 0
4 -74 -111 0
4 -49 73 0
4 -41 65 0
4 -19 69 0
4 27 -98 0
4 63 -65 0
5 -48 -101 0
5 -43 117 0
5 7 -65 0
6 -71 -116 0
6 -61 113 0
6 -54 -102 0
6 -33 76 0
6 -26 -40 0
6 49 78 0
6 72 108 0
7 -48 81 0
7 -40 86 0
7 -27 -42 0
7 24 -35 0
7 44 69 0
7 47 -92 0
7 92 102 0
8 -78 109 0
8 -62 -96 0
8 -46 53 0
8 -41 -86 0
8 -39 75 0
8 -34 -114 0
8 -16 -32 0
8 69 -91 0
8 78 -100 0
8 108 -111 0
9 -44 107 0
9 -15 -51 0
9 55 -86 0
9 62 117 0
10 -70 -93 0
10 -53 95 0
10 -51 111 0
10 -33 -89 0
10 -25 -63 0
10 38 -89 0
10 44 -94 0
10 74 79 0
10 77 -116 0
11 -95 -101 0
11 -54 103 0
11 -37 92 0
11 -21 -115 0
11 -17 -118 0
11 27 -50 0
11 28 89 0
11 49 -104 0
11 56 57 0
11 82 93 0
12 -69 103 0
12 -55 -58 0
12 -42 -56 0
12 -39 -119 0
12 -37 111 0
12 22 -65 0
12 43 110 0
13 -47 111 0
13 17 35 0
13 18 52 0
13 59 117 0
14 -50 101 0
14 -27 -34 0
14 27 -116 0
14 34 -103 0
14 38 115 0
14 57 -117 0
15 30 59 0
15 60 95 0
15 94 -116 0
15 115 118 0
16 -80 116 0
16 -74 79 0
16 -47 113 0
16 -43 -113 0
16 -18 -49 0
16 27 91 0
16 37 117 0
16 60 115 0
16 101 104 0
17 -106 -113 0
17 -24 -120 0
17 -24 55 0
17 -18 110 0
17 109 -117 0
18 -53 -97 0
18 -30 64 0
18 -24 -26 0
18 23 32 0
18 32 -91 0
18 79 84 0
19 -71 -118 0
19 -64 107 0
19 -45 71 0
19 26 -30 0
19 41 118 0
19 43 103 0
19 66 -84 0
19 76 -99 0
20 -47 -97 0
20 -33 -93 0
21 -79 95 0
22 -80 -101 0
22 -78 -88 0
22 -77 -113 0
22 -67 -111 0
22 -39 41 0
22 23 -36 0
22 50 81 0
23 -96 108 0
23 84 -103 0
24 -88 -102 0
24 -59 85 0
24 30 -108 0
24 57 -67 0
25 -50 80 0
25 -40 -114 0
25 -30 -93 0
25 46 117 0
25 113 -118 0
26 -105 -107 0
26 -105 116 0
26 -92 117 0
26 -72 -110 0
26 -50 -98 0
26 -36 77 0
26 -32 87 0
26 59 -99 0
26 82 103 0
27 -112 -116 0
27 -56 -103 0
27 -50 111 0
27 40 56 0
27 40 59 0
27 86 112 0
28 -66 -108 0
28 -33 67 0
28 -31 -117 0
28 89 -116 0
28 102 109 0
28 104 -110 0
29 -53 54 0
30 -41 -90 0
30 32 -104 0
30 33 39 0
30 84 85 0
31 -66 93 0
31 -60 78 0
31 -57 77 0
31 -55 -98 0
31 -32 108 0
31 57 -84 0
32 -42 119 0
33 -42 -69 0
33 36 110 0
33 54 -100 0
33 71 96 0
34 -37 73 0
34 37 -44 0
34 100 -107 0
35 -61 98 0
35 43 92 0
35 99 -117 0
36 -76 -96 0
36 -49 85 0
36 43 112 0
36 57 76 0
36 103 105 0
37 -51 95 0
37 -45 -117 0
37 48 69 0
37 69 -93 0
38 -55 -106 0
38 -44 58 0
40 -91 -95 0
40 -80 -108 0
40 -79 -106 0
40 -46 108 0
40 67 -94 0
40 70 104 0
42 -82 111 0
42 -73 120 0
42 -64 -83 0
42 111 120 0
43 -86 116 0
43 57 -95 0
43 67 -111 0
45 -62 104 0
45 -56 -116 0
45 87 -115 0
46 -64 -79 0
46 -50 69 0
47 -93 -98 0
47 -72 88 0
47 59 78 0
47 69 -91 0
48 -76 82 0
48 -71 -110 0
48 -60 -67 0
48 72 -93 0
48 82 -114 0
49 -81 99 0
49 -51 -69 0
49 58 -78 0
49 102 103 0
50 55 -93 0
50 70 92 0
51 96 120 0
52 -111 113 0
52 -69 91 0
52 83 91 0
53 85 -96 0
53 113 119 0
54 -85 102 0
54 94 -95 0
55 59 97 0
56 -97 100 0
56 82 -93 0
57 105 -109 0
58 61 -113 0
59 -85 -91 0
61 -72 -119 0
61 62 120 0
61 68 113 0
61 73 76 0
61 87 102 0
61 88 -120 0
62 -72 74 0
63 -80 104 0
63 -72 -82 0
63 -68 92 0
63 -67 -77 0
63 -64 102 0
64 -68 103 0
64 87 102 0
65 -77 106 0
65 72 -76 0
65 100 109 0
66 -89 -92 0
66 -79 -100 0
67 -85 88 0
69 -90 -110 0
71 -80 -110 0
72 -88 108 0
73 -81 -118 0
73 95 -100 0
75 -92 -95 0
75 -86 96 0
75 -76 -106 0
75 79 -98 0
79 83 93 0
80 96 112 0
81 88 -94 0
85 -98 115 0
94 102 118 0
99 -117 119 0
101 108 -118 0
