p cnf 35 149
-24 -26 -31 0
-24 -26 35 0
-22 -26 -34 0
-21 -25 -34 0
-20 21 33 0
-20 29 -30 0
-20 32 -35 0
-18 -19 -31 0
-18 30 35 0
-17 -18 31 0
-17 19 33 0
-17 32 33 0
-16 -19 -34 0
-14 -32 -35 0
-14 28 -29 0
-13 -30 -33 0
-12 16 25 0
-12 19 -21 0
-11 -21 -29 0
-11 21 32 0
-10 -15 29 0
-10 11 30 0
-10 16 -18 0
-9 13 31 0
-9 14 24 0
-9 15 24 0
-9 16 -17 0
-9 21 -22 0
-9 23 24 0
-8 -30 32 0
-8 -15 16 0
-8 11 28 0
-7 22 -33 0
-7 24 -34 0
-6 -16 -17 0
-6 -15 22 0
-6 16 19 0
-6 20 32 0
-5 -16 -28 0
-5 -6 26 0
-5 15 -32 0
-5 23 25 0
-4 -19 33 0
-4 -6 -18 0
-4 6 35 0
-3 -13 28 0
-3 7 20 0
-3 8 26 0
-3 12 -16 0
-2 -12 25 0
-2 -3 18 0
-2 10 -30 0
-2 11 -27 0
-2 13 -18 0
-2 15 23 0
-1 -17 -30 0
-1 -8 -22 0
-1 -3 -24 0
-1 -2 26 0
-1 7 13 0
-1 10 -23 0
-1 15 20 0
-1 19 -22 0
1 -15 18 0
1 -9 24 0
1 -5 7 0
1 -3 -22 0
1 4 23 0
1 8 -16 0
1 18 31 0
1 30 -31 0
2 -23 32 0
2 -22 25 0
2 -17 23 0
2 -6 17 0
2 3 9 0
2 5 35 0
2 26 -31 0
3 -9 30 0
3 -6 -33 0
3 17 30 0
3 19 27 0
4 -12 -21 0
4 -5 19 0
4 5 7 0
4 7 31 0
5 -24 -35 0
5 -22 26 0
5 -15 -26 0
5 -14 -27 0
5 12 -17 0
5 12 14 0
5 32 33 0
6 -11 -22 0
6 9 -20 0
6 16 34 0
7 -21 34 0
7 12 16 0
7 15 23 0
7 19 20 0
8 -21 35 0
8 -19 29 0
8 -15 -24 0
8 11 -21 0
9 -27 -34 0
9 12 -21 0
9 17 -24 0
9 22 -30 0
10 -22 -33 0
10 -19 -26 0
10 -13 -24 0
10 15 23 0
11 -19 -20 0
11 -17 19 0
11 -14 20 0
11 -13 34 0
11 17 -30 0
11 21 28 0
12 -23 -25 0
12 -14 -22 0
12 -14 -17 0
12 -14 20 0
12 20 -25 0
13 -23 35 0
14 -24 -32 0
14 -24 26 0
14 -23 -31 0
14 -22 26 0
15 -22 32 0
15 -17 28 0
16 20 -31 0
16 24 35 0
18 20 -28 0
18 22 -35 0
18 23 -25 0
19 -32 34 0
19 -31 -32 0
20 -25 32 0
20 -24 33 0
20 -23 -32 0
20 31 -35 0
21 -33 -35 0
22 -26 27 0
22 28 -33 0
22 30 -31 0
27 -30 -34 0
27 -29 -34 0
28 29 32 0
29 33 -35 0
