p cnf 30 128
-21 -25 -26 0
-20 23 24 0
-20 29 -30 0
-19 -25 -30 0
-19 -21 -25 0
-18 20 -28 0
-18 21 30 0
-17 19 30 0
-17 25 -26 0
-14 19 22 0
-14 20 30 0
-13 -16 -27 0
-13 14 17 0
-11 -25 27 0
-11 -22 -30 0
-11 -19 22 0
-11 12 -21 0
-11 13 28 0
-10 -26 -27 0
-10 -19 20 0
-10 -18 28 0
-10 -15 20 0
-10 -11 28 0
-10 18 22 0
-9 -27 28 0
-9 -22 -28 0
-9 -21 -27 0
-9 -15 -28 0
-9 26 30 0
-8 -13 30 0
-8 17 23 0
-7 -13 22 0
-7 -10 -20 0
-7 22 -28 0
-6 -21 -25 0
-6 -15 27 0
-6 23 28 0
-6 24 27 0
-5 -11 29 0
-5 -9 21 0
-5 10 -21 0
-5 17 -28 0
-5 29 30 0
-4 -22 24 0
-4 -20 -22 0
-4 9 30 0
-4 20 -22 0
-3 4 -10 0
-3 6 23 0
-3 10 21 0
-3 14 16 0
-3 24 29 0
-2 -27 29 0
-2 4 17 0
-2 7 10 0
-2 9 30 0
-2 10 -25 0
-2 11 14 0
-2 21 27 0
-1 -25 29 0
-1 -3 -17 0
-1 25 -26 0
1 -13 27 0
1 -7 -21 0
1 -4 27 0
1 7 -30 0
1 7 -20 0
1 14 -24 0
1 18 25 0
1 21 -25 0
2 -9 23 0
2 -8 17 0
2 -3 14 0
2 11 22 0
2 22 -26 0
3 9 11 0
3 16 -29 0
3 17 29 0
4 -18 28 0
4 -6 -28 0
4 -5 -8 0
5 -14 20 0
5 -10 -18 0
5 -7 -9 0
5 11 -28 0
5 14 -24 0
5 15 -22 0
5 17 -29 0
5 28 29 0
6 -25 -26 0
6 -18 -24 0
6 -14 -15 0
7 -12 -28 0
7 11 23 0
7 15 19 0
7 15 27 0
7 19 26 0
8 -23 29 0
8 -16 -24 0
8 17 -24 0
8 19 -29 0
9 -22 -24 0
9 -16 17 0
9 -15 18 0
9 -13 20 0
9 11 18 0
9 11 19 0
9 13 -20 0
9 17 24 0
9 18 22 0
10 -13 -20 0
10 11 -26 0
12 15 -27 0
13 -16 -17 0
13 26 28 0
14 17 -26 0
14 21 -28 0
15 -23 26 0
15 -21 24 0
15 -20 23 0
15 20 27 0
18 -19 25 0
18 24 26 0
19 24 30 0
20 -28 29 0
20 27 30 0
21 25 -26 0
22 28 -29 0
