p cnf 80 260
-66 72 -78 0
-64 -66 -77 0
-63 66 -77 0
-60 65 78 0
-60 68 80 0
-57 67 72 0
-55 -60 -61 0
-54 -64 -68 0
-50 -62 -64 0
-50 74 77 0
-45 52 -61 0
-44 45 -76 0
-43 49 70 0
-43 66 -67 0
-42 78 80 0
-40 48 56 0
-39 -41 77 0
-38 -46 54 0
-37 47 -65 0
-35 -63 -65 0
-35 -59 -72 0
-34 35 76 0
-34 48 77 0
-34 55 64 0
-33 -70 75 0
-33 -41 72 0
-33 38 -41 0
-33 68 79 0
-32 -47 63 0
-32 34 60 0
-32 36 -50 0
-31 -51 -56 0
-31 43 73 0
-30 -72 -73 0
-30 -58 59 0
-30 51 61 0
-30 54 -76 0
-29 -66 69 0
-29 -32 -52 0
-29 66 -68 0
-28 36 65 0
-28 50 53 0
-27 63 -72 0
-26 -54 65 0
-26 -42 58 0
-26 44 50 0
-24 38 68 0
-24 41 52 0
-24 59 -61 0
-23 -24 -49 0
-23 52 73 0
-22 -50 65 0
-22 -32 38 0
-22 59 70 0
-21 -50 -73 0
-20 -28 -71 0
-20 36 53 0
-20 60 69 0
-19 57 -78 0
-18 -65 68 0
-18 -63 77 0
-18 23 -49 0
-15 -42 79 0
-15 -35 78 0
-15 35 43 0
-14 -30 34 0
-13 -53 70 0
-13 -27 60 0
-13 18 -44 0
-13 32 -50 0
-13 65 76 0
-12 -37 -57 0
-12 -32 -73 0
-12 -19 70 0
-12 59 -60 0
-11 -49 60 0
-11 -24 78 0
-11 -22 66 0
-11 -15 54 0
-11 30 -31 0
-10 -64 77 0
-10 -17 -51 0
-10 -15 66 0
-10 21 79 0
-10 30 -49 0
-9 -24 -29 0
-8 -56 -75 0
-8 -21 53 0
-8 -10 -65 0
-8 10 44 0
-8 40 46 0
-8 54 -72 0
-7 -66 -67 0
-7 -52 76 0
-7 -49 70 0
-7 -19 -68 0
-7 17 -67 0
-7 47 -76 0
-7 61 79 0
-6 10 -67 0
-6 21 79 0
-5 -6 -66 0
-5 6 43 0
-5 10 -34 0
-5 61 66 0
-4 -58 79 0
-4 -15 39 0
-4 -6 -70 0
-4 17 49 0
-4 31 64 0
-4 69 -75 0
-3 -65 70 0
-3 -50 -76 0
-3 -15 -53 0
-3 24 -52 0
-3 36 -68 0
-3 45 76 0
-2 -29 58 0
-2 -18 64 0
-2 3 -52 0
-2 55 -60 0
-1 -48 56 0
-1 -23 35 0
-1 41 -61 0
-1 64 73 0
1 -44 65 0
1 -34 -47 0
1 -16 30 0
1 -10 25 0
1 -3 -64 0
1 2 -71 0
1 3 -65 0
1 20 69 0
1 26 -64 0
1 31 44 0
1 64 -70 0
2 -60 63 0
2 14 48 0
3 -68 74 0
3 -24 -46 0
3 26 71 0
3 31 -80 0
3 64 75 0
4 -56 62 0
4 -23 57 0
4 -18 -47 0
4 48 68 0
5 -63 -79 0
5 -54 -65 0
5 -18 28 0
5 -11 -74 0
5 -6 54 0
5 10 -21 0
6 -39 -54 0
6 -27 -46 0
6 15 -17 0
6 29 44 0
7 -43 -70 0
7 -14 58 0
7 -13 71 0
8 -14 17 0
8 23 -33 0
8 35 48 0
8 56 -76 0
9 -36 -43 0
9 -25 64 0
9 30 39 0
9 62 -66 0
10 -41 46 0
10 -22 45 0
10 32 -73 0
10 60 -79 0
11 -39 75 0
11 39 -67 0
12 -39 -44 0
12 -28 58 0
12 -22 66 0
12 37 38 0
13 -67 -69 0
13 -33 -56 0
13 -27 -36 0
13 -19 75 0
13 67 -80 0
14 -32 62 0
14 -29 -74 0
14 27 -53 0
14 57 -63 0
15 39 53 0
16 -25 -50 0
16 30 33 0
17 -31 -35 0
18 -69 78 0
18 -34 41 0
18 -33 -73 0
18 -33 41 0
18 48 65 0
19 -60 70 0
19 -36 60 0
19 -27 52 0
20 -42 57 0
20 -32 -37 0
20 -32 54 0
20 27 61 0
21 -29 -61 0
21 -26 -63 0
21 28 71 0
22 30 53 0
22 57 -59 0
23 -44 52 0
23 -42 -78 0
24 -39 58 0
24 28 49 0
24 59 -60 0
25 -70 77 0
25 -27 47 0
25 30 -50 0
26 -40 66 0
26 45 -80 0
26 48 50 0
27 -30 60 0
28 -55 63 0
28 34 -45 0
31 -46 -49 0
31 -32 73 0
31 34 70 0
31 39 -50 0
32 -38 78 0
32 45 76 0
32 45 79 0
33 47 -69 0
35 -52 -64 0
36 56 -59 0
36 56 73 0
37 -60 64 0
38 -55 -72 0
38 -50 61 0
38 62 -64 0
39 -45 49 0
39 43 44 0
40 -52 64 0
41 43 65 0
43 -65 -66 0
44 -71 74 0
44 56 69 0
44 59 78 0
45 -51 77 0
45 47 -53 0
45 52 58 0
47 -74 -75 0
50 69 78 0
54 -66 68 0
56 67 71 0
57 58 -78 0
57 58 63 0
61 62 71 0
62 -65 -76 0
64 79 -80 0
67 70 77 0
72 -79 80 0
73 -75 -77 0
