p cnf 100 360
-85 -86 -87 0
-85 86 91 0
-80 97 99 0
-77 -82 -93 0
-73 -82 99 0
-67 74 -97 0
-67 76 -86 0
-64 -69 85 0
-62 64 -87 0
-60 87 -88 0
-59 -72 -73 0
-59 -69 82 0
-59 74 89 0
-58 -93 -99 0
-58 -61 -90 0
-58 70 -84 0
-57 -89 -91 0
-57 93 100 0
-56 -77 -98 0
-52 -64 100 0
-52 -63 -88 0
-52 79 97 0
-50 -61 95 0
-50 62 81 0
-49 -58 -80 0
-49 71 -86 0
-49 78 -85 0
-48 63 -66 0
-48 85 -99 0
-46 -60 -91 0
-46 -51 79 0
-46 73 86 0
-45 -73 84 0
-44 -59 76 0
-44 -50 72 0
-44 66 81 0
-44 78 -93 0
-42 -52 77 0
-42 -51 -54 0
-42 59 81 0
-41 -56 -61 0
-41 43 51 0
-41 92 -95 0
-40 -42 44 0
-40 45 -47 0
-40 75 97 0
-40 82 90 0
-39 -95 -96 0
-38 -77 96 0
-38 48 -52 0
-38 79 -92 0
-37 -39 -82 0
-37 50 -69 0
-37 50 -59 0
-37 63 85 0
-36 -80 86 0
-35 42 -69 0
-35 73 82 0
-34 46 -82 0
-33 -39 57 0
-33 43 -81 0
-31 -76 -100 0
-31 -72 80 0
-31 48 -67 0
-30 -42 65 0
-29 -63 89 0
-29 -53 -95 0
-29 -47 -97 0
-28 -29 -66 0
-28 -29 65 0
-28 30 -99 0
-28 34 72 0
-28 44 -87 0
-27 -73 -99 0
-27 -61 -94 0
-27 -56 85 0
-27 -52 -54 0
-26 -68 -83 0
-26 30 38 0
-25 -34 -79 0
-25 -32 -50 0
-24 -45 -78 0
-24 -36 79 0
-24 -31 38 0
-24 36 81 0
-24 47 -99 0
-23 -65 -84 0
-23 -56 -80 0
-23 -54 66 0
-23 -36 -51 0
-23 -33 73 0
-23 -31 99 0
-23 -28 60 0
-23 -26 86 0
-22 -70 -80 0
-22 -33 58 0
-22 51 84 0
-22 70 -87 0
-21 -67 -76 0
-21 -64 89 0
-21 33 45 0
-21 96 98 0
-20 -50 -91 0
-20 -38 -53 0
-20 32 67 0
-19 -61 87 0
-19 -59 98 0
-19 -40 -64 0
-19 30 -31 0
-19 39 -88 0
-18 35 57 0
-18 73 -78 0
-17 -42 75 0
-17 -24 -44 0
-17 29 -41 0
-17 56 73 0
-16 -26 -100 0
-16 40 -82 0
-15 -66 -78 0
-15 40 -69 0
-14 -52 -67 0
-14 -49 96 0
-14 15 21 0
-14 25 49 0
-13 -17 30 0
-13 59 76 0
-12 46 49 0
-11 -65 -87 0
-11 -27 -94 0
-11 13 22 0
-11 21 45 0
-11 25 -85 0
-11 28 91 0
-10 -58 70 0
-10 -16 -61 0
-10 14 76 0
-10 32 42 0
-10 37 83 0
-9 -50 -74 0
-9 -33 -40 0
-9 -19 -77 0
-9 10 -66 0
-9 25 -85 0
-9 52 -83 0
-9 67 86 0
-8 -44 76 0
-8 -37 39 0
-8 -25 -56 0
-7 -59 -65 0
-7 -24 -99 0
-7 -13 -79 0
-7 -8 76 0
-7 40 -98 0
-6 -13 59 0
-5 -58 -75 0
-5 -37 -74 0
-5 -23 60 0
-5 -14 27 0
-5 -9 85 0
-5 10 -64 0
-4 -82 -85 0
-4 -66 -98 0
-4 -36 -72 0
-4 -19 -86 0
-4 -7 24 0
-4 9 -78 0
-4 52 71 0
-4 54 70 0
-4 63 83 0
-3 -80 -90 0
-3 -55 68 0
-3 -41 89 0
-2 -36 70 0
-2 3 -56 0
-2 31 -41 0
-2 35 -44 0
-1 -67 -90 0
-1 -3 -91 0
-1 5 12 0
-1 55 -78 0
-1 60 97 0
1 -95 99 0
1 -69 92 0
1 -33 -96 0
1 -18 100 0
1 -7 78 0
2 -53 -62 0
2 32 78 0
3 -35 -59 0
3 -29 59 0
3 -6 -96 0
3 47 58 0
4 -42 48 0
4 -41 -97 0
4 42 -63 0
5 -80 -85 0
5 -80 89 0
5 -47 87 0
5 -26 -68 0
5 -20 -79 0
5 -19 -75 0
5 -11 54 0
5 59 -68 0
6 -24 60 0
6 -13 -96 0
6 26 54 0
6 33 -50 0
7 -21 -91 0
8 -68 79 0
8 -58 69 0
8 -52 -66 0
8 -49 55 0
8 -38 -97 0
8 -14 100 0
8 55 82 0
9 -76 -86 0
9 -32 -70 0
9 -16 98 0
9 12 -100 0
9 24 -34 0
9 52 75 0
10 -43 -100 0
10 -16 -80 0
10 23 -89 0
10 40 97 0
10 43 -95 0
10 73 -92 0
11 -51 -98 0
11 42 -77 0
12 37 80 0
12 59 67 0
12 59 81 0
13 -65 -96 0
13 -37 44 0
13 42 45 0
13 83 -95 0
14 -56 80 0
14 -30 -75 0
14 15 -70 0
14 30 -71 0
14 52 -83 0
15 -58 -63 0
15 -32 99 0
15 19 -80 0
15 21 83 0
15 54 79 0
16 -39 95 0
16 -26 71 0
16 26 91 0
16 53 56 0
17 19 -30 0
17 36 52 0
17 68 -98 0
17 98 99 0
18 -37 -74 0
18 39 48 0
19 -79 -90 0
19 -39 90 0
19 21 -92 0
19 26 36 0
19 50 61 0
20 -34 47 0
21 -57 -79 0
21 -35 79 0
21 50 54 0
22 -73 92 0
22 -33 -96 0
22 52 -64 0
23 -80 -81 0
23 -69 -88 0
23 34 -50 0
23 54 90 0
24 45 -62 0
25 -46 -96 0
25 -33 55 0
25 -27 -63 0
25 70 -97 0
25 78 -87 0
26 -67 97 0
26 -58 -63 0
26 28 -97 0
26 48 -62 0
27 -58 -61 0
27 56 -71 0
28 -64 78 0
28 -34 -98 0
28 43 48 0
28 44 -84 0
28 47 -48 0
28 47 74 0
28 83 87 0
29 -72 -93 0
29 -38 -47 0
29 -37 82 0
29 51 78 0
29 90 93 0
30 -83 98 0
30 -33 -55 0
31 -63 79 0
32 -60 -74 0
32 39 -51 0
32 65 -84 0
32 69 79 0
33 -76 -90 0
33 -49 62 0
33 -37 94 0
33 50 85 0
34 65 -68 0
35 56 -95 0
36 87 97 0
37 -55 70 0
37 77 99 0
38 -81 -96 0
38 -55 -69 0
38 -40 -73 0
39 88 -91 0
40 -54 -75 0
40 -44 51 0
40 49 53 0
40 67 -86 0
40 72 -76 0
41 42 87 0
41 77 84 0
42 -61 70 0
42 50 79 0
43 -76 -81 0
43 -68 72 0
43 62 -100 0
43 78 -95 0
44 -70 -77 0
44 53 -89 0
45 -48 88 0
45 52 -95 0
45 63 88 0
46 -61 62 0
47 -56 71 0
47 56 83 0
47 90 -99 0
48 56 -80 0
49 -69 -78 0
52 53 64 0
52 81 -100 0
54 -59 96 0
58 -80 -83 0
58 -74 83 0
59 -66 -67 0
60 -70 84 0
60 -70 85 0
61 64 -82 0
62 74 76 0
64 86 91 0
65 -67 -91 0
65 83 -99 0
68 84 97 0
70 77 89 0
72 -74 -92 0
72 85 87 0
76 79 -84 0
79 -81 82 0
90 -96 97 0
