p cnf 90 383
-84 87 90 0
-70 -73 -77 0
-67 -82 -84 0
-64 -86 -88 0
-63 -85 -88 0
-62 65 83 0
-61 -81 -89 0
-59 -70 75 0
-58 -67 75 0
-56 63 90 0
-53 -60 77 0
-53 65 -73 0
-53 67 -68 0
-52 53 -75 0
-51 63 -64 0
-50 -63 -89 0
-49 -54 64 0
-49 60 -81 0
-47 -59 -81 0
-46 57 90 0
-46 58 61 0
-46 70 -82 0
-45 -64 80 0
-45 -49 86 0
-41 -53 -75 0
-41 52 63 0
-40 52 -77 0
-40 77 82 0
-39 -49 -80 0
-39 52 -80 0
-39 56 -59 0
-38 -63 83 0
-38 -60 -61 0
-38 46 -75 0
-38 62 78 0
-37 -46 83 0
-37 65 88 0
-36 41 -57 0
-36 66 76 0
-36 82 -89 0
-35 -75 -89 0
-35 -49 -55 0
-35 41 -74 0
-35 46 -78 0
-34 -41 84 0
-34 44 -74 0
-34 46 87 0
-33 -45 -67 0
-32 -43 55 0
-31 37 51 0
-31 44 54 0
-30 -52 -64 0
-30 -42 -61 0
-30 -38 45 0
-30 71 85 0
-29 35 39 0
-29 82 -83 0
-28 -48 85 0
-27 -56 -62 0
-27 -45 -48 0
-27 -36 37 0
-27 40 86 0
-26 -33 -70 0
-26 -33 -57 0
-26 37 -77 0
-26 42 -67 0
-26 49 -63 0
-26 73 -89 0
-26 75 89 0
-25 -38 -71 0
-25 -31 64 0
-25 -30 -86 0
-25 78 82 0
-24 -30 55 0
-24 67 -86 0
-24 69 76 0
-23 58 66 0
-22 -24 26 0
-22 27 32 0
-22 55 68 0
-21 -81 -90 0
-21 -25 -52 0
-21 26 -71 0
-21 43 -51 0
-20 -46 -89 0
-20 -40 -88 0
-20 40 60 0
-20 84 87 0
-20 87 89 0
-19 -33 87 0
-19 31 48 0
-19 41 -62 0
-19 54 -56 0
-19 80 -83 0
-18 -51 -64 0
-18 -38 -40 0
-18 24 -33 0
-18 55 87 0
-17 -28 87 0
-17 -22 62 0
-17 -21 -34 0
-17 18 38 0
-17 34 51 0
-16 -83 87 0
-16 -50 -73 0
-16 -37 -52 0
-16 -32 -89 0
-16 -32 54 0
-16 -19 53 0
-16 32 -34 0
-16 57 80 0
-15 -70 75 0
-15 22 -62 0
-15 27 73 0
-15 35 -89 0
-15 43 68 0
-15 51 -63 0
-15 62 -64 0
-15 63 75 0
-14 -28 -49 0
-14 -24 -53 0
-14 53 55 0
-13 -48 72 0
-13 -18 -82 0
-13 -14 -42 0
-13 17 -20 0
-13 40 50 0
-12 -49 -75 0
-12 -36 -48 0
-12 -33 54 0
-12 -32 -59 0
-12 -27 -45 0
-12 -19 -65 0
-12 39 84 0
-11 -21 32 0
-11 12 -35 0
-11 24 73 0
-10 -72 -78 0
-10 -51 73 0
-10 -26 -56 0
-10 13 43 0
-9 -37 -79 0
-9 -11 -82 0
-9 13 -66 0
-9 32 68 0
-9 34 84 0
-9 42 68 0
-9 55 -81 0
-8 -47 59 0
-8 -12 43 0
-8 -9 12 0
-8 11 31 0
-8 36 -60 0
-7 -41 68 0
-7 -41 85 0
-7 -27 59 0
-7 -13 -32 0
-7 13 32 0
-7 47 71 0
-6 -59 83 0
-6 -44 81 0
-6 -23 -71 0
-6 29 76 0
-6 31 46 0
-6 61 80 0
-5 -67 -70 0
-5 -43 -84 0
-5 -28 -54 0
-5 -20 -79 0
-5 8 -87 0
-5 23 77 0
-5 49 76 0
-5 62 69 0
-4 -68 83 0
-4 -10 -79 0
-4 10 13 0
-3 -29 58 0
-3 6 -16 0
-3 10 28 0
-3 31 36 0
-2 -69 81 0
-2 -62 -76 0
-2 -39 53 0
-2 -19 35 0
-2 27 83 0
-1 -45 -87 0
-1 -27 42 0
-1 -14 -61 0
-1 3 54 0
-1 12 -61 0
-1 17 -34 0
-1 28 57 0
-1 44 -71 0
1 -51 -69 0
1 -14 50 0
1 -7 -86 0
1 6 38 0
1 32 44 0
2 -57 59 0
2 -27 33 0
2 -20 -86 0
2 -9 -86 0
2 -6 -38 0
2 36 -73 0
2 51 78 0
3 -29 52 0
3 -14 -35 0
3 -7 15 0
3 20 -37 0
3 51 85 0
4 -83 -87 0
4 -73 81 0
4 -18 19 0
4 -9 -37 0
4 15 54 0
4 17 -87 0
4 21 -86 0
5 -69 -76 0
5 -56 67 0
5 -47 68 0
5 -13 -67 0
5 12 -28 0
5 26 36 0
5 44 -67 0
5 59 -78 0
6 -50 79 0
6 -20 -63 0
6 51 -75 0
7 -39 62 0
7 -29 68 0
7 -28 -76 0
7 -23 28 0
7 -19 74 0
7 -12 -61 0
7 22 -34 0
7 47 -83 0
7 48 -50 0
7 49 -89 0
7 52 65 0
8 -20 -34 0
8 -19 43 0
8 14 56 0
8 58 87 0
9 -82 -86 0
9 -59 80 0
9 -13 41 0
10 -45 47 0
10 -28 -39 0
10 15 -71 0
10 22 28 0
10 28 -44 0
10 28 34 0
10 39 50 0
10 41 42 0
10 45 58 0
11 -61 72 0
11 -14 -85 0
11 22 -79 0
11 28 34 0
12 -63 68 0
12 -16 -51 0
12 62 63 0
13 -55 75 0
13 -37 78 0
13 -23 -49 0
13 21 79 0
13 52 66 0
13 58 71 0
13 67 -79 0
13 73 -80 0
14 -16 74 0
14 19 -57 0
14 33 -44 0
14 34 -88 0
14 34 -84 0
14 35 78 0
14 51 54 0
14 54 -65 0
15 -53 78 0
15 -22 -54 0
15 17 59 0
16 -51 88 0
16 88 89 0
17 -31 -88 0
17 -22 35 0
17 32 58 0
17 47 -67 0
17 50 -74 0
18 -40 -72 0
18 -37 43 0
18 -32 -70 0
18 21 -64 0
18 43 -85 0
18 57 81 0
18 58 -76 0
19 -50 -82 0
19 -42 73 0
19 -39 73 0
19 -25 -37 0
20 -38 66 0
20 -33 -67 0
20 -27 86 0
20 -22 -86 0
21 -83 -87 0
21 -30 -56 0
21 -30 46 0
22 -35 -39 0
22 -31 86 0
22 45 77 0
23 -38 -57 0
24 -39 -68 0
25 -38 -52 0
25 -31 -90 0
25 40 -76 0
25 59 -76 0
26 -72 -76 0
26 45 -76 0
26 45 61 0
26 48 55 0
26 59 -90 0
26 77 85 0
27 -59 79 0
27 -55 59 0
27 -54 -63 0
27 35 76 0
27 71 -78 0
27 79 89 0
29 -35 70 0
29 60 79 0
30 -50 69 0
30 35 -43 0
30 41 -83 0
30 64 67 0
30 65 -78 0
31 -43 -76 0
31 -42 -53 0
31 -40 70 0
31 70 87 0
32 -43 -54 0
33 -39 -45 0
34 -76 90 0
34 -42 68 0
35 -75 -80 0
35 44 -47 0
35 48 69 0
36 -61 70 0
37 72 -82 0
38 -71 -73 0
38 -61 75 0
38 39 -58 0
38 47 61 0
39 -67 76 0
39 -52 -67 0
39 -51 75 0
39 -45 85 0
39 52 74 0
39 56 76 0
40 -56 58 0
40 41 -69 0
40 66 -89 0
41 -68 -83 0
42 -44 74 0
42 54 75 0
43 -70 -73 0
43 59 67 0
44 -67 84 0
44 70 73 0
44 70 77 0
44 76 -86 0
44 82 85 0
46 48 -87 0
47 69 87 0
47 70 88 0
51 -79 -83 0
53 89 -90 0
56 -80 -81 0
57 -66 80 0
57 -60 -83 0
58 76 -78 0
63 -76 -89 0
64 67 82 0
69 -73 89 0
75 -81 90 0
