p cnf 20 85
-16 17 -19 0
-12 16 17 0
-12 18 19 0
-11 12 -16 0
-10 14 -16 0
-9 -16 -18 0
-9 -13 -19 0
-9 -13 14 0
-9 12 -18 0
-8 -15 17 0
-8 11 -12 0
-8 13 20 0
-7 -11 -20 0
-6 -8 -19 0
-6 -8 13 0
-6 8 -18 0
-6 9 16 0
-6 13 -17 0
-5 -16 20 0
-3 -16 -18 0
-3 -14 15 0
-3 -11 20 0
-3 8 13 0
-3 9 14 0
-2 -9 15 0
-2 -7 -9 0
-2 4 -17 0
-2 4 19 0
-2 5 -14 0
-2 10 13 0
-2 11 -17 0
-2 14 16 0
-1 -11 -16 0
-1 3 -20 0
-1 3 20 0
-1 4 -17 0
1 -13 16 0
1 -2 -5 0
1 2 3 0
1 10 -19 0
1 14 17 0
2 9 18 0
2 13 -14 0
3 -9 -11 0
3 -6 -18 0
3 7 -13 0
3 7 -8 0
3 9 12 0
3 10 -11 0
3 10 13 0
3 12 -13 0
4 -9 -18 0
4 -9 -11 0
4 -7 8 0
4 -6 -13 0
4 -6 18 0
4 -5 -15 0
4 5 -17 0
4 15 -18 0
5 8 19 0
5 13 -14 0
5 13 20 0
6 -16 17 0
6 -8 -11 0
6 -8 18 0
6 8 -9 0
7 12 -19 0
8 -17 18 0
8 -9 19 0
8 9 -14 0
9 -16 -17 0
9 -12 -14 0
9 -10 17 0
9 10 -20 0
10 -12 13 0
10 -11 12 0
10 -11 18 0
10 13 17 0
10 15 -17 0
11 -13 15 0
11 -13 16 0
12 -13 20 0
13 14 15 0
14 -15 -18 0
15 17 -19 0
