p cnf 70 298
-60 -64 -67 0
-59 -65 70 0
-52 -66 -68 0
-52 54 70 0
-51 -53 57 0
-48 -49 -68 0
-48 62 -67 0
-47 -48 -56 0
-46 -51 60 0
-46 51 -56 0
-44 64 67 0
-43 50 60 0
-41 -59 61 0
-41 52 59 0
-39 42 -49 0
-39 45 -60 0
-39 49 -50 0
-39 51 -62 0
-38 50 56 0
-36 -40 -48 0
-34 -43 61 0
-34 43 57 0
-34 46 -53 0
-34 47 63 0
-34 65 67 0
-33 -40 -47 0
-33 34 -40 0
-32 -34 54 0
-31 39 49 0
-30 -57 68 0
-30 -50 -52 0
-30 -45 70 0
-30 46 -64 0
-29 -48 -64 0
-29 -35 49 0
-28 33 -61 0
-28 49 -50 0
-27 -68 70 0
-26 -32 33 0
-26 37 -69 0
-26 44 -52 0
-26 56 58 0
-25 -40 -45 0
-25 -36 67 0
-25 -30 -62 0
-24 25 -40 0
-24 25 -32 0
-24 50 64 0
-23 36 -58 0
-22 -45 -48 0
-22 -27 64 0
-22 28 48 0
-22 30 41 0
-22 42 60 0
-21 -44 48 0
-21 22 62 0
-21 33 -68 0
-21 45 -53 0
-20 -22 -60 0
-20 23 59 0
-20 50 -60 0
-20 50 -54 0
-19 -49 -50 0
-19 -39 69 0
-19 24 30 0
-18 -37 -68 0
-18 -33 -34 0
-18 -27 46 0
-18 34 37 0
-18 50 -64 0
-17 -31 -63 0
-17 31 45 0
-16 -43 -63 0
-16 -42 65 0
-16 -35 64 0
-16 -24 68 0
-15 28 43 0
-15 33 61 0
-15 37 38 0
-14 -22 64 0
-14 35 37 0
-14 52 61 0
-13 -29 -59 0
-13 -24 -27 0
-13 21 -58 0
-13 25 -30 0
-13 43 54 0
-13 44 63 0
-13 47 66 0
-12 -21 32 0
-12 15 -56 0
-12 38 43 0
-12 45 -55 0
-12 48 67 0
-11 -48 58 0
-11 -29 42 0
-11 -27 61 0
-11 -20 -63 0
-10 -41 60 0
-10 -29 32 0
-10 -19 45 0
-10 -17 -48 0
-10 -11 -67 0
-10 14 -40 0
-10 16 -47 0
-10 25 -61 0
-10 26 67 0
-9 -31 53 0
-9 -16 19 0
-9 37 60 0
-9 49 61 0
-8 -55 56 0
-8 -37 -56 0
-8 -12 -39 0
-8 9 19 0
-8 24 -26 0
-8 25 59 0
-6 -36 39 0
-6 -22 28 0
-6 13 20 0
-6 15 55 0
-6 34 65 0
-5 -39 -55 0
-5 -23 68 0
-5 -10 -20 0
-5 -6 20 0
-5 7 -18 0
-5 15 27 0
-5 35 63 0
-4 -54 -56 0
-4 -35 -48 0
-4 -28 44 0
-4 -17 23 0
-4 5 6 0
-4 41 -56 0
-4 42 -62 0
-4 44 -66 0
-3 -53 -59 0
-3 -34 -52 0
-3 -25 -65 0
-3 -4 -30 0
-3 11 -19 0
-3 17 44 0
-3 19 31 0
-3 26 30 0
-3 45 60 0
-2 -4 -67 0
-2 16 -22 0
-2 20 -59 0
-1 -32 -34 0
-1 -8 -39 0
-1 -4 -42 0
-1 14 51 0
-1 25 70 0
1 -34 48 0
1 9 -54 0
1 31 56 0
1 41 43 0
2 -61 65 0
2 -52 54 0
2 -37 58 0
2 -26 67 0
2 -12 -55 0
2 -10 -69 0
2 -10 -14 0
2 18 -65 0
2 46 -49 0
2 60 -69 0
3 -45 -58 0
3 20 43 0
3 65 -66 0
4 -22 -43 0
4 6 -61 0
4 22 36 0
5 -18 26 0
5 -6 -18 0
5 27 -58 0
6 -67 -69 0
6 -34 -64 0
6 -15 -56 0
6 -12 16 0
6 18 35 0
6 25 27 0
6 31 33 0
7 -44 -64 0
7 -15 -50 0
7 -14 -55 0
7 26 45 0
7 36 47 0
8 -52 64 0
8 35 50 0
9 -36 65 0
9 -21 48 0
9 18 -31 0
9 23 37 0
9 30 70 0
9 45 51 0
10 -39 54 0
10 -11 -52 0
10 21 -28 0
10 48 58 0
11 -58 -69 0
11 -27 31 0
11 -22 -50 0
11 -14 39 0
11 29 -60 0
12 -32 39 0
12 -28 -70 0
13 -51 -53 0
13 -40 69 0
13 -36 56 0
13 -31 -33 0
13 -24 -64 0
13 -16 67 0
14 -52 -63 0
14 -23 -41 0
14 15 -17 0
14 22 -61 0
14 54 -62 0
15 -26 66 0
15 54 -65 0
15 59 -62 0
16 -57 62 0
16 25 43 0
16 26 66 0
16 37 68 0
16 69 -70 0
17 -38 -69 0
17 -22 40 0
18 -29 48 0
19 -42 -59 0
19 -33 37 0
19 25 55 0
19 30 50 0
20 -37 54 0
20 -26 -37 0
20 26 27 0
20 31 -46 0
20 34 -35 0
21 27 47 0
22 25 -70 0
22 57 62 0
23 -62 63 0
23 29 -67 0
23 31 51 0
23 33 37 0
24 -40 56 0
24 -37 -53 0
24 -35 39 0
24 29 58 0
24 44 55 0
25 32 45 0
26 32 -47 0
26 36 57 0
26 57 60 0
27 -47 61 0
27 -29 -60 0
27 38 -42 0
28 -38 -69 0
28 34 65 0
28 38 58 0
29 47 -50 0
30 -33 35 0
30 35 -60 0
31 37 -43 0
31 44 53 0
32 -50 -52 0
32 -43 -61 0
32 46 53 0
33 -49 65 0
33 37 54 0
34 -42 50 0
34 -36 48 0
35 -38 47 0
35 37 -62 0
35 61 69 0
36 -37 -65 0
36 49 68 0
37 -47 -49 0
37 -42 60 0
37 63 -65 0
38 -40 46 0
39 -56 57 0
39 -49 -63 0
39 -43 49 0
41 51 52 0
42 -55 -67 0
42 61 67 0
43 -54 59 0
44 -52 54 0
46 -50 51 0
46 47 49 0
47 -63 -69 0
47 52 54 0
51 -53 55 0
52 -63 -65 0
53 59 69 0
59 -61 -67 0
