p cnf 100 425
-89 -93 97 0
-86 94 95 0
-82 -89 -94 0
-74 -75 -92 0
-71 -82 -88 0
-71 -74 -80 0
-71 73 92 0
-71 89 92 0
-70 -79 92 0
-67 -87 89 0
-67 -76 87 0
-67 70 92 0
-66 82 90 0
-61 -79 -89 0
-61 -70 76 0
-60 92 93 0
-59 -66 -82 0
-59 74 -93 0
-57 90 -97 0
-56 -60 70 0
-55 -86 91 0
-55 58 -83 0
-55 65 84 0
-54 -76 -86 0
-54 -73 -79 0
-54 -63 100 0
-54 67 -98 0
-52 -74 -91 0
-51 -72 -91 0
-47 55 -65 0
-47 93 99 0
-46 55 69 0
-45 59 -79 0
-43 -69 -82 0
-43 58 -98 0
-43 73 77 0
-43 73 96 0
-42 -79 97 0
-42 -62 -76 0
-40 -68 -72 0
-40 -68 95 0
-40 56 86 0
-40 72 -98 0
-39 -77 -86 0
-39 48 -100 0
-39 59 90 0
-38 47 -54 0
-37 43 -100 0
-37 63 -92 0
-37 73 -81 0
-35 -63 -75 0
-35 -55 -83 0
-34 -52 -78 0
-34 59 60 0
-33 -73 74 0
-33 55 -72 0
-33 80 -91 0
-33 85 -93 0
-32 -73 93 0
-32 -57 87 0
-32 -52 -100 0
-32 -48 -60 0
-32 -47 75 0
-32 64 66 0
-31 -32 88 0
-31 59 -93 0
-31 62 -82 0
-30 -41 -80 0
-29 -45 -90 0
-29 -38 -62 0
-29 31 79 0
-29 33 59 0
-28 -39 80 0
-28 -32 -77 0
-28 38 71 0
-28 47 -48 0
-28 49 -52 0
-27 -43 73 0
-27 33 -54 0
-27 43 -66 0
-27 48 -53 0
-27 87 95 0
-26 -63 91 0
-26 -33 -61 0
-24 -77 -80 0
-24 -72 82 0
-24 -71 -86 0
-24 51 -84 0
-24 61 -72 0
-23 -71 94 0
-23 -42 60 0
-23 -36 77 0
-23 37 84 0
-22 -43 -82 0
-22 46 93 0
-21 -44 -67 0
-21 -42 69 0
-21 25 -26 0
-21 45 66 0
-20 -52 -64 0
-20 -33 -46 0
-20 23 -32 0
-19 -46 57 0
-19 20 86 0
-19 21 -22 0
-19 22 33 0
-18 -56 70 0
-18 -41 58 0
-18 -26 54 0
-18 54 77 0
-18 85 99 0
-17 35 61 0
-17 52 55 0
-16 -89 99 0
-16 -79 80 0
-16 -51 -68 0
-16 -42 -95 0
-16 -31 76 0
-16 18 69 0
-16 30 63 0
-16 36 -97 0
-16 54 64 0
-15 -66 80 0
-15 -48 -82 0
-15 51 70 0
-15 71 -98 0
-15 78 -94 0
-14 -70 85 0
-14 -46 85 0
-14 -40 69 0
-14 -34 85 0
-14 21 54 0
-14 49 -77 0
-13 -36 -69 0
-13 -25 -66 0
-13 41 96 0
-13 43 64 0
-13 64 -96 0
-13 66 -91 0
-12 -43 -78 0
-12 26 -28 0
-12 91 -96 0
-11 -75 -85 0
-11 -52 -71 0
-11 -33 -37 0
-11 -16 76 0
-11 18 71 0
-11 57 84 0
-11 85 -97 0
-10 -73 -97 0
-10 -46 -75 0
-10 23 85 0
-10 25 -32 0
-10 40 -96 0
-10 88 -95 0
-9 85 -92 0
-8 -61 67 0
-8 -57 95 0
-8 -53 82 0
-8 19 36 0
-8 23 82 0
-8 70 -94 0
-7 -77 -91 0
-7 -36 -44 0
-7 16 55 0
-7 18 24 0
-7 59 -73 0
-6 -51 -78 0
-6 -15 -44 0
-6 -7 67 0
-6 17 22 0
-6 36 56 0
-5 -76 -91 0
-5 -44 95 0
-5 20 -82 0
-5 28 47 0
-5 37 -66 0
-5 57 74 0
-4 -53 57 0
-4 -38 68 0
-4 6 41 0
-4 14 -54 0
-3 -14 -68 0
-3 16 44 0
-3 21 -43 0
-3 26 51 0
-3 32 -38 0
-2 -46 85 0
-2 -18 -88 0
-2 5 -6 0
-2 67 70 0
-2 74 -90 0
-1 -79 -96 0
-1 6 -83 0
-1 17 -29 0
-1 31 95 0
-1 58 81 0
-1 73 85 0
1 -45 59 0
1 -17 60 0
1 -9 -19 0
1 8 -72 0
1 59 76 0
2 -58 74 0
2 -49 65 0
2 -19 39 0
2 -10 -68 0
2 39 -51 0
3 -54 -58 0
3 -22 34 0
3 -9 15 0
3 -4 -22 0
3 -4 29 0
3 69 98 0
4 -83 99 0
4 -48 70 0
4 -37 48 0
4 -11 67 0
4 19 -46 0
5 -20 -22 0
5 15 74 0
5 19 62 0
5 79 -90 0
6 -75 90 0
6 -74 82 0
6 -63 71 0
6 -17 -38 0
6 10 -36 0
6 14 -46 0
6 31 -90 0
6 55 -82 0
7 -77 85 0
7 -37 -89 0
7 16 55 0
7 24 -47 0
8 -42 -96 0
8 -31 -55 0
8 -13 90 0
8 28 -98 0
8 28 -67 0
8 32 60 0
8 33 81 0
8 38 77 0
8 48 -79 0
9 -41 -47 0
9 -20 -86 0
9 10 -67 0
9 48 98 0
10 -78 84 0
10 -64 -76 0
10 -55 -92 0
10 -29 40 0
10 76 90 0
11 -44 54 0
11 -38 54 0
11 12 31 0
11 42 -93 0
11 54 93 0
12 -50 -91 0
12 -40 63 0
12 -17 -27 0
12 41 75 0
13 -24 -72 0
13 -15 -46 0
13 45 66 0
14 -28 -82 0
14 -25 89 0
14 26 39 0
14 31 72 0
14 42 50 0
14 44 -56 0
14 64 -75 0
14 77 85 0
14 85 100 0
15 -52 -68 0
15 -19 55 0
15 21 89 0
15 60 87 0
15 71 84 0
16 -42 -84 0
16 -42 89 0
16 -37 72 0
16 26 -79 0
17 -60 64 0
17 23 39 0
17 45 77 0
17 51 -86 0
18 -48 68 0
18 -36 53 0
18 -30 -83 0
18 32 51 0
18 33 82 0
19 -33 -89 0
19 -20 82 0
19 93 -96 0
20 -73 80 0
20 -39 40 0
20 48 -88 0
21 -54 65 0
21 -24 -52 0
21 29 68 0
21 35 72 0
22 -59 87 0
22 -34 40 0
22 -30 -68 0
22 -24 26 0
22 23 30 0
22 35 47 0
23 -61 -90 0
23 -44 63 0
23 -35 -77 0
23 -26 87 0
23 -24 45 0
23 49 56 0
23 59 61 0
24 -69 98 0
24 -63 66 0
24 -49 65 0
24 -30 -66 0
24 -29 97 0
24 28 -75 0
24 30 -70 0
24 56 87 0
24 76 87 0
25 30 -76 0
25 37 -70 0
25 71 80 0
25 95 -100 0
26 -50 -69 0
26 32 -55 0
26 61 -87 0
26 73 -82 0
28 -65 90 0
28 33 77 0
28 55 81 0
29 -74 -78 0
29 -50 -93 0
29 -35 -80 0
30 -82 83 0
30 -41 -78 0
30 38 -59 0
30 78 -79 0
31 -63 -98 0
31 -43 78 0
31 -42 61 0
32 -74 -80 0
32 40 61 0
32 43 -56 0
33 -52 91 0
33 37 78 0
33 57 -76 0
34 -61 -88 0
34 -59 100 0
34 -52 -71 0
34 -46 -98 0
34 -41 -88 0
34 -39 56 0
34 60 64 0
35 -69 -76 0
35 -65 -96 0
35 -42 -48 0
36 49 -88 0
36 59 87 0
36 78 100 0
37 -69 73 0
38 -87 -97 0
38 42 97 0
39 48 -81 0
40 -48 75 0
41 -59 -73 0
41 -55 -95 0
41 42 96 0
41 68 98 0
41 78 97 0
42 64 -73 0
42 66 78 0
42 92 -100 0
43 -56 -86 0
43 54 63 0
44 -78 84 0
44 -64 -69 0
44 48 -51 0
45 79 -90 0
46 -51 91 0
46 90 94 0
47 -66 98 0
47 -63 -79 0
47 61 -84 0
48 -91 -94 0
48 57 -61 0
49 -69 -86 0
49 -52 67 0
49 -50 -63 0
49 85 -97 0
51 -56 63 0
51 53 61 0
51 79 100 0
52 -94 -98 0
52 62 -69 0
52 64 83 0
52 65 71 0
53 -76 -78 0
53 -75 -89 0
53 -63 -77 0
54 76 -81 0
56 -64 -88 0
58 77 98 0
59 -63 -78 0
59 -63 -77 0
60 -73 78 0
60 87 -100 0
61 81 86 0
63 80 100 0
64 -93 -97 0
64 66 89 0
65 -90 96 0
68 72 -88 0
68 89 96 0
69 80 -95 0
70 80 94 0
71 80 -94 0
81 -91 99 0
81 -85 96 0
82 -92 -96 0
84 85 -97 0
