p cnf 120 420
-105 115 -117 0
-96 -104 -108 0
-85 -90 99 0
-81 -88 -120 0
-81 83 87 0
-79 86 -102 0
-77 87 -106 0
-76 -119 -120 0
-76 78 119 0
-75 -78 -84 0
-73 99 -108 0
-71 84 -118 0
-71 100 103 0
-70 80 116 0
-68 -94 -103 0
-67 83 -91 0
-66 67 -96 0
-66 74 -96 0
-65 -73 -107 0
-65 75 -93 0
-61 69 -119 0
-59 -96 -112 0
-59 -62 86 0
-59 88 -109 0
-58 -77 -79 0
-57 110 -113 0
-56 66 -100 0
-55 85 103 0
-54 -67 87 0
-53 -73 -107 0
-53 106 -109 0
-52 93 106 0
-50 -78 79 0
-48 54 -56 0
-48 75 77 0
-48 92 -120 0
-47 74 95 0
-47 75 -107 0
-47 97 -116 0
-46 54 105 0
-46 75 -85 0
-46 80 94 0
-45 -96 108 0
-45 -85 -102 0
-45 62 -105 0
-45 81 -93 0
-44 71 107 0
-44 84 -113 0
-43 -67 -81 0
-43 -59 -63 0
-42 -107 119 0
-42 -92 107 0
-42 -69 109 0
-41 -53 -116 0
-41 -47 -98 0
-41 66 -87 0
-40 55 73 0
-39 -53 59 0
-39 91 -99 0
-39 115 -119 0
-38 -54 110 0
-38 -46 -120 0
-38 84 -90 0
-38 84 119 0
-38 101 114 0
-37 -67 107 0
-37 41 77 0
-37 62 -73 0
-37 82 -88 0
-36 -114 -117 0
-36 -57 97 0
-36 -44 -117 0
-36 42 -86 0
-35 -60 -89 0
-35 51 -78 0
-35 66 -69 0
-35 68 91 0
-35 82 105 0
-34 -88 -102 0
-34 -55 67 0
-34 -51 -56 0
-34 -50 -72 0
-33 43 -54 0
-33 47 65 0
-33 60 -69 0
-32 -46 117 0
-32 40 -72 0
-32 58 -87 0
-31 -67 -102 0
-31 -40 -101 0
-31 48 69 0
-31 57 -93 0
-31 64 101 0
-31 70 102 0
-30 -66 67 0
-30 -53 111 0
-30 -37 84 0
-30 33 70 0
-29 66 -114 0
-29 92 -93 0
-28 -71 86 0
-28 -48 63 0
-28 31 -119 0
-28 39 -107 0
-28 72 -89 0
-28 82 85 0
-27 -72 80 0
-27 -40 116 0
-27 51 62 0
-27 68 -99 0
-26 -74 -100 0
-26 -74 119 0
-26 -36 -116 0
-26 -29 -66 0
-26 28 -120 0
-26 30 112 0
-25 -46 47 0
-25 -44 65 0
-25 27 -33 0
-25 30 116 0
-24 -76 106 0
-24 -67 -75 0
-24 30 35 0
-24 46 -89 0
-23 -38 92 0
-23 31 -80 0
-23 32 96 0
-23 59 -97 0
-22 -88 95 0
-22 -40 -87 0
-22 -30 -32 0
-22 39 51 0
-21 -109 118 0
-21 -68 71 0
-21 -63 96 0
-21 -36 -108 0
-21 -24 35 0
-21 40 70 0
-21 53 92 0
-20 -32 -50 0
-20 70 101 0
-20 108 -114 0
-19 -67 81 0
-19 -63 96 0
-19 -28 -89 0
-19 22 -69 0
-19 69 -83 0
-19 73 -75 0
-18 -110 119 0
-18 -77 116 0
-18 -35 -70 0
-18 -23 -96 0
-18 41 -100 0
-18 74 97 0
-18 78 83 0
-17 -65 -95 0
-17 -64 -101 0
-17 -21 -69 0
-16 18 -116 0
-16 24 103 0
-16 36 51 0
-16 68 -94 0
-15 -54 67 0
-15 -53 -65 0
-15 -35 -97 0
-15 -27 41 0
-14 -24 -81 0
-14 56 -75 0
-13 -56 -109 0
-13 57 -92 0
-12 -87 118 0
-12 -53 -85 0
-12 -36 -83 0
-12 -27 47 0
-12 -14 -38 0
-11 -114 -116 0
-11 -44 -50 0
-11 -12 -116 0
-11 12 28 0
-11 33 -72 0
-11 33 93 0
-10 -85 107 0
-10 -24 -114 0
-10 72 98 0
-9 -57 102 0
-9 -55 -117 0
-9 -33 73 0
-9 -18 -64 0
-8 -78 97 0
-8 -61 -69 0
-8 -55 58 0
-8 17 116 0
-8 33 77 0
-7 -25 61 0
-7 -10 79 0
-7 33 -118 0
-6 -76 92 0
-6 36 -37 0
-6 40 -55 0
-6 51 83 0
-5 -65 -107 0
-5 -34 -98 0
-5 -27 -54 0
-5 9 87 0
-5 19 -83 0
-5 55 -102 0
-4 -17 -70 0
-4 -15 -102 0
-4 15 -102 0
-4 18 100 0
-4 23 -67 0
-4 64 -96 0
-4 80 104 0
-3 -81 111 0
-3 -10 40 0
-3 27 81 0
-3 36 45 0
-3 113 117 0
-2 10 -70 0
-2 37 70 0
-2 48 115 0
-1 -74 -93 0
-1 -71 -95 0
-1 -24 -26 0
-1 -11 32 0
-1 34 -88 0
-1 34 -56 0
-1 52 63 0
1 -50 -64 0
1 -42 114 0
1 3 8 0
1 25 -90 0
1 35 -54 0
2 -92 99 0
2 -30 120 0
2 -27 -58 0
2 46 106 0
2 79 -115 0
3 -76 -82 0
3 7 8 0
4 -82 -112 0
4 -18 52 0
4 7 -73 0
4 36 104 0
4 117 118 0
5 -72 -102 0
5 -31 -92 0
5 40 58 0
6 -46 -83 0
6 -42 -88 0
6 13 -79 0
6 48 72 0
6 55 60 0
7 -53 58 0
7 -45 53 0
7 15 59 0
7 26 43 0
7 57 -60 0
8 -56 -88 0
8 -28 -87 0
8 -23 31 0
8 -19 68 0
8 22 -109 0
8 47 -95 0
8 57 59 0
9 -70 -99 0
9 -35 -91 0
9 28 38 0
9 33 38 0
9 90 -94 0
10 -41 114 0
10 47 -71 0
11 -71 75 0
11 -63 107 0
11 -42 106 0
11 -38 109 0
11 16 -61 0
11 32 -56 0
12 -66 68 0
12 -24 110 0
12 -17 68 0
12 25 43 0
12 32 113 0
12 75 -109 0
13 -61 -107 0
13 -34 -50 0
13 -19 89 0
13 35 107 0
13 44 -94 0
13 61 91 0
13 76 -100 0
14 -59 -67 0
14 -30 117 0
14 -24 -44 0
14 42 63 0
15 -70 -105 0
15 -62 79 0
15 -49 88 0
15 17 -99 0
16 20 41 0
16 34 60 0
16 53 -76 0
16 60 -82 0
16 99 -106 0
17 -21 43 0
17 47 99 0
18 -37 -95 0
18 86 -120 0
19 -31 -104 0
19 42 -97 0
19 42 107 0
19 53 -55 0
19 94 -109 0
20 -70 115 0
20 26 -39 0
20 59 65 0
21 -78 88 0
21 57 -90 0
21 57 85 0
22 -72 112 0
22 -67 73 0
22 -55 65 0
22 30 106 0
22 41 119 0
22 43 100 0
22 51 64 0
23 -72 113 0
23 -35 58 0
23 28 -52 0
23 34 70 0
23 74 -89 0
24 -28 -64 0
24 71 81 0
24 77 -105 0
25 -29 -30 0
25 60 -83 0
25 101 -105 0
26 -96 -100 0
26 -93 -120 0
26 -44 102 0
26 74 -99 0
27 -95 -115 0
27 78 -87 0
28 -93 99 0
28 -87 -119 0
28 -59 -64 0
28 89 -118 0
28 90 -95 0
29 83 -107 0
30 -47 84 0
30 -32 111 0
30 79 -85 0
30 84 -111 0
31 -47 108 0
31 50 65 0
32 -108 110 0
34 -51 65 0
34 -45 114 0
34 93 117 0
35 -55 95 0
35 -50 68 0
35 80 -109 0
36 -89 106 0
36 -64 90 0
36 71 -88 0
37 -68 77 0
37 105 107 0
38 -100 118 0
38 66 -96 0
38 104 109 0
39 -65 83 0
39 -47 75 0
39 51 102 0
40 -108 -109 0
40 -49 51 0
41 -97 -108 0
41 49 -68 0
42 -91 -94 0
43 48 96 0
43 51 -81 0
43 63 93 0
44 -85 -110 0
44 -58 73 0
45 -70 -80 0
47 -94 105 0
48 -93 101 0
48 54 -105 0
49 76 -84 0
49 84 -87 0
50 -105 115 0
51 -66 84 0
51 74 -100 0
52 -81 -110 0
52 -63 83 0
52 -54 -114 0
52 -53 112 0
53 -96 -107 0
53 -95 -98 0
53 -64 98 0
53 61 -119 0
53 75 -119 0
54 63 -113 0
55 63 70 0
57 -103 120 0
57 75 76 0
58 -89 105 0
59 -60 108 0
60 88 -118 0
61 89 100 0
62 80 104 0
63 -64 -67 0
69 90 -107 0
75 -80 -111 0
80 -109 -115 0
80 -108 115 0
80 -95 -120 0
84 -93 -120 0
86 -106 -118 0
86 97 105 0
94 -107 119 0
