p cnf 90 383
-74 78 87 0
-70 -75 76 0
-66 72 74 0
-61 -73 -79 0
-58 -72 -76 0
-58 -71 -77 0
-57 -82 83 0
-57 -69 -76 0
-57 -63 78 0
-56 65 74 0
-55 60 65 0
-54 -55 56 0
-54 77 83 0
-53 -64 90 0
-53 78 -89 0
-52 -74 -79 0
-51 54 57 0
-50 -60 68 0
-48 -50 -64 0
-47 55 -81 0
-46 -83 86 0
-46 -59 60 0
-46 67 90 0
-46 86 90 0
-45 -62 -78 0
-44 46 -73 0
-43 -51 -55 0
-43 51 -63 0
-43 86 87 0
-41 44 77 0
-40 -46 -67 0
-40 -41 -57 0
-40 42 76 0
-40 45 -71 0
-40 57 -73 0
-39 -67 -86 0
-38 -85 -86 0
-37 -54 72 0
-37 -51 56 0
-37 44 -87 0
-37 45 77 0
-36 39 87 0
-36 60 74 0
-35 -56 -75 0
-35 -49 -69 0
-35 39 83 0
-34 -53 -89 0
-34 41 -52 0
-34 53 71 0
-33 -70 72 0
-33 40 70 0
-32 -81 86 0
-32 -42 75 0
-32 33 48 0
-32 48 51 0
-31 -60 -78 0
-31 -38 61 0
-31 -37 -54 0
-31 -34 -85 0
-30 -64 75 0
-30 -55 -65 0
-30 -48 -72 0
-29 -40 -83 0
-29 -33 -50 0
-29 44 -88 0
-29 45 49 0
-28 -66 87 0
-28 43 64 0
-28 52 -66 0
-28 53 -73 0
-27 -35 -42 0
-27 32 59 0
-27 51 86 0
-26 28 87 0
-25 -69 -86 0
-25 -33 -79 0
-25 47 -73 0
-25 80 -83 0
-24 60 83 0
-23 26 32 0
-23 47 -50 0
-23 54 89 0
-23 55 -90 0
-22 -34 -83 0
-22 45 77 0
-21 -31 83 0
-21 -23 -64 0
-21 28 85 0
-21 59 82 0
-20 71 80 0
-19 -61 74 0
-19 -58 78 0
-19 -35 77 0
-19 -30 39 0
-19 -29 -61 0
-19 37 60 0
-19 53 -81 0
-19 58 79 0
-18 -66 67 0
-18 -53 80 0
-18 -30 -80 0
-18 -25 63 0
-18 -20 90 0
-17 -41 78 0
-17 -27 68 0
-17 -24 -31 0
-17 -20 66 0
-16 -79 80 0
-16 -48 61 0
-16 19 76 0
-16 38 90 0
-16 48 -65 0
-15 -75 -88 0
-15 -70 -77 0
-15 -51 60 0
-15 -46 -86 0
-15 -36 60 0
-15 39 -77 0
-14 -75 -88 0
-14 21 -50 0
-14 34 45 0
-14 47 51 0
-13 -78 -84 0
-13 -14 66 0
-13 32 82 0
-12 -45 66 0
-12 -32 -47 0
-11 49 80 0
-11 63 -86 0
-11 68 84 0
-10 -50 -89 0
-10 13 -63 0
-9 -44 75 0
-9 12 -80 0
-9 17 80 0
-9 24 87 0
-9 25 -73 0
-9 36 -38 0
-8 -28 51 0
-8 -13 76 0
-8 -12 -56 0
-8 22 -53 0
-8 25 73 0
-8 33 73 0
-8 47 88 0
-7 -51 -78 0
-7 -28 -83 0
-7 -15 29 0
-7 24 -39 0
-7 38 -58 0
-6 -46 -88 0
-6 -37 88 0
-6 -31 73 0
-6 -11 -53 0
-6 -8 -84 0
-6 -8 -78 0
-6 35 43 0
-6 37 52 0
-6 54 -61 0
-5 -75 77 0
-5 -71 -74 0
-5 -55 -89 0
-5 -32 74 0
-5 -25 -68 0
-5 -17 -60 0
-5 -13 40 0
-5 -7 -58 0
-5 17 -36 0
-5 28 31 0
-5 33 82 0
-4 -61 -72 0
-4 -48 -73 0
-4 -22 -89 0
-4 6 -50 0
-4 24 -44 0
-4 30 -56 0
-4 30 68 0
-4 52 64 0
-3 -26 59 0
-3 13 16 0
-3 23 -58 0
-3 35 85 0
-2 -45 54 0
-2 -26 40 0
-2 -11 30 0
-2 -11 49 0
-2 -10 14 0
-2 4 66 0
-2 11 -58 0
-2 19 -69 0
-2 28 43 0
-2 66 -87 0
-1 -60 -66 0
-1 -34 -44 0
-1 -10 70 0
-1 16 -22 0
-1 27 36 0
-1 46 -87 0
-1 62 -77 0
1 -60 -72 0
1 -45 -58 0
1 -37 -47 0
1 5 -65 0
1 24 -34 0
2 -68 -76 0
2 -50 -74 0
2 -49 -87 0
2 -23 -51 0
2 -12 62 0
2 8 -47 0
3 -28 36 0
3 -26 72 0
3 -17 -34 0
3 19 52 0
3 25 -76 0
3 38 -53 0
4 -71 81 0
4 -27 62 0
4 17 -39 0
4 46 61 0
5 -77 81 0
5 8 69 0
5 11 -25 0
5 58 79 0
5 60 -75 0
6 -32 75 0
6 9 70 0
6 35 59 0
6 75 89 0
7 -57 87 0
7 -38 -39 0
7 -30 -41 0
7 -28 83 0
7 -18 -58 0
7 8 -9 0
7 53 90 0
7 59 80 0
8 -51 69 0
8 -38 -74 0
8 -36 77 0
8 -27 64 0
8 -24 51 0
8 17 32 0
9 -18 28 0
9 -17 -37 0
9 -16 73 0
9 -12 -36 0
9 35 85 0
9 41 -69 0
10 -31 -55 0
10 -25 33 0
10 26 69 0
11 -80 -85 0
11 -45 -88 0
11 -25 67 0
11 -18 68 0
11 15 16 0
11 24 -29 0
11 43 81 0
11 59 63 0
11 65 -67 0
12 -36 -61 0
12 27 -50 0
12 28 -37 0
12 74 78 0
12 81 -86 0
13 15 -89 0
13 47 -77 0
13 75 86 0
14 -53 85 0
14 29 55 0
14 54 -82 0
14 54 -58 0
14 65 -68 0
15 -40 -68 0
15 -17 26 0
15 16 -33 0
15 43 79 0
15 70 90 0
15 77 90 0
16 -45 84 0
16 -32 -39 0
16 -23 68 0
16 41 -63 0
17 -54 -60 0
17 -45 -47 0
17 -43 90 0
17 -26 37 0
17 27 34 0
17 81 84 0
18 -57 67 0
18 -32 65 0
18 -22 87 0
18 19 -80 0
18 34 -79 0
18 34 -67 0
18 35 85 0
18 41 85 0
19 -36 -74 0
19 23 -60 0
19 27 47 0
19 34 38 0
20 22 -90 0
20 28 -45 0
20 34 -58 0
20 37 72 0
21 70 -86 0
22 -57 87 0
22 -46 -75 0
22 35 66 0
22 38 60 0
23 -25 -74 0
23 50 53 0
23 69 -71 0
24 -55 -57 0
24 75 84 0
25 -50 82 0
25 -46 -88 0
27 -76 83 0
27 40 -48 0
28 -78 -89 0
28 -71 84 0
28 -32 -85 0
28 62 72 0
29 -33 -42 0
29 -32 59 0
29 30 -61 0
29 39 -76 0
29 39 -52 0
29 50 -80 0
30 49 -73 0
30 69 83 0
31 -74 -75 0
31 32 -86 0
32 -73 90 0
32 -44 81 0
32 37 -46 0
32 37 56 0
33 -56 59 0
33 66 -81 0
33 71 -83 0
34 38 -62 0
34 56 63 0
34 88 -90 0
35 -49 83 0
35 -37 -85 0
35 36 -64 0
35 37 71 0
35 85 -90 0
36 38 49 0
36 51 80 0
37 -46 -72 0
37 50 -59 0
37 67 -78 0
38 -78 -88 0
38 -45 -56 0
39 -63 -78 0
39 -45 63 0
39 46 51 0
40 46 61 0
40 52 90 0
41 42 -89 0
42 -83 -84 0
43 -46 80 0
43 50 89 0
45 -48 -76 0
46 -69 83 0
46 -56 86 0
47 -57 -73 0
48 -50 -72 0
49 -57 -76 0
49 55 -77 0
50 -64 -77 0
50 60 -89 0
51 -65 75 0
52 -84 -85 0
52 70 75 0
57 66 -83 0
59 -68 89 0
59 64 83 0
62 -76 79 0
72 82 83 0
78 -85 86 0
