p cnf 55 234
-41 44 -53 0
-41 52 -53 0
-39 -41 -42 0
-37 -48 52 0
-34 36 -51 0
-33 -39 -46 0
-32 52 55 0
-30 -42 -55 0
-30 32 -45 0
-28 -29 45 0
-27 -40 46 0
-27 35 52 0
-26 -45 -51 0
-26 -34 39 0
-25 -34 -40 0
-25 29 47 0
-24 -52 55 0
-24 41 -43 0
-24 44 -54 0
-24 45 46 0
-23 -45 51 0
-23 -31 32 0
-23 41 48 0
-23 47 -50 0
-22 -39 54 0
-22 -28 38 0
-21 -40 42 0
-21 -35 46 0
-21 -32 -52 0
-20 -31 -37 0
-20 -26 -50 0
-20 52 54 0
-19 -35 49 0
-19 -28 -40 0
-19 25 -31 0
-19 44 54 0
-18 32 39 0
-17 -28 34 0
-17 -23 29 0
-17 32 46 0
-16 -48 53 0
-16 17 -51 0
-16 21 50 0
-16 32 -39 0
-15 -28 -48 0
-15 -16 45 0
-15 20 26 0
-14 16 32 0
-14 25 -39 0
-14 25 -27 0
-13 -30 44 0
-13 14 -28 0
-13 16 33 0
-13 19 -33 0
-13 23 -53 0
-13 29 43 0
-12 -41 43 0
-12 -20 54 0
-12 -16 49 0
-12 43 -44 0
-11 37 -39 0
-10 -24 25 0
-10 -23 25 0
-10 17 -51 0
-10 19 35 0
-10 25 -45 0
-10 36 44 0
-10 38 43 0
-10 43 -49 0
-9 -24 -33 0
-9 -10 -24 0
-9 26 46 0
-8 -25 -48 0
-8 -9 30 0
-8 13 51 0
-8 23 -53 0
-7 -33 -42 0
-7 -24 28 0
-7 -12 24 0
-7 -10 52 0
-7 24 -29 0
-7 26 44 0
-6 -34 41 0
-6 -14 -15 0
-6 -12 25 0
-6 8 -31 0
-6 9 -19 0
-6 20 -26 0
-6 30 -34 0
-6 31 -40 0
-5 -27 -32 0
-5 -19 52 0
-5 -13 -28 0
-5 30 -31 0
-4 -6 -19 0
-4 42 49 0
-3 -41 -42 0
-3 -35 38 0
-3 -29 -38 0
-3 19 -29 0
-2 -31 47 0
-2 3 -42 0
-2 5 -20 0
-2 17 -26 0
-1 -25 -46 0
-1 -5 -19 0
-1 5 49 0
-1 22 46 0
1 -47 49 0
1 -28 52 0
1 -14 -40 0
1 -14 -16 0
1 16 -54 0
1 42 51 0
2 -7 -25 0
2 10 33 0
2 12 -18 0
3 -21 -29 0
3 11 50 0
3 18 -53 0
3 19 50 0
4 -38 44 0
4 -25 -42 0
4 -24 36 0
4 -11 -51 0
4 -5 49 0
4 11 -47 0
4 22 38 0
4 30 -32 0
5 -45 55 0
5 -40 -51 0
5 -19 -27 0
5 -14 29 0
5 -12 -41 0
5 -9 -33 0
5 15 29 0
5 31 -49 0
5 35 46 0
6 -32 -47 0
6 -22 33 0
6 -17 34 0
6 29 51 0
7 -31 54 0
7 -26 -34 0
7 -16 23 0
7 8 -48 0
7 9 -42 0
7 13 -27 0
7 32 38 0
7 33 37 0
7 40 -44 0
8 -35 37 0
8 -11 -48 0
8 -11 13 0
9 -16 46 0
9 16 -50 0
9 29 39 0
9 41 50 0
10 -41 -48 0
10 -29 -53 0
10 18 -28 0
10 36 45 0
11 -35 -46 0
11 -22 28 0
11 -19 -33 0
11 14 -18 0
11 15 -55 0
11 15 41 0
11 17 19 0
11 44 -50 0
12 -20 -31 0
12 26 -52 0
12 33 35 0
12 43 -53 0
13 18 44 0
14 -21 -39 0
14 -21 42 0
14 15 23 0
15 -33 37 0
15 -31 37 0
15 -29 43 0
15 -23 26 0
15 25 -43 0
15 29 54 0
15 34 -54 0
15 35 36 0
15 44 50 0
15 48 -50 0
16 -36 -53 0
16 -26 37 0
16 -24 55 0
16 18 37 0
16 41 53 0
17 -37 39 0
17 -27 34 0
17 -21 45 0
17 19 -43 0
17 22 29 0
17 23 -28 0
17 25 -30 0
18 -38 -50 0
18 32 -41 0
18 48 55 0
19 -50 -55 0
20 -27 29 0
21 25 51 0
21 38 43 0
21 44 52 0
22 32 -50 0
23 -33 39 0
23 -30 34 0
23 -26 -51 0
24 -25 43 0
24 28 38 0
25 33 -49 0
25 36 46 0
26 -35 42 0
26 32 -36 0
27 -36 -54 0
27 -33 34 0
28 30 -45 0
28 33 37 0
29 -33 -37 0
29 33 -38 0
29 37 41 0
29 42 -51 0
30 -49 -51 0
30 -45 -55 0
30 40 -53 0
32 -39 40 0
33 -39 45 0
39 -49 -51 0
41 49 -55 0
43 -44 54 0
