p cnf 35 149
-27 32 33 0
-26 29 35 0
-23 -27 -32 0
-21 22 -34 0
-20 -31 34 0
-17 -29 35 0
-17 32 35 0
-16 -18 22 0
-15 -31 33 0
-15 -18 34 0
-15 -16 -34 0
-14 17 -32 0
-13 -31 -33 0
-13 -23 31 0
-13 -19 32 0
-13 16 30 0
-12 -25 32 0
-12 -19 24 0
-12 -18 25 0
-12 26 -27 0
-11 -26 33 0
-11 -25 -26 0
-11 -23 -30 0
-11 -14 -18 0
-11 19 -20 0
-10 -26 27 0
-9 14 -27 0
-9 19 -26 0
-9 26 -28 0
-8 -32 -33 0
-8 18 -28 0
-8 21 -30 0
-8 21 -24 0
-7 10 -33 0
-7 15 -16 0
-7 24 -30 0
-6 -23 32 0
-6 11 18 0
-6 12 18 0
-6 14 30 0
-6 18 20 0
-6 18 34 0
-5 -17 33 0
-5 -10 -24 0
-5 -8 -35 0
-5 6 17 0
-5 8 28 0
-5 10 25 0
-5 16 25 0
-4 -18 19 0
-4 -9 -30 0
-4 8 10 0
-3 -18 -31 0
-3 -12 22 0
-3 -8 -26 0
-3 16 -18 0
-3 19 -33 0
-3 21 26 0
-2 -22 -32 0
-2 7 13 0
-1 -13 -27 0
-1 9 -33 0
-1 16 27 0
1 -22 33 0
1 -5 -17 0
1 11 20 0
1 22 28 0
1 28 31 0
2 -24 -34 0
2 -9 26 0
2 -4 -14 0
2 5 10 0
2 10 -25 0
2 12 -23 0
2 15 24 0
3 -26 34 0
3 -22 -27 0
3 -18 34 0
3 -14 25 0
3 -11 -29 0
3 22 -26 0
3 29 -31 0
4 -13 -29 0
4 -11 28 0
4 -6 31 0
4 16 -20 0
5 -10 15 0
5 -9 -16 0
5 -7 9 0
5 -6 -26 0
6 -18 23 0
6 -8 -21 0
6 -7 27 0
6 14 29 0
6 26 -30 0
7 -31 32 0
7 -16 31 0
7 -15 -20 0
7 -14 28 0
7 -11 12 0
7 9 -18 0
7 10 -34 0
7 15 -35 0
7 15 -27 0
7 17 -35 0
7 17 -34 0
7 28 33 0
8 -15 33 0
8 27 32 0
9 -23 33 0
9 -16 24 0
9 15 -23 0
9 15 22 0
10 -23 33 0
10 -21 -29 0
10 -19 30 0
10 23 -30 0
11 -22 28 0
11 -14 -26 0
11 -12 13 0
11 13 31 0
11 25 -32 0
11 30 -31 0
12 -15 -22 0
12 15 -26 0
12 19 20 0
12 20 -29 0
12 20 28 0
13 -16 26 0
13 -14 -29 0
13 20 -35 0
14 21 33 0
14 23 30 0
15 -25 -30 0
15 -20 29 0
16 18 32 0
16 22 29 0
17 -26 -34 0
17 -23 -34 0
17 -20 -35 0
17 22 -23 0
17 22 34 0
17 28 32 0
19 -29 -30 0
20 -23 29 0
20 -22 35 0
23 -27 29 0
24 25 -33 0
26 30 -31 0
