p cnf 80 340
-66 -71 -79 0
-64 -66 -72 0
-64 76 -78 0
-59 -77 -80 0
-59 -61 -65 0
-57 -60 61 0
-57 65 -78 0
-56 -71 -75 0
-56 -61 77 0
-54 -76 -77 0
-52 66 74 0
-49 55 59 0
-48 50 -79 0
-48 50 60 0
-48 60 -66 0
-47 -72 -79 0
-45 -47 -52 0
-44 70 -79 0
-42 -45 -79 0
-42 53 67 0
-41 -66 -72 0
-41 55 58 0
-41 58 80 0
-41 60 75 0
-40 41 -73 0
-40 44 -73 0
-38 -53 55 0
-38 -46 -63 0
-38 51 55 0
-37 -46 63 0
-37 44 -49 0
-35 -65 79 0
-35 -51 -71 0
-35 -42 -78 0
-34 -39 -45 0
-34 47 51 0
-33 40 41 0
-32 37 -68 0
-32 46 64 0
-31 -55 69 0
-31 -49 -68 0
-31 34 65 0
-30 51 76 0
-30 56 -63 0
-29 -49 77 0
-29 49 53 0
-27 29 -46 0
-27 31 -36 0
-26 -58 -78 0
-26 -37 48 0
-26 -32 44 0
-26 27 45 0
-26 34 -69 0
-26 43 -46 0
-26 59 -69 0
-25 -28 37 0
-25 50 -80 0
-24 -56 78 0
-24 -55 76 0
-24 -45 50 0
-24 -37 -61 0
-24 44 -50 0
-23 -61 -77 0
-23 -52 67 0
-23 -28 -76 0
-23 -24 -76 0
-23 37 -42 0
-22 -45 -59 0
-22 -37 78 0
-22 -26 -65 0
-22 33 -74 0
-21 -35 43 0
-21 38 59 0
-20 -78 79 0
-20 -42 -78 0
-20 -32 -73 0
-20 23 -59 0
-20 60 79 0
-19 -66 -76 0
-19 -55 75 0
-19 -33 54 0
-19 -29 49 0
-19 23 38 0
-19 31 -45 0
-19 40 47 0
-19 67 70 0
-18 -46 -75 0
-18 -29 32 0
-18 -23 -65 0
-18 24 -26 0
-18 33 37 0
-18 35 37 0
-18 43 -78 0
-17 -36 -56 0
-17 65 73 0
-16 -52 -68 0
-15 -64 -78 0
-15 -32 -47 0
-15 -27 56 0
-15 -25 31 0
-15 28 -35 0
-14 -48 -69 0
-14 18 58 0
-14 43 -53 0
-14 65 -73 0
-13 -76 -80 0
-13 -62 67 0
-13 -35 57 0
-13 -31 41 0
-13 22 -77 0
-13 22 39 0
-13 28 49 0
-13 33 49 0
-13 52 -73 0
-12 -55 70 0
-12 -41 62 0
-12 -31 -54 0
-12 -13 68 0
-12 56 68 0
-11 -43 71 0
-11 -28 39 0
-11 25 -32 0
-11 27 56 0
-11 44 -45 0
-10 -54 -65 0
-10 -30 44 0
-10 -23 -75 0
-10 15 -23 0
-10 25 72 0
-9 -21 -67 0
-9 -20 50 0
-9 -16 -39 0
-9 -11 43 0
-9 20 74 0
-9 28 61 0
-8 -42 52 0
-8 -22 48 0
-8 -19 36 0
-8 14 74 0
-8 18 65 0
-8 58 -76 0
-7 -40 77 0
-7 -8 75 0
-6 -30 61 0
-6 10 54 0
-6 11 -57 0
-6 15 -76 0
-6 38 48 0
-6 47 48 0
-6 52 -77 0
-5 -25 48 0
-5 -19 69 0
-5 12 39 0
-5 14 59 0
-5 18 37 0
-5 23 49 0
-5 39 -64 0
-5 44 78 0
-5 48 -79 0
-5 51 73 0
-4 -43 -49 0
-4 -26 64 0
-4 -16 -62 0
-4 13 47 0
-3 -29 -60 0
-3 -28 59 0
-3 -18 35 0
-3 -17 -78 0
-2 -65 -68 0
-2 -60 -69 0
-2 -54 77 0
-2 -27 61 0
-2 -20 52 0
-2 14 78 0
-2 18 -79 0
-2 30 62 0
-2 38 72 0
-1 -26 54 0
-1 -22 -65 0
-1 -15 52 0
-1 -13 73 0
-1 30 -74 0
-1 52 -55 0
1 -12 28 0
1 -10 35 0
1 -2 -39 0
1 33 -57 0
1 34 -40 0
1 35 -73 0
1 46 74 0
2 -13 -52 0
2 12 -32 0
3 -21 31 0
3 -4 -43 0
3 4 -51 0
3 21 52 0
3 51 52 0
4 -41 -78 0
4 -27 64 0
4 21 -65 0
4 23 32 0
4 36 -74 0
4 49 -54 0
5 -25 27 0
5 -13 18 0
5 -9 25 0
5 15 -40 0
6 -59 -66 0
6 -36 70 0
6 -18 78 0
6 7 45 0
6 25 60 0
6 38 -65 0
7 -60 66 0
7 -36 66 0
7 -19 -28 0
7 50 79 0
7 64 -77 0
8 9 -37 0
8 21 53 0
8 52 58 0
8 67 -69 0
9 -47 63 0
9 -32 69 0
9 -10 61 0
9 12 -25 0
10 -65 -80 0
10 -43 62 0
10 -22 45 0
11 -55 61 0
11 -15 67 0
11 -13 -70 0
11 13 69 0
12 -16 -35 0
12 14 -49 0
12 15 -31 0
12 35 68 0
12 44 71 0
12 56 -67 0
12 56 -62 0
12 59 73 0
12 68 72 0
13 -31 -56 0
13 -18 27 0
13 17 38 0
13 30 62 0
13 44 -74 0
13 50 -67 0
14 20 61 0
14 35 -59 0
14 49 74 0
15 -28 -45 0
15 -23 75 0
15 27 -29 0
15 40 -67 0
16 29 47 0
16 59 -64 0
16 74 75 0
17 -58 61 0
18 36 66 0
18 51 -55 0
18 54 -78 0
19 -30 79 0
19 37 -68 0
20 -47 -67 0
20 28 -44 0
20 29 -59 0
20 59 -73 0
21 -48 70 0
21 -45 -58 0
21 -34 45 0
21 28 70 0
21 54 -77 0
21 71 72 0
22 -49 -59 0
22 -49 80 0
22 -29 56 0
22 -26 -43 0
23 -59 80 0
23 -49 -67 0
23 -35 -45 0
23 24 68 0
24 -25 -69 0
24 32 46 0
25 -26 60 0
25 30 -36 0
25 30 70 0
26 -62 -77 0
26 -41 77 0
26 48 -56 0
27 37 -51 0
27 42 -58 0
27 47 62 0
27 62 -63 0
28 -44 80 0
28 -42 66 0
28 61 63 0
30 -63 -75 0
30 -41 79 0
30 -34 70 0
31 47 -53 0
31 67 -77 0
32 -59 78 0
32 -49 55 0
32 -40 -67 0
32 67 -68 0
33 -61 77 0
33 -45 -79 0
33 -36 68 0
33 -35 -71 0
33 48 50 0
34 -39 -40 0
34 -37 58 0
34 49 -61 0
36 -47 55 0
36 -39 61 0
36 46 -51 0
37 -48 65 0
37 39 -66 0
37 68 75 0
38 58 80 0
39 -45 -63 0
42 65 -80 0
42 65 70 0
43 49 77 0
43 59 -62 0
44 -55 70 0
44 -47 50 0
45 63 -73 0
46 -58 -76 0
46 55 60 0
50 -61 -67 0
50 -52 -58 0
51 -65 -76 0
51 54 56 0
53 62 67 0
59 69 -79 0
61 -69 71 0
63 -64 72 0
68 -72 -76 0
