p cnf 100 360
-85 88 -90 0
-83 88 -90 0
-74 -75 91 0
-66 -71 83 0
-66 68 -98 0
-63 76 78 0
-61 -65 85 0
-61 85 88 0
-59 -80 -99 0
-59 -69 -83 0
-59 72 89 0
-58 60 75 0
-57 74 -95 0
-56 -58 69 0
-53 -63 -100 0
-53 70 92 0
-52 55 -95 0
-51 -74 79 0
-51 -68 -88 0
-50 53 75 0
-50 83 -92 0
-49 -71 -75 0
-49 -50 -89 0
-49 67 -75 0
-47 -79 89 0
-47 -51 92 0
-47 65 91 0
-47 86 96 0
-46 -61 70 0
-46 -47 -90 0
-46 49 -99 0
-45 -79 -84 0
-45 -64 -80 0
-45 83 95 0
-44 -78 -85 0
-44 -55 92 0
-43 54 57 0
-43 56 -79 0
-43 75 89 0
-42 -74 91 0
-40 -80 -93 0
-40 -66 -97 0
-40 -58 -93 0
-40 -44 -79 0
-40 56 -59 0
-39 -59 -73 0
-39 46 63 0
-38 -73 90 0
-38 52 77 0
-38 56 91 0
-37 -41 72 0
-36 -75 90 0
-36 -58 -67 0
-36 -41 -56 0
-35 50 91 0
-34 -87 -88 0
-34 -71 85 0
-34 -66 -77 0
-34 -60 67 0
-34 -41 88 0
-34 -35 -64 0
-34 43 -51 0
-34 50 53 0
-33 -59 -74 0
-33 -37 -45 0
-33 41 -96 0
-33 42 -56 0
-33 42 81 0
-33 43 59 0
-33 45 -100 0
-33 50 79 0
-33 74 -86 0
-32 -39 75 0
-32 48 89 0
-31 -57 -66 0
-31 -49 81 0
-31 -45 52 0
-31 -45 53 0
-31 -40 69 0
-29 -52 -71 0
-29 -47 -54 0
-29 37 -95 0
-28 -60 -91 0
-28 41 44 0
-27 -29 44 0
-27 35 68 0
-26 -36 38 0
-26 -33 -38 0
-25 92 -95 0
-24 -74 -96 0
-24 -39 58 0
-24 62 82 0
-23 -32 -69 0
-23 42 -48 0
-22 28 37 0
-21 -60 -81 0
-21 -23 87 0
-21 68 84 0
-20 -70 77 0
-20 -42 -45 0
-20 55 -97 0
-19 -66 73 0
-19 -55 90 0
-19 -24 -97 0
-19 20 -46 0
-19 67 -70 0
-19 85 86 0
-18 -78 -96 0
-18 -39 -71 0
-18 31 100 0
-18 38 97 0
-18 66 72 0
-17 -73 -84 0
-17 -44 79 0
-17 -18 -56 0
-17 28 -32 0
-17 80 98 0
-16 19 82 0
-16 38 -45 0
-16 77 88 0
-15 -57 62 0
-15 -55 -98 0
-15 -51 70 0
-15 -20 42 0
-15 -18 -41 0
-15 36 -80 0
-15 39 -85 0
-14 -26 45 0
-14 -25 70 0
-14 21 -62 0
-14 25 69 0
-14 44 -74 0
-14 76 -86 0
-13 -49 -94 0
-13 -48 -92 0
-12 -35 -60 0
-12 -33 -64 0
-12 -25 63 0
-12 81 -99 0
-11 -56 69 0
-11 -42 56 0
-11 -15 -73 0
-11 -14 -55 0
-11 16 -71 0
-11 34 41 0
-11 66 -100 0
-10 -36 98 0
-10 43 53 0
-10 47 54 0
-9 -83 88 0
-9 -67 -85 0
-9 -47 -79 0
-9 -39 55 0
-9 -23 -61 0
-9 -18 47 0
-9 29 35 0
-8 -17 -62 0
-8 14 93 0
-8 17 49 0
-8 31 56 0
-8 61 90 0
-8 62 -83 0
-7 -86 92 0
-7 -62 -94 0
-7 -61 65 0
-7 -28 69 0
-7 -14 26 0
-7 -14 35 0
-7 12 -65 0
-7 50 64 0
-7 61 -67 0
-6 -80 94 0
-6 -69 -82 0
-6 -48 -60 0
-6 10 86 0
-6 14 65 0
-6 32 74 0
-6 78 -90 0
-5 12 -85 0
-5 17 44 0
-5 19 -95 0
-5 23 87 0
-4 -53 -68 0
-4 -17 55 0
-4 -16 -80 0
-4 11 39 0
-4 16 -33 0
-3 -67 -74 0
-3 23 88 0
-3 38 -45 0
-3 67 82 0
-3 75 90 0
-2 5 -90 0
-2 12 -59 0
-2 38 -96 0
-2 51 -99 0
-1 -30 78 0
-1 -8 -42 0
-1 -8 27 0
-1 -6 -11 0
-1 45 100 0
-1 82 -91 0
1 -34 -50 0
1 10 88 0
1 75 89 0
1 81 -85 0
2 -10 -13 0
2 29 82 0
3 -44 -54 0
3 -38 91 0
3 24 -26 0
3 50 63 0
3 73 99 0
4 -62 94 0
4 -53 72 0
4 13 59 0
4 53 60 0
5 21 -27 0
5 59 -94 0
6 -8 -95 0
6 -8 -85 0
6 14 56 0
6 15 80 0
6 19 23 0
6 87 97 0
7 -85 97 0
7 -73 -92 0
7 -37 -77 0
7 39 -87 0
8 -25 38 0
8 -16 100 0
8 22 33 0
8 73 79 0
9 -60 -87 0
10 -68 76 0
10 14 -37 0
10 28 -80 0
11 -41 -88 0
11 -38 -82 0
11 -32 47 0
11 -18 -29 0
11 20 66 0
11 22 -68 0
12 -49 85 0
12 45 89 0
13 -81 90 0
13 37 55 0
13 66 98 0
14 -64 -88 0
14 54 -87 0
15 -62 64 0
15 -33 52 0
15 -30 87 0
15 -23 -64 0
15 46 -70 0
15 53 96 0
16 -68 -76 0
16 -42 -98 0
16 -30 44 0
16 50 55 0
16 74 -81 0
16 76 -94 0
17 -85 -95 0
17 -55 64 0
17 23 -86 0
17 25 83 0
18 -50 -99 0
18 -19 43 0
18 19 -31 0
19 36 99 0
19 38 -80 0
19 54 61 0
19 58 -73 0
20 50 -55 0
22 -35 42 0
22 34 85 0
22 85 86 0
23 -63 83 0
23 -47 -96 0
23 -31 51 0
23 -30 -92 0
23 -24 -28 0
23 50 -66 0
23 52 97 0
23 82 95 0
24 29 49 0
24 55 -90 0
24 76 -99 0
25 -37 83 0
25 -29 -35 0
26 -58 61 0
26 30 -44 0
26 66 -98 0
27 43 62 0
29 -84 -90 0
29 -37 -56 0
29 -36 69 0
29 75 -98 0
29 76 -94 0
30 -94 -99 0
30 35 -95 0
31 -43 -71 0
31 54 57 0
32 -75 78 0
32 -63 67 0
33 -59 77 0
33 -51 -78 0
34 -48 82 0
34 -41 55 0
35 79 -94 0
36 -57 -91 0
36 42 -89 0
36 50 96 0
36 56 78 0
36 75 100 0
37 69 -77 0
38 -50 69 0
38 73 81 0
39 46 79 0
39 70 -100 0
40 -45 -80 0
40 -42 -77 0
40 59 -72 0
41 -56 60 0
41 -53 -74 0
41 60 98 0
42 -63 85 0
42 -58 97 0
42 -53 -63 0
43 -66 -92 0
43 75 76 0
44 -46 59 0
46 66 96 0
49 -89 -92 0
49 -78 -84 0
49 64 84 0
52 -77 87 0
52 79 -82 0
52 87 100 0
53 65 97 0
54 -58 87 0
54 -55 -89 0
54 66 -94 0
55 78 -88 0
56 -95 -98 0
57 -60 62 0
59 89 100 0
61 -94 100 0
64 -79 89 0
64 74 97 0
66 -68 86 0
66 77 -100 0
67 -79 100 0
68 -77 83 0
70 -75 -79 0
70 -72 77 0
71 -74 -97 0
71 86 -90 0
76 -86 -88 0
81 -87 -98 0
