p cnf 24 102
-12 -13 14 0
-12 16 -21 0
-11 -12 -18 0
-11 15 -16 0
-10 -12 20 0
-10 13 -16 0
-8 10 -16 0
-8 14 21 0
-8 22 -23 0
-7 -23 -24 0
-7 -11 -21 0
-7 12 -24 0
-7 13 24 0
-6 -10 -13 0
-6 -8 -22 0
-6 9 13 0
-6 13 14 0
-4 -22 -24 0
-4 -9 16 0
-4 7 -13 0
-4 8 -15 0
-4 13 21 0
-3 -23 -24 0
-3 -20 23 0
-3 -5 -17 0
-3 5 -22 0
-3 7 23 0
-3 8 -12 0
-2 -15 -17 0
-2 -12 -24 0
-2 -9 23 0
-2 -7 -22 0
-2 -7 -12 0
-2 4 11 0
-2 7 19 0
-2 19 23 0
-1 6 22 0
-1 8 9 0
-1 9 17 0
-1 18 -21 0
1 -17 -21 0
1 -8 -15 0
1 -7 -11 0
1 -4 10 0
1 -4 19 0
1 -3 9 0
1 7 -12 0
2 -14 23 0
2 -5 13 0
2 -3 19 0
2 3 -21 0
2 5 -18 0
2 10 -16 0
3 -13 15 0
3 -4 24 0
3 4 9 0
3 6 -10 0
3 6 18 0
4 -12 -24 0
4 -11 20 0
4 -10 -22 0
4 -10 24 0
4 -9 -10 0
4 -8 -12 0
4 -8 10 0
4 -5 -9 0
4 9 -11 0
4 11 21 0
5 -18 -20 0
5 -15 -16 0
5 16 -22 0
6 -15 18 0
6 -11 14 0
6 -10 17 0
6 -10 19 0
6 8 -12 0
6 12 -20 0
7 -8 11 0
8 -9 -11 0
8 -9 18 0
8 9 23 0
8 12 23 0
9 14 21 0
10 -22 24 0
10 -17 -19 0
10 13 -20 0
10 17 -18 0
11 -13 -20 0
11 -12 14 0
11 20 -23 0
12 -15 23 0
12 18 -23 0
12 19 -21 0
12 19 24 0
14 18 24 0
15 -21 -22 0
15 -19 -23 0
15 20 -23 0
16 18 -23 0
16 18 19 0
17 18 -22 0
20 -21 24 0
