p cnf 180 760
-166 170 -179 0
-161 165 -177 0
-156 164 171 0
-137 -141 -163 0
-129 162 178 0
-129 165 172 0
-128 -139 -178 0
-128 147 152 0
-126 131 148 0
-125 -142 147 0
-125 -126 -151 0
-124 -139 172 0
-124 -135 137 0
-124 145 159 0
-121 -159 -178 0
-119 139 -144 0
-118 122 -129 0
-117 119 -129 0
-115 127 153 0
-113 -145 180 0
-113 -144 -173 0
-113 -128 133 0
-113 134 -153 0
-112 -139 -150 0
-112 140 158 0
-111 -156 -174 0
-111 -128 132 0
-111 124 179 0
-110 -120 130 0
-109 -133 159 0
-109 126 -149 0
-107 -141 -150 0
-106 -163 174 0
-104 118 143 0
-102 -137 173 0
-102 140 173 0
-101 -116 -172 0
-101 120 152 0
-100 -147 -148 0
-100 113 -157 0
-100 159 -167 0
-99 123 144 0
-98 128 129 0
-96 134 -175 0
-95 144 153 0
-94 -171 179 0
-93 -113 -173 0
-93 102 148 0
-91 124 -177 0
-91 163 -177 0
-90 -150 179 0
-89 130 165 0
-88 111 -131 0
-87 -104 -131 0
-87 147 -166 0
-85 -104 112 0
-85 -97 156 0
-85 86 168 0
-84 -147 169 0
-84 -87 140 0
-84 95 -179 0
-83 85 -102 0
-83 101 109 0
-82 -88 -164 0
-82 106 -126 0
-81 -83 89 0
-81 111 178 0
-81 164 -177 0
-80 -83 -98 0
-80 91 -94 0
-80 133 151 0
-79 -145 -150 0
-79 -135 -150 0
-78 -162 -180 0
-78 90 -120 0
-78 118 -156 0
-77 -141 -173 0
-77 121 124 0
-76 -117 155 0
-75 -119 144 0
-75 84 131 0
-74 88 131 0
-73 -102 -120 0
-73 -96 -99 0
-72 -151 -177 0
-72 -87 126 0
-71 151 153 0
-70 -126 178 0
-70 90 133 0
-69 81 114 0
-69 98 119 0
-68 -74 -99 0
-68 133 -157 0
-67 -161 -164 0
-67 -77 140 0
-67 80 -122 0
-67 106 -118 0
-67 116 155 0
-66 121 155 0
-65 -100 -177 0
-65 -93 121 0
-65 67 -143 0
-64 79 111 0
-64 125 -134 0
-63 -147 173 0
-63 -120 -160 0
-63 -101 159 0
-63 101 167 0
-63 129 -157 0
-62 -151 170 0
-62 -95 177 0
-62 -77 157 0
-62 126 162 0
-60 -172 177 0
-60 -98 -128 0
-60 -68 110 0
-60 68 150 0
-60 112 124 0
-59 -145 -153 0
-59 68 -146 0
-59 137 168 0
-58 68 171 0
-58 101 -154 0
-58 145 160 0
-57 -101 138 0
-57 -92 -160 0
-57 118 155 0
-56 66 169 0
-56 98 -101 0
-56 111 128 0
-55 -111 -125 0
-55 91 152 0
-54 -102 -160 0
-54 70 -150 0
-54 73 -144 0
-53 -112 -125 0
-53 -66 -112 0
-53 -56 -151 0
-52 -79 161 0
-51 -66 71 0
-51 55 -131 0
-51 68 94 0
-51 70 -154 0
-51 103 -164 0
-51 104 143 0
-51 112 -156 0
-51 133 -174 0
-50 -54 -153 0
-50 85 -149 0
-49 -140 -149 0
-49 -125 -141 0
-49 -67 -180 0
-49 64 -157 0
-48 63 139 0
-48 68 -77 0
-48 74 -147 0
-48 123 -147 0
-47 49 52 0
-47 70 172 0
-47 114 -133 0
-46 -51 173 0
-46 59 148 0
-46 71 117 0
-46 96 164 0
-46 142 173 0
-46 154 -164 0
-45 -153 -175 0
-45 -90 129 0
-45 -75 -91 0
-45 99 117 0
-45 106 -117 0
-44 -108 -128 0
-44 71 123 0
-44 79 162 0
-44 153 166 0
-43 -152 -168 0
-43 -101 177 0
-43 50 63 0
-43 78 -116 0
-43 88 -122 0
-43 108 150 0
-43 141 147 0
-42 -104 -131 0
-42 80 125 0
-42 87 107 0
-42 119 -127 0
-41 -110 -125 0
-41 -108 170 0
-41 -96 -163 0
-41 117 -122 0
-40 -46 158 0
-40 112 155 0
-40 114 -119 0
-39 -67 133 0
-39 -64 -111 0
-39 84 110 0
-39 122 138 0
-38 -43 -115 0
-38 91 -164 0
-37 -155 -174 0
-37 -94 -96 0
-37 -71 -137 0
-37 141 -167 0
-36 -119 157 0
-36 -68 -115 0
-36 51 64 0
-36 61 81 0
-35 -97 -107 0
-35 -86 -160 0
-35 125 -145 0
-35 167 175 0
-34 -116 -162 0
-34 -90 -147 0
-34 53 -88 0
-34 62 -170 0
-33 -105 -152 0
-33 39 62 0
-33 92 -171 0
-33 106 -166 0
-32 -59 85 0
-32 92 99 0
-32 96 99 0
-31 -122 160 0
-31 -120 -158 0
-31 -65 74 0
-31 48 -91 0
-31 52 79 0
-31 135 171 0
-30 -90 -100 0
-30 -50 -103 0
-30 74 151 0
-30 77 -115 0
-29 -52 149 0
-29 132 -173 0
-28 -112 139 0
-28 -99 124 0
-28 77 -124 0
-27 52 -69 0
-27 53 61 0
-26 42 -114 0
-26 58 150 0
-25 -50 110 0
-25 -35 -135 0
-25 -33 138 0
-25 94 -131 0
-25 134 180 0
-24 -133 -143 0
-24 -43 -66 0
-24 44 -156 0
-24 129 165 0
-23 -153 -170 0
-23 -96 129 0
-23 -44 -131 0
-23 -39 52 0
-23 72 -153 0
-23 76 -169 0
-22 -82 -85 0
-22 63 -103 0
-22 67 111 0
-22 116 169 0
-21 -104 -116 0
-21 -62 -134 0
-21 -51 -57 0
-21 52 139 0
-21 61 -176 0
-21 103 130 0
-21 127 -145 0
-21 132 -137 0
-19 -132 -161 0
-19 -111 177 0
-19 -50 -156 0
-19 28 -155 0
-19 29 110 0
-19 34 -145 0
-18 25 -141 0
-18 26 -74 0
-18 57 69 0
-18 75 -142 0
-18 87 -167 0
-18 158 179 0
-17 -141 -156 0
-17 -139 143 0
-17 -54 -66 0
-17 74 102 0
-16 -51 -153 0
-16 23 70 0
-16 41 80 0
-16 83 126 0
-15 -142 -151 0
-15 -62 85 0
-15 -48 -64 0
-15 -22 117 0
-15 -21 -148 0
-15 -19 126 0
-15 35 -178 0
-15 55 -64 0
-15 143 -151 0
-14 -31 -136 0
-14 -31 146 0
-14 68 -113 0
-13 -124 169 0
-13 -106 -180 0
-13 -85 93 0
-13 -45 -70 0
-13 -31 -74 0
-13 37 -113 0
-13 41 -90 0
-13 64 -157 0
-13 149 -168 0
-12 -84 101 0
-12 -82 -170 0
-12 -82 -169 0
-12 -30 109 0
-12 -17 82 0
-11 -69 -101 0
-11 -32 -143 0
-11 49 97 0
-11 61 125 0
-11 140 141 0
-10 -20 -130 0
-10 11 90 0
-10 22 54 0
-9 -77 -125 0
-9 -58 172 0
-9 -37 59 0
-9 -16 76 0
-9 -12 -165 0
-9 14 -104 0
-9 26 -103 0
-9 41 -120 0
-9 74 156 0
-9 100 162 0
-8 -128 -167 0
-8 -123 -147 0
-8 -74 -116 0
-8 -26 -110 0
-8 11 110 0
-8 41 78 0
-8 69 -151 0
-8 143 159 0
-7 -48 -69 0
-7 52 74 0
-7 114 -151 0
-6 -95 -143 0
-6 -62 106 0
-6 -56 -117 0
-6 75 121 0
-5 -88 92 0
-5 64 -71 0
-5 96 165 0
-5 119 164 0
-4 -115 150 0
-4 -59 80 0
-4 -50 -161 0
-4 -49 -153 0
-4 -41 -81 0
-4 -29 161 0
-4 13 172 0
-4 27 -139 0
-4 48 146 0
-3 -37 136 0
-3 -28 -60 0
-3 12 56 0
-3 33 66 0
-3 43 -124 0
-3 46 -54 0
-3 80 103 0
-3 100 -167 0
-2 -85 -115 0
-2 -13 -149 0
-2 -6 -45 0
-2 -4 -147 0
-2 -3 -81 0
-2 5 42 0
-2 51 -77 0
-2 64 168 0
-2 130 -143 0
-2 159 -175 0
-1 -94 -166 0
-1 -82 -159 0
-1 -72 -164 0
-1 -68 -82 0
-1 -47 80 0
-1 30 95 0
-1 66 137 0
-1 81 -178 0
-1 86 -128 0
1 -148 163 0
1 -78 -177 0
1 6 -109 0
1 8 -92 0
1 108 -119 0
2 -107 179 0
2 -17 -37 0
2 85 -114 0
2 87 -177 0
2 88 -103 0
3 -150 -180 0
3 -148 -173 0
3 -114 123 0
3 -27 -141 0
3 -27 36 0
3 -12 -131 0
3 24 38 0
3 46 -128 0
3 63 135 0
4 -65 -166 0
4 -64 82 0
4 -42 -109 0
4 -29 137 0
4 49 115 0
4 75 148 0
4 99 142 0
5 -29 164 0
5 13 24 0
5 53 -69 0
5 57 -173 0
6 -97 -111 0
7 -90 125 0
7 -78 134 0
7 -60 89 0
7 -55 66 0
7 -16 -33 0
7 71 144 0
8 -36 -135 0
8 -20 44 0
8 72 -124 0
9 -122 150 0
9 -79 -100 0
9 10 34 0
9 10 80 0
9 22 62 0
9 38 -92 0
9 43 -131 0
9 60 67 0
9 144 160 0
10 -92 110 0
10 -33 -127 0
11 -88 100 0
11 -24 -34 0
11 -18 36 0
11 22 -23 0
11 42 -45 0
11 48 -107 0
12 -74 179 0
12 -59 -130 0
12 -59 169 0
12 121 -141 0
12 123 -163 0
13 -110 -173 0
13 -96 -127 0
13 26 159 0
14 -87 94 0
14 -75 174 0
14 -20 43 0
14 29 -176 0
14 86 -167 0
15 -58 154 0
15 -50 149 0
15 -23 144 0
15 59 86 0
16 -93 -101 0
16 -33 -158 0
17 -101 -152 0
17 -62 124 0
17 -41 -73 0
17 -24 30 0
17 30 58 0
17 58 73 0
17 61 158 0
18 -89 -93 0
18 -23 178 0
18 40 -126 0
18 90 -175 0
18 101 163 0
18 128 171 0
19 -96 -101 0
19 -39 108 0
19 30 73 0
19 93 -165 0
20 -147 -160 0
20 -70 -103 0
20 -57 156 0
20 89 -100 0
20 111 -157 0
21 -77 -114 0
21 -75 94 0
21 -44 171 0
21 98 137 0
22 -73 -169 0
22 -28 -90 0
22 -25 157 0
22 42 148 0
22 105 173 0
22 108 165 0
22 140 -179 0
23 -172 177 0
23 -150 -153 0
23 -121 135 0
23 57 -110 0
23 77 -88 0
23 83 -167 0
24 -157 -165 0
24 101 -122 0
25 -76 169 0
25 -72 168 0
25 -53 -100 0
25 -30 -44 0
25 -29 -136 0
25 37 115 0
25 92 -142 0
25 123 128 0
25 127 -151 0
25 134 -164 0
25 169 -171 0
26 -119 149 0
26 -100 -140 0
26 -75 82 0
26 -62 140 0
26 -51 -96 0
26 -34 66 0
26 35 -91 0
26 35 136 0
26 68 -85 0
26 73 -121 0
27 -94 105 0
27 35 -58 0
28 -137 -163 0
28 166 169 0
29 -37 -138 0
29 -32 154 0
29 46 169 0
29 74 107 0
30 -136 -170 0
30 -75 -94 0
30 42 87 0
30 77 130 0
30 99 -112 0
31 -84 92 0
31 51 85 0
31 130 153 0
32 -103 135 0
32 -89 -146 0
32 71 105 0
33 -44 178 0
33 57 153 0
33 69 77 0
33 81 96 0
34 -96 140 0
34 -82 -177 0
34 -68 119 0
34 -53 -105 0
34 -49 162 0
34 -47 159 0
34 -42 -75 0
34 36 -70 0
34 72 -94 0
34 108 124 0
34 119 -122 0
34 145 170 0
35 -75 -160 0
35 -43 -86 0
35 67 -78 0
35 85 165 0
35 129 146 0
36 -141 -144 0
36 -90 -111 0
36 -49 129 0
36 77 -101 0
36 92 -167 0
37 60 113 0
37 76 -163 0
37 170 175 0
37 171 -178 0
38 -79 -163 0
38 -66 114 0
38 104 167 0
39 -92 131 0
39 -61 -115 0
39 -55 64 0
39 -48 -101 0
39 -42 -100 0
40 -94 149 0
40 95 149 0
40 104 164 0
41 -73 -93 0
41 -58 -172 0
41 55 162 0
42 -134 -176 0
42 -81 -161 0
42 68 81 0
42 79 156 0
42 118 143 0
43 -63 158 0
43 94 145 0
43 134 156 0
44 54 -117 0
44 122 176 0
45 50 56 0
45 53 133 0
45 85 -164 0
45 149 -169 0
46 161 -180 0
47 -84 125 0
48 -153 -176 0
48 -89 179 0
48 -63 113 0
48 132 -154 0
48 145 -171 0
48 166 -170 0
49 -136 162 0
49 -84 95 0
49 -82 96 0
49 118 -178 0
50 -105 -142 0
50 -86 -110 0
50 52 80 0
50 113 -163 0
51 56 144 0
51 95 142 0
52 87 165 0
52 101 134 0
53 -66 107 0
53 148 -163 0
54 80 -156 0
55 -142 157 0
55 -109 -150 0
55 -64 148 0
55 -59 -64 0
56 -163 165 0
56 -67 116 0
57 -61 175 0
58 -125 165 0
58 -100 118 0
58 -97 178 0
58 106 177 0
58 136 160 0
58 146 168 0
58 160 166 0
59 99 147 0
60 -171 175 0
60 -109 119 0
61 -111 143 0
61 -108 175 0
61 63 -114 0
61 69 -172 0
62 -99 127 0
62 92 -147 0
63 -132 -176 0
64 -133 139 0
64 -96 -111 0
64 -73 108 0
64 -67 -130 0
65 -141 176 0
65 -90 -117 0
65 91 -102 0
66 -129 149 0
66 -107 -156 0
66 171 -174 0
67 -70 -149 0
68 143 170 0
69 -113 -161 0
69 -99 -156 0
69 71 -140 0
70 -112 138 0
70 -82 -104 0
72 164 172 0
73 87 128 0
73 89 -151 0
74 -88 92 0
74 82 112 0
74 123 -131 0
75 -88 145 0
75 -77 112 0
75 89 -103 0
75 116 121 0
76 -147 166 0
76 -135 146 0
76 -114 174 0
76 87 -180 0
76 124 155 0
77 80 93 0
77 89 96 0
77 137 -176 0
78 100 -173 0
78 102 131 0
78 120 170 0
78 129 -159 0
79 -168 -179 0
79 -124 142 0
79 -95 -178 0
79 -92 -111 0
80 -105 159 0
80 -81 -151 0
80 101 161 0
81 -126 144 0
81 -124 -162 0
82 -128 144 0
82 -114 159 0
82 -95 125 0
82 87 -136 0
83 -124 137 0
84 96 -113 0
85 106 -172 0
86 -142 145 0
86 101 -142 0
88 -106 -120 0
88 -106 179 0
89 -131 145 0
89 136 141 0
90 -121 171 0
90 132 162 0
91 -98 -122 0
93 -97 -147 0
93 -95 160 0
93 133 171 0
93 157 165 0
94 -138 -177 0
94 -106 -161 0
94 -98 105 0
94 112 -178 0
95 139 167 0
96 132 -152 0
96 132 138 0
97 -101 -126 0
97 125 -151 0
98 -143 -147 0
98 126 -130 0
100 -177 -180 0
100 -117 -125 0
100 -114 -119 0
101 -117 -123 0
101 167 175 0
102 -155 170 0
102 -142 160 0
103 124 127 0
105 108 -111 0
107 -132 169 0
110 -167 176 0
114 122 169 0
115 -148 159 0
119 -135 -149 0
119 -134 -155 0
133 -141 166 0
133 -134 -177 0
133 141 -170 0
134 -137 143 0
135 -147 -166 0
136 -160 -174 0
140 152 -162 0
143 156 -163 0
145 156 -170 0
145 162 -174 0
146 -160 177 0
150 152 180 0
151 -153 165 0
152 -155 -176 0
153 -175 177 0
156 -159 164 0
168 169 -175 0
