p cnf 45 191
-29 36 38 0
-28 36 43 0
-26 32 -39 0
-26 36 -43 0
-25 -33 40 0
-24 -37 39 0
-23 -35 41 0
-22 -32 37 0
-21 -28 -35 0
-21 -22 -26 0
-20 -35 -38 0
-20 41 -44 0
-19 24 -36 0
-19 44 45 0
-17 -40 44 0
-17 18 -31 0
-17 23 -24 0
-16 -33 38 0
-16 -19 -21 0
-16 -17 -42 0
-15 -36 37 0
-15 19 -42 0
-15 19 -23 0
-15 20 37 0
-15 26 40 0
-14 -29 41 0
-14 18 19 0
-14 23 -35 0
-12 -43 45 0
-12 -29 35 0
-12 -25 -35 0
-12 15 -40 0
-11 -20 38 0
-11 -17 -45 0
-11 -16 -45 0
-10 -14 18 0
-10 15 32 0
-10 20 32 0
-10 26 -29 0
-9 -38 40 0
-9 -35 44 0
-9 -34 -42 0
-9 -24 -37 0
-9 -12 28 0
-9 11 20 0
-9 15 -38 0
-9 40 -45 0
-8 -12 -19 0
-8 9 -16 0
-8 27 -42 0
-7 -29 30 0
-7 -23 39 0
-7 -19 -27 0
-7 13 21 0
-7 18 -43 0
-7 27 -45 0
-7 31 -39 0
-7 34 39 0
-6 -33 -43 0
-6 -30 -37 0
-6 -16 -39 0
-6 -12 -15 0
-6 7 39 0
-6 8 -11 0
-6 19 -42 0
-6 26 -33 0
-5 -27 -28 0
-5 -20 -24 0
-5 -16 45 0
-5 -15 -18 0
-5 -10 30 0
-5 12 44 0
-5 13 23 0
-5 14 -28 0
-5 14 24 0
-4 -34 42 0
-4 -20 -40 0
-3 -22 38 0
-3 -19 29 0
-3 5 -28 0
-3 7 29 0
-3 23 37 0
-3 40 44 0
-2 14 22 0
-2 25 -34 0
-2 29 -42 0
-1 -8 -24 0
-1 -6 -21 0
-1 -2 29 0
-1 5 -28 0
-1 7 -24 0
-1 8 20 0
-1 20 26 0
-1 23 -31 0
-1 33 35 0
-1 36 -37 0
1 -33 -36 0
1 -22 45 0
1 -15 22 0
1 -3 11 0
1 5 41 0
1 31 34 0
2 -22 -41 0
2 -18 34 0
2 -11 -30 0
2 5 15 0
2 9 -45 0
2 10 -16 0
2 10 13 0
3 -32 42 0
3 -20 -45 0
3 -18 41 0
3 20 -33 0
4 -19 -22 0
4 -16 36 0
4 -12 28 0
4 -12 40 0
4 -5 -27 0
4 9 -37 0
5 -25 28 0
5 -14 -25 0
5 -8 -17 0
5 32 -34 0
6 -33 -39 0
6 -21 -38 0
6 -12 -17 0
6 -11 -17 0
6 32 42 0
6 41 44 0
7 -30 35 0
7 -15 -24 0
7 10 -37 0
7 15 30 0
7 17 -44 0
8 -23 44 0
8 -18 -41 0
8 -14 31 0
8 -12 -38 0
8 -9 -39 0
8 9 12 0
9 11 36 0
9 16 -19 0
9 22 24 0
9 33 35 0
9 38 41 0
10 -33 -40 0
10 -32 34 0
10 -23 41 0
10 -22 -30 0
10 -22 44 0
10 -21 -30 0
10 14 45 0
10 15 -25 0
10 33 -43 0
11 -41 42 0
12 -21 -31 0
12 -21 25 0
12 13 -36 0
12 15 36 0
12 22 -41 0
12 22 34 0
13 -16 -33 0
14 -26 -28 0
14 -23 39 0
14 -20 -22 0
14 21 -34 0
14 24 30 0
14 34 41 0
15 -25 43 0
15 -22 28 0
15 25 -31 0
18 -24 38 0
18 -21 -36 0
18 20 27 0
18 21 40 0
20 -24 38 0
21 27 44 0
21 29 -34 0
22 -28 -40 0
22 33 -35 0
23 -27 42 0
24 -39 45 0
25 -34 -45 0
25 27 -40 0
26 -28 41 0
26 32 40 0
28 31 -34 0
30 -37 -43 0
32 -39 41 0
33 -35 -36 0
36 40 -41 0
