p cnf 140 595
-121 130 -138 0
-113 -125 139 0
-107 -122 123 0
-105 120 136 0
-104 112 -116 0
-103 107 110 0
-103 120 -134 0
-99 123 -133 0
-98 -99 126 0
-97 102 -138 0
-95 -121 -127 0
-95 -119 -131 0
-95 107 -124 0
-94 -104 -121 0
-94 113 117 0
-93 -100 113 0
-91 -92 138 0
-91 94 104 0
-91 99 -135 0
-90 -106 -139 0
-90 99 -113 0
-87 -115 129 0
-87 95 111 0
-86 -98 135 0
-86 -97 -120 0
-85 -111 125 0
-83 -105 -136 0
-83 -95 -122 0
-80 82 122 0
-79 86 130 0
-77 -97 -127 0
-77 91 -105 0
-76 -98 102 0
-76 93 -135 0
-76 100 -136 0
-75 -99 -127 0
-75 87 -134 0
-74 -104 127 0
-74 75 -125 0
-74 116 -127 0
-72 -90 134 0
-71 106 -107 0
-70 106 140 0
-70 108 -115 0
-69 -91 -132 0
-69 -81 -132 0
-67 -73 76 0
-67 92 -127 0
-66 -114 140 0
-65 -79 112 0
-64 68 -110 0
-64 105 121 0
-63 -81 131 0
-63 121 -127 0
-62 -104 -125 0
-62 69 87 0
-61 -78 -95 0
-61 84 -119 0
-61 91 111 0
-60 70 133 0
-60 78 -80 0
-60 100 -104 0
-59 -101 138 0
-59 -96 -138 0
-59 -78 89 0
-59 64 118 0
-59 102 108 0
-58 -123 128 0
-58 -86 134 0
-58 -84 -94 0
-58 -74 -138 0
-58 -62 101 0
-56 -90 94 0
-56 -79 96 0
-56 -65 -110 0
-56 69 126 0
-56 88 -98 0
-55 67 99 0
-55 96 115 0
-55 98 -119 0
-54 -84 -89 0
-54 -73 134 0
-53 -68 97 0
-53 113 -135 0
-52 -99 -134 0
-52 -69 -113 0
-52 66 -118 0
-51 55 75 0
-51 57 59 0
-51 97 -108 0
-51 112 -114 0
-50 -112 -127 0
-50 -65 -67 0
-50 58 -116 0
-50 63 107 0
-50 106 -131 0
-49 -70 71 0
-48 67 87 0
-46 -116 129 0
-46 59 -132 0
-46 95 -108 0
-45 -97 116 0
-44 -99 136 0
-44 -77 92 0
-44 -66 81 0
-44 -60 -118 0
-44 101 -130 0
-43 -67 108 0
-43 -47 -121 0
-42 -73 -126 0
-42 114 -115 0
-41 -83 -118 0
-41 51 53 0
-41 56 95 0
-40 -94 -114 0
-40 -59 -95 0
-40 83 133 0
-39 -96 -102 0
-39 -42 -107 0
-39 83 101 0
-39 122 -125 0
-38 -40 129 0
-37 -71 -139 0
-36 -48 66 0
-36 91 -130 0
-35 -63 -118 0
-35 41 -91 0
-35 105 134 0
-34 43 115 0
-32 -119 123 0
-32 -55 -68 0
-32 91 -123 0
-31 -99 114 0
-31 33 -71 0
-31 106 109 0
-30 43 98 0
-30 60 128 0
-30 78 94 0
-30 79 89 0
-29 -74 116 0
-29 -68 -131 0
-29 -52 108 0
-29 30 -84 0
-29 35 138 0
-28 52 -62 0
-28 120 124 0
-27 43 76 0
-26 -43 131 0
-26 48 91 0
-25 27 -75 0
-25 30 52 0
-25 78 -125 0
-25 78 -124 0
-24 -88 -124 0
-24 -74 -140 0
-24 -70 109 0
-23 -74 80 0
-23 -52 110 0
-23 -49 90 0
-23 -42 -133 0
-23 -33 -111 0
-23 36 111 0
-23 64 -117 0
-23 66 -108 0
-23 81 82 0
-23 83 -123 0
-22 -80 124 0
-22 -42 -113 0
-22 32 -53 0
-22 64 123 0
-22 109 115 0
-21 24 97 0
-21 77 90 0
-20 -75 121 0
-20 -70 75 0
-20 -68 -128 0
-20 -54 95 0
-19 -72 105 0
-19 -68 99 0
-19 -51 -126 0
-19 -43 73 0
-19 55 -110 0
-19 83 -134 0
-18 -97 135 0
-18 -88 -101 0
-18 -25 53 0
-18 -19 -124 0
-18 20 -44 0
-17 -71 78 0
-17 -49 -124 0
-17 -27 97 0
-17 32 -106 0
-17 35 51 0
-17 45 -86 0
-16 -103 -106 0
-16 -59 69 0
-16 -29 54 0
-16 -17 -73 0
-16 38 130 0
-16 60 -127 0
-16 81 -93 0
-16 105 137 0
-15 -32 -127 0
-15 -24 75 0
-15 -16 38 0
-15 65 67 0
-15 84 112 0
-15 114 -138 0
-14 -94 -139 0
-14 -81 98 0
-14 -75 -106 0
-14 -43 -45 0
-14 -42 -63 0
-14 -41 95 0
-14 23 -71 0
-14 66 -132 0
-14 77 -130 0
-14 87 -104 0
-13 -40 91 0
-13 -39 136 0
-13 -33 71 0
-13 -31 -107 0
-13 54 -115 0
-13 57 63 0
-12 -81 115 0
-12 -49 -82 0
-12 -40 81 0
-11 -66 -101 0
-11 -40 -129 0
-11 -35 69 0
-11 39 107 0
-11 50 103 0
-11 66 -118 0
-11 67 -105 0
-11 97 122 0
-11 116 125 0
-10 -52 104 0
-10 -49 87 0
-10 11 -123 0
-10 14 -103 0
-9 -101 107 0
-9 -66 -113 0
-9 -57 118 0
-9 -36 -119 0
-9 18 96 0
-9 25 79 0
-9 29 39 0
-8 -31 -110 0
-8 -16 137 0
-8 61 105 0
-8 113 -133 0
-7 -108 -115 0
-7 -95 97 0
-7 -92 -112 0
-7 -35 -36 0
-7 -31 54 0
-7 -14 136 0
-7 57 80 0
-7 67 -82 0
-7 84 -133 0
-6 -94 -139 0
-6 24 -124 0
-6 30 -91 0
-5 -50 130 0
-5 -38 -93 0
-5 64 -139 0
-4 -76 -100 0
-4 -33 64 0
-4 -32 49 0
-4 -29 -121 0
-4 -27 -128 0
-4 14 132 0
-4 17 100 0
-4 61 -104 0
-4 116 -118 0
-3 -37 -114 0
-3 -33 104 0
-3 -20 136 0
-3 11 71 0
-3 39 126 0
-3 42 43 0
-3 44 -101 0
-2 -29 37 0
-2 -20 103 0
-2 -18 -53 0
-2 -11 -127 0
-2 16 -128 0
-2 33 -45 0
-1 4 74 0
-1 36 39 0
-1 70 -136 0
-1 73 139 0
-1 113 127 0
1 -54 -67 0
1 -26 108 0
1 10 57 0
1 42 -63 0
2 -61 86 0
2 -16 -79 0
2 -16 137 0
2 24 -31 0
2 67 102 0
3 -52 104 0
3 -36 -80 0
3 61 -95 0
4 -108 139 0
4 -83 138 0
4 -62 110 0
4 -22 -131 0
4 56 107 0
4 114 129 0
5 -100 131 0
5 -66 -92 0
5 -51 90 0
5 -47 -104 0
5 19 -32 0
5 30 130 0
5 115 116 0
6 -39 87 0
6 -36 79 0
6 32 126 0
6 78 -139 0
7 -49 95 0
7 -44 47 0
7 -17 -19 0
7 -8 -61 0
7 9 -115 0
7 12 -99 0
7 20 61 0
7 23 -125 0
7 37 73 0
7 38 68 0
7 77 107 0
7 81 -107 0
8 -61 -63 0
8 -13 -75 0
8 30 120 0
8 39 -96 0
8 78 -124 0
8 78 -119 0
9 -58 -139 0
9 -35 75 0
9 -13 33 0
9 -13 88 0
9 31 66 0
9 53 -130 0
10 -60 104 0
10 -51 60 0
10 11 41 0
10 47 -74 0
11 -47 106 0
11 -30 62 0
11 37 -38 0
11 72 140 0
12 -80 127 0
12 -63 -98 0
12 44 -79 0
12 88 -98 0
13 -95 -134 0
13 -39 67 0
13 18 94 0
13 27 -28 0
13 29 -116 0
14 -67 -124 0
14 -20 86 0
14 30 60 0
14 47 99 0
14 55 -108 0
15 -93 109 0
15 -16 -83 0
15 -16 139 0
15 64 -82 0
15 70 -124 0
15 88 100 0
16 -135 138 0
16 -61 -69 0
16 -57 -66 0
16 -50 110 0
17 -97 122 0
17 -65 97 0
17 -30 -53 0
17 22 131 0
17 124 128 0
18 -75 121 0
18 -60 125 0
18 30 -48 0
19 -64 111 0
19 -21 -62 0
19 29 121 0
20 -110 -123 0
20 -21 -105 0
20 52 85 0
20 57 76 0
20 58 86 0
20 112 125 0
21 -89 -128 0
21 -63 82 0
21 28 -56 0
21 31 -65 0
21 43 -112 0
21 57 98 0
21 66 -69 0
22 -114 -128 0
22 -95 -109 0
22 112 -127 0
23 -80 -102 0
23 -69 134 0
24 -84 139 0
24 70 -98 0
24 90 136 0
25 -78 -136 0
25 -78 110 0
25 -70 121 0
25 -64 136 0
25 -37 -135 0
25 56 -57 0
25 66 -125 0
26 -70 -91 0
26 -68 -125 0
26 36 -84 0
26 58 -103 0
26 106 126 0
26 111 -118 0
26 121 -125 0
27 -69 106 0
27 -39 -74 0
28 -82 -139 0
28 76 -140 0
28 83 113 0
28 89 93 0
28 101 126 0
28 115 -116 0
29 -105 -123 0
29 -96 -111 0
29 -49 -77 0
29 53 -128 0
29 58 59 0
29 107 124 0
30 -69 97 0
30 -68 -115 0
30 -54 135 0
30 137 139 0
31 -51 71 0
31 40 -131 0
31 40 63 0
31 62 -75 0
31 103 106 0
32 37 -119 0
32 37 40 0
33 46 -92 0
33 86 -133 0
34 -68 -128 0
34 -35 73 0
34 38 -93 0
34 41 -102 0
34 58 -117 0
35 -103 -133 0
35 40 48 0
35 44 -90 0
36 45 135 0
36 47 140 0
36 106 138 0
37 -73 -126 0
37 -51 83 0
37 -46 -84 0
37 78 -98 0
38 -92 -139 0
38 83 105 0
38 133 -134 0
39 -67 -88 0
39 -63 -134 0
39 53 131 0
40 -76 -111 0
40 -50 110 0
40 44 -61 0
40 49 111 0
40 91 -129 0
40 111 115 0
41 -74 -95 0
41 -66 -82 0
41 -58 -99 0
41 81 107 0
42 -82 -139 0
42 108 110 0
43 -70 -110 0
43 53 -129 0
43 56 136 0
43 77 94 0
43 98 -120 0
44 45 -89 0
44 92 -121 0
44 93 -98 0
44 112 -140 0
45 106 136 0
46 -127 139 0
46 -103 108 0
46 -87 -129 0
46 -60 -93 0
46 64 -92 0
46 78 -89 0
47 -101 139 0
47 -100 -128 0
47 70 -122 0
47 86 -125 0
47 110 -140 0
48 -73 -81 0
49 -112 -125 0
49 -63 -80 0
49 71 -136 0
50 -66 -103 0
51 -72 -115 0
51 -61 134 0
51 -56 78 0
51 62 116 0
51 84 116 0
51 85 135 0
52 -55 96 0
52 54 132 0
53 -64 87 0
54 -80 -91 0
54 -60 -97 0
55 -111 -131 0
55 -86 94 0
55 -56 -106 0
55 57 -103 0
55 93 -128 0
55 116 -131 0
56 -87 138 0
56 70 102 0
56 105 124 0
57 -62 78 0
58 -88 -95 0
58 90 -107 0
59 -96 -140 0
59 63 92 0
59 90 97 0
60 -106 121 0
60 -82 -84 0
60 119 136 0
61 -111 -133 0
61 -90 104 0
62 103 -109 0
62 109 -138 0
63 -86 108 0
63 72 100 0
63 109 -140 0
64 -100 112 0
64 83 -88 0
65 -79 -109 0
65 119 -139 0
66 92 -111 0
67 116 128 0
68 -79 -85 0
69 73 102 0
69 95 -132 0
69 102 -111 0
69 122 135 0
70 -88 118 0
70 103 109 0
71 72 -134 0
71 76 -114 0
72 -93 -126 0
73 80 -98 0
74 117 128 0
75 -107 -126 0
75 -79 -112 0
75 84 -88 0
76 -97 138 0
76 -83 -133 0
77 94 126 0
78 82 -98 0
79 -102 -104 0
80 82 -87 0
81 -88 98 0
82 -109 -132 0
82 103 119 0
83 -128 -133 0
83 -104 123 0
83 121 -131 0
84 -96 99 0
85 -101 108 0
85 108 -139 0
87 110 127 0
89 -100 -136 0
91 -123 -124 0
92 123 -140 0
95 -126 -135 0
95 -111 139 0
98 -115 130 0
98 -110 120 0
98 -101 -119 0
101 -111 138 0
103 109 -131 0
108 -134 -140 0
130 133 -134 0
