p cnf 100 600
-81 -87 -89 0
-81 88 -89 0
-77 88 -95 0
-70 -72 -78 0
-70 -72 94 0
-66 -90 -97 0
-66 -69 85 0
-65 78 -87 0
-64 -66 96 0
-59 -90 -97 0
-59 -77 100 0
-56 -83 87 0
-56 -73 -88 0
-55 -72 -87 0
-55 -67 -90 0
-54 66 91 0
-53 57 58 0
-52 -69 -82 0
-52 82 99 0
-51 -67 86 0
-51 -55 60 0
-50 -76 100 0
-50 -75 77 0
-48 -53 -89 0
-48 67 78 0
-48 76 79 0
-47 -52 -56 0
-47 54 80 0
-47 56 -76 0
-46 -53 -79 0
-46 56 90 0
-46 60 -90 0
-46 91 -98 0
-45 -69 90 0
-45 -63 -64 0
-45 -59 70 0
-45 -49 87 0
-45 47 78 0
-45 50 -75 0
-45 90 97 0
-44 61 -91 0
-44 68 79 0
-44 71 72 0
-43 -50 61 0
-43 77 100 0
-43 83 87 0
-43 85 97 0
-42 -81 92 0
-42 -56 91 0
-42 -54 -69 0
-42 55 96 0
-42 62 87 0
-42 80 -81 0
-41 -66 88 0
-41 42 -82 0
-40 -83 -87 0
-40 66 -70 0
-40 77 78 0
-40 86 -95 0
-39 42 46 0
-39 65 79 0
-39 71 -81 0
-38 42 -59 0
-38 42 65 0
-38 80 -89 0
-37 -67 90 0
-37 -62 -80 0
-37 -48 84 0
-37 47 -71 0
-37 59 -98 0
-36 -46 -72 0
-36 -46 -51 0
-36 62 -79 0
-36 78 -95 0
-35 -85 86 0
-35 -41 -94 0
-35 -36 47 0
-35 61 66 0
-35 75 -93 0
-34 -81 93 0
-34 -43 78 0
-34 -37 -78 0
-34 45 56 0
-33 -55 -76 0
-33 -48 59 0
-33 47 71 0
-33 53 78 0
-33 57 60 0
-33 58 -94 0
-33 74 79 0
-32 -67 93 0
-32 -45 54 0
-32 -35 -42 0
-32 47 77 0
-32 61 91 0
-32 66 -79 0
-31 -63 -71 0
-31 -48 75 0
-31 43 -93 0
-31 80 -93 0
-30 35 68 0
-30 59 75 0
-30 80 -88 0
-29 -57 95 0
-29 -43 -66 0
-29 -42 -100 0
-29 30 -59 0
-29 35 91 0
-29 37 -85 0
-28 -49 81 0
-28 -46 97 0
-28 -38 41 0
-28 52 -79 0
-28 65 -75 0
-28 77 81 0
-27 -61 -66 0
-27 -34 -93 0
-27 -34 92 0
-27 -29 -30 0
-26 -63 -86 0
-26 -59 -65 0
-26 -56 78 0
-26 -44 -82 0
-26 -36 85 0
-26 64 -98 0
-25 -75 83 0
-25 42 -100 0
-25 48 57 0
-25 61 63 0
-25 63 82 0
-24 -78 82 0
-24 -38 -52 0
-24 -37 91 0
-24 26 -58 0
-24 41 -71 0
-24 51 78 0
-24 65 95 0
-23 -76 94 0
-23 -73 76 0
-23 -72 -90 0
-23 -64 85 0
-23 -62 -67 0
-23 -47 -59 0
-23 -47 77 0
-23 -37 -100 0
-23 -35 -87 0
-23 -32 -76 0
-23 25 -68 0
-23 27 -85 0
-23 31 68 0
-23 38 83 0
-23 42 -43 0
-22 -38 -86 0
-22 -33 -68 0
-22 -23 -41 0
-22 32 -68 0
-22 41 66 0
-22 47 73 0
-22 64 65 0
-21 -25 40 0
-21 23 85 0
-21 63 81 0
-20 -87 -97 0
-20 -63 -85 0
-20 -23 -99 0
-20 23 51 0
-20 53 -97 0
-19 -57 -84 0
-19 -38 -95 0
-19 22 -83 0
-19 33 64 0
-19 35 73 0
-18 -56 -84 0
-18 20 48 0
-18 24 54 0
-18 37 55 0
-18 38 -57 0
-18 78 83 0
-17 19 73 0
-17 24 77 0
-17 39 64 0
-17 76 -93 0
-16 -39 -96 0
-16 -28 42 0
-16 -22 -34 0
-16 36 74 0
-16 43 96 0
-16 49 -75 0
-15 -25 -56 0
-15 17 95 0
-15 31 67 0
-15 63 -86 0
-14 -61 79 0
-14 -47 -85 0
-14 -40 57 0
-14 -23 -40 0
-14 -20 53 0
-14 17 -53 0
-14 27 82 0
-14 59 92 0
-14 66 98 0
-13 -32 40 0
-13 -16 22 0
-13 45 -78 0
-13 58 -88 0
-13 72 -83 0
-12 -80 85 0
-12 -70 -94 0
-12 -64 -89 0
-12 -46 75 0
-12 -38 99 0
-12 32 -45 0
-12 37 73 0
-12 68 90 0
-12 78 94 0
-11 -26 -57 0
-11 -25 -49 0
-11 20 46 0
-11 31 73 0
-11 37 -48 0
-11 59 72 0
-10 -75 78 0
-10 -56 95 0
-10 -46 76 0
-10 -40 81 0
-10 -13 -38 0
-10 -12 49 0
-10 29 91 0
-10 31 73 0
-9 -70 -92 0
-9 -34 40 0
-9 -14 -31 0
-9 13 87 0
-9 21 74 0
-9 35 -56 0
-9 50 73 0
-9 56 97 0
-8 -70 -95 0
-8 -64 -87 0
-8 -25 78 0
-8 -21 -74 0
-8 25 -43 0
-8 25 33 0
-8 26 -45 0
-8 30 82 0
-8 90 93 0
-7 -63 73 0
-7 -57 96 0
-7 -56 -61 0
-7 -53 -91 0
-7 -48 67 0
-7 -35 70 0
-7 -30 -36 0
-7 -11 66 0
-7 17 23 0
-7 19 -33 0
-7 43 -87 0
-7 44 -48 0
-7 52 -80 0
-7 59 -63 0
-6 -45 -76 0
-6 -36 87 0
-6 -32 96 0
-6 -12 83 0
-6 10 -56 0
-6 11 -77 0
-6 16 -36 0
-6 18 22 0
-6 23 91 0
-6 27 -37 0
-6 43 -89 0
-6 57 90 0
-6 60 66 0
-5 -61 -89 0
-5 -47 -78 0
-5 -14 -97 0
-5 22 -90 0
-5 31 61 0
-5 67 75 0
-4 -22 -39 0
-4 -15 -100 0
-4 -10 -45 0
-4 14 -56 0
-4 24 96 0
-4 31 90 0
-4 46 -70 0
-4 52 78 0
-4 67 -76 0
-4 73 100 0
-3 -8 -13 0
-3 15 -63 0
-3 16 -100 0
-3 17 -37 0
-3 18 -98 0
-3 32 -61 0
-3 32 -41 0
-2 -86 -96 0
-2 -52 66 0
-2 -42 68 0
-2 -20 95 0
-2 -17 -42 0
-2 21 -85 0
-2 33 -36 0
-2 42 -95 0
-2 46 -58 0
-2 72 88 0
-1 -84 95 0
-1 -28 36 0
-1 -9 27 0
-1 -9 28 0
-1 -7 -88 0
-1 4 -81 0
-1 15 79 0
-1 20 -55 0
-1 52 96 0
-1 89 -92 0
1 -62 74 0
1 -37 98 0
1 -24 -79 0
1 -24 92 0
1 -18 73 0
1 -6 33 0
1 3 -26 0
1 10 -77 0
1 11 88 0
1 20 46 0
1 39 97 0
2 -48 52 0
2 -23 -82 0
2 -15 -57 0
2 12 59 0
2 13 93 0
2 25 71 0
2 36 95 0
2 45 -69 0
2 57 -84 0
2 63 85 0
3 -50 78 0
3 -44 75 0
3 39 -44 0
3 39 52 0
3 45 66 0
3 47 -77 0
4 -50 95 0
4 12 -76 0
4 17 63 0
4 28 99 0
4 30 43 0
4 65 92 0
5 -74 94 0
5 -37 59 0
5 -29 82 0
5 -14 25 0
5 -7 13 0
5 -6 14 0
5 31 35 0
6 -63 98 0
6 -51 -58 0
6 -43 -68 0
6 -40 69 0
6 13 -96 0
6 19 78 0
6 52 78 0
6 53 -79 0
6 53 54 0
6 57 -86 0
7 -83 -95 0
7 -49 79 0
7 -16 -77 0
7 -12 -17 0
7 10 -47 0
7 14 -83 0
8 -86 -98 0
8 -47 60 0
8 -30 76 0
8 -17 -39 0
8 -14 22 0
8 30 -93 0
8 60 -64 0
8 80 87 0
9 -26 -87 0
9 -26 -43 0
9 -25 77 0
9 20 -95 0
9 23 -70 0
9 40 -79 0
9 66 -83 0
9 79 91 0
10 -70 -92 0
10 -67 -99 0
10 -58 85 0
10 15 48 0
10 30 -59 0
10 41 85 0
11 -60 98 0
11 -59 75 0
11 -53 58 0
11 -32 56 0
11 35 54 0
11 37 -91 0
11 43 -46 0
12 -61 70 0
12 -52 68 0
12 -40 73 0
12 -35 -68 0
12 -21 98 0
12 17 87 0
12 57 71 0
13 -71 -79 0
13 -65 79 0
13 -50 -85 0
13 -21 81 0
13 -20 -47 0
13 28 37 0
13 42 71 0
14 -24 32 0
14 20 -62 0
14 28 -41 0
14 31 84 0
14 36 92 0
14 57 -84 0
15 -44 -59 0
15 -27 -83 0
15 22 -99 0
15 32 83 0
15 55 66 0
16 -76 -80 0
16 -69 -93 0
16 -48 -58 0
17 -46 -100 0
17 -19 69 0
17 -18 -65 0
17 18 65 0
17 25 -73 0
17 79 85 0
18 -70 -92 0
18 -39 45 0
18 74 96 0
19 -49 56 0
19 -42 -49 0
19 -39 -66 0
19 22 -98 0
19 26 -53 0
19 33 42 0
20 -63 -81 0
20 -30 -86 0
20 38 82 0
20 54 60 0
20 56 -70 0
20 76 -84 0
21 -80 83 0
21 -64 -97 0
21 45 -58 0
22 -41 -42 0
22 -23 -31 0
22 -23 36 0
22 23 -38 0
22 30 -59 0
22 33 88 0
22 66 98 0
23 -39 41 0
23 24 -69 0
23 47 59 0
23 54 -55 0
24 -49 89 0
24 -28 45 0
24 49 -99 0
25 -60 86 0
25 -57 81 0
25 -27 71 0
25 28 -33 0
25 30 89 0
25 33 54 0
25 34 38 0
25 62 95 0
26 46 86 0
27 -50 -90 0
27 -33 -36 0
27 -31 -48 0
28 -57 -70 0
28 -55 66 0
28 -52 70 0
28 -40 -49 0
28 33 -88 0
28 33 53 0
29 30 -57 0
29 34 -67 0
29 73 -88 0
29 76 -90 0
30 -87 -100 0
30 -54 -83 0
30 -54 -56 0
30 -31 72 0
30 55 -87 0
31 -55 -58 0
31 -38 -91 0
31 33 -74 0
31 40 -91 0
31 67 100 0
32 -75 84 0
32 -63 -72 0
32 44 61 0
33 -58 100 0
33 -57 -78 0
33 -53 90 0
33 -45 77 0
33 -45 83 0
33 55 91 0
34 -82 89 0
34 85 -93 0
35 -82 -90 0
35 -56 -91 0
35 -52 74 0
35 -48 -63 0
35 -45 70 0
35 -43 -50 0
35 49 -73 0
35 60 77 0
35 61 64 0
35 67 85 0
35 76 -82 0
36 41 77 0
36 44 88 0
36 69 -72 0
37 59 -70 0
38 -74 100 0
38 -73 86 0
38 52 -95 0
39 -44 67 0
39 48 -62 0
39 65 -96 0
40 46 -66 0
40 78 -89 0
41 -45 100 0
41 -43 -88 0
42 -67 80 0
43 -90 94 0
43 -74 79 0
43 -64 72 0
43 72 100 0
43 81 99 0
43 84 92 0
44 -57 63 0
44 -47 -66 0
44 66 -75 0
44 80 -100 0
45 56 -88 0
46 66 -97 0
46 72 87 0
46 82 -97 0
47 -68 81 0
47 -55 -88 0
47 -55 83 0
47 60 -74 0
47 70 -73 0
47 77 -87 0
48 -71 79 0
48 -52 -63 0
48 53 68 0
49 -63 -82 0
49 57 -60 0
49 60 -98 0
50 -68 90 0
50 -67 -74 0
50 -59 66 0
50 68 -77 0
51 -84 -97 0
52 -69 -99 0
52 -59 73 0
52 87 -93 0
53 80 -88 0
53 90 -99 0
54 58 -61 0
56 -69 93 0
56 -67 -97 0
56 -61 -75 0
56 77 -92 0
57 61 -74 0
57 67 100 0
58 -68 -73 0
58 62 -86 0
58 92 -100 0
58 94 -100 0
59 -90 -100 0
59 -66 -74 0
60 -65 -87 0
61 86 -98 0
62 -81 92 0
66 -80 -82 0
67 -87 95 0
67 72 94 0
68 83 95 0
70 -82 -96 0
70 86 -94 0
71 -88 92 0
73 86 91 0
73 89 -95 0
79 -83 85 0
85 -94 -100 0
85 91 93 0
