p cnf 120 510
-98 100 -109 0
-94 103 -112 0
-91 103 120 0
-90 -93 118 0
-90 113 -120 0
-86 -101 118 0
-86 -95 -104 0
-83 89 -113 0
-82 -103 -107 0
-79 102 103 0
-78 -95 99 0
-78 81 102 0
-77 83 103 0
-74 95 -99 0
-71 81 -99 0
-70 -82 -98 0
-70 87 95 0
-66 68 -106 0
-65 -73 -117 0
-65 84 -105 0
-65 84 100 0
-63 -87 92 0
-63 82 96 0
-62 66 76 0
-60 -93 -105 0
-60 75 -102 0
-59 107 115 0
-58 -94 97 0
-58 -67 103 0
-58 70 113 0
-58 73 93 0
-57 -114 118 0
-57 -109 118 0
-57 -64 94 0
-56 58 -85 0
-56 68 119 0
-55 66 102 0
-55 83 -86 0
-55 89 90 0
-52 -83 102 0
-51 76 86 0
-50 69 -93 0
-50 101 110 0
-49 -58 -119 0
-49 77 84 0
-48 -81 102 0
-48 54 56 0
-48 80 90 0
-47 -90 -106 0
-47 51 -57 0
-46 -105 107 0
-46 70 -113 0
-46 74 -75 0
-45 -112 -117 0
-45 66 -71 0
-45 90 -111 0
-44 -46 -50 0
-44 82 -100 0
-43 -97 113 0
-43 -79 107 0
-43 -55 97 0
-42 -69 -80 0
-42 45 -60 0
-42 51 -75 0
-42 86 93 0
-41 -86 105 0
-41 -44 -46 0
-40 -94 -109 0
-40 -66 -110 0
-39 -114 118 0
-39 -67 108 0
-39 56 96 0
-39 61 102 0
-39 67 119 0
-38 -56 83 0
-38 50 -53 0
-38 73 -111 0
-37 -72 105 0
-37 53 63 0
-37 58 -59 0
-37 58 79 0
-37 72 106 0
-36 -92 -119 0
-36 -81 -93 0
-36 -39 64 0
-36 68 90 0
-36 99 120 0
-36 117 -119 0
-35 -71 -76 0
-35 -60 -71 0
-35 65 -81 0
-33 -80 101 0
-33 -62 118 0
-33 41 -111 0
-33 54 -103 0
-33 82 104 0
-32 -118 -120 0
-32 -91 -98 0
-32 -69 86 0
-32 41 57 0
-32 42 79 0
-31 -52 -92 0
-30 -90 96 0
-30 -80 86 0
-30 -70 -120 0
-30 -67 -76 0
-30 56 -85 0
-29 -110 -115 0
-29 -36 -96 0
-29 53 -95 0
-28 29 105 0
-27 -30 -67 0
-26 -106 110 0
-26 42 49 0
-26 46 -48 0
-26 55 -94 0
-26 80 96 0
-25 -92 100 0
-25 -52 -69 0
-25 -42 -54 0
-25 33 -90 0
-25 33 46 0
-25 78 -116 0
-25 111 118 0
-24 27 -46 0
-24 39 -46 0
-24 56 89 0
-24 63 -82 0
-23 -102 -106 0
-23 -49 -73 0
-23 47 -100 0
-23 115 119 0
-22 -23 94 0
-22 24 -87 0
-21 -46 -81 0
-21 -24 115 0
-21 56 -92 0
-21 69 -88 0
-21 73 100 0
-21 88 -109 0
-21 116 -117 0
-20 -34 57 0
-20 27 46 0
-20 85 -115 0
-19 -98 116 0
-19 -67 99 0
-19 29 55 0
-19 46 116 0
-18 -40 80 0
-18 -27 -117 0
-18 33 103 0
-18 67 73 0
-18 74 -88 0
-17 59 105 0
-17 73 -99 0
-17 75 -109 0
-16 -54 113 0
-16 -36 -50 0
-16 -36 67 0
-16 -32 -55 0
-16 -26 -91 0
-16 -23 76 0
-16 18 -82 0
-16 49 91 0
-15 -21 46 0
-15 30 65 0
-15 32 -85 0
-15 55 86 0
-15 76 -117 0
-14 -36 -106 0
-14 18 44 0
-14 24 -63 0
-14 86 -115 0
-14 106 114 0
-13 -98 114 0
-13 -70 -72 0
-13 -57 -99 0
-13 -41 -54 0
-13 33 113 0
-13 39 -56 0
-13 53 70 0
-12 -94 -118 0
-12 -72 113 0
-11 -85 105 0
-11 -69 -114 0
-11 -60 -79 0
-11 -54 -118 0
-11 -42 91 0
-11 -33 99 0
-11 -29 -99 0
-11 22 -83 0
-11 24 -52 0
-10 -18 84 0
-10 18 -57 0
-10 68 -85 0
-10 80 -119 0
-10 94 -106 0
-10 100 -102 0
-9 -53 -85 0
-9 -53 71 0
-9 18 46 0
-9 46 -70 0
-8 -32 -98 0
-8 -29 -76 0
-8 -25 -90 0
-8 17 57 0
-8 39 -88 0
-8 44 -103 0
-7 -41 74 0
-7 -18 -43 0
-7 37 119 0
-7 81 -97 0
-6 -31 -85 0
-6 -24 78 0
-6 -15 31 0
-6 46 -111 0
-6 85 90 0
-5 -31 103 0
-5 -23 -51 0
-5 -22 60 0
-5 -19 104 0
-5 -17 52 0
-5 12 -60 0
-5 42 -84 0
-5 52 -79 0
-5 54 -120 0
-5 80 -110 0
-3 -68 94 0
-3 -52 -105 0
-3 -15 -58 0
-3 -12 -35 0
-3 -11 39 0
-3 10 -55 0
-3 51 85 0
-2 -16 -56 0
-2 -8 37 0
-2 25 -85 0
-1 -51 -106 0
-1 3 -86 0
-1 3 96 0
-1 11 -107 0
-1 19 -102 0
-1 21 32 0
-1 25 42 0
-1 100 113 0
1 -61 113 0
1 -56 -98 0
1 -25 -65 0
1 -7 -27 0
1 30 -38 0
1 37 -100 0
1 41 119 0
1 66 -101 0
1 74 101 0
2 -105 106 0
2 -62 -104 0
2 -51 -105 0
2 -11 17 0
2 6 -103 0
2 12 -116 0
2 21 -107 0
2 28 89 0
3 -95 102 0
3 -36 87 0
3 -8 -61 0
3 47 76 0
4 -47 -104 0
4 -27 -46 0
4 -26 78 0
4 -19 -102 0
4 -14 32 0
4 -6 -16 0
4 24 -108 0
4 64 -81 0
5 -59 -94 0
5 -48 109 0
5 -22 -75 0
5 -8 62 0
5 54 116 0
6 -59 -119 0
6 -47 69 0
6 -22 69 0
6 10 -94 0
6 37 94 0
6 46 119 0
6 94 -115 0
7 -78 -98 0
7 -51 -89 0
7 -11 -94 0
7 8 -110 0
7 34 -79 0
7 41 -42 0
7 58 -95 0
7 91 -102 0
8 -90 -106 0
8 13 49 0
8 39 63 0
8 41 91 0
9 -90 -98 0
9 -49 -80 0
9 -16 19 0
9 -12 53 0
9 17 -54 0
9 25 119 0
10 -43 95 0
10 25 -28 0
10 37 53 0
10 71 -79 0
10 75 80 0
11 -55 62 0
11 -44 -62 0
11 -30 78 0
11 -29 -61 0
11 -13 -52 0
11 18 -109 0
11 25 -29 0
11 27 -105 0
11 36 116 0
11 49 50 0
11 57 100 0
11 60 80 0
12 24 -101 0
12 41 73 0
12 51 -59 0
12 82 95 0
13 -24 -71 0
13 -18 91 0
13 45 59 0
13 50 102 0
14 -55 99 0
14 29 -75 0
14 31 -97 0
14 40 80 0
14 59 71 0
15 -47 82 0
15 17 -86 0
15 17 74 0
15 27 -97 0
15 69 -94 0
16 -80 -87 0
16 -48 57 0
16 -18 80 0
16 49 64 0
16 53 -116 0
16 87 -119 0
17 -78 -120 0
17 -63 102 0
17 -54 75 0
17 -52 110 0
17 -32 111 0
17 24 -90 0
18 -100 -110 0
19 -56 71 0
19 -36 37 0
19 -34 -118 0
19 -30 104 0
19 -23 31 0
19 28 44 0
19 29 41 0
19 48 112 0
19 50 -69 0
20 -27 -62 0
20 35 60 0
20 78 94 0
21 -79 -85 0
21 25 58 0
21 44 68 0
22 -38 99 0
22 32 -103 0
23 62 76 0
24 -95 101 0
24 -54 79 0
24 -32 -65 0
24 56 -60 0
25 -32 -47 0
25 40 44 0
25 47 53 0
25 89 -114 0
26 28 -76 0
27 -43 -116 0
27 48 -73 0
28 113 -116 0
29 -80 -85 0
29 38 -82 0
29 56 120 0
29 61 -69 0
30 -38 -94 0
30 72 -73 0
30 78 103 0
31 -82 96 0
31 -75 90 0
31 -61 -96 0
31 -51 83 0
31 -33 -93 0
31 41 -115 0
31 100 -109 0
32 -66 -111 0
32 40 109 0
32 51 98 0
32 58 88 0
32 95 -102 0
33 -53 110 0
33 -47 57 0
35 -56 60 0
35 62 -90 0
35 89 107 0
36 -98 102 0
36 -86 -111 0
36 -84 -116 0
36 -52 104 0
36 56 -94 0
36 56 69 0
36 58 -96 0
36 87 -120 0
37 -57 -102 0
37 -49 -81 0
37 -48 80 0
37 67 73 0
37 70 -96 0
38 -57 -69 0
38 -44 116 0
39 -84 88 0
39 -72 99 0
39 44 119 0
39 46 -59 0
39 47 -113 0
39 70 -115 0
40 -79 -113 0
41 -106 113 0
41 50 -63 0
41 76 77 0
41 77 115 0
42 -68 -96 0
42 -45 105 0
42 59 72 0
43 -70 -112 0
43 45 106 0
44 -90 93 0
44 53 -102 0
45 -105 -106 0
45 -55 98 0
45 46 -113 0
45 50 -58 0
45 55 101 0
45 75 80 0
45 89 116 0
46 -52 77 0
46 49 -89 0
47 -58 74 0
48 -94 106 0
48 61 118 0
49 -83 -108 0
49 -61 -97 0
51 -99 -115 0
51 65 76 0
51 85 90 0
52 -85 117 0
52 -60 107 0
52 -59 109 0
52 59 -100 0
52 107 111 0
53 -93 105 0
53 -72 110 0
54 -78 -115 0
54 90 -107 0
55 -61 -85 0
55 56 -60 0
55 70 -97 0
55 109 -120 0
56 -97 105 0
57 80 -89 0
58 59 108 0
59 -80 82 0
59 -63 -92 0
61 -89 116 0
61 -78 -80 0
61 -65 -75 0
61 86 -91 0
62 -93 109 0
62 74 -76 0
62 79 117 0
63 -108 118 0
63 -103 -106 0
64 -104 -106 0
64 -67 103 0
64 66 -120 0
65 -70 -87 0
65 -69 -113 0
65 114 116 0
67 85 -105 0
68 -108 -117 0
68 -82 118 0
68 91 -96 0
70 114 -120 0
71 84 -110 0
72 78 107 0
72 111 -119 0
73 -110 -116 0
75 -91 93 0
75 -78 -104 0
75 100 112 0
77 91 -111 0
78 -87 -116 0
82 83 98 0
83 -94 -119 0
87 -89 104 0
90 -98 103 0
94 -99 110 0
105 106 -118 0
113 -116 117 0
