p cnf 260 1113
-221 -229 -246 0
-209 -242 -247 0
-204 229 246 0
-203 -210 246 0
-201 205 235 0
-198 -199 -246 0
-196 -225 -252 0
-194 221 244 0
-193 -222 250 0
-192 -228 242 0
-192 -196 212 0
-189 221 -237 0
-188 205 225 0
-186 -209 240 0
-185 -216 244 0
-185 -201 -213 0
-184 189 -251 0
-184 192 196 0
-180 -247 255 0
-180 200 202 0
-178 -194 200 0
-176 -180 -183 0
-170 187 252 0
-164 -179 256 0
-160 -184 201 0
-160 -166 -204 0
-157 -191 239 0
-156 -240 -259 0
-156 161 -219 0
-156 230 -234 0
-154 -204 211 0
-153 -161 -220 0
-152 172 -239 0
-151 197 251 0
-151 213 234 0
-150 187 -196 0
-148 -199 -232 0
-148 251 257 0
-146 -195 213 0
-146 -189 -206 0
-146 189 -234 0
-145 -197 -216 0
-144 147 -157 0
-143 -146 195 0
-143 219 -249 0
-139 188 -203 0
-139 244 245 0
-138 195 208 0
-137 193 259 0
-136 -224 -250 0
-136 145 -162 0
-136 190 205 0
-135 136 158 0
-135 161 204 0
-134 178 -236 0
-133 -145 -188 0
-133 153 171 0
-132 169 -244 0
-132 187 -221 0
-131 -184 225 0
-131 137 181 0
-130 -174 -202 0
-130 -141 -258 0
-130 -132 -253 0
-129 -199 233 0
-129 202 214 0
-127 -138 -157 0
-127 160 -217 0
-126 153 -241 0
-126 154 -240 0
-124 -205 -241 0
-124 -178 -234 0
-124 239 -260 0
-123 132 -222 0
-122 -154 -204 0
-122 -137 257 0
-121 -134 -178 0
-120 -145 159 0
-119 128 156 0
-119 130 181 0
-119 188 -243 0
-118 -167 -229 0
-118 -141 -170 0
-118 228 240 0
-117 -186 -200 0
-117 -143 -250 0
-117 227 260 0
-116 -223 236 0
-116 -194 210 0
-116 125 233 0
-113 120 138 0
-112 127 241 0
-111 -127 -147 0
-111 175 -228 0
-108 -192 233 0
-108 -184 207 0
-108 -159 205 0
-108 -128 240 0
-107 -184 -232 0
-107 -162 -184 0
-107 -152 -239 0
-107 115 -192 0
-107 158 -190 0
-107 160 216 0
-107 190 201 0
-106 115 -245 0
-105 -184 -197 0
-105 -120 246 0
-105 -111 -117 0
-105 173 -222 0
-105 216 -233 0
-104 -105 -213 0
-104 111 -159 0
-104 241 242 0
-103 -177 -227 0
-103 -110 -171 0
-102 -164 260 0
-102 -155 187 0
-102 129 175 0
-102 184 -259 0
-101 -217 -239 0
-101 -116 -142 0
-101 102 127 0
-100 -120 208 0
-100 202 -221 0
-97 -178 215 0
-95 115 -163 0
-94 -115 222 0
-94 108 -139 0
-93 -212 250 0
-93 -98 217 0
-93 147 196 0
-92 -179 -197 0
-92 -129 203 0
-92 98 -133 0
-92 119 -205 0
-92 195 -221 0
-91 -246 250 0
-91 -93 -117 0
-91 176 -225 0
-90 -113 161 0
-90 108 123 0
-90 134 249 0
-90 145 -240 0
-89 -200 -237 0
-89 -141 -256 0
-89 94 110 0
-89 107 -222 0
-89 140 250 0
-89 151 195 0
-88 94 -105 0
-88 100 114 0
-87 -130 -206 0
-87 -108 -162 0
-87 93 -225 0
-86 -243 -254 0
-86 -87 -248 0
-86 220 -253 0
-85 -190 260 0
-85 -147 -165 0
-85 127 -177 0
-84 -126 -175 0
-84 -97 183 0
-84 106 167 0
-83 -111 -124 0
-83 202 -209 0
-82 -248 -260 0
-82 -89 -163 0
-82 119 168 0
-81 -147 -256 0
-80 -211 -238 0
-80 -180 -249 0
-80 -109 252 0
-79 -87 226 0
-79 -86 -141 0
-78 -207 247 0
-78 -119 -133 0
-78 -114 -195 0
-78 151 -259 0
-78 164 229 0
-77 -191 252 0
-77 -161 -207 0
-77 -124 168 0
-77 -96 171 0
-77 -92 205 0
-76 -206 224 0
-76 -80 106 0
-76 147 224 0
-75 -192 -195 0
-75 130 221 0
-75 194 259 0
-75 216 -244 0
-74 -176 -233 0
-74 -119 177 0
-74 -114 -131 0
-74 -80 181 0
-74 102 219 0
-73 -184 253 0
-73 -149 -229 0
-73 -108 -209 0
-73 127 159 0
-73 149 -253 0
-72 -209 -214 0
-72 -185 259 0
-72 -148 -232 0
-72 -111 127 0
-72 -110 111 0
-72 -84 -137 0
-72 100 -247 0
-72 138 -145 0
-71 198 -200 0
-70 -130 -226 0
-70 -121 158 0
-69 -169 183 0
-69 -157 -207 0
-69 -130 -200 0
-69 89 -190 0
-69 117 -199 0
-69 195 255 0
-68 -237 250 0
-68 86 187 0
-67 -162 -192 0
-67 -129 204 0
-67 76 225 0
-67 98 194 0
-67 136 147 0
-66 -142 -145 0
-66 77 -80 0
-66 151 210 0
-65 -169 -250 0
-65 -144 162 0
-65 79 255 0
-65 89 -122 0
-64 195 -247 0
-63 -202 -235 0
-63 -202 -209 0
-63 -155 -162 0
-63 -138 207 0
-63 -116 246 0
-63 -103 -180 0
-63 -96 160 0
-63 201 208 0
-63 236 241 0
-62 -142 -175 0
-62 152 -160 0
-62 160 184 0
-62 184 -256 0
-61 -129 180 0
-61 -79 130 0
-61 -68 178 0
-61 66 -175 0
-60 -86 -203 0
-60 128 -209 0
-60 203 -256 0
-58 -153 238 0
-58 -89 -167 0
-58 118 232 0
-57 -199 214 0
-57 -112 185 0
-57 -111 137 0
-57 -106 125 0
-57 -78 -98 0
-57 138 -252 0
-57 233 -258 0
-56 -124 -139 0
-56 -110 -149 0
-56 -70 -248 0
-56 -57 -139 0
-55 -102 -196 0
-55 -88 114 0
-55 -83 -114 0
-55 -76 -239 0
-54 -164 -227 0
-54 -140 209 0
-54 -75 -114 0
-54 56 127 0
-54 92 -118 0
-54 173 260 0
-53 -193 202 0
-53 -86 -89 0
-53 110 -161 0
-53 183 -228 0
-52 -139 238 0
-51 56 138 0
-51 70 -242 0
-51 91 -162 0
-51 96 -159 0
-50 59 73 0
-50 83 220 0
-50 206 -229 0
-49 -64 67 0
-49 57 222 0
-48 -110 -142 0
-48 -106 -153 0
-48 -73 114 0
-48 104 -151 0
-47 -53 -246 0
-46 -218 225 0
-46 -98 128 0
-46 -97 -238 0
-45 -234 237 0
-45 -76 -257 0
-45 -76 -138 0
-45 59 70 0
-45 171 180 0
-45 191 214 0
-44 -220 239 0
-44 -174 223 0
-44 -96 97 0
-44 -46 -191 0
-44 64 -96 0
-44 224 -231 0
-43 -144 -223 0
-43 -83 -116 0
-43 96 -164 0
-43 192 -216 0
-42 51 120 0
-42 96 240 0
-42 123 -181 0
-42 175 251 0
-41 -106 203 0
-41 -92 -207 0
-41 -62 191 0
-40 -87 101 0
-40 -77 128 0
-40 141 193 0
-40 166 178 0
-39 -214 -237 0
-39 -174 237 0
-39 -136 -202 0
-39 -51 -67 0
-39 46 55 0
-38 -107 -210 0
-38 -65 122 0
-38 -55 -150 0
-37 -199 254 0
-37 -60 91 0
-37 -47 -96 0
-37 52 -123 0
-37 78 -225 0
-36 -71 171 0
-36 -42 -43 0
-36 44 -185 0
-36 74 -167 0
-36 156 224 0
-35 -162 208 0
-35 -110 113 0
-35 -92 200 0
-35 -55 -197 0
-35 94 187 0
-35 99 -153 0
-35 102 -117 0
-34 -191 -249 0
-34 -133 -226 0
-34 -44 -61 0
-34 62 -115 0
-34 63 -104 0
-34 107 180 0
-34 128 199 0
-33 -207 231 0
-33 -124 -231 0
-33 -82 -242 0
-33 41 -240 0
-33 99 -167 0
-33 103 -131 0
-32 -179 -189 0
-32 -161 244 0
-32 -160 175 0
-32 -69 130 0
-32 46 154 0
-32 145 -178 0
-31 -239 253 0
-31 -213 -227 0
-31 -112 -116 0
-31 -86 -237 0
-31 -74 207 0
-31 -49 -211 0
-31 -35 -154 0
-31 45 -194 0
-31 69 233 0
-31 100 -200 0
-31 141 155 0
-30 -237 -238 0
-30 -54 160 0
-30 -40 -61 0
-30 32 107 0
-30 127 234 0
-30 137 179 0
-29 -55 223 0
-29 -30 -219 0
-29 49 -150 0
-29 59 -86 0
-29 59 244 0
-29 79 139 0
-29 80 -86 0
-29 88 -204 0
-29 94 129 0
-29 205 -257 0
-28 -205 -216 0
-28 -169 205 0
-28 -154 229 0
-28 -77 -179 0
-28 -73 105 0
-28 -30 -124 0
-28 42 -135 0
-28 70 125 0
-28 98 202 0
-28 149 155 0
-27 -32 -193 0
-27 28 -53 0
-27 160 -240 0
-27 229 260 0
-26 -36 216 0
-26 67 -215 0
-26 117 211 0
-25 90 116 0
-25 92 120 0
-24 -125 219 0
-24 -110 -260 0
-24 -83 129 0
-24 -33 -125 0
-24 75 194 0
-24 85 -130 0
-24 129 250 0
-23 30 -84 0
-23 101 123 0
-23 111 202 0
-23 132 -240 0
-23 163 232 0
-22 -62 179 0
-22 78 248 0
-22 103 -190 0
-22 141 -231 0
-21 -135 144 0
-21 -79 -89 0
-21 -52 -124 0
-21 41 115 0
-21 99 206 0
-21 124 -151 0
-20 -186 255 0
-20 -113 -240 0
-20 -29 216 0
-20 44 -132 0
-20 83 -159 0
-20 101 249 0
-19 -122 -211 0
-19 -21 25 0
-18 -110 -257 0
-18 -105 -198 0
-18 -94 -230 0
-18 -71 -232 0
-18 -37 -104 0
-18 -35 -124 0
-18 30 97 0
-18 186 -242 0
-17 -41 -167 0
-17 46 -82 0
-17 149 -156 0
-16 -125 195 0
-16 -84 106 0
-16 -48 78 0
-16 104 -202 0
-16 124 -215 0
-16 173 -179 0
-15 -149 201 0
-15 -133 -246 0
-15 -100 -139 0
-15 19 -252 0
-15 61 -139 0
-15 63 -242 0
-15 166 196 0
-14 -198 203 0
-14 -115 257 0
-14 -98 194 0
-14 -60 185 0
-14 31 202 0
-14 46 117 0
-14 52 -160 0
-13 -177 183 0
-13 -135 -225 0
-12 -193 -233 0
-12 -160 212 0
-12 -155 206 0
-12 -153 202 0
-12 -78 -190 0
-12 -43 57 0
-12 -28 -51 0
-12 40 81 0
-12 43 249 0
-12 45 219 0
-12 50 177 0
-12 77 196 0
-11 -168 -218 0
-11 -81 -99 0
-11 62 -116 0
-11 178 259 0
-11 206 260 0
-11 220 252 0
-10 -242 244 0
-10 -237 -245 0
-10 -145 224 0
-10 -52 -163 0
-10 13 -120 0
-10 37 113 0
-9 -163 -206 0
-9 -156 215 0
-9 22 -69 0
-9 36 -132 0
-9 66 113 0
-9 76 184 0
-9 145 -177 0
-9 208 -218 0
-8 43 193 0
-8 84 209 0
-8 96 188 0
-8 113 -173 0
-7 17 -208 0
-7 65 251 0
-7 78 -206 0
-7 85 196 0
-7 99 -225 0
-7 109 205 0
-6 -88 -212 0
-6 -87 237 0
-6 -31 -133 0
-6 13 -90 0
-6 44 -179 0
-6 63 75 0
-5 -204 235 0
-5 -153 258 0
-5 -108 -127 0
-5 -10 -204 0
-5 61 70 0
-5 69 -106 0
-5 182 -238 0
-4 -185 197 0
-4 -119 239 0
-4 -98 225 0
-4 -73 -154 0
-4 -45 -238 0
-3 -160 -257 0
-3 -38 123 0
-3 17 -254 0
-2 -195 -222 0
-2 -19 20 0
-2 6 198 0
-2 73 -208 0
-2 91 246 0
-2 109 -210 0
-1 -213 -256 0
-1 -47 -227 0
-1 -6 -199 0
-1 10 -226 0
-1 178 -189 0
-1 206 249 0
1 -79 -257 0
1 -36 155 0
1 -20 251 0
1 77 -251 0
1 97 -131 0
1 190 -212 0
2 -16 -223 0
2 -7 -18 0
2 41 -181 0
2 157 -219 0
2 180 -187 0
3 -198 254 0
3 -34 -82 0
3 -23 -248 0
3 -11 -110 0
3 12 -197 0
3 82 112 0
3 89 177 0
3 97 -214 0
4 -23 35 0
4 -5 -252 0
4 23 59 0
4 59 140 0
4 170 181 0
5 -150 244 0
5 -107 114 0
5 -51 -109 0
5 -27 187 0
5 -25 220 0
5 6 -219 0
5 34 243 0
5 122 -224 0
6 -167 -246 0
6 -142 -233 0
6 -122 154 0
6 -24 -102 0
7 -214 230 0
7 -113 -232 0
7 -40 69 0
7 -16 249 0
7 122 -204 0
7 174 178 0
8 -73 -154 0
8 -71 -178 0
8 -57 -179 0
8 -29 144 0
8 9 255 0
8 51 124 0
9 -191 258 0
9 -142 -153 0
9 25 142 0
9 31 -224 0
9 83 -211 0
9 90 -127 0
10 -142 198 0
10 -140 188 0
10 -38 204 0
10 -31 190 0
10 36 -113 0
10 49 116 0
10 59 251 0
10 101 -177 0
10 215 -219 0
11 -206 -211 0
11 22 189 0
11 33 143 0
11 90 141 0
11 96 99 0
12 -120 -142 0
12 -113 -180 0
12 -92 120 0
12 101 -162 0
12 175 -237 0
13 119 -237 0
13 122 139 0
14 -204 -236 0
14 -154 -203 0
14 23 -247 0
14 23 79 0
14 26 74 0
14 53 222 0
14 58 -182 0
14 116 131 0
15 29 248 0
15 70 -75 0
15 70 77 0
15 74 127 0
16 -87 -215 0
16 -76 233 0
16 -48 250 0
16 97 -194 0
17 -123 216 0
17 -97 -254 0
17 -48 -107 0
17 24 27 0
17 30 72 0
17 155 247 0
17 189 -245 0
18 -104 -254 0
18 -83 -185 0
18 -41 65 0
18 27 -131 0
18 71 252 0
18 177 -223 0
19 -232 259 0
19 -116 -233 0
19 -50 153 0
19 -33 -162 0
19 80 -219 0
20 -168 -246 0
20 -43 212 0
20 31 -87 0
20 111 200 0
20 187 -229 0
21 -168 -235 0
21 -105 153 0
21 -85 222 0
21 67 -185 0
21 68 171 0
21 110 -147 0
21 214 220 0
22 -87 -113 0
22 -81 235 0
22 51 88 0
22 57 -127 0
22 124 -246 0
23 -48 159 0
23 43 248 0
23 71 -118 0
23 92 -218 0
23 116 -245 0
24 -199 -200 0
24 -171 -260 0
24 -102 -109 0
24 -98 210 0
24 -88 189 0
24 43 112 0
24 55 83 0
24 117 180 0
24 128 247 0
25 -97 154 0
25 107 -205 0
26 -89 120 0
26 -57 170 0
26 30 213 0
27 -96 143 0
27 -48 -183 0
27 172 205 0
27 205 241 0
28 -90 96 0
28 -62 253 0
28 124 137 0
28 174 -233 0
28 217 -241 0
29 -212 -255 0
29 -168 -253 0
29 70 77 0
29 131 -258 0
29 137 -166 0
30 -140 177 0
30 -83 188 0
30 -60 -218 0
30 109 -162 0
31 -152 -228 0
31 -80 -92 0
31 -50 -153 0
31 57 99 0
32 -102 187 0
32 -47 -179 0
32 -42 -158 0
32 62 -258 0
32 194 230 0
33 114 240 0
33 172 203 0
33 212 216 0
34 -83 138 0
34 -46 -193 0
35 -70 103 0
35 -46 233 0
35 -38 172 0
36 -170 -231 0
36 -106 189 0
36 42 150 0
36 84 158 0
36 93 -158 0
36 148 -178 0
36 156 -220 0
37 47 -255 0
37 94 104 0
38 -158 -232 0
38 -88 118 0
38 -78 -111 0
38 -68 104 0
38 39 72 0
38 70 233 0
38 73 -197 0
38 109 -255 0
38 166 224 0
39 -189 232 0
39 -154 229 0
39 -145 203 0
39 -131 237 0
39 -79 -106 0
39 -56 -237 0
39 75 101 0
39 116 142 0
40 -221 -241 0
40 -183 209 0
40 -145 -187 0
40 97 239 0
40 191 -242 0
40 205 -242 0
41 87 213 0
42 -203 -241 0
42 -142 -162 0
42 -121 -207 0
42 -44 -179 0
42 89 241 0
42 122 224 0
42 155 236 0
43 -104 -167 0
43 -86 -139 0
43 -69 209 0
43 -53 -188 0
43 51 127 0
44 -126 248 0
44 -55 -214 0
44 159 -189 0
45 -161 199 0
45 -139 167 0
45 -136 -173 0
45 -93 -212 0
45 57 168 0
45 74 122 0
45 105 -249 0
45 123 209 0
45 219 230 0
46 -183 189 0
46 -157 223 0
46 -128 150 0
46 47 -219 0
46 146 153 0
47 -141 -203 0
47 -124 217 0
47 -75 218 0
47 -51 169 0
47 49 -107 0
47 65 -98 0
47 77 114 0
48 -223 -241 0
48 -88 237 0
48 52 -196 0
48 65 202 0
48 107 -162 0
48 109 -166 0
48 118 249 0
48 170 -228 0
49 -111 245 0
49 -107 -122 0
49 70 115 0
49 123 -195 0
50 -121 239 0
50 -96 166 0
50 -75 110 0
50 54 -212 0
50 56 136 0
50 120 255 0
50 147 -230 0
50 169 179 0
51 -176 218 0
51 -145 -207 0
51 -99 -182 0
51 151 -195 0
51 211 222 0
51 212 -221 0
52 -168 -171 0
52 -75 100 0
52 59 -66 0
52 80 -134 0
52 86 162 0
52 175 258 0
52 190 -202 0
53 -150 233 0
53 57 155 0
53 66 166 0
53 70 166 0
53 89 -109 0
53 95 -215 0
53 124 -165 0
54 -138 156 0
54 -120 249 0
54 71 -237 0
55 -165 -188 0
55 144 226 0
56 -146 246 0
56 84 -187 0
56 122 174 0
56 195 222 0
57 -234 260 0
58 -196 220 0
58 -125 -217 0
58 -112 207 0
58 -86 -131 0
58 77 -198 0
58 84 -149 0
58 124 188 0
58 180 230 0
58 227 -231 0
59 -85 113 0
59 61 -171 0
59 177 -221 0
60 154 -181 0
60 228 236 0
61 -135 -225 0
61 111 -259 0
61 117 -179 0
62 63 116 0
62 90 -183 0
62 208 223 0
63 -245 256 0
63 -240 -252 0
63 -107 244 0
63 74 -112 0
64 -89 118 0
64 76 -155 0
64 121 193 0
64 125 -164 0
64 140 -259 0
65 -169 -257 0
65 -71 -212 0
65 161 -235 0
66 -76 -170 0
66 104 -203 0
66 172 256 0
67 -139 -214 0
67 -99 -149 0
67 79 200 0
67 91 194 0
67 164 168 0
68 -86 210 0
68 -73 -107 0
68 82 -89 0
68 138 180 0
68 143 -197 0
68 219 -257 0
69 -124 -249 0
69 196 -243 0
69 202 -228 0
70 -116 -194 0
70 -77 -148 0
70 126 -194 0
71 -186 239 0
71 -113 117 0
71 -105 -161 0
71 146 183 0
72 -182 -204 0
72 90 -147 0
73 -84 234 0
73 -75 167 0
74 -249 -251 0
74 -176 -225 0
74 -88 -160 0
74 133 239 0
75 -88 -256 0
75 79 -217 0
76 -234 235 0
76 -194 -247 0
76 -154 -183 0
77 -169 217 0
77 121 244 0
77 163 -169 0
78 -194 -229 0
78 -115 -136 0
78 81 153 0
79 -91 -131 0
79 103 141 0
79 122 -191 0
79 122 -125 0
79 154 244 0
79 165 -219 0
80 -120 -208 0
80 136 -137 0
81 84 256 0
81 119 258 0
81 228 243 0
82 -218 -251 0
82 -123 -127 0
82 -84 -178 0
82 111 -168 0
82 191 215 0
83 105 -177 0
83 137 -257 0
83 148 -155 0
84 121 -140 0
85 -169 -198 0
85 101 128 0
85 101 216 0
86 146 216 0
87 -159 235 0
87 -120 122 0
87 101 -184 0
88 -138 -187 0
89 -91 249 0
89 105 259 0
89 115 -207 0
89 168 192 0
91 93 -120 0
91 131 -226 0
91 140 148 0
92 -206 228 0
92 -154 -171 0
92 123 -177 0
92 130 -237 0
93 165 204 0
94 -229 233 0
94 -140 196 0
94 96 -133 0
95 -204 217 0
95 144 -252 0
95 148 -161 0
96 -127 -240 0
97 -153 -188 0
97 200 218 0
98 115 -229 0
98 176 -254 0
99 -132 258 0
99 -117 -162 0
99 127 178 0
100 -196 -256 0
100 -119 -246 0
100 132 165 0
100 140 245 0
101 -134 167 0
101 -107 167 0
101 112 195 0
102 -124 -169 0
102 119 -121 0
102 196 -250 0
102 245 246 0
103 -119 -147 0
103 109 -145 0
104 -160 231 0
104 -126 -176 0
104 120 165 0
104 227 248 0
105 -126 -171 0
106 123 -152 0
107 -193 -199 0
107 -153 224 0
107 -151 239 0
107 241 -259 0
108 133 -243 0
108 215 216 0
109 118 -225 0
110 -151 -200 0
110 -129 -143 0
111 -137 -168 0
112 -168 258 0
112 -154 157 0
114 -149 -188 0
114 167 173 0
114 211 249 0
117 -175 187 0
117 -161 219 0
117 -118 -140 0
118 -138 257 0
119 -140 -160 0
120 -213 234 0
120 -174 191 0
120 -139 -215 0
120 166 198 0
120 173 -251 0
120 223 237 0
121 218 236 0
122 -188 -222 0
122 -173 244 0
122 -123 -191 0
122 147 247 0
123 171 241 0
124 -142 -169 0
124 194 256 0
124 200 -237 0
124 256 260 0
125 -149 153 0
125 156 -242 0
126 -228 248 0
126 181 -237 0
127 -134 257 0
127 162 -205 0
127 225 -237 0
128 211 -247 0
129 -169 210 0
129 170 228 0
130 145 -230 0
130 152 -171 0
130 224 250 0
132 -202 -213 0
132 140 158 0
133 159 -210 0
134 136 157 0
135 142 -234 0
136 205 -254 0
137 -169 253 0
137 181 187 0
139 -145 249 0
139 206 225 0
139 234 241 0
140 145 208 0
141 -225 234 0
141 -153 259 0
141 196 -198 0
142 -155 195 0
142 -143 204 0
143 -250 259 0
143 -153 165 0
146 149 -174 0
147 -193 222 0
149 -159 218 0
149 -153 158 0
149 169 -233 0
150 161 190 0
151 192 219 0
153 -164 237 0
153 198 201 0
154 -175 -193 0
154 172 175 0
155 158 193 0
156 -213 -259 0
156 -202 -222 0
156 236 244 0
157 -218 -242 0
157 168 -210 0
157 212 227 0
158 -180 -188 0
158 168 -247 0
159 -179 222 0
162 212 -222 0
162 251 254 0
163 -230 259 0
163 -182 -252 0
164 -215 228 0
166 -210 -239 0
167 -169 -193 0
168 -213 249 0
168 219 251 0
172 -198 248 0
174 -202 236 0
175 190 219 0
175 200 218 0
176 182 258 0
180 228 244 0
199 -214 -235 0
206 -226 243 0
206 -225 -239 0
206 -224 -239 0
207 226 -259 0
211 217 -239 0
247 248 252 0
