p cnf 30 128
-26 29 30 0
-21 -26 30 0
-20 -25 28 0
-20 22 29 0
-18 -25 30 0
-17 -18 25 0
-17 19 -25 0
-17 21 28 0
-15 19 24 0
-14 -26 28 0
-14 -21 23 0
-14 -19 -25 0
-14 -17 -25 0
-12 13 14 0
-12 21 26 0
-11 -21 -29 0
-11 -12 -22 0
-10 22 29 0
-9 -11 22 0
-9 13 18 0
-9 13 26 0
-9 16 -27 0
-8 -25 -29 0
-8 -14 -25 0
-8 11 -21 0
-7 -9 19 0
-7 10 12 0
-7 12 -28 0
-7 14 29 0
-7 26 -28 0
-6 -16 29 0
-5 -13 19 0
-5 -12 -22 0
-5 7 22 0
-4 -20 30 0
-4 -17 -28 0
-4 -14 -22 0
-4 -6 -27 0
-4 5 23 0
-4 12 -22 0
-3 -22 26 0
-3 -14 18 0
-3 -6 11 0
-3 11 -12 0
-2 -17 25 0
-2 -15 -18 0
-2 6 -27 0
-2 8 29 0
-1 -29 30 0
-1 -10 -11 0
-1 -6 28 0
-1 -3 -28 0
-1 3 18 0
-1 5 24 0
-1 6 22 0
-1 9 24 0
1 -13 26 0
1 -13 29 0
1 -12 30 0
1 -10 -11 0
1 -8 -28 0
1 -7 -12 0
1 -6 22 0
1 -5 -28 0
1 4 5 0
1 4 29 0
2 -16 20 0
2 -16 24 0
2 -12 -26 0
2 -9 16 0
2 -6 13 0
2 9 22 0
2 10 -20 0
2 13 -17 0
2 15 30 0
2 22 -27 0
2 26 -30 0
3 -20 28 0
3 -12 -23 0
3 4 5 0
3 5 8 0
3 8 17 0
3 18 -29 0
3 21 24 0
4 -21 -25 0
4 -10 18 0
4 -6 18 0
4 -5 -19 0
4 9 -19 0
4 14 -20 0
5 -11 26 0
5 9 -14 0
5 17 -24 0
6 12 -21 0
6 12 17 0
7 -8 25 0
7 9 17 0
7 11 -28 0
7 11 22 0
7 18 25 0
7 21 22 0
8 9 29 0
8 11 -13 0
8 16 -30 0
8 21 22 0
9 -15 30 0
9 -10 -11 0
10 -16 -26 0
10 -15 -28 0
10 -12 -19 0
11 -17 20 0
11 12 -30 0
11 20 21 0
12 -21 -28 0
12 -19 24 0
12 26 30 0
13 -20 21 0
13 -15 20 0
13 -15 27 0
14 -22 -26 0
14 -17 25 0
14 -15 28 0
14 18 -25 0
15 21 22 0
15 27 -30 0
16 -24 30 0
17 -22 29 0
20 -22 24 0
