p cnf 60 180
-55 57 -60 0
-52 -56 58 0
-52 53 -60 0
-47 51 58 0
-46 -51 -59 0
-45 54 -58 0
-37 -44 -51 0
-36 -45 50 0
-36 41 -46 0
-35 -47 -49 0
-34 54 58 0
-33 -40 56 0
-33 41 49 0
-32 38 46 0
-31 -48 51 0
-31 52 -55 0
-30 -51 55 0
-27 -41 -43 0
-27 29 55 0
-26 -43 53 0
-26 39 -45 0
-25 -44 -51 0
-25 -42 -44 0
-25 51 -59 0
-24 -34 -35 0
-24 -34 35 0
-24 30 53 0
-24 32 -54 0
-24 48 -55 0
-23 -39 -42 0
-23 -39 54 0
-23 -37 -45 0
-23 -25 -42 0
-23 41 60 0
-23 45 46 0
-21 -46 -54 0
-21 40 -50 0
-20 -22 48 0
-20 31 59 0
-19 -39 53 0
-18 20 -31 0
-18 28 54 0
-17 23 55 0
-17 33 -40 0
-16 -29 -36 0
-16 -19 -36 0
-16 20 60 0
-16 51 -53 0
-15 -23 60 0
-15 -21 27 0
-15 30 45 0
-15 39 -54 0
-14 -26 39 0
-14 -18 36 0
-14 36 -41 0
-14 46 47 0
-14 49 50 0
-12 17 -19 0
-12 23 36 0
-12 25 -29 0
-12 26 -33 0
-11 14 -22 0
-10 -15 -58 0
-9 -15 -33 0
-9 29 -30 0
-9 39 -44 0
-9 45 50 0
-8 -9 23 0
-8 24 48 0
-8 36 57 0
-8 37 -60 0
-7 -44 -56 0
-7 -17 -41 0
-7 42 57 0
-6 13 -46 0
-6 51 52 0
-5 -32 45 0
-5 -18 23 0
-5 -8 58 0
-5 27 49 0
-4 -22 39 0
-4 -17 -25 0
-4 8 -44 0
-4 41 60 0
-3 10 -15 0
-1 -49 56 0
-1 -13 45 0
-1 13 -29 0
1 -10 -16 0
1 -9 -38 0
1 3 -8 0
1 10 -43 0
1 11 46 0
2 -17 28 0
2 7 -33 0
3 -42 -51 0
3 -33 59 0
3 -30 55 0
3 -19 -48 0
3 -18 -47 0
3 14 -54 0
3 15 40 0
4 -48 -55 0
4 -27 -30 0
4 -26 -35 0
4 -24 -33 0
4 6 47 0
4 9 -26 0
4 36 -47 0
5 -19 51 0
5 12 25 0
5 19 53 0
5 27 58 0
6 -9 -39 0
6 34 -60 0
6 43 -47 0
7 -10 -53 0
7 12 13 0
7 26 29 0
8 -20 -51 0
9 -40 -54 0
9 -24 -40 0
9 -18 50 0
9 -17 31 0
9 27 29 0
10 -12 -40 0
10 17 37 0
10 30 -57 0
10 42 -54 0
11 -37 41 0
11 15 -43 0
11 20 51 0
11 43 53 0
12 33 36 0
12 53 -56 0
13 -47 58 0
13 23 34 0
14 -20 51 0
14 26 -32 0
14 31 45 0
14 48 60 0
15 -22 -45 0
15 -21 -53 0
15 31 -34 0
16 -49 -52 0
16 -30 48 0
17 -56 -60 0
17 19 44 0
18 -49 54 0
18 31 -32 0
21 -33 -59 0
21 23 -54 0
21 30 -50 0
21 43 -56 0
23 26 39 0
24 -33 45 0
24 -31 -42 0
24 -25 44 0
25 -30 55 0
26 29 -59 0
27 -36 48 0
27 -33 -43 0
27 -30 39 0
28 -43 44 0
28 -29 -56 0
29 -31 -55 0
31 34 -45 0
31 37 -47 0
31 43 54 0
33 -37 39 0
34 -57 -59 0
35 45 48 0
35 46 53 0
37 -49 -50 0
39 -44 45 0
42 -50 -53 0
43 -57 59 0
46 -56 -59 0
47 -53 57 0
48 50 60 0
