p cnf 40 170
-33 34 35 0
-30 -32 -35 0
-29 31 32 0
-28 -29 -30 0
-25 26 -40 0
-23 28 -38 0
-22 -37 39 0
-22 -30 -36 0
-22 25 -32 0
-21 -32 -34 0
-21 -28 -39 0
-20 -30 -35 0
-20 -28 33 0
-19 22 -40 0
-18 23 28 0
-17 -33 35 0
-17 -29 -38 0
-17 18 40 0
-17 31 -33 0
-16 -25 35 0
-15 -37 39 0
-15 27 32 0
-14 -30 40 0
-14 -25 -32 0
-14 -21 24 0
-14 -15 -31 0
-14 27 -40 0
-13 -32 -36 0
-13 -28 -35 0
-13 -28 31 0
-13 -16 -23 0
-12 -28 -37 0
-12 13 -30 0
-12 13 37 0
-12 21 36 0
-12 23 37 0
-12 25 -35 0
-12 28 -36 0
-11 -33 -39 0
-11 -17 24 0
-11 -15 24 0
-10 -11 -16 0
-10 36 -40 0
-9 24 -30 0
-9 29 37 0
-8 -15 -28 0
-8 -11 27 0
-8 -10 26 0
-8 27 38 0
-7 -36 38 0
-7 -35 39 0
-7 -29 -37 0
-7 10 -14 0
-7 14 31 0
-7 15 -34 0
-7 17 -19 0
-7 18 29 0
-7 18 34 0
-7 27 -40 0
-6 -30 -31 0
-6 22 -28 0
-6 35 -38 0
-5 -14 39 0
-5 -12 -27 0
-5 8 13 0
-4 -8 -26 0
-4 5 -28 0
-4 10 -40 0
-4 37 38 0
-3 -8 -37 0
-3 -4 20 0
-3 9 18 0
-3 9 31 0
-3 11 -12 0
-3 27 37 0
-2 -21 -22 0
-2 -19 -37 0
-2 -17 -37 0
-2 -9 -30 0
-2 3 33 0
-2 5 -26 0
-2 10 -11 0
-2 28 33 0
-1 -15 30 0
-1 -9 24 0
-1 10 15 0
-1 15 -32 0
1 -30 36 0
1 -25 33 0
1 -23 -27 0
1 -7 -30 0
1 3 -40 0
1 4 -27 0
1 9 16 0
1 11 -30 0
1 21 -39 0
1 28 -37 0
1 34 40 0
1 39 40 0
2 -14 17 0
2 7 11 0
2 10 30 0
2 23 -28 0
3 12 23 0
3 21 -38 0
3 22 34 0
3 29 -30 0
3 35 -38 0
4 -19 37 0
4 -13 -31 0
4 -8 -20 0
4 7 19 0
4 10 -12 0
4 12 -19 0
5 -33 -34 0
5 -26 31 0
5 -16 -25 0
5 -16 29 0
5 11 24 0
5 16 34 0
5 18 -31 0
6 -32 -33 0
6 -21 -34 0
6 -9 10 0
6 -8 -33 0
6 10 34 0
6 15 29 0
6 23 31 0
7 -30 -35 0
7 -11 -34 0
7 -10 15 0
7 -9 38 0
7 8 15 0
8 -26 -38 0
8 -16 -40 0
8 -10 -11 0
8 16 39 0
9 -33 -40 0
9 11 23 0
9 32 33 0
10 -17 -39 0
10 15 -31 0
11 -13 22 0
11 14 28 0
11 23 31 0
12 -26 -33 0
12 -25 -31 0
12 -19 -36 0
12 17 20 0
12 19 -37 0
12 24 35 0
13 25 35 0
13 26 30 0
14 20 31 0
14 39 -40 0
15 -26 36 0
15 22 -32 0
17 -23 24 0
17 25 -27 0
17 27 29 0
18 -26 -29 0
19 -36 40 0
19 22 33 0
19 30 -38 0
21 37 -38 0
22 -27 36 0
26 -30 -35 0
26 35 39 0
26 38 -40 0
32 -37 38 0
