p cnf 40 170
-32 -38 -39 0
-24 -35 38 0
-24 -34 -39 0
-24 26 -27 0
-24 32 -36 0
-23 -26 -29 0
-23 27 -38 0
-23 27 30 0
-22 -24 28 0
-22 -23 40 0
-21 28 -29 0
-21 28 32 0
-21 33 -37 0
-20 -33 37 0
-20 -21 -34 0
-20 28 34 0
-18 -20 29 0
-18 25 36 0
-18 31 34 0
-17 -25 -26 0
-17 -18 -34 0
-17 23 -37 0
-16 -17 -21 0
-16 26 -34 0
-15 -25 -30 0
-14 -34 -38 0
-14 -34 -35 0
-14 17 23 0
-14 20 23 0
-12 -27 -37 0
-12 -17 -39 0
-12 -15 -27 0
-12 -14 -40 0
-12 20 39 0
-12 24 -27 0
-11 -17 -27 0
-11 -15 -36 0
-11 -13 33 0
-11 13 -17 0
-10 -13 18 0
-9 -18 -28 0
-9 11 21 0
-8 -15 16 0
-8 12 -16 0
-7 -22 28 0
-7 -13 -16 0
-7 -12 22 0
-7 -10 -15 0
-7 -9 26 0
-7 14 38 0
-5 -21 -33 0
-5 9 -14 0
-5 9 13 0
-5 16 36 0
-5 18 -23 0
-5 19 -39 0
-5 21 -32 0
-4 -22 36 0
-4 5 -21 0
-4 16 24 0
-4 21 -29 0
-3 -11 -31 0
-3 -10 27 0
-3 -4 -29 0
-3 9 -10 0
-3 9 39 0
-3 21 -22 0
-2 -14 -25 0
-2 -12 -36 0
-2 10 -15 0
-2 26 -34 0
-1 -12 -13 0
-1 2 -17 0
-1 27 -32 0
1 -25 -30 0
1 -21 -23 0
1 -15 -23 0
1 4 -40 0
1 4 30 0
1 13 31 0
1 16 39 0
2 -28 36 0
2 -22 -35 0
2 -15 16 0
2 -11 29 0
2 20 30 0
2 23 35 0
3 8 40 0
3 9 30 0
3 21 26 0
4 -26 -38 0
4 -22 -33 0
4 -18 33 0
4 -14 -29 0
4 -13 16 0
4 -8 16 0
4 -7 -24 0
4 12 14 0
5 -22 32 0
5 -12 -27 0
5 -10 -22 0
5 11 12 0
5 26 27 0
6 -31 38 0
6 -29 -38 0
6 -16 -29 0
6 -12 -40 0
6 -8 -40 0
6 -7 -25 0
6 9 29 0
6 18 27 0
7 -22 26 0
7 13 -24 0
7 13 37 0
7 17 29 0
8 -28 -31 0
8 -28 33 0
8 -12 -24 0
8 -12 29 0
8 -12 36 0
8 -10 23 0
8 17 -34 0
8 20 -22 0
8 22 26 0
8 22 30 0
8 25 -26 0
9 -23 -30 0
9 -17 -33 0
9 -13 19 0
10 -28 38 0
10 -18 -27 0
10 11 27 0
11 -18 34 0
11 -12 -18 0
12 -32 35 0
13 -23 -38 0
13 -20 40 0
13 15 -39 0
13 29 31 0
14 -17 31 0
14 24 29 0
15 -16 28 0
15 23 40 0
15 32 -34 0
16 -24 -30 0
16 21 24 0
17 -31 -32 0
17 -19 31 0
17 -18 -36 0
18 -35 -36 0
18 -34 35 0
18 20 31 0
18 33 -35 0
18 37 38 0
19 -24 30 0
19 -24 39 0
19 -20 40 0
19 22 -38 0
20 25 -32 0
20 27 -32 0
22 35 -36 0
24 -29 -30 0
24 32 -40 0
24 33 35 0
25 -32 34 0
28 38 39 0
29 31 40 0
32 -33 34 0
33 34 -35 0
34 39 -40 0
