p cnf 80 340
-68 70 72 0
-59 69 -77 0
-55 -73 77 0
-52 75 80 0
-50 -63 -78 0
-50 66 -68 0
-50 68 72 0
-49 53 -72 0
-46 -53 -80 0
-46 50 66 0
-45 50 64 0
-44 -49 53 0
-44 59 -62 0
-43 -59 72 0
-42 -74 75 0
-41 44 66 0
-41 44 75 0
-41 48 55 0
-40 -67 -74 0
-40 -57 77 0
-40 -52 -72 0
-40 -52 59 0
-40 -45 -58 0
-39 45 77 0
-39 60 -77 0
-38 -62 65 0
-37 -49 73 0
-37 -39 -59 0
-37 41 79 0
-37 46 -48 0
-37 53 -73 0
-37 57 -58 0
-36 73 77 0
-35 -41 65 0
-34 -43 53 0
-34 -39 -75 0
-33 -37 50 0
-33 -34 74 0
-31 -66 -73 0
-31 -40 -45 0
-31 -40 47 0
-31 38 -63 0
-31 47 76 0
-30 -60 -77 0
-30 -34 -59 0
-28 -46 -77 0
-28 -42 -76 0
-28 -31 53 0
-28 -30 34 0
-28 40 55 0
-26 35 58 0
-26 35 79 0
-26 40 43 0
-26 62 -74 0
-26 66 -71 0
-25 -60 72 0
-25 -59 -62 0
-25 -54 -60 0
-25 -32 -59 0
-25 -26 -77 0
-25 35 -45 0
-25 50 -53 0
-25 54 72 0
-23 -26 -54 0
-23 -24 -61 0
-23 24 -35 0
-22 34 -68 0
-21 -41 -46 0
-21 -30 -48 0
-21 27 77 0
-21 42 -44 0
-21 48 72 0
-20 -67 78 0
-20 -47 79 0
-20 -45 -47 0
-20 -32 72 0
-20 -29 65 0
-20 25 -58 0
-20 38 -62 0
-19 33 -48 0
-19 34 74 0
-19 39 67 0
-19 44 67 0
-19 54 76 0
-18 -58 -69 0
-18 -58 79 0
-17 -71 -76 0
-17 -36 -40 0
-17 -32 75 0
-17 -26 58 0
-16 -59 67 0
-16 -45 53 0
-16 -22 54 0
-16 26 77 0
-16 51 55 0
-15 18 -29 0
-15 33 60 0
-14 46 -59 0
-13 29 -37 0
-12 -33 -80 0
-12 -15 -41 0
-12 -15 17 0
-12 52 -74 0
-11 -44 54 0
-11 -20 21 0
-11 -16 56 0
-11 13 50 0
-11 22 -32 0
-11 25 61 0
-11 30 -79 0
-11 41 -71 0
-11 42 -70 0
-10 -75 -77 0
-10 -35 -62 0
-10 -25 -34 0
-10 27 41 0
-10 34 79 0
-10 38 -50 0
-9 -63 -80 0
-9 -28 49 0
-9 -20 -27 0
-9 10 56 0
-9 27 -68 0
-8 -60 65 0
-8 10 -43 0
-8 11 47 0
-8 59 69 0
-7 -18 -47 0
-7 -14 -52 0
-7 -14 -19 0
-7 -11 -59 0
-7 9 35 0
-7 43 -75 0
-6 -74 -77 0
-6 -51 79 0
-6 -49 -77 0
-6 -35 40 0
-6 -20 -75 0
-6 20 60 0
-5 -42 62 0
-5 -32 35 0
-5 21 -72 0
-5 38 -39 0
-5 48 63 0
-4 -36 -56 0
-4 -21 37 0
-4 -18 -54 0
-4 -10 34 0
-4 40 -62 0
-3 -42 -55 0
-3 -7 76 0
-3 13 78 0
-3 35 77 0
-3 38 -47 0
-3 38 76 0
-2 -23 71 0
-2 4 -72 0
-2 10 -28 0
-2 12 52 0
-2 21 -56 0
-1 -66 -72 0
-1 -20 -53 0
-1 -14 -47 0
-1 24 63 0
-1 31 -50 0
-1 38 65 0
-1 44 56 0
1 -27 69 0
1 -12 37 0
1 -11 68 0
1 2 33 0
1 3 -43 0
1 21 -64 0
1 71 80 0
2 -71 72 0
2 -26 37 0
2 -24 33 0
2 -5 70 0
2 4 -29 0
2 20 -74 0
2 35 -69 0
2 45 -67 0
3 -47 -70 0
3 -43 61 0
3 -35 -74 0
3 -6 -16 0
3 -5 -70 0
3 -4 74 0
3 38 79 0
4 -33 48 0
4 -8 -24 0
4 6 -71 0
4 30 69 0
4 46 -48 0
4 48 -50 0
5 -74 76 0
5 -63 70 0
5 -29 -66 0
5 8 -56 0
5 8 13 0
5 14 -60 0
5 43 76 0
6 -41 -75 0
6 -34 -37 0
6 -15 -74 0
6 9 -37 0
6 39 -41 0
7 22 -76 0
7 22 -56 0
7 26 56 0
7 32 -45 0
7 51 -53 0
8 -49 -51 0
8 -28 33 0
8 -24 -54 0
8 -19 47 0
8 13 -27 0
8 33 37 0
9 -52 -70 0
9 -29 -32 0
9 -20 -24 0
9 48 -70 0
10 -60 63 0
10 -57 -76 0
10 18 -42 0
10 24 32 0
10 29 -44 0
10 31 55 0
10 32 -63 0
10 36 -67 0
11 35 -46 0
12 -77 78 0
12 -51 56 0
12 -30 41 0
12 -19 -40 0
12 17 -69 0
12 25 66 0
13 -47 -65 0
13 -44 -48 0
13 -44 65 0
13 32 78 0
13 43 -56 0
13 45 77 0
14 -28 61 0
14 18 78 0
14 24 -52 0
14 46 48 0
15 -58 -78 0
15 -55 -64 0
15 -33 75 0
15 -29 -63 0
15 -26 -40 0
15 -23 -74 0
15 34 41 0
16 -42 50 0
16 -35 63 0
16 53 67 0
16 64 78 0
17 21 -78 0
17 53 69 0
17 53 78 0
18 48 65 0
19 -68 -73 0
19 -21 -37 0
19 68 -79 0
20 -27 78 0
20 22 43 0
20 24 -73 0
21 -34 50 0
22 -34 52 0
22 38 47 0
23 -59 -67 0
23 44 76 0
23 49 51 0
23 52 -66 0
23 56 -69 0
23 62 66 0
25 -41 -50 0
25 -31 -75 0
25 39 -75 0
25 41 -70 0
25 46 62 0
26 -55 67 0
26 -44 69 0
26 -37 70 0
26 -28 -47 0
26 30 -40 0
26 35 -70 0
27 -42 -74 0
27 -35 67 0
27 49 -68 0
28 -37 -53 0
28 48 -66 0
29 -43 -57 0
29 37 42 0
29 50 -72 0
30 -49 -74 0
30 -43 60 0
30 -34 78 0
31 -73 75 0
31 32 -65 0
31 51 -63 0
31 71 -75 0
32 -58 -72 0
32 -48 49 0
32 -37 41 0
32 39 -65 0
33 50 64 0
34 -41 -71 0
35 -46 -66 0
35 46 54 0
36 37 61 0
37 -51 65 0
37 38 -50 0
38 -53 -67 0
39 61 67 0
40 65 -70 0
40 66 -75 0
41 51 55 0
41 64 -71 0
42 -47 75 0
42 63 -66 0
43 61 -77 0
44 -61 -64 0
44 -61 69 0
46 -56 79 0
46 48 58 0
47 -58 -77 0
48 -58 -80 0
48 73 75 0
49 -57 79 0
49 58 -73 0
49 58 -60 0
51 54 80 0
55 -70 75 0
55 58 -75 0
61 75 -78 0
65 -68 -73 0
65 -66 -74 0
69 -70 73 0
