p cnf 80 260
-64 -67 -76 0
-62 -63 -71 0
-62 69 -72 0
-59 65 -73 0
-55 69 71 0
-51 -64 68 0
-47 51 -53 0
-47 54 56 0
-47 68 -72 0
-46 -58 61 0
-46 76 -78 0
-45 -74 75 0
-45 -57 71 0
-45 59 70 0
-44 58 -67 0
-43 -59 67 0
-43 -53 71 0
-43 48 -71 0
-42 -55 -77 0
-41 54 64 0
-39 -65 -74 0
-39 -61 -80 0
-39 58 74 0
-38 63 -80 0
-37 -76 78 0
-37 40 -75 0
-37 46 76 0
-36 -46 55 0
-36 43 -72 0
-36 61 -70 0
-35 66 69 0
-34 51 65 0
-34 71 75 0
-33 -55 77 0
-32 -50 -74 0
-32 -33 51 0
-31 69 74 0
-30 -71 76 0
-30 -49 75 0
-29 -30 -72 0
-28 -54 -65 0
-28 56 -74 0
-27 -58 -71 0
-27 43 -80 0
-27 58 73 0
-26 -39 -45 0
-26 -27 29 0
-26 48 58 0
-25 -58 -79 0
-25 67 72 0
-23 -36 48 0
-22 -42 50 0
-22 46 59 0
-20 -46 70 0
-20 -38 67 0
-20 -31 43 0
-18 22 53 0
-18 30 70 0
-17 63 -74 0
-17 64 -66 0
-15 -34 -56 0
-15 23 73 0
-14 -65 76 0
-14 -49 -78 0
-14 54 -69 0
-13 25 27 0
-13 51 78 0
-12 -69 80 0
-12 -48 -67 0
-12 -44 -78 0
-12 -32 35 0
-12 37 -71 0
-12 40 60 0
-12 43 49 0
-11 -45 74 0
-11 -38 55 0
-11 -29 76 0
-11 15 78 0
-11 66 -73 0
-10 -41 62 0
-10 21 -42 0
-9 -50 62 0
-9 -45 -60 0
-9 -43 -49 0
-9 10 -30 0
-9 10 53 0
-9 31 60 0
-8 -70 -79 0
-8 60 64 0
-7 -30 -45 0
-7 8 27 0
-7 17 -78 0
-7 22 -73 0
-7 43 -61 0
-7 60 -71 0
-6 -8 -27 0
-6 17 -23 0
-6 35 -64 0
-5 -39 66 0
-5 -21 31 0
-5 -21 80 0
-5 -8 11 0
-5 6 -76 0
-5 21 66 0
-5 27 41 0
-5 49 68 0
-4 -62 -80 0
-4 8 75 0
-4 54 57 0
-3 -9 -12 0
-3 -6 39 0
-3 12 -63 0
-2 -48 58 0
-2 3 52 0
-2 7 62 0
-2 9 77 0
-2 10 -17 0
-2 21 66 0
-1 -41 -46 0
-1 -36 69 0
-1 -32 -40 0
-1 -20 30 0
-1 4 -42 0
-1 21 50 0
-1 31 49 0
1 -30 -50 0
1 4 -55 0
1 34 46 0
1 51 -59 0
2 -22 34 0
2 -13 -61 0
2 55 -74 0
2 70 76 0
3 -63 -66 0
3 -21 -59 0
3 -9 -58 0
3 22 -79 0
3 23 -45 0
3 24 -76 0
3 44 76 0
4 -57 76 0
4 -55 -65 0
4 -51 -61 0
4 69 73 0
5 16 61 0
5 17 -35 0
6 9 30 0
6 11 -14 0
6 36 -59 0
7 -50 -78 0
7 -11 71 0
7 22 -30 0
7 22 74 0
8 -19 52 0
8 -10 -52 0
8 15 44 0
8 35 73 0
8 39 75 0
9 -64 70 0
9 -33 -66 0
9 -24 40 0
9 -18 68 0
9 -10 39 0
9 10 -76 0
9 19 -50 0
9 28 -55 0
10 -16 61 0
10 -15 33 0
10 24 -58 0
10 30 -71 0
10 35 56 0
10 70 73 0
10 71 -73 0
11 -38 -75 0
11 -35 -44 0
11 -18 44 0
12 -58 -72 0
12 -57 65 0
12 -37 -44 0
12 -36 -57 0
12 -32 -49 0
12 -19 53 0
12 42 -48 0
13 -29 38 0
13 -23 -32 0
13 33 52 0
13 54 -63 0
13 60 -74 0
14 -55 76 0
14 -38 50 0
14 55 -75 0
15 26 34 0
15 30 53 0
15 42 60 0
16 -24 -45 0
17 -28 -71 0
17 22 -29 0
17 24 -38 0
18 -68 80 0
18 -47 69 0
18 49 -55 0
19 20 -27 0
20 -21 58 0
21 37 71 0
22 -57 58 0
22 50 51 0
22 68 74 0
23 30 -49 0
24 -45 61 0
25 -62 -70 0
25 -44 -78 0
25 46 -64 0
26 -67 68 0
26 -58 68 0
26 -53 -63 0
26 -32 -42 0
27 52 62 0
28 31 65 0
29 -56 75 0
29 -34 45 0
29 57 61 0
29 59 72 0
30 -33 -50 0
31 -77 -80 0
31 -57 -74 0
31 42 -45 0
32 67 73 0
33 -55 63 0
34 48 -66 0
34 63 -77 0
35 45 69 0
35 55 -56 0
36 -44 59 0
37 -48 67 0
37 39 -70 0
37 59 73 0
37 62 -72 0
38 42 56 0
38 55 -61 0
39 -41 50 0
39 70 -74 0
40 59 61 0
41 -47 -69 0
41 -46 -66 0
41 50 -73 0
42 -61 79 0
42 68 -78 0
43 48 -67 0
43 56 -74 0
44 -54 80 0
45 -53 73 0
45 52 53 0
48 -63 -68 0
49 -66 -71 0
49 52 64 0
51 54 -69 0
51 54 63 0
52 66 71 0
55 58 -68 0
59 -64 -72 0
