p cnf 150 638
-125 128 143 0
-119 -128 141 0
-114 122 -145 0
-113 -115 143 0
-111 -120 126 0
-110 -131 143 0
-109 127 150 0
-107 -109 124 0
-106 108 -134 0
-102 116 -146 0
-92 102 -104 0
-91 -102 -149 0
-91 -101 -138 0
-91 95 -145 0
-91 132 139 0
-90 123 -130 0
-89 118 121 0
-88 96 -132 0
-87 115 117 0
-85 -99 -128 0
-85 111 -143 0
-84 85 106 0
-83 -89 -143 0
-82 -135 145 0
-82 119 -128 0
-81 103 -113 0
-80 91 -113 0
-80 109 137 0
-79 -96 -133 0
-79 -95 106 0
-77 -84 124 0
-77 -78 110 0
-75 -120 126 0
-75 -99 -140 0
-75 -84 119 0
-75 77 108 0
-73 75 141 0
-73 83 101 0
-72 88 145 0
-70 95 115 0
-69 -142 147 0
-69 -104 -138 0
-69 -100 -122 0
-69 75 89 0
-69 109 122 0
-68 -123 128 0
-68 71 -136 0
-67 85 126 0
-67 99 114 0
-66 -75 -92 0
-65 -139 142 0
-65 -83 -112 0
-65 -74 111 0
-65 80 -106 0
-65 89 140 0
-65 98 -120 0
-64 -67 74 0
-64 70 -83 0
-64 80 119 0
-62 -63 131 0
-62 83 -134 0
-60 74 138 0
-60 89 -121 0
-59 70 -145 0
-59 110 -150 0
-59 134 -138 0
-58 -110 140 0
-58 -95 116 0
-58 -76 107 0
-58 70 -135 0
-57 59 -128 0
-57 78 -146 0
-56 -73 -101 0
-55 -124 -137 0
-55 -121 -122 0
-55 -112 148 0
-55 -90 114 0
-55 -83 90 0
-55 77 -126 0
-55 79 -108 0
-55 83 138 0
-55 135 -144 0
-53 71 75 0
-53 107 117 0
-52 113 135 0
-51 -88 120 0
-51 -70 -146 0
-51 64 86 0
-51 118 138 0
-50 -63 -85 0
-50 55 146 0
-50 69 125 0
-50 71 144 0
-49 -69 -105 0
-49 -50 -142 0
-49 60 138 0
-49 63 -140 0
-49 92 -95 0
-49 109 122 0
-49 125 -148 0
-48 -71 -125 0
-47 -117 130 0
-47 -64 79 0
-47 -57 -72 0
-47 -52 115 0
-47 51 141 0
-47 99 -140 0
-46 -84 150 0
-46 50 -99 0
-45 -136 140 0
-45 -56 122 0
-45 -51 132 0
-45 52 132 0
-45 58 -111 0
-45 111 -145 0
-44 -87 110 0
-44 -66 92 0
-44 -65 -142 0
-44 -58 81 0
-44 -47 -114 0
-43 116 -128 0
-42 -77 -124 0
-42 83 92 0
-42 89 104 0
-42 102 142 0
-41 -73 -81 0
-41 107 -139 0
-40 -71 -142 0
-40 -41 92 0
-40 50 -121 0
-40 79 -144 0
-40 83 -130 0
-40 90 -97 0
-39 -108 115 0
-39 -99 109 0
-39 -66 -100 0
-39 -65 -139 0
-39 74 135 0
-39 104 -142 0
-38 -99 -136 0
-38 -57 85 0
-38 108 -135 0
-37 -62 -137 0
-37 77 -91 0
-36 -98 143 0
-36 -52 90 0
-36 47 116 0
-36 71 -137 0
-36 72 -139 0
-36 82 -140 0
-36 122 -130 0
-35 -98 114 0
-35 -86 -105 0
-35 82 133 0
-34 -69 126 0
-34 35 -119 0
-34 36 88 0
-34 46 115 0
-32 -64 -147 0
-32 69 122 0
-32 97 110 0
-31 -69 -134 0
-31 -60 93 0
-31 -55 -85 0
-31 51 -88 0
-31 58 -150 0
-31 92 104 0
-30 -124 -148 0
-30 -58 -139 0
-30 68 -92 0
-30 85 -125 0
-29 -136 -138 0
-29 -91 138 0
-29 -72 -123 0
-29 -51 -103 0
-29 -41 -114 0
-29 34 146 0
-29 45 -134 0
-28 -120 -137 0
-28 -32 -76 0
-28 84 -130 0
-27 -70 105 0
-27 -68 75 0
-27 75 97 0
-26 -66 -104 0
-26 -66 68 0
-26 -40 74 0
-26 66 124 0
-25 -110 -135 0
-25 -57 112 0
-25 -57 137 0
-25 47 -97 0
-25 113 -119 0
-24 -114 -150 0
-24 -73 -129 0
-24 -43 -78 0
-24 26 76 0
-24 117 -127 0
-23 -86 109 0
-23 -66 85 0
-23 -58 125 0
-23 33 -112 0
-23 46 -71 0
-23 46 68 0
-23 66 95 0
-23 77 121 0
-22 -121 -133 0
-22 -107 -115 0
-22 -25 61 0
-22 51 -74 0
-21 55 -139 0
-20 -93 -111 0
-20 -51 82 0
-20 -22 101 0
-20 23 127 0
-20 33 -110 0
-20 34 -59 0
-20 86 124 0
-20 124 -130 0
-19 -74 -141 0
-19 -30 -149 0
-19 29 -120 0
-19 60 137 0
-19 61 133 0
-19 75 127 0
-19 77 105 0
-18 -121 -123 0
-18 -89 139 0
-18 -58 -137 0
-18 23 -110 0
-18 55 137 0
-18 70 113 0
-18 114 -143 0
-17 -86 -139 0
-17 -67 -91 0
-17 -61 -105 0
-17 -31 57 0
-17 45 -78 0
-17 56 108 0
-16 -111 -143 0
-16 -104 -106 0
-16 -28 144 0
-16 -25 -105 0
-16 33 107 0
-16 77 -149 0
-15 40 -122 0
-15 44 -141 0
-15 44 124 0
-15 44 132 0
-15 45 91 0
-14 76 77 0
-13 -85 -150 0
-12 -77 97 0
-12 -45 140 0
-11 -124 -134 0
-11 -55 84 0
-11 -23 -111 0
-11 96 -106 0
-11 113 130 0
-10 24 -131 0
-9 -69 -70 0
-9 -45 51 0
-9 -30 -35 0
-9 -15 83 0
-9 25 125 0
-9 26 -42 0
-9 35 -84 0
-9 80 97 0
-9 109 130 0
-8 -61 150 0
-8 -14 -112 0
-8 -11 147 0
-8 -9 -134 0
-8 49 -134 0
-8 79 -110 0
-7 -71 -137 0
-7 -53 99 0
-7 -45 110 0
-7 -31 73 0
-7 8 90 0
-7 26 101 0
-7 46 118 0
-7 48 -136 0
-7 55 117 0
-6 -78 83 0
-6 -16 47 0
-6 26 85 0
-6 37 -72 0
-6 65 -105 0
-6 76 118 0
-6 105 113 0
-6 142 150 0
-5 -73 126 0
-5 -9 108 0
-5 43 -136 0
-5 58 79 0
-5 78 120 0
-5 85 93 0
-4 -74 -114 0
-4 -55 -132 0
-4 -40 -53 0
-4 24 127 0
-4 54 -139 0
-3 -21 -68 0
-3 17 -144 0
-3 56 -85 0
-3 58 147 0
-3 62 81 0
-3 70 -124 0
-3 72 92 0
-3 116 -130 0
-2 -147 -148 0
-2 -106 144 0
-2 -86 -134 0
-2 -8 101 0
-1 -29 117 0
-1 -11 127 0
-1 -2 -121 0
-1 31 -56 0
-1 50 62 0
1 -6 107 0
1 11 144 0
1 65 89 0
1 94 117 0
2 -67 -93 0
2 9 -32 0
2 72 -120 0
2 90 128 0
2 103 -125 0
3 -97 -127 0
3 -23 -83 0
3 7 19 0
3 43 -121 0
3 55 -150 0
3 67 -98 0
3 80 112 0
4 -101 128 0
4 -87 -150 0
4 -77 -92 0
4 43 -103 0
4 63 -106 0
4 116 130 0
5 -89 -137 0
5 -72 -116 0
5 -32 -66 0
5 -27 135 0
5 56 79 0
6 -60 -97 0
6 -16 93 0
6 10 -40 0
6 28 -150 0
6 47 73 0
6 47 133 0
6 53 139 0
7 -63 -82 0
7 -12 19 0
7 14 139 0
7 96 -116 0
8 16 -99 0
8 18 100 0
8 19 120 0
8 23 40 0
9 -75 101 0
9 -47 -125 0
9 -43 71 0
9 -34 45 0
9 -34 112 0
9 22 -42 0
9 35 -54 0
9 50 -131 0
9 54 120 0
9 59 95 0
9 75 84 0
9 92 114 0
9 100 -129 0
10 -120 -137 0
10 -69 78 0
10 -34 74 0
10 89 -123 0
10 98 143 0
11 -119 127 0
11 -51 -118 0
11 -32 148 0
11 23 70 0
11 33 62 0
11 54 -141 0
12 -68 76 0
12 -66 -126 0
12 -13 -23 0
12 30 -33 0
13 -123 -138 0
13 -71 146 0
13 19 -72 0
13 60 -118 0
13 67 -106 0
13 87 106 0
14 -77 82 0
14 -44 -145 0
14 -31 -61 0
14 -21 74 0
14 39 138 0
14 57 -92 0
15 -92 -144 0
15 -33 -120 0
15 98 -141 0
15 131 -150 0
16 -93 -119 0
16 -38 117 0
16 -33 105 0
16 -27 136 0
16 37 81 0
16 62 106 0
16 97 136 0
16 124 -128 0
17 -87 -89 0
17 -68 126 0
17 -36 -46 0
17 36 48 0
17 62 78 0
18 -98 -110 0
18 -26 -48 0
18 35 -147 0
18 60 -145 0
18 62 -146 0
18 64 100 0
18 72 114 0
19 -70 105 0
19 -65 90 0
19 -36 -49 0
19 -27 118 0
19 -21 84 0
19 32 90 0
20 -59 -116 0
20 64 -140 0
20 73 -79 0
20 85 100 0
21 -61 98 0
21 -39 -132 0
21 -36 -50 0
21 106 124 0
22 -52 -91 0
22 -40 126 0
22 35 107 0
22 52 -149 0
23 -106 -147 0
23 -77 -131 0
23 -54 120 0
23 -43 -86 0
23 -34 137 0
23 27 -133 0
23 28 90 0
23 100 -118 0
23 127 -134 0
24 60 64 0
25 -105 148 0
25 -71 -122 0
25 -71 -106 0
25 82 -129 0
26 -87 92 0
26 -73 88 0
26 -31 63 0
26 45 -134 0
26 80 -150 0
27 -38 -70 0
27 29 -38 0
27 70 -148 0
27 77 112 0
27 82 -114 0
27 89 95 0
27 105 -118 0
27 106 -134 0
27 109 111 0
28 -72 83 0
28 -50 -86 0
28 -33 107 0
29 -116 117 0
29 46 -62 0
30 -85 -95 0
30 -74 -122 0
30 -49 -67 0
31 -85 140 0
31 -53 83 0
31 -49 -111 0
31 -32 49 0
31 65 -102 0
31 67 79 0
32 -95 -99 0
32 -51 137 0
32 46 69 0
32 117 126 0
33 -133 -143 0
33 -107 -116 0
33 -99 -118 0
33 -72 107 0
33 -41 -144 0
33 -41 -114 0
33 67 101 0
34 -77 148 0
34 -40 102 0
34 118 -134 0
35 -80 -131 0
36 68 -83 0
37 -80 137 0
37 -54 83 0
37 -45 -53 0
37 57 94 0
37 97 105 0
37 109 -113 0
38 -128 -138 0
38 -42 87 0
38 49 123 0
38 54 135 0
38 104 -108 0
39 -77 -92 0
39 -71 -72 0
39 88 -116 0
40 -99 -107 0
40 -73 112 0
40 -49 -72 0
40 46 -103 0
41 -86 106 0
41 -85 117 0
41 -84 -135 0
42 -99 113 0
42 51 -53 0
42 117 144 0
43 58 121 0
44 60 -100 0
44 75 116 0
45 -65 117 0
45 -54 139 0
46 -98 -99 0
46 -80 115 0
46 47 -101 0
48 -92 -131 0
48 -83 132 0
48 -58 -98 0
48 -49 107 0
48 79 123 0
49 -52 -100 0
49 65 -96 0
50 -109 -131 0
50 -80 -95 0
50 -76 -125 0
50 -66 -150 0
50 102 -103 0
51 -123 -137 0
51 -93 120 0
51 -53 105 0
51 71 84 0
51 81 116 0
51 87 113 0
52 113 -131 0
53 -61 -118 0
53 80 140 0
55 -68 -141 0
55 -58 -137 0
56 -105 146 0
57 -86 -104 0
57 -62 139 0
58 61 -74 0
58 96 141 0
58 102 -141 0
59 -118 -119 0
59 -83 134 0
59 76 -125 0
59 117 -127 0
60 -72 109 0
60 -61 102 0
60 112 -120 0
61 -101 -104 0
61 86 138 0
61 106 147 0
62 69 114 0
62 100 -133 0
63 -95 -104 0
63 -65 118 0
64 -74 -111 0
65 -112 -116 0
65 -68 -89 0
65 66 -94 0
65 69 142 0
65 116 118 0
66 -97 -144 0
67 -80 101 0
67 71 96 0
68 -107 -144 0
68 -96 131 0
68 86 146 0
68 98 147 0
69 94 102 0
70 -122 -125 0
70 73 133 0
72 -128 -136 0
72 116 147 0
73 -107 122 0
74 82 -85 0
75 84 -129 0
75 84 -124 0
75 109 -127 0
76 93 114 0
76 109 118 0
77 -113 -126 0
77 -109 -142 0
77 97 142 0
78 -86 112 0
79 -81 -103 0
79 129 -143 0
80 -115 -139 0
82 -117 126 0
82 -108 113 0
82 -102 129 0
82 124 126 0
84 -115 -128 0
84 112 -121 0
85 -86 -88 0
85 86 -138 0
85 96 143 0
85 123 150 0
88 -118 -141 0
89 -126 -134 0
90 -124 141 0
92 -105 108 0
93 -122 144 0
95 -114 -146 0
95 128 130 0
96 -99 -103 0
97 -107 -143 0
99 -118 136 0
105 -116 147 0
106 -114 150 0
108 -122 137 0
108 -117 -122 0
110 115 -137 0
111 -114 122 0
117 -122 128 0
122 131 -135 0
130 -145 -149 0
