p cnf 50 213
-45 -48 50 0
-40 -46 -50 0
-34 40 -42 0
-33 -40 45 0
-33 37 -38 0
-32 -44 45 0
-32 45 50 0
-30 43 45 0
-29 -32 40 0
-27 -47 48 0
-27 -36 41 0
-27 31 -47 0
-27 34 46 0
-26 -44 -47 0
-25 -27 29 0
-25 29 39 0
-25 35 -47 0
-23 31 40 0
-22 -38 -45 0
-22 -36 39 0
-21 32 -39 0
-20 -27 40 0
-19 -39 -45 0
-19 -25 26 0
-19 40 49 0
-18 -32 34 0
-18 25 48 0
-18 28 -47 0
-18 47 -48 0
-17 20 -50 0
-17 39 48 0
-16 -30 42 0
-16 29 -50 0
-16 40 -41 0
-15 -41 -42 0
-15 40 47 0
-14 -42 -46 0
-14 33 -34 0
-14 35 44 0
-13 -28 30 0
-13 -26 -41 0
-13 -15 -24 0
-13 17 -50 0
-12 -38 -49 0
-12 -27 28 0
-12 -20 -45 0
-12 -20 38 0
-12 15 45 0
-12 30 47 0
-11 -18 28 0
-11 -15 17 0
-11 18 -43 0
-11 44 -46 0
-10 -28 41 0
-10 -11 -37 0
-10 -11 -36 0
-10 26 -39 0
-9 -38 50 0
-9 -29 41 0
-9 -19 48 0
-9 -17 -31 0
-9 -12 -39 0
-9 13 -49 0
-9 20 -30 0
-8 -42 -48 0
-8 -28 30 0
-8 -10 43 0
-8 40 -42 0
-7 -35 -44 0
-7 -33 35 0
-7 -24 34 0
-7 -21 29 0
-7 -18 -19 0
-7 -8 -38 0
-6 -29 -31 0
-6 -26 -32 0
-6 -16 -21 0
-6 -11 -22 0
-6 36 38 0
-5 11 33 0
-5 15 -27 0
-5 19 -38 0
-5 20 -44 0
-4 -42 -46 0
-4 -15 -40 0
-4 5 36 0
-4 9 38 0
-4 10 48 0
-4 18 -19 0
-3 -27 -43 0
-3 -12 -46 0
-3 -11 32 0
-3 -7 -33 0
-3 -7 -21 0
-3 11 -37 0
-3 13 15 0
-3 16 17 0
-2 -41 49 0
-2 -21 45 0
-2 -12 39 0
-2 -8 31 0
-2 -5 19 0
-2 5 -12 0
-1 -39 50 0
-1 -27 45 0
-1 -25 -46 0
-1 -6 43 0
-1 6 -24 0
-1 9 18 0
-1 9 29 0
-1 14 -40 0
-1 21 -26 0
-1 23 -47 0
-1 27 -47 0
-1 27 47 0
-1 34 -41 0
1 -14 -30 0
1 8 30 0
1 30 -33 0
2 -20 27 0
2 -7 -45 0
3 -36 -39 0
3 9 50 0
3 11 -18 0
3 15 -39 0
3 34 38 0
4 -24 -36 0
4 -9 -20 0
4 19 32 0
4 20 45 0
4 23 48 0
4 24 28 0
5 -34 -50 0
5 18 -46 0
5 27 -50 0
5 27 36 0
5 29 34 0
6 -45 -47 0
6 -35 -41 0
6 -31 -38 0
6 -21 42 0
6 -21 46 0
6 -20 -35 0
6 -20 -23 0
6 -16 48 0
6 -10 11 0
6 16 21 0
6 22 -43 0
6 35 -48 0
7 -20 50 0
7 -19 44 0
7 8 40 0
7 14 -30 0
7 16 -37 0
7 27 -31 0
7 41 -47 0
7 45 -46 0
8 -36 -47 0
8 -25 -38 0
9 -30 -36 0
9 -28 -42 0
9 17 20 0
9 27 -44 0
10 11 -26 0
10 18 21 0
11 -41 43 0
11 32 -50 0
12 -13 31 0
12 17 23 0
12 46 49 0
13 -43 46 0
13 -30 44 0
13 -16 18 0
13 17 -34 0
14 -21 -37 0
14 16 -23 0
14 22 -31 0
14 33 39 0
15 25 -38 0
15 25 28 0
16 -36 -50 0
16 -19 -28 0
16 31 41 0
17 -43 -50 0
17 26 -48 0
18 -24 38 0
18 -22 -35 0
18 21 -31 0
18 24 -45 0
18 24 -31 0
19 -33 -34 0
19 -30 -38 0
19 34 38 0
20 -41 43 0
20 -34 -49 0
20 -28 39 0
20 -28 45 0
21 -40 -42 0
22 -23 30 0
25 44 49 0
26 -39 -47 0
27 -32 48 0
28 -37 47 0
29 -47 49 0
31 -39 -44 0
31 46 -48 0
32 -41 46 0
32 35 -45 0
32 39 45 0
33 39 49 0
34 -48 49 0
34 46 47 0
37 46 -50 0
