p cnf 70 298
-60 62 63 0
-55 -63 -69 0
-51 -56 -62 0
-50 -58 66 0
-50 57 62 0
-49 52 -65 0
-48 -61 -65 0
-45 -65 70 0
-45 -58 -66 0
-44 50 -51 0
-43 68 69 0
-42 -56 -69 0
-42 67 68 0
-39 -49 -60 0
-39 47 -62 0
-39 51 67 0
-39 54 59 0
-38 -48 59 0
-37 39 -60 0
-36 47 -52 0
-35 41 47 0
-34 -53 59 0
-34 -52 59 0
-34 53 -56 0
-31 -53 55 0
-31 -40 55 0
-31 32 -60 0
-31 33 58 0
-31 37 69 0
-30 -38 -65 0
-30 35 40 0
-29 -34 -69 0
-29 35 53 0
-28 -30 -34 0
-27 -62 -69 0
-27 -54 70 0
-27 -47 -61 0
-27 33 -46 0
-27 35 -48 0
-27 64 65 0
-26 49 -68 0
-25 -61 -65 0
-25 53 70 0
-24 -37 51 0
-24 -34 66 0
-24 31 53 0
-24 59 67 0
-23 -52 62 0
-23 -39 65 0
-23 -29 -44 0
-23 -28 -32 0
-22 -55 60 0
-22 -40 54 0
-22 30 36 0
-21 -28 60 0
-21 -27 -46 0
-21 25 68 0
-20 -66 -67 0
-20 -46 -58 0
-20 32 -49 0
-20 36 58 0
-20 44 49 0
-19 -31 46 0
-19 -23 -26 0
-19 39 65 0
-19 44 47 0
-18 -43 51 0
-18 -39 -69 0
-18 -22 -47 0
-17 -33 53 0
-17 18 -30 0
-16 -56 66 0
-16 -40 -50 0
-16 18 -26 0
-16 50 -55 0
-16 55 60 0
-15 -28 -31 0
-15 -28 60 0
-15 32 63 0
-15 40 -63 0
-14 -37 48 0
-14 26 52 0
-14 31 66 0
-13 -46 -69 0
-13 -26 55 0
-13 16 65 0
-13 39 -63 0
-12 -46 -59 0
-12 -32 -34 0
-12 -15 -55 0
-12 17 63 0
-12 45 -69 0
-11 -42 65 0
-11 -31 37 0
-11 -22 30 0
-11 28 -30 0
-11 28 50 0
-11 35 38 0
-10 -26 67 0
-10 -25 -46 0
-10 15 47 0
-10 40 41 0
-9 -56 -66 0
-9 -31 -69 0
-9 14 -58 0
-7 -43 69 0
-7 8 -55 0
-7 12 55 0
-6 9 -43 0
-6 16 -47 0
-6 38 70 0
-6 50 -70 0
-6 64 -70 0
-5 -17 42 0
-5 -9 20 0
-5 30 40 0
-5 32 -52 0
-5 43 -50 0
-4 -22 -51 0
-4 -19 24 0
-4 -6 54 0
-4 11 -55 0
-4 12 67 0
-4 19 64 0
-4 23 62 0
-4 25 69 0
-3 -58 -60 0
-3 -32 34 0
-3 -23 53 0
-3 -18 -57 0
-3 -4 -20 0
-3 7 -36 0
-3 7 21 0
-3 14 21 0
-3 21 59 0
-3 55 61 0
-2 -50 -63 0
-2 -10 49 0
-2 -6 -20 0
-2 14 -67 0
-2 24 -33 0
-2 28 -59 0
-1 -36 51 0
-1 -16 66 0
-1 -4 -25 0
-1 -4 21 0
-1 48 65 0
1 -43 -48 0
1 -34 -63 0
1 -19 -24 0
1 -3 -60 0
1 6 54 0
1 9 66 0
1 36 -62 0
2 -61 66 0
2 -12 -24 0
2 3 -33 0
2 6 52 0
2 17 -28 0
2 19 -21 0
2 35 -45 0
3 -23 -67 0
3 21 62 0
3 24 -53 0
3 33 70 0
4 -51 -56 0
4 -42 69 0
4 -22 47 0
4 -13 28 0
4 -11 67 0
4 -10 60 0
4 37 67 0
5 -47 59 0
5 -32 -69 0
5 16 63 0
5 27 -36 0
5 34 69 0
5 37 41 0
6 -44 -68 0
6 7 44 0
7 -46 -57 0
7 -37 -46 0
7 -20 29 0
7 16 38 0
7 23 -50 0
8 -38 -53 0
8 -35 -60 0
8 -22 -30 0
8 9 36 0
8 42 62 0
9 -38 -48 0
9 -34 -49 0
9 -29 44 0
9 -15 -65 0
9 15 -20 0
9 68 70 0
10 -45 -46 0
10 -39 -65 0
10 -32 -63 0
10 -12 -38 0
10 12 24 0
10 15 -31 0
11 -27 -35 0
11 -24 46 0
11 -12 -52 0
11 13 22 0
11 26 -48 0
11 30 -46 0
11 40 66 0
11 44 51 0
12 -48 69 0
12 -42 -66 0
12 -36 59 0
12 -34 36 0
12 -26 50 0
13 -51 58 0
13 -45 47 0
13 -41 62 0
13 -15 58 0
13 23 -30 0
13 24 52 0
13 47 -53 0
13 60 61 0
14 -25 66 0
14 -18 -40 0
14 58 68 0
15 -54 -70 0
15 -52 59 0
15 -33 -34 0
15 -19 60 0
15 36 64 0
15 47 -68 0
16 -49 58 0
16 -36 -61 0
16 27 -56 0
17 -29 -46 0
17 23 -45 0
17 44 70 0
17 47 51 0
17 47 68 0
18 -58 -64 0
18 26 47 0
18 39 42 0
19 -35 37 0
19 20 28 0
19 21 -50 0
19 25 33 0
19 26 66 0
19 41 -48 0
20 -57 67 0
21 -45 53 0
21 28 -47 0
21 34 -65 0
21 35 -67 0
21 47 51 0
22 -63 69 0
22 -44 68 0
22 59 -67 0
23 47 -67 0
24 -35 51 0
24 -32 -40 0
24 39 -68 0
24 40 -62 0
25 27 44 0
26 -34 -62 0
26 -31 -59 0
26 36 57 0
26 45 -64 0
27 -42 50 0
27 -41 60 0
27 -38 -61 0
28 -36 -47 0
28 36 40 0
28 44 -54 0
29 -41 -52 0
29 -31 56 0
31 -43 45 0
31 42 46 0
31 45 64 0
32 -53 65 0
32 -40 44 0
34 -37 43 0
35 -36 57 0
36 42 64 0
37 -41 -52 0
38 49 66 0
39 -60 -65 0
39 -44 65 0
39 54 62 0
40 43 62 0
41 54 -56 0
42 -47 -67 0
47 49 -51 0
49 -61 68 0
49 58 60 0
50 52 -56 0
54 -60 70 0
54 -55 -58 0
