p cnf 80 260
-61 -62 66 0
-56 67 -69 0
-55 66 -80 0
-49 53 -63 0
-48 -70 -78 0
-46 -53 -57 0
-45 58 -67 0
-44 -52 -61 0
-43 44 61 0
-43 66 -79 0
-39 -58 69 0
-39 58 74 0
-38 -43 -76 0
-38 40 59 0
-38 71 79 0
-37 47 -73 0
-36 -43 72 0
-35 -39 66 0
-33 44 -45 0
-32 54 72 0
-30 -66 -75 0
-30 -38 -60 0
-30 -31 58 0
-30 40 -48 0
-30 45 -76 0
-30 45 54 0
-30 60 80 0
-29 48 -51 0
-28 -31 -63 0
-27 33 40 0
-27 41 64 0
-27 43 58 0
-26 -37 -49 0
-26 51 62 0
-25 27 -79 0
-25 61 78 0
-24 -27 48 0
-24 29 74 0
-23 -64 80 0
-23 -47 52 0
-23 41 64 0
-23 61 67 0
-23 62 -64 0
-22 -39 -76 0
-22 25 77 0
-21 -48 79 0
-21 -41 67 0
-21 -35 65 0
-20 -58 -62 0
-19 -62 -79 0
-19 -38 -68 0
-19 -37 -63 0
-19 -23 41 0
-19 48 63 0
-18 -54 68 0
-18 25 26 0
-18 40 -41 0
-17 20 -79 0
-16 -18 24 0
-16 32 62 0
-16 48 65 0
-15 -29 -47 0
-15 16 -17 0
-15 21 78 0
-15 42 -52 0
-14 -55 76 0
-14 -35 69 0
-14 -28 -34 0
-14 -21 -67 0
-14 31 64 0
-14 75 80 0
-13 -73 -75 0
-13 -51 78 0
-13 -31 43 0
-13 -21 47 0
-12 -63 80 0
-12 20 47 0
-12 48 72 0
-11 -45 64 0
-11 -28 68 0
-11 -14 20 0
-11 31 -72 0
-10 -31 76 0
-10 17 -28 0
-10 30 -41 0
-9 -48 -61 0
-9 -43 60 0
-9 -41 75 0
-9 -18 -58 0
-9 24 -66 0
-9 45 76 0
-9 47 -76 0
-8 -38 63 0
-8 -36 41 0
-8 -22 47 0
-8 9 43 0
-8 13 46 0
-8 65 -77 0
-7 -58 78 0
-7 -44 -70 0
-7 -35 79 0
-7 19 74 0
-6 8 -77 0
-6 34 -74 0
-6 65 73 0
-5 -62 80 0
-5 -11 -65 0
-5 18 57 0
-4 45 79 0
-3 -30 -40 0
-3 -28 42 0
-3 -24 -29 0
-3 -13 -51 0
-3 -9 74 0
-3 34 60 0
-3 62 -69 0
-3 66 75 0
-2 -36 37 0
-2 14 17 0
-2 29 -66 0
-2 35 52 0
-2 40 -64 0
-1 -27 45 0
-1 15 -41 0
-1 18 -63 0
1 -52 -59 0
1 -22 72 0
1 -13 -43 0
1 -9 -49 0
1 23 -42 0
1 71 -77 0
2 -15 -39 0
2 7 -38 0
2 21 -72 0
2 22 39 0
2 34 79 0
2 35 -51 0
2 36 74 0
3 -51 -74 0
3 -50 54 0
3 -39 -48 0
3 -28 -75 0
3 -18 -40 0
3 -12 -35 0
3 -12 37 0
3 11 -24 0
4 -38 -71 0
4 23 79 0
5 -27 30 0
5 -10 -65 0
6 -75 -76 0
6 -38 -63 0
6 -20 44 0
6 9 -57 0
6 19 44 0
6 22 -53 0
7 -32 76 0
7 -21 -55 0
7 -15 30 0
7 19 -63 0
7 27 47 0
7 36 45 0
8 -42 -51 0
8 -32 51 0
8 -23 -44 0
8 52 -73 0
9 -65 69 0
9 -54 -66 0
9 -36 45 0
9 -12 -38 0
9 33 41 0
9 64 74 0
10 18 -65 0
10 25 33 0
10 45 -46 0
11 -38 80 0
11 -13 16 0
11 46 60 0
11 53 77 0
11 70 -79 0
12 -20 26 0
12 22 79 0
13 -47 -74 0
13 17 -25 0
14 -31 -76 0
14 20 -65 0
14 21 57 0
15 -44 60 0
15 26 -67 0
15 33 75 0
16 -48 68 0
16 -39 -56 0
16 -29 68 0
16 -23 75 0
16 30 -32 0
16 63 72 0
17 -54 -56 0
17 18 26 0
17 26 -69 0
17 31 72 0
17 37 -57 0
18 -62 -77 0
19 -40 -52 0
19 30 -45 0
19 31 -67 0
20 -37 -65 0
20 36 69 0
21 47 -74 0
22 -61 -68 0
22 38 -57 0
24 -41 57 0
24 -35 -59 0
24 -29 66 0
24 48 -68 0
25 -28 -59 0
25 60 -63 0
26 -69 -73 0
26 53 -56 0
27 -63 65 0
27 57 -72 0
28 29 36 0
29 -55 -77 0
29 39 -78 0
30 -31 50 0
30 34 -71 0
30 45 -47 0
30 49 -65 0
30 52 76 0
31 -36 67 0
31 73 -77 0
32 -65 75 0
32 -56 69 0
33 38 54 0
33 44 -50 0
33 58 61 0
36 -46 59 0
36 38 -54 0
36 42 44 0
36 48 -61 0
37 49 80 0
38 42 69 0
40 -70 72 0
40 -47 71 0
40 47 51 0
41 -42 69 0
42 -53 65 0
42 45 53 0
43 63 72 0
43 72 -76 0
44 46 51 0
45 -48 71 0
46 54 76 0
46 57 68 0
47 -65 73 0
48 55 -64 0
50 55 -61 0
53 -63 66 0
59 -75 76 0
63 69 -80 0
65 77 -79 0
