p cnf 80 260
-61 64 -78 0
-61 72 -77 0
-61 76 78 0
-60 63 -71 0
-56 -66 70 0
-56 -63 73 0
-55 -60 66 0
-52 -57 65 0
-49 -71 78 0
-46 47 -63 0
-46 75 78 0
-44 -52 75 0
-43 -45 -50 0
-43 48 51 0
-43 56 58 0
-42 50 61 0
-41 -77 -79 0
-39 47 78 0
-38 -67 -75 0
-37 -38 -54 0
-37 52 76 0
-36 39 80 0
-36 42 -80 0
-35 62 65 0
-34 -40 -74 0
-34 63 68 0
-33 -64 -73 0
-33 -50 -56 0
-32 50 -54 0
-31 -44 56 0
-31 32 -78 0
-31 45 47 0
-30 -31 -67 0
-29 31 52 0
-29 33 -59 0
-29 51 -59 0
-28 -48 73 0
-28 -42 -44 0
-28 29 61 0
-28 51 79 0
-27 -60 -61 0
-27 -50 -68 0
-27 40 -69 0
-27 50 75 0
-27 51 -53 0
-26 49 80 0
-25 -28 -60 0
-24 -68 73 0
-24 28 73 0
-24 39 79 0
-24 69 78 0
-23 -29 32 0
-23 28 63 0
-21 -33 51 0
-21 -24 -48 0
-20 -43 -78 0
-19 24 41 0
-19 25 -62 0
-18 57 66 0
-17 -42 64 0
-17 29 -48 0
-17 50 78 0
-16 30 -77 0
-16 31 -65 0
-15 24 -57 0
-15 27 -43 0
-15 74 77 0
-14 -36 63 0
-13 -49 79 0
-13 -31 -37 0
-13 20 -72 0
-12 -78 -79 0
-12 -23 65 0
-12 -13 35 0
-12 13 -14 0
-11 -35 -65 0
-11 -32 -78 0
-11 -16 -77 0
-11 -13 62 0
-11 12 79 0
-11 20 25 0
-11 26 -60 0
-11 33 -80 0
-10 17 -70 0
-10 46 -49 0
-9 -43 -72 0
-9 17 -78 0
-9 19 -79 0
-9 28 -61 0
-8 -68 -69 0
-8 16 33 0
-7 -64 80 0
-7 -36 47 0
-7 -9 -18 0
-7 11 -31 0
-7 23 -46 0
-7 62 64 0
-6 -62 77 0
-6 -46 -65 0
-6 17 78 0
-6 32 58 0
-6 54 -59 0
-5 -17 38 0
-4 -28 80 0
-4 -7 12 0
-4 11 -53 0
-4 24 -44 0
-4 35 -55 0
-4 56 -75 0
-3 -14 45 0
-3 -13 -64 0
-3 8 66 0
-3 11 -32 0
-3 32 -49 0
-3 35 -47 0
-2 -48 61 0
-2 23 44 0
-2 34 70 0
-1 -23 68 0
-1 -15 49 0
-1 2 -72 0
-1 13 17 0
-1 42 61 0
1 -14 43 0
1 17 75 0
1 23 62 0
1 26 38 0
1 31 -37 0
1 55 -74 0
1 60 65 0
1 73 80 0
2 -9 72 0
2 10 -18 0
2 14 -39 0
2 27 47 0
2 27 72 0
2 31 -53 0
2 32 -67 0
2 61 63 0
3 -33 -57 0
3 -24 71 0
3 -21 34 0
3 -10 -27 0
3 8 63 0
4 -23 54 0
4 -16 23 0
5 13 49 0
5 14 43 0
5 32 -70 0
5 37 64 0
5 38 -76 0
5 46 79 0
5 66 71 0
6 -53 73 0
6 -44 -77 0
6 -41 -68 0
6 -24 41 0
6 -15 -18 0
6 -9 -13 0
6 16 32 0
6 44 -62 0
6 70 75 0
7 -30 65 0
7 18 23 0
8 -42 46 0
8 -41 -80 0
8 -36 40 0
8 53 -73 0
8 63 -80 0
9 -61 -71 0
9 -39 75 0
9 -28 -52 0
9 -13 17 0
9 14 74 0
9 54 78 0
9 55 -79 0
10 -72 -77 0
10 -57 58 0
10 -54 -55 0
10 -26 59 0
10 -13 -69 0
11 -60 -79 0
11 -53 68 0
11 -35 48 0
11 -16 -62 0
11 14 -76 0
12 -56 -72 0
12 -51 -52 0
12 -33 -37 0
12 -27 40 0
12 35 -65 0
13 -43 -53 0
13 -24 80 0
13 -15 72 0
13 19 -34 0
13 29 62 0
14 17 -78 0
15 -41 54 0
15 -38 -59 0
15 -19 -57 0
15 -16 -26 0
15 16 -39 0
16 38 74 0
17 -31 58 0
17 -22 56 0
17 26 40 0
17 71 -74 0
18 -37 -45 0
18 -34 43 0
18 19 -40 0
18 53 56 0
19 -27 -43 0
19 38 -73 0
19 38 50 0
20 -38 46 0
20 -27 66 0
20 48 74 0
20 51 -78 0
21 -70 78 0
21 -24 -71 0
22 -43 -58 0
22 56 59 0
23 -43 75 0
23 25 56 0
24 -56 57 0
24 -27 70 0
24 26 -40 0
24 31 -47 0
25 -58 78 0
26 -46 -54 0
26 43 80 0
27 -51 80 0
27 31 -50 0
28 34 44 0
29 49 -70 0
29 49 -59 0
30 -64 -75 0
30 37 -66 0
30 44 -46 0
31 -35 -70 0
31 35 -45 0
32 -43 55 0
33 39 -47 0
34 35 -49 0
34 45 74 0
37 38 -72 0
37 42 -59 0
40 48 57 0
41 -57 61 0
42 -44 -49 0
45 -48 -60 0
45 47 -65 0
47 -59 79 0
47 48 -77 0
48 -56 67 0
49 -50 -59 0
50 62 -75 0
51 68 69 0
63 -66 77 0
64 -70 72 0
