p cnf 45 191
-36 -39 44 0
-34 -35 38 0
-33 -40 -45 0
-32 42 -43 0
-31 -32 44 0
-28 -32 -45 0
-28 30 38 0
-28 34 45 0
-27 29 -42 0
-26 34 -45 0
-22 -42 43 0
-22 30 -45 0
-21 -22 -25 0
-19 -32 -35 0
-19 -22 -37 0
-18 -32 33 0
-18 -25 -35 0
-17 -29 31 0
-16 -27 35 0
-16 -26 -28 0
-16 -24 -35 0
-16 -18 26 0
-16 -17 30 0
-16 19 -34 0
-16 19 20 0
-16 33 -36 0
-15 26 38 0
-14 -23 24 0
-14 19 39 0
-14 24 -30 0
-14 27 32 0
-13 -22 -44 0
-13 -16 -33 0
-13 -15 28 0
-12 26 -44 0
-11 14 42 0
-10 -30 37 0
-10 -28 -37 0
-10 -27 43 0
-10 -17 44 0
-10 -15 40 0
-10 14 40 0
-10 32 41 0
-10 39 -40 0
-9 -32 -33 0
-9 -23 27 0
-9 -21 -26 0
-9 -19 22 0
-9 10 -21 0
-9 15 -39 0
-9 25 26 0
-9 25 29 0
-8 -36 38 0
-8 -20 -25 0
-8 13 -16 0
-8 24 37 0
-7 -33 -43 0
-7 -21 -34 0
-7 -21 40 0
-7 -17 43 0
-7 -9 31 0
-7 10 42 0
-7 20 34 0
-6 -42 44 0
-6 12 -27 0
-6 15 -35 0
-6 22 -24 0
-6 26 39 0
-6 28 44 0
-5 -19 22 0
-5 7 15 0
-5 8 38 0
-5 10 27 0
-5 27 -28 0
-4 -30 -45 0
-4 -30 -36 0
-4 18 -25 0
-4 23 -43 0
-4 26 -33 0
-4 33 -36 0
-3 -17 -33 0
-3 -8 42 0
-3 5 25 0
-3 8 -24 0
-3 9 -31 0
-3 18 -45 0
-3 29 -33 0
-3 33 -40 0
-3 41 -45 0
-2 -29 -32 0
-2 -12 23 0
-2 -5 18 0
-2 6 -25 0
-2 7 -11 0
-2 9 30 0
-2 13 19 0
-2 20 -28 0
-2 38 42 0
-2 42 -43 0
-1 -36 -45 0
-1 -26 37 0
-1 -23 27 0
-1 -14 -34 0
-1 -13 28 0
-1 28 -33 0
1 -14 -20 0
1 4 -12 0
1 5 -11 0
1 11 33 0
1 15 -37 0
2 -12 16 0
2 -8 -19 0
2 3 -35 0
2 6 -23 0
2 9 -13 0
2 14 16 0
2 21 34 0
3 -31 -35 0
3 -17 42 0
3 -9 35 0
3 34 35 0
4 -5 9 0
4 25 -34 0
4 31 34 0
5 -25 -30 0
5 12 -44 0
6 -19 -29 0
6 -19 -22 0
6 -15 40 0
6 -14 32 0
6 12 14 0
6 21 -22 0
6 21 43 0
6 30 42 0
7 -13 -31 0
7 -13 25 0
8 -30 -34 0
8 -18 -34 0
8 -16 20 0
8 -13 29 0
8 -12 31 0
8 11 29 0
8 32 44 0
9 12 22 0
9 14 39 0
10 -33 40 0
10 -13 -21 0
10 13 43 0
10 35 -43 0
10 36 -38 0
11 -29 -40 0
11 -14 22 0
11 12 -40 0
11 13 -42 0
11 25 -42 0
12 -25 -38 0
12 -19 29 0
12 -15 -35 0
12 -15 42 0
12 18 34 0
12 33 38 0
13 -24 42 0
13 -18 -34 0
13 16 31 0
13 17 -24 0
13 22 23 0
13 24 -39 0
14 23 -44 0
15 -22 41 0
15 -21 -36 0
16 -32 -39 0
16 -31 41 0
16 -22 38 0
16 24 -32 0
16 26 34 0
17 -19 31 0
18 -27 31 0
18 -21 25 0
18 -21 44 0
19 22 -24 0
20 -22 -37 0
20 31 -45 0
21 -28 -31 0
21 30 -40 0
22 -26 -36 0
23 -30 34 0
23 41 42 0
23 42 -45 0
25 37 44 0
26 -34 -40 0
32 37 38 0
