p cnf 45 191
-38 39 -45 0
-38 39 42 0
-37 43 44 0
-33 35 -41 0
-31 -37 -43 0
-30 -43 44 0
-30 33 -34 0
-25 35 -41 0
-24 -36 -43 0
-24 -34 -36 0
-24 28 44 0
-23 -35 45 0
-23 -31 -41 0
-23 26 -45 0
-21 26 -35 0
-19 -30 -37 0
-19 -27 30 0
-19 -21 23 0
-19 24 -29 0
-19 41 -44 0
-18 -26 28 0
-18 -25 -31 0
-18 -20 22 0
-17 21 -28 0
-17 23 40 0
-17 33 -41 0
-16 34 38 0
-15 -23 40 0
-15 17 -40 0
-15 19 32 0
-14 -19 -23 0
-14 33 -35 0
-14 33 41 0
-13 -42 -44 0
-13 -34 -43 0
-13 21 -28 0
-12 -23 -27 0
-12 -18 35 0
-12 -16 26 0
-12 27 -36 0
-11 -26 30 0
-11 28 42 0
-10 -39 -43 0
-10 -29 -40 0
-10 -17 -31 0
-10 -13 37 0
-10 25 -40 0
-10 30 -36 0
-10 38 39 0
-9 -18 27 0
-9 17 36 0
-9 21 -37 0
-9 21 38 0
-9 22 45 0
-9 33 -41 0
-8 -17 45 0
-8 11 -34 0
-8 19 -31 0
-7 -10 -22 0
-7 23 38 0
-7 28 -36 0
-6 -34 45 0
-6 -22 -44 0
-6 -22 39 0
-6 -17 -30 0
-6 -17 38 0
-6 -12 -33 0
-6 11 27 0
-6 12 27 0
-5 -21 25 0
-5 7 -33 0
-5 11 -35 0
-5 12 20 0
-4 13 -42 0
-3 -4 -12 0
-3 5 -40 0
-3 16 -34 0
-3 18 -41 0
-2 -37 -38 0
-2 -33 -41 0
-2 4 -33 0
-2 13 45 0
-1 -15 22 0
-1 -13 37 0
-1 -11 -33 0
-1 -10 -19 0
-1 -6 38 0
-1 3 25 0
-1 12 22 0
-1 17 18 0
-1 37 -45 0
1 -27 -44 0
1 -18 41 0
1 -14 29 0
1 -8 14 0
1 -5 20 0
1 -3 -19 0
1 5 -14 0
1 7 38 0
1 15 19 0
1 28 33 0
2 -24 -38 0
2 -13 -30 0
2 -3 14 0
2 11 12 0
2 16 31 0
3 -27 -44 0
3 -24 -44 0
3 -14 -40 0
3 -9 16 0
3 4 -19 0
3 11 31 0
3 15 -26 0
3 20 25 0
4 -22 44 0
4 -19 41 0
4 -18 -37 0
4 15 -43 0
5 -29 40 0
5 -22 38 0
5 -20 42 0
5 -7 -31 0
5 -7 -18 0
5 16 -18 0
5 24 35 0
5 26 -45 0
5 28 -43 0
5 28 32 0
6 -33 35 0
6 -15 -37 0
6 7 35 0
6 18 44 0
6 24 -39 0
7 -22 -29 0
7 -21 -38 0
8 -38 -39 0
8 17 42 0
8 30 -35 0
8 41 -42 0
9 -12 -24 0
9 -11 26 0
9 12 -40 0
9 13 -20 0
10 -39 -40 0
10 -34 -36 0
10 -27 -31 0
10 -19 -34 0
10 13 20 0
10 16 26 0
11 -35 37 0
11 -29 -38 0
11 -15 -31 0
12 -17 25 0
12 -17 30 0
12 36 -44 0
13 -26 36 0
14 -28 -42 0
14 -24 -42 0
14 19 -31 0
15 -25 -29 0
15 -21 27 0
15 -17 -22 0
15 29 -41 0
15 36 44 0
16 -23 -44 0
16 19 -33 0
16 24 -37 0
16 30 -45 0
17 -18 24 0
17 26 33 0
18 -28 35 0
18 -23 40 0
18 19 -26 0
18 19 42 0
19 30 44 0
20 -25 -39 0
20 26 -39 0
20 33 -42 0
21 31 -42 0
23 40 44 0
24 -33 -43 0
25 26 -41 0
26 27 44 0
26 35 42 0
27 -40 -43 0
30 -39 -44 0
31 32 -38 0
31 35 -42 0
32 -40 -43 0
32 -33 45 0
35 39 -45 0
