p cnf 150 638
-139 142 -146 0
-122 128 148 0
-114 119 -129 0
-109 -125 144 0
-106 -120 128 0
-104 -124 148 0
-102 -121 131 0
-99 106 115 0
-98 -133 -135 0
-97 -111 122 0
-96 -98 103 0
-96 113 -117 0
-95 100 -114 0
-94 -104 143 0
-93 -118 -136 0
-92 -110 -133 0
-91 132 -144 0
-90 -93 -100 0
-88 -127 139 0
-88 -100 131 0
-86 -108 111 0
-86 -107 142 0
-86 -103 -144 0
-86 94 126 0
-86 101 120 0
-85 -113 125 0
-83 -92 -141 0
-83 116 -124 0
-82 -125 -149 0
-81 123 138 0
-80 -96 128 0
-80 -92 -98 0
-79 -81 107 0
-78 -128 -137 0
-78 -80 119 0
-77 -89 102 0
-76 91 96 0
-75 -127 144 0
-75 -103 137 0
-75 -92 -125 0
-75 -84 -95 0
-75 77 -85 0
-72 78 105 0
-72 93 -96 0
-71 -132 146 0
-71 -76 116 0
-70 -115 -150 0
-70 -96 -141 0
-70 -78 83 0
-70 94 -138 0
-69 -73 108 0
-69 87 -142 0
-68 -81 -143 0
-68 104 133 0
-67 -126 -146 0
-66 -112 -148 0
-66 -99 106 0
-66 147 150 0
-65 69 125 0
-65 92 -143 0
-65 95 142 0
-64 -68 150 0
-64 -66 101 0
-64 65 92 0
-64 69 132 0
-64 131 -132 0
-63 -72 132 0
-63 68 74 0
-63 68 92 0
-63 94 96 0
-61 114 -126 0
-60 -119 -136 0
-60 -106 -144 0
-60 -100 131 0
-60 71 -81 0
-60 82 119 0
-59 -85 110 0
-59 89 129 0
-57 89 129 0
-56 77 95 0
-56 89 -144 0
-55 -94 105 0
-55 -88 95 0
-55 -76 -96 0
-55 60 -105 0
-55 114 -150 0
-53 96 -134 0
-52 -135 147 0
-52 -60 -148 0
-52 -55 -97 0
-51 -141 -143 0
-51 -110 -116 0
-51 -70 -78 0
-51 57 127 0
-51 75 145 0
-51 94 -99 0
-51 110 -114 0
-50 61 -144 0
-49 -72 -108 0
-49 -58 68 0
-49 -55 -115 0
-49 84 89 0
-48 -60 -100 0
-48 -58 -86 0
-48 50 -134 0
-48 59 81 0
-47 -141 -149 0
-47 -48 -69 0
-47 76 133 0
-46 -76 -119 0
-45 -98 -124 0
-45 47 -48 0
-45 71 -120 0
-45 97 135 0
-44 -84 102 0
-44 -57 110 0
-44 56 77 0
-43 -53 -93 0
-43 -45 -47 0
-43 80 -149 0
-43 129 144 0
-42 -111 -139 0
-42 -56 83 0
-42 106 117 0
-41 -115 -116 0
-41 -83 145 0
-41 65 143 0
-40 -108 -145 0
-39 -88 99 0
-39 40 -44 0
-39 73 -116 0
-39 79 -149 0
-39 103 128 0
-38 -82 88 0
-38 -70 -133 0
-38 43 -78 0
-37 -116 -135 0
-37 -95 143 0
-37 -84 91 0
-37 -71 107 0
-37 -49 -123 0
-37 -49 55 0
-37 90 -106 0
-36 -49 -138 0
-35 -115 143 0
-35 -88 98 0
-35 -73 -122 0
-35 -61 107 0
-35 39 86 0
-35 53 -76 0
-35 90 138 0
-34 -108 129 0
-34 -37 145 0
-34 35 -94 0
-34 71 139 0
-34 73 129 0
-34 76 -139 0
-34 131 -137 0
-33 -84 123 0
-33 -37 40 0
-33 35 124 0
-33 60 -110 0
-33 129 -132 0
-31 -102 -125 0
-31 -83 96 0
-31 -34 -150 0
-31 104 -148 0
-30 -120 143 0
-30 -47 70 0
-30 84 -119 0
-29 -111 -135 0
-29 -94 -137 0
-29 31 -148 0
-29 57 -82 0
-29 62 64 0
-29 105 112 0
-28 -62 -76 0
-28 55 81 0
-28 88 108 0
-28 126 -133 0
-28 141 145 0
-27 -84 131 0
-27 -61 115 0
-27 -31 -113 0
-27 -30 59 0
-27 115 133 0
-26 -87 -136 0
-26 94 -109 0
-25 -95 120 0
-25 -62 72 0
-24 -104 -146 0
-24 -38 -41 0
-24 34 -82 0
-24 110 123 0
-23 -44 136 0
-22 -112 -116 0
-22 -45 -79 0
-22 61 -120 0
-21 -71 82 0
-21 -54 -121 0
-21 27 93 0
-20 -123 135 0
-20 -94 -102 0
-20 -49 142 0
-20 29 -73 0
-20 98 -130 0
-19 -49 -126 0
-19 -29 33 0
-19 23 -49 0
-19 38 86 0
-19 48 -112 0
-19 99 -131 0
-19 117 137 0
-18 -114 115 0
-18 -74 -115 0
-18 -39 52 0
-18 -39 111 0
-18 -26 84 0
-18 25 128 0
-18 34 -44 0
-18 41 59 0
-17 -48 -68 0
-17 21 -90 0
-17 28 79 0
-17 52 87 0
-17 54 -132 0
-16 -75 80 0
-16 -27 43 0
-16 68 -148 0
-15 -61 94 0
-15 -52 -63 0
-15 21 -88 0
-15 23 109 0
-15 39 -100 0
-15 59 79 0
-15 105 -127 0
-14 18 -77 0
-14 18 -55 0
-14 20 -70 0
-13 -18 127 0
-13 72 112 0
-12 -72 84 0
-12 -69 91 0
-12 -68 97 0
-12 -51 68 0
-12 -31 37 0
-12 -13 91 0
-12 31 -120 0
-12 36 -63 0
-12 56 97 0
-11 -107 131 0
-11 -102 127 0
-11 -32 115 0
-11 -16 -89 0
-11 15 -132 0
-11 73 -88 0
-10 -89 114 0
-10 -87 107 0
-10 -76 -132 0
-10 -69 86 0
-10 -25 85 0
-10 30 -103 0
-10 66 -85 0
-10 115 125 0
-9 -139 -149 0
-9 -40 123 0
-9 -15 148 0
-9 73 -139 0
-9 115 139 0
-8 -58 -123 0
-8 -38 -134 0
-8 -16 -121 0
-8 -15 28 0
-8 20 -117 0
-8 35 87 0
-8 114 137 0
-7 -91 -132 0
-7 -39 -139 0
-7 14 -19 0
-7 43 51 0
-7 85 -114 0
-6 -111 149 0
-6 -29 -106 0
-6 -28 -83 0
-6 -15 -108 0
-6 18 -32 0
-6 24 -141 0
-5 -83 112 0
-5 -56 105 0
-5 -49 108 0
-5 -33 102 0
-5 -28 122 0
-5 25 -91 0
-5 86 -135 0
-5 98 -129 0
-5 107 144 0
-4 7 32 0
-4 30 50 0
-4 35 -127 0
-4 50 -136 0
-3 21 -55 0
-3 25 77 0
-3 89 -111 0
-2 -69 -132 0
-2 3 -95 0
-2 48 65 0
-2 50 125 0
-2 65 -143 0
-2 76 -103 0
-1 -42 -141 0
-1 -8 -55 0
-1 3 -50 0
-1 3 49 0
-1 10 50 0
-1 15 -99 0
-1 75 -108 0
-1 88 113 0
-1 116 -148 0
-1 143 -145 0
1 -60 -120 0
1 -12 -53 0
1 -11 93 0
1 -5 -61 0
1 31 -60 0
1 32 -141 0
1 32 -83 0
1 44 -95 0
1 141 -146 0
2 -74 130 0
2 -10 -47 0
2 -3 149 0
2 58 83 0
2 95 147 0
3 -70 -82 0
3 -51 -142 0
3 -7 18 0
3 39 -92 0
3 53 -98 0
4 -134 -150 0
4 -85 150 0
4 -52 136 0
4 -32 119 0
4 -27 34 0
4 7 -112 0
4 34 -70 0
5 -59 101 0
5 40 98 0
5 73 -94 0
6 -109 119 0
6 -74 79 0
6 -29 -135 0
6 18 127 0
6 29 141 0
7 -65 -73 0
7 -65 127 0
7 -63 108 0
7 20 -141 0
7 51 114 0
7 66 -93 0
7 106 107 0
7 114 -118 0
7 114 -115 0
8 -20 64 0
8 18 -34 0
8 37 87 0
9 -93 101 0
9 -51 -74 0
9 12 -70 0
9 39 -130 0
9 43 -72 0
9 57 -119 0
9 62 -96 0
9 67 -136 0
9 76 -109 0
10 -58 -73 0
10 -43 52 0
10 38 105 0
10 61 71 0
10 102 -145 0
11 -125 131 0
11 -109 134 0
11 -100 -135 0
11 -86 131 0
11 -37 -67 0
11 16 110 0
11 40 -83 0
11 50 -63 0
11 126 -131 0
12 -48 -70 0
12 -29 50 0
12 -26 -98 0
12 45 -99 0
12 51 -59 0
12 135 -147 0
13 -34 -46 0
13 -14 -139 0
13 67 -73 0
13 116 -131 0
14 -93 -142 0
14 -73 98 0
14 -59 -141 0
14 -19 -31 0
14 -15 16 0
14 25 -50 0
14 25 115 0
14 50 146 0
14 76 -124 0
15 -93 137 0
15 -83 -86 0
15 -17 129 0
15 34 78 0
16 -45 -56 0
16 -22 56 0
16 51 -74 0
17 -77 -90 0
17 38 -145 0
18 -36 -45 0
18 -22 -125 0
18 65 137 0
18 67 -128 0
18 92 -112 0
19 -68 -101 0
19 26 -142 0
19 34 -147 0
19 51 147 0
19 68 -113 0
19 78 112 0
20 -74 149 0
20 -29 91 0
20 23 -58 0
20 29 134 0
20 65 71 0
21 -104 -144 0
21 -102 118 0
21 -78 -84 0
21 37 -142 0
21 40 58 0
21 53 142 0
21 96 124 0
23 -59 148 0
23 26 -141 0
23 33 102 0
24 -78 -150 0
24 -35 37 0
24 33 73 0
24 80 82 0
24 86 107 0
24 92 -107 0
25 -110 121 0
25 -79 118 0
25 -76 148 0
25 -60 65 0
25 -27 -68 0
25 75 -118 0
26 -133 137 0
26 -81 -103 0
26 98 138 0
27 -91 104 0
27 -30 -107 0
27 42 76 0
28 -134 138 0
28 -129 -132 0
28 -119 -139 0
28 -67 -145 0
28 -57 -71 0
28 -44 51 0
28 -32 -44 0
29 -107 -137 0
29 -92 -109 0
29 -79 96 0
29 -54 83 0
29 64 107 0
29 139 -140 0
30 -64 -85 0
30 51 71 0
30 67 -145 0
30 70 -94 0
31 -76 -102 0
31 32 65 0
32 -111 -132 0
32 -86 117 0
32 -51 61 0
32 -34 -133 0
32 36 -77 0
32 49 -57 0
32 64 67 0
33 -80 122 0
33 -66 99 0
34 -87 -133 0
34 -84 -123 0
34 42 -64 0
34 49 -59 0
34 65 -121 0
34 105 126 0
34 143 150 0
35 55 -119 0
35 57 137 0
35 72 112 0
36 -86 -109 0
36 49 -57 0
36 90 125 0
36 92 127 0
36 94 -147 0
36 103 140 0
37 -96 -119 0
37 -66 79 0
37 54 66 0
37 80 -148 0
38 -113 -124 0
38 51 -146 0
39 -106 -139 0
39 -96 149 0
39 -74 94 0
39 -71 -83 0
39 51 60 0
40 -94 97 0
40 -69 -72 0
41 -146 150 0
41 -55 -137 0
41 75 -92 0
42 -121 138 0
42 51 -118 0
42 78 123 0
42 104 123 0
43 -93 94 0
43 -57 124 0
43 124 131 0
44 -62 -138 0
44 -54 73 0
44 99 -119 0
45 -57 -77 0
46 -86 112 0
46 -82 124 0
46 -64 117 0
46 -47 -58 0
46 81 -108 0
46 82 130 0
47 -117 148 0
47 -83 117 0
47 -55 94 0
47 64 -68 0
47 80 133 0
47 111 128 0
48 50 -107 0
48 129 -138 0
49 -112 117 0
49 -75 -103 0
49 -68 146 0
49 55 -123 0
50 -76 100 0
50 55 -72 0
50 74 88 0
50 89 -130 0
50 134 140 0
51 -144 -145 0
51 -87 108 0
51 -59 137 0
51 110 -147 0
52 -119 -130 0
52 61 107 0
52 62 -82 0
53 81 -92 0
54 -97 -101 0
54 -82 -150 0
54 72 -107 0
54 76 102 0
54 108 124 0
55 -122 -135 0
55 -66 -73 0
57 -89 -135 0
57 63 91 0
57 85 -104 0
58 -61 -105 0
58 76 119 0
59 64 -70 0
60 -124 132 0
60 -102 -123 0
60 67 113 0
60 86 123 0
60 138 141 0
61 77 -150 0
62 -83 -91 0
62 -71 -149 0
63 -64 -80 0
63 109 135 0
64 -72 129 0
64 -65 112 0
64 67 -109 0
65 -70 82 0
66 68 -144 0
66 105 -115 0
68 -96 -101 0
68 77 130 0
68 90 107 0
68 108 114 0
69 125 127 0
71 89 -143 0
72 128 135 0
73 81 133 0
74 77 -132 0
75 -82 -108 0
76 -116 -145 0
76 -101 -133 0
76 82 -114 0
76 113 -142 0
77 -123 143 0
77 92 -109 0
78 125 -132 0
79 -80 117 0
79 140 141 0
80 -112 121 0
82 100 -133 0
82 115 122 0
82 125 138 0
83 96 -146 0
84 -106 -130 0
84 127 -146 0
88 -125 -126 0
88 134 150 0
92 112 -143 0
92 125 -131 0
93 109 144 0
93 121 143 0
95 -111 148 0
97 -99 106 0
101 -107 111 0
103 -133 -149 0
103 135 -138 0
104 117 136 0
105 112 146 0
109 -119 126 0
109 -117 -127 0
109 113 -125 0
109 121 144 0
112 114 -122 0
117 -120 123 0
129 141 146 0
131 138 150 0
