p cnf 120 420
-105 -113 -116 0
-92 94 -105 0
-90 -115 119 0
-88 107 119 0
-85 -94 -104 0
-80 -97 -118 0
-77 -85 86 0
-76 -77 -115 0
-75 -89 -99 0
-72 -93 98 0
-69 71 -117 0
-67 84 94 0
-67 88 -117 0
-66 71 -86 0
-66 109 -120 0
-65 68 98 0
-65 75 -108 0
-65 95 -113 0
-63 -83 103 0
-63 -65 -67 0
-62 -67 107 0
-62 96 -107 0
-61 71 104 0
-60 -74 -118 0
-60 61 112 0
-60 110 -119 0
-58 -91 107 0
-58 82 85 0
-57 70 -81 0
-56 -64 -80 0
-56 66 90 0
-55 -107 115 0
-55 62 103 0
-55 64 90 0
-54 -86 -107 0
-54 -86 101 0
-53 -91 -115 0
-53 95 -116 0
-52 -87 -109 0
-52 68 -105 0
-52 69 -80 0
-51 -60 100 0
-50 62 68 0
-49 -111 120 0
-49 -55 115 0
-49 66 -75 0
-48 -95 -119 0
-48 -64 -83 0
-47 69 -73 0
-46 -88 -94 0
-46 79 -93 0
-45 109 -114 0
-44 55 -86 0
-43 -78 104 0
-43 -60 109 0
-42 -66 -78 0
-42 -64 118 0
-42 55 103 0
-41 -48 104 0
-41 75 -89 0
-40 -61 86 0
-40 60 76 0
-39 65 -100 0
-38 40 97 0
-38 77 -119 0
-38 92 -108 0
-35 -40 -51 0
-35 36 -115 0
-35 68 109 0
-34 -58 67 0
-34 108 112 0
-33 87 -110 0
-32 -55 -77 0
-31 -70 110 0
-31 32 68 0
-31 62 84 0
-30 -74 -84 0
-30 -58 -82 0
-30 48 -65 0
-29 -78 119 0
-28 -90 -119 0
-28 -53 108 0
-28 -43 98 0
-27 -36 -40 0
-27 36 68 0
-27 40 -115 0
-27 59 81 0
-27 95 -104 0
-27 114 120 0
-26 -74 78 0
-26 -43 57 0
-26 -31 -61 0
-25 -65 112 0
-25 28 56 0
-24 -84 86 0
-24 -61 -81 0
-24 -38 79 0
-24 58 -86 0
-24 87 119 0
-23 -73 90 0
-23 -72 -117 0
-23 -45 108 0
-23 60 69 0
-22 -102 -114 0
-22 -84 120 0
-22 -48 -64 0
-22 -23 -119 0
-21 -61 109 0
-21 -36 -42 0
-21 31 -72 0
-21 34 -51 0
-21 40 -61 0
-21 44 82 0
-21 86 108 0
-20 -61 -114 0
-20 -23 87 0
-20 33 89 0
-20 46 -118 0
-20 50 -62 0
-20 63 93 0
-19 -25 -69 0
-19 48 -104 0
-19 84 -106 0
-18 -113 -119 0
-18 -67 -90 0
-18 -28 -90 0
-18 -21 87 0
-18 38 62 0
-17 -56 109 0
-17 55 63 0
-16 -24 96 0
-16 41 64 0
-16 59 -90 0
-15 -31 103 0
-15 -23 56 0
-15 24 -104 0
-14 -80 -101 0
-14 -29 -67 0
-14 -26 -117 0
-14 59 -80 0
-13 -104 -115 0
-13 -33 58 0
-13 34 -114 0
-13 77 -116 0
-13 115 118 0
-12 -113 -117 0
-12 27 104 0
-12 33 91 0
-12 85 -115 0
-12 113 -117 0
-11 -52 116 0
-11 -16 -96 0
-11 19 39 0
-11 25 -88 0
-10 -54 -105 0
-10 53 77 0
-9 -96 111 0
-9 -34 90 0
-9 -26 50 0
-9 24 -90 0
-9 42 83 0
-9 64 106 0
-8 -77 102 0
-8 -63 84 0
-8 -58 -117 0
-8 -43 90 0
-8 -31 -32 0
-8 -12 13 0
-8 28 74 0
-8 31 -107 0
-8 55 -85 0
-8 62 -92 0
-7 -82 -85 0
-7 -49 -96 0
-7 -18 -78 0
-7 22 75 0
-6 -49 -53 0
-6 -46 -83 0
-6 -46 -56 0
-6 -40 -48 0
-6 -22 -62 0
-6 9 -71 0
-5 -48 116 0
-5 -29 -95 0
-5 36 78 0
-5 38 87 0
-5 53 58 0
-5 60 109 0
-5 87 -90 0
-4 -59 -111 0
-4 -44 63 0
-4 -27 35 0
-4 -14 -68 0
-4 11 -26 0
-4 14 -42 0
-4 64 118 0
-3 -104 -105 0
-3 -93 113 0
-3 -33 72 0
-3 -7 -12 0
-3 33 48 0
-3 73 -112 0
-3 79 97 0
-3 94 -108 0
-2 -81 106 0
-2 -73 -83 0
-2 -56 102 0
-2 -49 105 0
-2 -40 -42 0
-2 -31 -102 0
-2 -8 -87 0
-2 15 22 0
-2 20 -54 0
-2 60 105 0
-1 -94 117 0
-1 -6 116 0
-1 15 -17 0
1 -45 49 0
1 -34 -59 0
1 -21 -58 0
1 -10 47 0
1 11 77 0
1 23 49 0
1 61 -99 0
1 81 87 0
2 -85 -86 0
2 -41 99 0
2 19 -93 0
2 31 66 0
3 -58 117 0
3 13 14 0
3 30 -49 0
3 39 -60 0
3 43 -112 0
3 55 88 0
3 82 -97 0
4 -87 -102 0
5 -89 93 0
5 -66 73 0
5 -22 -65 0
5 -20 -100 0
5 7 108 0
5 11 -78 0
5 18 -39 0
6 -70 72 0
6 -54 106 0
6 -43 -50 0
6 -41 68 0
6 -26 66 0
6 12 91 0
6 45 -85 0
7 -108 113 0
7 -11 48 0
7 32 -49 0
8 -63 -113 0
8 -35 -115 0
8 -35 -60 0
8 -14 -88 0
9 -89 -92 0
9 55 102 0
9 90 107 0
9 107 -116 0
10 -62 100 0
10 -39 -96 0
10 14 41 0
10 26 -120 0
10 41 -57 0
10 50 88 0
11 -84 -86 0
11 -13 58 0
11 42 70 0
11 47 70 0
11 74 -111 0
11 75 -107 0
12 -57 -76 0
12 -28 47 0
12 46 120 0
12 103 -104 0
13 17 -101 0
13 25 -105 0
13 36 -54 0
13 86 -103 0
14 -72 83 0
14 -26 -42 0
14 18 -68 0
14 21 46 0
15 -63 -114 0
15 -53 118 0
16 -47 -100 0
16 -24 119 0
16 27 54 0
16 59 92 0
17 22 118 0
17 46 -70 0
18 -56 -100 0
18 58 80 0
18 74 -88 0
18 77 97 0
19 -44 87 0
19 -43 95 0
19 43 -75 0
20 106 112 0
21 -103 106 0
21 32 55 0
21 39 -64 0
22 -64 86 0
22 -35 75 0
22 32 100 0
22 87 -111 0
23 -88 99 0
23 57 -86 0
24 -36 -40 0
24 52 -81 0
24 74 95 0
24 89 -90 0
24 109 -114 0
25 -84 -118 0
25 -54 93 0
25 30 67 0
25 47 -119 0
26 -77 -111 0
26 -37 113 0
26 49 -52 0
27 -66 99 0
27 32 74 0
28 -87 -107 0
28 -39 -94 0
28 -30 88 0
29 -85 119 0
29 -73 101 0
30 -101 -118 0
30 -70 -73 0
30 -53 -111 0
30 -50 -88 0
30 -37 68 0
31 65 -70 0
32 -39 -63 0
32 40 47 0
32 44 115 0
33 -79 -111 0
33 -65 -101 0
33 -61 -78 0
33 -53 79 0
33 91 98 0
33 105 -111 0
34 -50 -81 0
34 -49 119 0
34 -44 -61 0
35 -96 -105 0
35 -84 -95 0
35 -51 -83 0
35 114 -115 0
36 -104 116 0
36 40 -108 0
37 -84 109 0
37 -75 95 0
37 81 -109 0
38 -86 -90 0
38 68 -74 0
38 68 117 0
39 -64 -101 0
39 -47 -120 0
39 94 114 0
40 -56 117 0
41 -106 108 0
41 -81 119 0
41 95 97 0
42 -80 -85 0
42 -63 105 0
42 -45 100 0
43 90 93 0
44 -58 96 0
44 50 101 0
44 63 -93 0
44 79 -112 0
45 -90 96 0
45 -89 94 0
45 -78 86 0
46 -60 102 0
47 -72 119 0
47 77 113 0
48 60 -100 0
50 59 -69 0
51 62 -90 0
52 62 -104 0
52 65 -84 0
53 -83 -97 0
53 -72 -115 0
54 59 -107 0
54 86 -120 0
56 59 -89 0
57 93 -105 0
59 90 105 0
60 74 106 0
60 109 -110 0
60 110 -118 0
64 -66 87 0
64 111 -114 0
65 -78 -79 0
67 -101 -117 0
68 74 85 0
69 -98 113 0
69 -79 112 0
71 -106 -120 0
71 -77 -98 0
71 93 116 0
73 83 -95 0
74 -96 -107 0
74 76 -101 0
75 -80 105 0
75 92 -105 0
76 103 -119 0
78 -88 105 0
79 80 -93 0
82 -93 100 0
82 83 -114 0
86 94 114 0
89 107 -111 0
91 111 114 0
106 -111 -119 0
