p cnf 30 128
-25 -26 -27 0
-20 22 26 0
-17 -26 29 0
-17 19 21 0
-16 17 -18 0
-15 -23 -26 0
-15 -21 22 0
-14 -25 -30 0
-14 -25 -27 0
-14 -23 24 0
-14 16 21 0
-13 -21 30 0
-13 14 26 0
-11 -23 29 0
-11 -14 18 0
-11 14 -22 0
-11 26 29 0
-10 -25 29 0
-9 -16 30 0
-9 11 17 0
-9 15 27 0
-9 17 26 0
-8 -20 29 0
-8 -14 -22 0
-8 16 24 0
-7 -15 -17 0
-7 -15 17 0
-7 -15 21 0
-7 8 10 0
-7 22 26 0
-6 7 -18 0
-6 9 20 0
-6 9 28 0
-6 14 18 0
-6 19 30 0
-6 21 29 0
-5 -17 18 0
-5 -12 26 0
-5 -8 -28 0
-5 8 10 0
-5 17 22 0
-4 -17 -18 0
-4 -5 15 0
-4 10 -14 0
-4 11 -22 0
-3 -6 -10 0
-3 5 -28 0
-3 26 27 0
-2 -25 30 0
-2 -14 -25 0
-2 -10 25 0
-2 -8 -18 0
-2 -3 25 0
-2 3 9 0
-2 14 25 0
-2 15 20 0
-2 18 23 0
-1 -16 -22 0
-1 -15 -22 0
-1 -13 17 0
-1 -4 15 0
-1 3 -11 0
-1 4 -24 0
-1 7 -30 0
-1 9 14 0
-1 11 23 0
-1 17 29 0
1 -18 -23 0
1 -13 -18 0
1 -8 -22 0
1 2 5 0
1 5 -23 0
1 7 -13 0
1 11 29 0
1 15 -29 0
1 19 -30 0
2 -22 26 0
2 4 27 0
2 13 21 0
2 16 -19 0
3 -12 19 0
3 -12 20 0
3 -5 9 0
3 6 29 0
3 7 -20 0
3 11 -29 0
3 12 -21 0
3 21 22 0
3 22 -28 0
4 8 16 0
4 10 -26 0
4 10 -17 0
4 16 27 0
4 18 -20 0
4 19 23 0
5 -17 22 0
6 22 23 0
6 28 -29 0
7 -11 -12 0
8 -23 -25 0
8 -16 -30 0
8 14 -20 0
8 16 17 0
8 17 26 0
8 21 -30 0
9 -20 23 0
9 10 -21 0
9 11 -21 0
10 13 25 0
10 14 -25 0
11 -15 16 0
11 -13 -18 0
12 -21 -28 0
12 -19 29 0
12 27 -29 0
13 -16 22 0
13 15 -18 0
13 15 22 0
13 22 23 0
13 25 -27 0
15 -23 -27 0
15 20 23 0
16 -17 19 0
17 -18 -27 0
18 -20 -25 0
19 20 -22 0
21 26 27 0
22 23 27 0
