p cnf 100 425
-88 -96 -97 0
-87 89 90 0
-85 87 -97 0
-82 86 100 0
-80 -85 -97 0
-79 -82 84 0
-78 -86 -96 0
-77 -88 95 0
-73 91 95 0
-72 77 -100 0
-67 -68 71 0
-66 -81 91 0
-66 74 96 0
-60 -81 98 0
-60 -69 97 0
-60 66 -84 0
-59 -78 -80 0
-57 -62 -74 0
-57 65 81 0
-56 80 81 0
-55 58 -65 0
-55 59 -87 0
-53 -54 65 0
-53 89 -100 0
-52 -65 -88 0
-52 -61 92 0
-51 -74 96 0
-51 75 76 0
-50 -56 -95 0
-47 -76 -81 0
-45 -62 70 0
-44 -45 -85 0
-43 -54 -92 0
-43 47 79 0
-43 50 85 0
-43 52 60 0
-42 47 -79 0
-40 -69 92 0
-40 -60 87 0
-40 -55 59 0
-40 59 -74 0
-39 43 -100 0
-38 -76 86 0
-38 -55 59 0
-38 52 63 0
-38 79 99 0
-36 -76 90 0
-36 -51 -95 0
-35 -62 87 0
-35 -51 53 0
-35 -46 -76 0
-35 -37 98 0
-35 64 72 0
-34 43 88 0
-33 -69 -72 0
-33 -62 -97 0
-33 -49 50 0
-33 -43 -84 0
-33 44 -75 0
-33 63 94 0
-32 -82 -85 0
-32 -72 -89 0
-32 -49 62 0
-32 -44 53 0
-32 -41 78 0
-31 -39 -98 0
-31 34 -75 0
-31 80 81 0
-29 -52 83 0
-29 35 41 0
-28 -50 -100 0
-28 -43 77 0
-28 63 99 0
-27 -63 -88 0
-27 -62 87 0
-27 -57 66 0
-27 -41 93 0
-26 51 90 0
-26 70 87 0
-26 72 -82 0
-25 -55 -91 0
-25 69 -85 0
-24 -85 -87 0
-24 -71 -84 0
-24 -27 63 0
-24 29 31 0
-24 95 -96 0
-23 -85 -96 0
-23 -61 -83 0
-23 -28 -75 0
-23 30 42 0
-22 -74 75 0
-22 -31 -69 0
-22 -24 -83 0
-22 54 70 0
-21 -60 85 0
-21 -37 38 0
-21 -33 -46 0
-21 -23 72 0
-21 24 -69 0
-21 88 97 0
-20 -23 71 0
-19 -48 77 0
-18 -81 82 0
-18 -77 -78 0
-18 -65 90 0
-18 -24 90 0
-18 -20 58 0
-18 22 97 0
-18 41 -76 0
-18 49 -60 0
-17 -73 91 0
-17 -44 75 0
-17 -33 -84 0
-17 87 91 0
-16 -90 96 0
-16 -49 90 0
-16 -20 95 0
-16 80 100 0
-15 -92 -99 0
-15 -75 79 0
-15 -69 88 0
-15 -68 84 0
-15 -33 -90 0
-15 33 51 0
-15 41 60 0
-15 52 -63 0
-14 -57 81 0
-14 -39 99 0
-14 -18 23 0
-13 -79 -80 0
-13 -47 96 0
-13 -40 -44 0
-13 -23 88 0
-13 -16 59 0
-13 -14 -35 0
-12 -40 64 0
-12 -17 39 0
-12 13 17 0
-12 26 74 0
-11 -47 90 0
-11 -31 -54 0
-11 -23 -65 0
-11 -22 98 0
-11 52 57 0
-10 -40 -78 0
-10 -34 62 0
-10 -32 99 0
-10 -25 74 0
-10 53 59 0
-9 -33 55 0
-9 -32 -65 0
-9 -26 88 0
-9 14 -71 0
-9 41 -72 0
-9 56 97 0
-9 58 -85 0
-8 -60 61 0
-8 -25 -61 0
-8 -25 34 0
-8 18 71 0
-8 43 -55 0
-7 -16 45 0
-7 -10 -47 0
-7 29 59 0
-7 51 -64 0
-7 58 59 0
-7 59 -80 0
-6 -76 88 0
-6 -34 -100 0
-6 -25 -83 0
-6 -7 54 0
-6 18 63 0
-6 28 -80 0
-6 28 -49 0
-6 30 -46 0
-6 43 57 0
-6 45 81 0
-5 -48 -76 0
-5 22 -94 0
-5 34 49 0
-5 42 66 0
-5 47 59 0
-5 67 -95 0
-4 -70 84 0
-4 -52 -97 0
-4 -44 93 0
-4 -43 58 0
-4 -28 -81 0
-4 -26 -65 0
-4 21 34 0
-4 67 83 0
-3 -68 72 0
-3 33 -37 0
-3 64 -73 0
-2 -77 -94 0
-2 -4 23 0
-2 10 -86 0
-2 14 32 0
-2 19 29 0
-2 27 -34 0
-2 37 -49 0
-2 66 -94 0
-1 -7 56 0
-1 14 35 0
-1 46 -98 0
1 -82 89 0
1 -32 -64 0
1 -28 -98 0
1 -14 53 0
1 17 -90 0
1 28 52 0
1 34 -68 0
1 52 70 0
1 54 90 0
1 69 89 0
2 -67 85 0
2 -40 43 0
2 -19 -41 0
2 -13 -61 0
2 -12 69 0
2 6 -11 0
2 6 11 0
2 9 42 0
2 22 -33 0
3 -54 57 0
3 -46 -78 0
3 -24 -28 0
3 -18 -65 0
3 35 83 0
4 -12 44 0
4 -8 70 0
4 35 42 0
5 -67 89 0
5 -36 90 0
5 -12 -93 0
5 28 90 0
5 37 -61 0
6 -29 -100 0
6 14 -76 0
6 31 -91 0
6 46 -100 0
6 61 -79 0
7 -76 -100 0
7 -16 -46 0
7 24 27 0
7 52 -95 0
7 56 100 0
8 -72 78 0
8 -26 44 0
8 -10 -48 0
8 10 -95 0
8 17 -87 0
8 32 35 0
9 -19 51 0
9 13 65 0
9 37 -98 0
9 37 -60 0
9 41 -75 0
9 52 -78 0
10 -28 -45 0
10 -24 29 0
10 22 -54 0
10 28 51 0
10 93 -98 0
11 -46 -79 0
11 -41 52 0
11 59 -65 0
12 -40 73 0
12 -37 54 0
12 -13 -46 0
12 16 -48 0
12 33 -44 0
12 50 75 0
13 -68 -81 0
13 -28 64 0
13 23 -85 0
13 24 79 0
13 33 57 0
13 37 42 0
13 90 -95 0
14 -33 47 0
14 -20 -43 0
14 17 -52 0
14 26 55 0
14 83 -91 0
15 -32 45 0
15 -23 -92 0
15 -18 52 0
15 24 100 0
15 36 -39 0
15 36 92 0
15 45 46 0
16 -32 -47 0
16 -17 40 0
16 30 -41 0
16 80 81 0
16 86 -89 0
17 -25 -63 0
17 -22 67 0
17 41 77 0
17 53 63 0
18 -79 -86 0
18 -70 83 0
18 -31 53 0
18 81 84 0
18 82 88 0
19 -58 74 0
19 39 -81 0
19 48 -51 0
19 52 -58 0
19 85 97 0
20 55 100 0
21 -53 -97 0
21 38 88 0
21 40 51 0
22 -56 -67 0
22 -40 55 0
22 27 -73 0
22 33 -96 0
22 49 -51 0
22 51 -78 0
23 -48 -71 0
23 40 -83 0
24 -47 89 0
24 49 -84 0
24 54 82 0
24 63 -76 0
25 -56 -73 0
25 27 60 0
25 39 95 0
25 46 48 0
25 57 -72 0
25 61 -62 0
26 -42 72 0
26 53 67 0
26 74 -83 0
27 -47 -90 0
27 48 -92 0
27 48 100 0
27 71 78 0
28 -42 81 0
28 -35 -38 0
29 -53 79 0
29 64 -80 0
29 69 97 0
30 -57 59 0
30 73 -94 0
31 -43 -45 0
31 55 -70 0
31 72 -83 0
32 -88 -96 0
32 -70 84 0
32 -56 -91 0
32 37 89 0
32 57 83 0
33 -52 -61 0
33 -48 -86 0
33 -37 53 0
34 -82 99 0
34 -37 -64 0
35 -67 77 0
35 -52 -61 0
35 49 -100 0
35 53 90 0
36 -52 53 0
36 -51 76 0
36 65 67 0
37 -48 -100 0
37 51 -92 0
37 56 65 0
37 72 -76 0
38 -74 98 0
38 -72 73 0
38 -70 -89 0
38 -69 83 0
38 -57 -70 0
38 86 -98 0
39 -84 -91 0
39 -55 81 0
39 -52 -85 0
39 46 69 0
39 61 77 0
41 -56 -81 0
42 48 -59 0
43 60 91 0
44 -62 72 0
44 -47 88 0
45 -48 -92 0
45 -47 100 0
45 55 -78 0
45 67 -89 0
45 84 -92 0
45 85 94 0
45 87 89 0
46 55 -99 0
46 86 -97 0
47 -68 -84 0
47 48 -84 0
47 65 -84 0
47 86 -97 0
49 55 61 0
49 71 80 0
49 76 -95 0
53 -65 -77 0
53 58 70 0
54 58 -62 0
55 -73 -81 0
55 59 65 0
55 59 82 0
56 63 -90 0
57 -80 97 0
57 -63 -94 0
58 -85 98 0
59 -86 -93 0
60 65 66 0
60 72 93 0
64 -75 96 0
69 75 96 0
69 91 -93 0
72 73 -79 0
73 -80 98 0
76 82 83 0
82 87 -90 0
88 97 99 0
