p cnf 100 360
-87 -95 -97 0
-85 -91 -93 0
-85 89 -93 0
-78 -89 -95 0
-78 84 -95 0
-72 -73 75 0
-69 82 97 0
-68 88 -99 0
-66 67 -86 0
-63 -83 -87 0
-61 -93 -100 0
-60 -69 -79 0
-60 68 -93 0
-59 67 -83 0
-58 71 76 0
-58 93 96 0
-56 -67 98 0
-56 57 59 0
-54 75 82 0
-54 80 94 0
-54 91 95 0
-53 -74 76 0
-53 -59 -79 0
-53 81 91 0
-52 -55 -92 0
-49 -81 93 0
-49 -77 -99 0
-47 -60 -77 0
-47 77 94 0
-46 54 60 0
-44 -62 97 0
-44 -53 -68 0
-43 -77 89 0
-43 -53 -87 0
-42 54 -100 0
-41 -75 98 0
-41 44 66 0
-40 41 -66 0
-39 -78 82 0
-38 -69 -75 0
-37 -48 71 0
-37 67 -92 0
-36 -80 -100 0
-36 -76 92 0
-36 -59 77 0
-36 41 -44 0
-35 44 70 0
-35 59 -78 0
-33 -37 -67 0
-33 53 -86 0
-33 56 93 0
-32 -65 92 0
-32 -45 90 0
-32 -40 45 0
-32 40 -98 0
-31 -60 -98 0
-31 82 98 0
-30 -70 74 0
-30 -64 -90 0
-30 62 97 0
-28 -70 -80 0
-28 -68 80 0
-28 -36 96 0
-28 -33 78 0
-28 -30 98 0
-28 33 93 0
-27 -48 92 0
-27 31 -71 0
-27 35 51 0
-26 -30 -55 0
-26 57 60 0
-26 58 65 0
-25 -74 -98 0
-25 -73 87 0
-25 -72 90 0
-25 -27 -59 0
-25 26 -95 0
-25 32 38 0
-25 46 78 0
-24 -26 -82 0
-23 -32 51 0
-23 -32 64 0
-23 27 -60 0
-23 42 -65 0
-23 49 -51 0
-22 -44 -48 0
-22 43 -73 0
-22 46 -70 0
-22 54 -89 0
-21 -56 -67 0
-21 25 -28 0
-21 81 -96 0
-20 -44 -63 0
-20 -26 -78 0
-20 -23 -48 0
-20 -21 54 0
-20 24 -43 0
-20 28 68 0
-20 43 -89 0
-19 -73 99 0
-19 -71 -76 0
-19 20 -53 0
-19 27 -84 0
-18 -73 92 0
-18 -23 41 0
-18 85 -90 0
-17 -49 -89 0
-17 -44 89 0
-17 -41 94 0
-17 -38 48 0
-16 -55 89 0
-16 -40 -74 0
-16 -24 -57 0
-15 -30 -46 0
-15 -16 70 0
-15 83 100 0
-14 -43 -68 0
-14 19 24 0
-14 22 -58 0
-13 -51 -77 0
-13 20 -82 0
-13 31 39 0
-13 39 43 0
-12 -30 -39 0
-12 16 -69 0
-12 24 -32 0
-12 27 68 0
-11 -74 -76 0
-11 -49 -83 0
-11 -27 -50 0
-11 37 -76 0
-11 41 -56 0
-11 43 -96 0
-11 91 98 0
-10 -54 -61 0
-10 -49 50 0
-10 -47 -86 0
-10 -29 -50 0
-10 12 58 0
-10 13 75 0
-10 14 -44 0
-9 -47 -63 0
-9 -21 -53 0
-9 48 -74 0
-9 56 -57 0
-9 66 85 0
-8 -29 -50 0
-8 -14 -98 0
-8 24 -43 0
-8 30 56 0
-8 38 89 0
-8 40 51 0
-8 70 71 0
-7 -19 -21 0
-7 48 -73 0
-6 -95 97 0
-6 -74 80 0
-6 -24 -47 0
-5 -52 -67 0
-5 -32 -97 0
-5 11 64 0
-5 19 42 0
-5 35 -86 0
-5 40 91 0
-5 42 54 0
-5 47 72 0
-4 -77 -90 0
-4 -28 -64 0
-4 -16 44 0
-4 -10 -49 0
-4 23 -80 0
-3 -92 96 0
-3 -62 -81 0
-3 -38 -50 0
-3 -28 -94 0
-3 -22 100 0
-3 6 -21 0
-3 16 33 0
-3 63 -75 0
-2 -47 90 0
-2 13 -79 0
-2 36 -86 0
-1 -66 -76 0
-1 -26 59 0
-1 -25 80 0
-1 -6 80 0
-1 -2 72 0
-1 19 -83 0
-1 21 65 0
-1 48 69 0
1 -48 -75 0
1 -46 52 0
1 -31 56 0
1 -14 -56 0
1 -13 -63 0
1 40 -95 0
2 -52 -58 0
2 19 82 0
3 -91 94 0
3 -53 88 0
3 -22 51 0
3 -20 -91 0
3 -5 71 0
3 17 20 0
3 22 52 0
3 65 -100 0
3 66 79 0
4 -48 87 0
4 -32 33 0
4 -11 37 0
4 38 60 0
4 44 -97 0
4 67 83 0
5 -10 -26 0
5 61 -97 0
6 -94 100 0
6 -49 73 0
6 -33 -92 0
6 16 -85 0
6 18 -99 0
6 18 87 0
7 -49 -81 0
7 -13 94 0
7 11 -82 0
7 16 38 0
7 44 -77 0
7 70 -94 0
7 70 91 0
8 -63 75 0
8 -9 -69 0
9 -25 -44 0
9 11 66 0
9 20 -61 0
9 32 -70 0
9 41 -91 0
10 22 -87 0
10 26 44 0
11 -36 -60 0
11 -27 -87 0
11 33 -77 0
11 63 95 0
12 -57 -87 0
12 -34 99 0
13 -49 -54 0
13 -31 -49 0
13 -18 95 0
13 -14 -51 0
13 24 -33 0
13 38 -53 0
13 46 63 0
14 -39 -62 0
14 -37 89 0
14 33 79 0
14 43 59 0
14 56 91 0
14 75 86 0
15 -23 -97 0
15 72 -84 0
16 -76 -79 0
16 -65 87 0
16 -35 -92 0
16 -31 80 0
16 26 75 0
16 36 -81 0
16 70 -72 0
16 73 82 0
17 -66 -75 0
17 33 -48 0
18 -23 24 0
18 -19 -64 0
19 -43 -99 0
19 -22 56 0
19 64 -74 0
19 67 69 0
20 -68 -80 0
20 -57 76 0
20 34 -100 0
21 -38 -60 0
22 30 68 0
23 -70 71 0
23 -26 45 0
23 26 43 0
23 29 -95 0
23 58 -99 0
24 -94 99 0
24 -50 -81 0
25 -85 89 0
25 -67 90 0
25 -40 -45 0
25 -40 80 0
25 28 34 0
25 34 65 0
25 65 -75 0
26 -73 -95 0
26 38 70 0
27 -72 87 0
27 -35 54 0
27 47 -66 0
28 -55 82 0
28 48 -68 0
30 -43 68 0
30 61 93 0
31 -51 69 0
31 33 85 0
31 63 86 0
32 -94 -99 0
32 -63 -92 0
33 39 -64 0
33 48 54 0
34 -64 89 0
34 77 95 0
35 64 -73 0
37 -47 88 0
37 47 91 0
37 49 90 0
37 55 -57 0
37 56 -96 0
37 56 78 0
38 45 93 0
39 -60 -89 0
39 -56 -60 0
39 45 -76 0
40 71 75 0
41 -88 94 0
41 92 -93 0
42 -65 -80 0
42 56 96 0
42 58 -100 0
42 59 -85 0
42 69 -86 0
43 -47 -50 0
43 81 -95 0
44 79 93 0
46 -86 -90 0
46 -77 89 0
46 -67 -81 0
47 -77 96 0
47 50 -88 0
47 52 61 0
48 -61 -87 0
48 52 99 0
48 59 -80 0
49 -78 91 0
49 -77 -91 0
50 -89 -94 0
53 -75 96 0
53 75 -81 0
54 -61 -77 0
57 -85 98 0
58 78 80 0
60 -65 -77 0
60 -62 -73 0
61 88 -93 0
62 71 -96 0
62 71 81 0
64 -84 100 0
65 -76 79 0
67 87 -95 0
68 -77 -79 0
84 96 97 0
