p cnf 80 340
-66 -67 -68 0
-65 67 -73 0
-64 73 -76 0
-63 73 -76 0
-60 61 -75 0
-59 -64 69 0
-56 -61 77 0
-54 59 65 0
-54 69 -77 0
-51 -59 -77 0
-51 79 -80 0
-49 -54 -63 0
-48 -49 -52 0
-48 52 -56 0
-47 48 -59 0
-44 -77 -80 0
-43 -75 -78 0
-43 -56 -72 0
-43 47 -72 0
-42 43 56 0
-41 -70 80 0
-41 -68 -73 0
-39 40 61 0
-38 -57 -65 0
-38 48 78 0
-37 -40 72 0
-37 64 76 0
-36 -51 -60 0
-36 54 80 0
-35 -51 -77 0
-33 -60 66 0
-33 58 65 0
-33 61 -77 0
-32 -47 -67 0
-32 46 52 0
-31 -63 -65 0
-31 -46 -71 0
-30 -49 77 0
-30 -39 59 0
-30 -31 -79 0
-30 50 -78 0
-30 63 -80 0
-29 39 -51 0
-28 -48 -80 0
-28 -35 -69 0
-27 -29 40 0
-27 28 -67 0
-25 -62 71 0
-25 -52 73 0
-25 33 -54 0
-25 34 -51 0
-25 41 58 0
-25 44 80 0
-24 -42 -51 0
-24 -36 -48 0
-24 -29 33 0
-24 -28 -77 0
-24 38 62 0
-24 52 -60 0
-23 -47 -74 0
-23 -44 72 0
-23 -38 -39 0
-23 -38 51 0
-23 -30 -54 0
-23 -27 80 0
-23 42 44 0
-22 46 -53 0
-22 53 -71 0
-21 -60 70 0
-21 -52 -80 0
-21 33 -39 0
-21 53 -58 0
-20 -37 -61 0
-20 -30 72 0
-19 -39 46 0
-19 28 -66 0
-19 38 43 0
-18 -37 -78 0
-18 21 -66 0
-16 -71 -77 0
-16 -42 -80 0
-16 21 30 0
-16 28 37 0
-16 39 -77 0
-16 57 64 0
-15 -59 62 0
-15 -51 -65 0
-15 -32 56 0
-15 -26 42 0
-15 45 61 0
-15 68 -76 0
-14 -35 51 0
-14 -21 33 0
-14 -15 71 0
-14 28 40 0
-14 44 79 0
-14 45 -50 0
-13 14 79 0
-12 36 59 0
-12 45 -63 0
-11 -57 -65 0
-11 -50 75 0
-11 -23 43 0
-11 14 34 0
-11 34 36 0
-11 53 63 0
-11 67 71 0
-10 -66 -80 0
-10 -33 -78 0
-10 15 69 0
-9 -69 73 0
-9 -52 -80 0
-9 -23 -34 0
-9 -21 42 0
-9 19 49 0
-9 35 -44 0
-9 38 -43 0
-9 48 -68 0
-9 52 -72 0
-9 64 67 0
-8 -41 72 0
-8 -13 14 0
-7 -48 77 0
-7 -23 -54 0
-7 -23 63 0
-7 17 -37 0
-7 33 -66 0
-7 63 67 0
-6 -44 -71 0
-6 -19 32 0
-6 -13 -22 0
-6 -9 72 0
-6 22 -69 0
-5 -18 -49 0
-5 20 49 0
-5 45 53 0
-4 -57 -63 0
-4 -33 -49 0
-4 7 -61 0
-4 12 17 0
-4 22 37 0
-3 -46 60 0
-3 -42 -50 0
-3 -14 68 0
-3 -10 -56 0
-3 5 80 0
-3 11 -60 0
-3 39 50 0
-2 -40 64 0
-2 -10 69 0
-2 -9 12 0
-2 -7 -70 0
-2 -4 -39 0
-2 6 38 0
-2 37 68 0
-2 50 66 0
-1 -46 -74 0
-1 3 -19 0
-1 10 26 0
-1 29 45 0
-1 53 64 0
-1 62 65 0
1 -18 28 0
1 -15 -25 0
1 -4 14 0
1 6 -79 0
1 43 -58 0
1 44 65 0
2 -55 -61 0
2 -32 -44 0
2 -10 61 0
2 6 35 0
2 14 -56 0
2 23 -48 0
2 43 77 0
3 -39 -64 0
3 -24 61 0
3 -20 47 0
3 -15 -49 0
3 4 -8 0
4 -43 60 0
4 -29 73 0
4 -15 55 0
4 -5 79 0
4 19 75 0
4 32 78 0
5 -28 56 0
5 -18 -55 0
5 -9 -68 0
5 21 -55 0
5 34 -69 0
6 -34 -51 0
6 14 67 0
6 21 58 0
7 -37 58 0
7 -12 59 0
7 28 41 0
7 32 -48 0
7 48 -70 0
8 -54 61 0
8 -32 56 0
8 20 25 0
8 61 75 0
9 -46 73 0
9 -24 -75 0
9 -11 24 0
10 -51 -57 0
10 -50 -60 0
10 30 50 0
10 35 77 0
10 46 -50 0
10 50 57 0
10 69 71 0
11 -55 -70 0
11 -26 55 0
12 -58 60 0
12 -56 -69 0
12 -55 -70 0
12 -40 -49 0
12 -17 -35 0
12 -16 -53 0
12 -14 45 0
12 23 -76 0
12 31 50 0
13 -29 73 0
13 -20 48 0
13 -15 77 0
13 29 -80 0
13 34 36 0
13 57 -66 0
13 60 74 0
14 48 -56 0
15 -53 63 0
16 -72 75 0
16 -36 -80 0
16 -29 42 0
16 49 -52 0
17 -63 -73 0
17 -36 -64 0
17 -35 -49 0
17 -33 -34 0
17 -28 -61 0
17 26 73 0
17 60 -61 0
17 62 63 0
17 67 -73 0
18 -65 69 0
18 -40 -59 0
18 -38 -76 0
18 -22 -49 0
18 50 -76 0
18 52 -60 0
19 -64 76 0
19 -44 60 0
19 -40 46 0
19 -34 54 0
19 -32 39 0
19 -22 75 0
19 69 -79 0
20 -34 -49 0
20 -24 42 0
20 31 57 0
20 33 47 0
20 43 -80 0
20 45 -73 0
20 45 59 0
21 -50 59 0
21 26 -27 0
21 30 -70 0
22 -38 57 0
22 28 59 0
22 49 -70 0
23 -52 -69 0
23 -35 -46 0
23 29 -44 0
23 41 -66 0
24 -55 -62 0
24 -42 -66 0
24 -32 -56 0
24 -28 -46 0
24 26 -28 0
24 56 72 0
25 33 34 0
25 37 -69 0
25 61 -68 0
26 -52 -58 0
26 -49 -63 0
26 -44 69 0
26 -30 -31 0
26 56 -60 0
27 -30 -60 0
28 -37 59 0
28 -34 74 0
28 -29 -53 0
28 31 -68 0
29 -48 -65 0
29 49 62 0
29 64 67 0
30 -44 -47 0
30 -44 69 0
30 41 -48 0
31 -40 -72 0
33 -60 -70 0
33 47 79 0
34 -41 44 0
35 -64 -68 0
36 -48 77 0
36 52 -56 0
37 50 -64 0
39 -55 76 0
39 -49 -59 0
39 55 -61 0
39 71 -77 0
40 -45 -60 0
40 60 68 0
41 48 -76 0
41 50 -56 0
41 56 58 0
42 46 79 0
43 47 -79 0
44 -63 -66 0
44 -60 76 0
44 69 -76 0
45 53 64 0
45 54 80 0
46 50 -75 0
46 50 -61 0
48 -63 68 0
48 50 70 0
48 72 -75 0
51 -53 79 0
53 -66 75 0
53 60 75 0
56 -76 77 0
56 59 -60 0
58 71 78 0
62 65 -67 0
69 -73 80 0
70 -76 79 0
70 -74 80 0
