p cnf 55 234
-45 -52 -53 0
-43 44 49 0
-41 51 53 0
-39 -48 49 0
-37 48 49 0
-31 -42 45 0
-29 -30 51 0
-29 48 50 0
-28 -34 -37 0
-28 36 -46 0
-27 39 -50 0
-26 27 -30 0
-26 45 51 0
-25 -32 53 0
-23 24 27 0
-23 33 39 0
-23 47 -50 0
-22 -28 43 0
-22 48 -53 0
-21 -32 44 0
-21 46 55 0
-20 -28 -46 0
-20 25 44 0
-19 -46 49 0
-19 23 26 0
-18 -34 45 0
-18 -20 -51 0
-18 20 -37 0
-18 23 -36 0
-18 27 54 0
-18 46 50 0
-17 -31 43 0
-17 -27 -43 0
-17 -27 37 0
-16 -32 -40 0
-16 -30 32 0
-16 -19 51 0
-16 19 -38 0
-16 19 28 0
-16 20 38 0
-15 -23 -45 0
-15 -20 -37 0
-15 20 25 0
-15 22 45 0
-14 -25 33 0
-14 -16 23 0
-14 23 -39 0
-14 23 -30 0
-14 26 -32 0
-14 31 37 0
-14 33 43 0
-13 -23 -55 0
-13 -21 55 0
-13 50 55 0
-12 18 -48 0
-12 40 51 0
-11 -40 54 0
-11 -37 -44 0
-11 -29 55 0
-11 29 -34 0
-10 -29 -54 0
-10 26 53 0
-10 27 -52 0
-9 -40 50 0
-9 -40 53 0
-9 -23 -34 0
-9 -11 19 0
-9 12 -32 0
-8 -50 -52 0
-8 -23 44 0
-8 -19 -38 0
-8 17 -47 0
-7 -40 -54 0
-7 21 49 0
-7 22 51 0
-7 24 -30 0
-7 37 -38 0
-7 41 -43 0
-6 -35 49 0
-6 -13 14 0
-6 -8 -53 0
-6 -8 -17 0
-6 41 51 0
-5 -39 -52 0
-5 -14 -39 0
-5 19 -55 0
-5 20 -52 0
-5 40 45 0
-4 -11 23 0
-4 -6 20 0
-4 -6 33 0
-4 33 -49 0
-4 39 -50 0
-4 48 -54 0
-3 -42 -51 0
-3 4 40 0
-3 38 -39 0
-2 -13 -28 0
-2 -11 -36 0
-2 40 54 0
-1 -13 35 0
-1 -4 25 0
-1 -2 16 0
-1 5 45 0
-1 7 42 0
-1 15 -36 0
-1 26 -32 0
-1 30 50 0
-1 51 -53 0
1 -46 52 0
1 -36 51 0
1 -12 -35 0
1 5 -7 0
1 6 35 0
1 10 -40 0
1 10 41 0
1 15 -48 0
1 38 -39 0
2 -30 40 0
2 -27 33 0
2 -7 13 0
2 6 21 0
2 7 49 0
2 9 -48 0
2 10 -52 0
2 10 -29 0
2 12 31 0
2 20 27 0
2 21 -38 0
2 23 -33 0
2 27 48 0
2 30 36 0
3 -20 -37 0
3 -18 31 0
3 -14 -50 0
3 -10 -13 0
3 -6 -35 0
3 15 -28 0
3 38 -51 0
3 42 49 0
3 48 -54 0
4 -41 47 0
4 -29 -54 0
4 31 52 0
4 33 -35 0
5 -11 -37 0
5 -8 50 0
5 6 7 0
5 27 53 0
6 -33 -39 0
6 -9 -11 0
6 10 27 0
6 13 -30 0
6 25 -38 0
7 17 21 0
7 17 37 0
8 -34 -42 0
8 -31 40 0
8 15 32 0
8 25 -44 0
8 27 -32 0
8 36 -42 0
9 -26 -28 0
9 -19 30 0
9 -18 26 0
9 11 -26 0
9 18 -52 0
10 -31 55 0
10 -21 -53 0
10 28 52 0
10 50 52 0
11 -24 -51 0
11 -22 52 0
11 27 32 0
12 -39 44 0
12 -14 49 0
12 14 16 0
12 23 45 0
13 38 41 0
14 -28 41 0
14 -27 -35 0
14 47 52 0
15 -34 -36 0
15 -24 25 0
16 -39 45 0
16 -27 -28 0
16 26 -42 0
16 52 -53 0
17 -35 41 0
17 -27 -42 0
19 -25 -32 0
19 -20 -29 0
19 34 -35 0
19 44 -51 0
20 -47 -54 0
20 -32 -34 0
20 -25 29 0
20 27 -36 0
20 31 45 0
21 -37 -52 0
21 -31 -45 0
21 -24 44 0
21 -22 28 0
21 26 37 0
21 36 -41 0
22 26 27 0
22 43 44 0
23 -36 -53 0
23 -29 -37 0
23 -25 52 0
23 32 42 0
24 -29 -47 0
25 -31 -37 0
26 -40 -47 0
26 -33 37 0
26 -28 30 0
27 -43 52 0
27 33 -46 0
28 -39 -50 0
28 39 43 0
30 -52 53 0
30 -35 -55 0
30 -35 -46 0
30 -32 -40 0
32 46 -55 0
33 42 43 0
33 48 -49 0
34 -49 50 0
34 51 -53 0
36 -42 -53 0
37 -46 -52 0
40 49 -50 0
41 46 49 0
43 50 51 0
