p cnf 120 510
-98 104 116 0
-93 -109 110 0
-92 -98 -100 0
-91 -94 95 0
-87 -93 98 0
-86 -97 119 0
-86 -93 113 0
-83 109 117 0
-82 98 -114 0
-80 89 -119 0
-79 -80 -106 0
-78 -85 87 0
-75 -76 91 0
-75 87 97 0
-74 -102 104 0
-73 -94 97 0
-73 -77 -81 0
-73 80 88 0
-73 104 -111 0
-69 -94 101 0
-69 85 -90 0
-68 -113 114 0
-68 -96 -110 0
-68 -70 -71 0
-68 75 -104 0
-68 86 -98 0
-68 93 108 0
-66 -100 -109 0
-65 -86 89 0
-65 -84 114 0
-64 -79 92 0
-63 -86 114 0
-63 -79 113 0
-63 -74 -108 0
-63 80 -82 0
-62 -63 -97 0
-61 -100 -107 0
-61 -75 84 0
-61 68 118 0
-61 76 -100 0
-60 -87 104 0
-60 -80 -120 0
-59 60 98 0
-57 -69 106 0
-57 102 -103 0
-55 -62 -95 0
-53 -72 81 0
-53 90 -107 0
-52 -77 109 0
-52 -54 90 0
-52 55 119 0
-51 -52 120 0
-51 101 109 0
-50 -111 -117 0
-49 -87 95 0
-49 69 -103 0
-49 98 112 0
-48 67 82 0
-47 60 -93 0
-47 100 -118 0
-46 -81 -93 0
-46 81 -96 0
-44 61 118 0
-44 79 84 0
-43 -62 -108 0
-43 -57 73 0
-43 -44 117 0
-43 47 -80 0
-43 73 -88 0
-42 -78 108 0
-42 -47 -90 0
-41 103 -112 0
-40 -44 69 0
-40 51 88 0
-40 53 105 0
-40 70 116 0
-39 -65 -111 0
-39 -60 -104 0
-39 -45 99 0
-39 55 -88 0
-39 80 114 0
-39 108 -120 0
-38 -111 -112 0
-38 39 75 0
-38 69 -71 0
-37 -83 97 0
-37 -70 85 0
-37 -53 -61 0
-36 -89 -103 0
-36 37 -49 0
-36 45 -50 0
-35 -82 -100 0
-35 53 78 0
-34 -47 87 0
-34 -44 88 0
-34 37 97 0
-34 39 -99 0
-34 117 -120 0
-33 72 80 0
-32 -90 -104 0
-31 40 -64 0
-30 -62 114 0
-30 43 -78 0
-30 46 90 0
-30 51 -118 0
-29 -93 109 0
-29 -48 -76 0
-29 -44 -112 0
-29 34 104 0
-28 -57 -104 0
-28 -43 71 0
-28 31 -42 0
-28 51 109 0
-28 73 102 0
-28 78 -97 0
-28 98 109 0
-27 89 -100 0
-26 65 -115 0
-25 -104 -117 0
-25 -71 -114 0
-25 -44 -92 0
-25 -26 59 0
-24 61 -64 0
-24 68 -74 0
-24 88 96 0
-24 94 -98 0
-23 -61 -63 0
-23 24 -120 0
-23 32 63 0
-23 89 105 0
-22 -33 -93 0
-21 -24 25 0
-21 51 71 0
-21 74 79 0
-20 -105 -107 0
-20 -69 112 0
-20 -51 75 0
-20 -50 -105 0
-20 -37 -52 0
-20 45 -78 0
-19 -54 75 0
-19 -48 -60 0
-19 43 116 0
-19 65 88 0
-19 68 -87 0
-18 -65 108 0
-18 -40 -63 0
-18 27 96 0
-18 46 90 0
-18 65 72 0
-17 -60 -61 0
-17 35 113 0
-17 42 -113 0
-17 61 110 0
-17 81 -87 0
-16 -36 74 0
-16 -29 -76 0
-16 115 -116 0
-15 20 75 0
-15 43 -114 0
-15 71 108 0
-15 102 120 0
-14 -106 -114 0
-14 -52 54 0
-14 25 -65 0
-14 78 -88 0
-14 81 119 0
-14 89 104 0
-13 -23 51 0
-13 15 -77 0
-13 17 27 0
-13 50 107 0
-13 77 -118 0
-13 88 97 0
-12 -58 61 0
-12 16 -103 0
-12 33 100 0
-12 34 -118 0
-12 55 -80 0
-12 66 71 0
-12 67 69 0
-11 -33 107 0
-11 29 -114 0
-11 29 74 0
-11 30 39 0
-11 55 -64 0
-11 94 -109 0
-10 -95 -110 0
-10 -61 -77 0
-10 -15 46 0
-10 38 64 0
-10 47 -86 0
-10 94 -114 0
-10 100 118 0
-9 -51 111 0
-9 -48 -70 0
-9 -31 79 0
-9 -28 -70 0
-9 37 -39 0
-8 -63 84 0
-8 -34 78 0
-8 -24 -99 0
-8 66 -116 0
-7 -68 -73 0
-7 -28 -53 0
-7 -20 102 0
-7 16 104 0
-7 31 -63 0
-7 58 -85 0
-7 63 66 0
-7 66 -108 0
-7 76 93 0
-6 -77 119 0
-6 -73 -90 0
-6 -42 -117 0
-6 -40 72 0
-6 -19 -40 0
-6 -12 34 0
-6 20 72 0
-6 25 64 0
-6 74 -85 0
-5 -72 117 0
-5 -27 -102 0
-5 -19 105 0
-5 13 -63 0
-5 30 92 0
-5 46 66 0
-4 -35 -92 0
-4 -34 36 0
-4 -27 -112 0
-4 -19 -92 0
-4 -14 119 0
-4 5 40 0
-4 12 -59 0
-4 22 -40 0
-4 32 -111 0
-4 61 97 0
-4 74 -109 0
-3 -91 113 0
-3 -55 -85 0
-3 -31 -41 0
-3 -16 -89 0
-3 12 -52 0
-3 48 -96 0
-2 -15 110 0
-2 7 -38 0
-2 13 33 0
-2 38 63 0
-2 57 110 0
1 -59 -97 0
1 -46 -100 0
1 -37 84 0
1 -23 92 0
1 -16 -20 0
1 -8 -18 0
1 34 -82 0
1 51 -91 0
2 -65 -97 0
2 -37 -95 0
2 -19 -66 0
2 -17 112 0
2 10 -36 0
2 33 86 0
2 46 114 0
2 47 -83 0
2 55 76 0
2 59 -61 0
2 74 -119 0
3 -12 69 0
3 -10 -61 0
3 57 116 0
3 73 -93 0
4 27 94 0
4 31 -98 0
4 92 108 0
5 -76 -110 0
5 -76 84 0
5 -57 97 0
5 -56 94 0
5 -43 -81 0
5 -41 -114 0
5 -35 44 0
5 29 34 0
5 72 -89 0
6 -67 86 0
6 -66 -93 0
6 -60 104 0
6 -32 101 0
6 -18 -92 0
6 10 22 0
6 18 33 0
6 42 -74 0
6 52 110 0
6 105 106 0
7 -93 -104 0
7 -49 109 0
7 -31 42 0
7 -25 63 0
7 -24 -50 0
7 15 -88 0
7 33 -53 0
7 60 -67 0
8 -101 118 0
8 -43 -59 0
8 -29 59 0
8 27 -72 0
8 61 -73 0
9 -57 86 0
9 -22 -33 0
9 15 23 0
9 58 -80 0
9 59 -109 0
10 -109 113 0
10 -75 76 0
10 -62 120 0
10 20 46 0
10 50 74 0
10 75 105 0
11 -65 -90 0
11 -27 60 0
11 12 -105 0
12 20 -59 0
12 31 101 0
12 32 85 0
12 43 117 0
12 61 104 0
12 87 -101 0
13 -27 -51 0
13 19 75 0
13 25 -91 0
14 -53 116 0
14 -44 98 0
14 -15 73 0
14 43 -83 0
14 92 106 0
15 27 -47 0
15 31 111 0
15 38 42 0
15 73 -119 0
15 91 110 0
16 -55 83 0
16 -49 96 0
16 -20 -51 0
16 20 -115 0
17 -75 109 0
17 -29 -40 0
17 -27 81 0
17 47 -82 0
17 68 -74 0
18 -69 75 0
18 -62 -119 0
18 45 -110 0
18 48 68 0
19 -40 -63 0
19 35 50 0
19 36 -80 0
19 95 111 0
20 -82 -83 0
20 -52 -96 0
20 -46 -64 0
20 -22 -112 0
20 -22 89 0
20 31 -69 0
20 56 -73 0
20 95 -101 0
21 -47 -72 0
21 31 98 0
21 45 74 0
21 51 -99 0
21 80 -107 0
22 -47 -95 0
22 33 -71 0
22 59 -100 0
22 88 -117 0
23 -49 81 0
23 39 -98 0
23 47 106 0
23 60 -78 0
24 -96 98 0
24 -90 -92 0
24 -42 53 0
24 -35 87 0
24 -29 -47 0
24 48 -108 0
25 -72 -116 0
25 -40 -53 0
25 -32 -75 0
25 -32 -65 0
25 -27 113 0
25 83 87 0
26 36 -57 0
27 -105 -119 0
27 71 99 0
28 -30 -43 0
28 47 104 0
28 70 -109 0
28 70 115 0
29 38 -55 0
29 85 -96 0
30 -94 -104 0
31 47 78 0
31 63 103 0
31 107 -110 0
32 -44 112 0
33 -111 112 0
33 -97 105 0
33 -60 -99 0
33 -38 80 0
34 -46 -51 0
34 38 102 0
34 114 115 0
35 -89 111 0
35 -42 -104 0
35 36 -97 0
35 56 -64 0
35 95 -100 0
36 -104 -114 0
36 -101 -108 0
36 -99 110 0
36 -42 50 0
39 -72 -104 0
39 -59 -76 0
39 44 -61 0
40 -102 117 0
40 -98 101 0
40 -78 81 0
40 -61 113 0
40 -46 93 0
40 47 -83 0
40 93 108 0
41 59 83 0
41 78 119 0
42 -82 95 0
42 -43 -58 0
42 57 -92 0
44 60 109 0
45 -54 -89 0
45 -48 116 0
45 88 96 0
46 86 -114 0
46 114 -120 0
47 -89 -106 0
47 -89 100 0
47 65 -101 0
47 78 86 0
48 -62 -100 0
48 50 56 0
48 62 116 0
48 79 -116 0
48 85 108 0
49 -110 -114 0
49 -98 -103 0
50 -64 -72 0
50 -63 69 0
50 55 71 0
50 56 120 0
50 59 60 0
50 65 -92 0
50 81 -120 0
51 -85 -92 0
51 -73 -104 0
51 57 -117 0
52 -74 92 0
52 -57 -93 0
52 66 -102 0
52 105 113 0
53 55 -110 0
54 -58 75 0
54 92 110 0
55 76 -89 0
56 58 -95 0
58 -86 -89 0
58 -85 119 0
59 -90 107 0
59 -74 -97 0
59 -62 81 0
59 67 105 0
60 87 -90 0
61 90 109 0
61 109 -114 0
63 83 -114 0
64 73 102 0
64 88 -92 0
65 -83 100 0
65 104 119 0
66 67 101 0
66 88 -104 0
68 97 -99 0
69 -110 112 0
69 -100 -117 0
69 -74 119 0
69 72 -111 0
69 74 -87 0
70 101 102 0
75 -109 -111 0
75 112 -120 0
78 88 -117 0
79 97 -98 0
81 94 -108 0
84 95 100 0
85 -112 -118 0
86 99 -103 0
90 96 -114 0
92 -97 99 0
92 -93 -96 0
93 -115 -120 0
95 104 107 0
97 107 111 0
99 -112 118 0
104 -105 -116 0
