p cnf 24 102
-20 22 23 0
-14 16 -23 0
-13 17 19 0
-13 19 20 0
-12 15 22 0
-12 16 -24 0
-12 21 -23 0
-11 18 21 0
-10 -15 -24 0
-10 11 22 0
-10 12 13 0
-9 -14 -22 0
-9 13 -15 0
-9 13 20 0
-9 14 -21 0
-8 -20 -22 0
-8 10 -12 0
-8 11 -15 0
-7 -19 24 0
-7 15 17 0
-7 18 23 0
-6 -9 19 0
-6 9 -13 0
-6 15 21 0
-6 22 24 0
-5 -18 21 0
-5 9 -10 0
-5 9 24 0
-5 13 -20 0
-5 13 -16 0
-4 -9 20 0
-4 -6 16 0
-4 6 -10 0
-4 8 -20 0
-4 18 20 0
-3 -17 20 0
-3 -16 -23 0
-3 -7 19 0
-3 -6 -18 0
-2 -21 -23 0
-2 -15 -18 0
-2 -13 -14 0
-2 13 -15 0
-1 -15 -18 0
-1 -14 -18 0
-1 -10 19 0
-1 -7 -10 0
-1 -2 -21 0
-1 -2 15 0
-1 2 8 0
1 -15 19 0
1 -9 10 0
1 -8 -13 0
1 17 -18 0
1 21 -23 0
2 -14 20 0
2 -13 23 0
2 -7 12 0
2 11 24 0
2 13 -20 0
2 15 17 0
3 -20 22 0
3 -14 24 0
3 5 -19 0
3 20 -24 0
4 -21 24 0
4 -14 16 0
4 -7 -15 0
4 -5 -13 0
4 17 24 0
5 -10 13 0
5 7 11 0
5 8 -22 0
5 9 -19 0
5 9 21 0
5 13 23 0
5 19 -23 0
6 -17 -21 0
6 -8 23 0
6 -7 -14 0
6 12 -21 0
7 -9 11 0
7 8 -13 0
7 10 13 0
8 -16 18 0
8 -12 20 0
8 11 -22 0
9 -15 -23 0
9 -15 22 0
9 15 21 0
10 11 -15 0
10 12 -21 0
10 13 -18 0
12 -15 -20 0
13 -14 -20 0
14 -19 22 0
15 -21 24 0
16 18 -24 0
17 -20 22 0
17 -18 21 0
17 18 -23 0
22 23 24 0
