p cnf 55 234
-41 -47 -49 0
-39 -44 49 0
-39 40 -47 0
-38 41 44 0
-38 47 -49 0
-37 38 -45 0
-34 50 54 0
-33 35 39 0
-32 -34 46 0
-31 38 40 0
-30 -39 45 0
-30 -31 -44 0
-28 -31 55 0
-26 -43 50 0
-26 -35 -54 0
-26 34 -54 0
-26 34 -49 0
-26 34 -38 0
-26 40 -47 0
-26 50 55 0
-24 -25 27 0
-24 27 -39 0
-24 34 -53 0
-23 -47 48 0
-23 -25 -34 0
-23 32 -41 0
-22 -31 -37 0
-22 29 43 0
-21 25 32 0
-20 -22 -53 0
-19 -20 -42 0
-19 36 -54 0
-18 -35 -54 0
-18 22 -35 0
-18 23 53 0
-17 -18 -32 0
-17 29 -34 0
-17 32 35 0
-16 -30 -34 0
-16 37 47 0
-16 38 -45 0
-15 -33 -41 0
-15 22 -46 0
-14 -48 53 0
-14 21 -54 0
-14 23 44 0
-14 27 39 0
-13 -52 55 0
-11 27 43 0
-10 -39 43 0
-10 -32 54 0
-10 -21 50 0
-10 14 -15 0
-9 -25 51 0
-9 -24 -44 0
-9 -10 34 0
-9 15 -41 0
-9 16 -51 0
-8 -15 -51 0
-8 19 -30 0
-7 -27 -34 0
-6 16 -30 0
-6 16 37 0
-6 29 -47 0
-5 -17 -36 0
-5 20 -49 0
-5 21 -37 0
-5 23 38 0
-5 34 40 0
-4 -25 -31 0
-4 -22 -27 0
-4 -9 -29 0
-4 -9 35 0
-4 6 -18 0
-4 14 21 0
-4 19 -22 0
-4 22 -53 0
-4 34 -51 0
-4 43 -52 0
-3 -32 54 0
-3 -31 49 0
-3 -13 -55 0
-3 4 -13 0
-3 13 -42 0
-3 26 -45 0
-3 44 50 0
-2 -24 34 0
-2 -7 -18 0
-2 -6 8 0
-2 14 -28 0
-2 18 49 0
-2 20 -39 0
-2 20 25 0
-2 24 -42 0
-1 -13 -17 0
-1 -10 22 0
-1 -10 50 0
-1 -2 -17 0
-1 12 20 0
-1 19 -45 0
-1 21 -45 0
-1 26 -30 0
1 -50 -54 0
1 -36 43 0
1 -9 -23 0
1 3 8 0
1 6 44 0
1 30 -38 0
1 33 35 0
1 39 45 0
2 -43 -47 0
2 -23 -41 0
2 -18 38 0
2 -12 20 0
2 -8 40 0
2 3 35 0
3 -38 -40 0
3 -37 50 0
3 -8 -18 0
3 9 47 0
3 11 -34 0
3 14 44 0
3 15 -53 0
3 17 -47 0
3 18 -55 0
3 22 -24 0
3 22 44 0
3 28 40 0
4 -33 -36 0
4 -26 52 0
4 -18 -37 0
4 6 40 0
4 13 33 0
4 40 -50 0
5 -43 -47 0
5 -36 -49 0
5 -22 -51 0
5 -20 29 0
5 -16 -35 0
5 -9 -23 0
5 25 -45 0
5 31 -49 0
6 -36 44 0
6 -28 31 0
6 -12 24 0
6 -11 29 0
6 -7 -52 0
6 13 33 0
6 21 -33 0
7 -42 -52 0
7 -35 41 0
7 -27 28 0
7 -25 -53 0
7 20 -40 0
7 22 52 0
7 34 48 0
7 35 -39 0
7 49 -54 0
8 -18 44 0
8 12 39 0
8 16 -52 0
8 18 31 0
8 18 32 0
8 39 -41 0
8 44 -51 0
9 -11 -20 0
9 18 -28 0
9 23 -40 0
10 -45 50 0
10 -19 41 0
10 -15 -51 0
10 -12 46 0
10 18 52 0
11 -46 -51 0
11 -33 -38 0
12 -33 -55 0
12 13 -45 0
12 21 37 0
12 26 -31 0
12 30 36 0
13 -17 -46 0
14 -21 50 0
14 -15 19 0
14 32 -51 0
15 41 -44 0
16 -30 32 0
17 -29 43 0
17 -25 -42 0
17 24 -42 0
17 27 47 0
17 41 -52 0
18 -37 39 0
18 26 46 0
18 34 -43 0
19 -26 -32 0
19 -20 36 0
19 21 42 0
19 27 -31 0
19 52 -53 0
20 -38 -51 0
20 -24 39 0
20 28 -33 0
20 32 55 0
20 41 -48 0
21 -32 41 0
21 -26 48 0
21 29 -55 0
21 33 44 0
22 -43 51 0
22 -27 43 0
22 -25 -47 0
22 36 -49 0
23 -31 -40 0
23 40 -53 0
24 -31 -37 0
24 38 44 0
26 48 49 0
28 29 55 0
29 48 -54 0
30 -33 44 0
31 -32 -54 0
31 54 55 0
32 37 -53 0
32 38 -39 0
33 -39 42 0
34 42 47 0
34 44 -50 0
36 39 -54 0
38 -41 -47 0
39 -45 -48 0
40 -42 49 0
40 -41 -46 0
42 50 55 0
44 48 52 0
