p cnf 100 360
-89 95 98 0
-81 85 -100 0
-78 81 92 0
-77 -98 -100 0
-77 -88 -96 0
-77 89 95 0
-76 -84 -85 0
-65 -93 98 0
-65 -84 -94 0
-65 -69 -92 0
-65 74 87 0
-61 -66 84 0
-59 -61 -68 0
-59 90 -100 0
-58 -73 91 0
-57 -66 -84 0
-56 71 84 0
-55 67 -89 0
-55 73 100 0
-54 -58 -78 0
-53 -79 -97 0
-52 -68 -88 0
-52 72 -91 0
-51 53 -85 0
-51 71 -85 0
-50 -62 98 0
-50 -52 -85 0
-48 -71 98 0
-48 -68 96 0
-48 55 -87 0
-47 66 -87 0
-47 74 86 0
-47 83 90 0
-46 -58 -89 0
-46 -55 87 0
-45 72 -86 0
-42 69 -94 0
-41 -91 -98 0
-41 -50 52 0
-40 -68 96 0
-40 -54 -65 0
-40 -48 61 0
-40 -41 93 0
-40 64 -83 0
-39 -52 57 0
-38 -87 -94 0
-38 -66 82 0
-37 -40 -66 0
-37 43 -76 0
-36 -41 58 0
-36 57 -85 0
-36 73 75 0
-35 56 59 0
-35 69 -75 0
-35 78 -93 0
-34 -57 -78 0
-34 -36 -57 0
-33 88 -95 0
-32 49 -94 0
-32 60 -95 0
-31 -65 94 0
-31 -46 -61 0
-31 -41 -89 0
-31 -37 -42 0
-31 51 97 0
-31 77 -87 0
-30 -56 77 0
-30 39 71 0
-29 38 100 0
-28 -55 -85 0
-28 -46 52 0
-28 -42 89 0
-28 -30 -81 0
-28 33 84 0
-28 41 71 0
-28 85 -97 0
-27 40 -92 0
-26 -61 75 0
-26 77 94 0
-25 -57 -62 0
-25 -49 60 0
-25 -39 -95 0
-25 33 69 0
-25 86 -91 0
-24 -49 69 0
-24 29 41 0
-24 37 -88 0
-24 66 72 0
-23 59 -68 0
-22 -61 -76 0
-22 -41 -77 0
-21 -56 -96 0
-21 -26 -69 0
-20 -64 -74 0
-20 -29 65 0
-20 54 -95 0
-19 -54 92 0
-19 -27 64 0
-19 21 -75 0
-19 27 -92 0
-19 74 -100 0
-19 81 -100 0
-18 -44 64 0
-18 -36 -63 0
-18 -22 -93 0
-18 -21 -23 0
-18 28 39 0
-18 46 -57 0
-17 -19 49 0
-17 45 -100 0
-17 61 69 0
-16 -35 -62 0
-16 17 40 0
-16 22 -25 0
-16 31 60 0
-16 50 -80 0
-15 -33 -43 0
-15 38 -98 0
-15 43 -49 0
-15 52 58 0
-14 -61 98 0
-14 -53 -86 0
-14 -36 -72 0
-14 -28 72 0
-14 77 93 0
-13 -20 -75 0
-13 56 -88 0
-12 -20 -90 0
-11 -32 -86 0
-11 -29 -95 0
-11 -17 45 0
-11 37 98 0
-11 77 -89 0
-10 -43 54 0
-10 26 37 0
-9 -71 -87 0
-9 -31 -93 0
-9 -10 -43 0
-9 23 -25 0
-9 40 -95 0
-9 51 -60 0
-9 72 -77 0
-8 -43 -70 0
-8 -19 -59 0
-8 18 83 0
-8 24 -63 0
-8 25 38 0
-8 45 72 0
-8 45 87 0
-8 74 84 0
-8 92 97 0
-7 -74 -95 0
-7 -36 -85 0
-7 -28 -64 0
-7 -11 100 0
-7 41 -69 0
-6 -49 -70 0
-6 -20 -96 0
-6 52 -69 0
-6 56 95 0
-5 -16 54 0
-5 39 -50 0
-5 41 80 0
-4 -80 -94 0
-4 -76 87 0
-4 -44 83 0
-4 9 17 0
-4 11 -40 0
-4 11 -23 0
-4 35 98 0
-4 37 -96 0
-3 -64 79 0
-3 -48 49 0
-3 5 -100 0
-3 30 68 0
-2 -54 -82 0
-2 -53 89 0
-2 -35 -42 0
-2 -32 84 0
-2 -18 -28 0
-2 -10 13 0
-2 9 -62 0
-2 13 -52 0
-2 66 -100 0
-1 -41 59 0
-1 -25 -51 0
-1 -13 58 0
-1 2 -48 0
1 -20 59 0
1 38 -60 0
1 38 51 0
2 -17 -28 0
2 -12 72 0
2 7 62 0
2 26 -96 0
3 -74 -87 0
3 21 -100 0
3 23 -55 0
3 23 61 0
4 -68 92 0
4 -22 -30 0
4 -16 -98 0
4 -12 70 0
4 -10 -58 0
4 10 -82 0
5 -80 -92 0
5 -32 -41 0
5 -10 -84 0
5 39 -67 0
5 49 -53 0
5 93 -97 0
6 15 -26 0
7 -19 33 0
7 15 -84 0
7 41 -59 0
7 43 76 0
7 61 -98 0
8 -36 -96 0
8 14 -59 0
10 -33 53 0
10 -26 -93 0
10 15 -60 0
10 15 88 0
10 20 -78 0
10 45 60 0
10 58 97 0
10 87 -91 0
11 -89 -95 0
11 -23 -65 0
11 39 -72 0
11 40 -92 0
11 69 -82 0
11 73 88 0
12 -63 -64 0
12 -43 -51 0
12 -40 88 0
12 -29 -91 0
12 -28 52 0
12 22 30 0
13 -30 46 0
13 -30 82 0
13 27 -94 0
13 33 -74 0
14 -53 67 0
14 18 70 0
14 20 53 0
15 -84 -94 0
15 -18 67 0
15 18 97 0
15 64 85 0
16 -48 -83 0
16 -22 78 0
16 30 -36 0
16 31 -51 0
16 38 92 0
16 56 -72 0
16 58 63 0
16 69 96 0
17 25 -86 0
17 40 99 0
17 42 -94 0
17 73 -96 0
18 -28 60 0
18 57 -67 0
18 66 -80 0
19 -40 62 0
19 -39 -55 0
19 -29 93 0
19 -22 -49 0
20 -46 89 0
20 89 91 0
21 -58 87 0
21 -51 -57 0
21 -46 -78 0
21 -46 -77 0
21 -39 55 0
21 30 -33 0
22 63 82 0
22 68 84 0
23 -39 86 0
23 -33 -49 0
23 48 -85 0
23 69 -79 0
24 -66 81 0
24 -48 74 0
25 -77 -97 0
25 -31 67 0
25 39 -97 0
25 42 80 0
25 50 77 0
25 70 91 0
25 81 -91 0
26 54 -79 0
27 -96 100 0
27 53 62 0
28 -32 -37 0
28 68 99 0
29 -69 -90 0
29 -39 71 0
29 38 -78 0
29 62 96 0
29 69 -83 0
29 71 97 0
30 -82 -85 0
30 -72 -85 0
30 -58 -81 0
30 -42 -44 0
30 -31 62 0
31 -33 -63 0
32 -51 69 0
32 -44 -63 0
33 42 58 0
33 50 -98 0
33 53 -95 0
33 72 98 0
33 79 82 0
34 -68 100 0
35 -81 82 0
35 43 87 0
35 45 -63 0
36 -61 91 0
36 41 96 0
37 45 -79 0
37 46 58 0
38 -73 94 0
40 -43 64 0
40 52 -79 0
40 95 99 0
41 42 53 0
43 -63 -80 0
43 61 -68 0
44 -70 -73 0
44 56 87 0
45 73 -86 0
46 -60 -84 0
46 -52 -77 0
46 -48 -91 0
46 51 -68 0
46 96 100 0
47 -68 -88 0
47 59 60 0
48 56 69 0
49 -66 -98 0
52 -74 99 0
52 -53 -79 0
52 62 -78 0
53 60 -73 0
54 -84 97 0
54 56 -82 0
55 70 98 0
55 75 -99 0
61 66 -83 0
62 69 71 0
66 -75 89 0
68 -72 97 0
76 86 -90 0
77 -86 99 0
79 80 -93 0
80 84 93 0
85 -88 97 0
