p cnf 20 85
-13 -15 19 0
-13 -14 -15 0
-13 16 18 0
-11 17 -20 0
-10 11 -20 0
-10 11 19 0
-10 19 20 0
-9 -17 18 0
-8 -15 18 0
-8 13 -15 0
-7 -16 -20 0
-7 -14 -19 0
-7 -8 12 0
-7 10 -19 0
-7 13 14 0
-7 13 15 0
-6 -8 -18 0
-6 -7 -8 0
-6 9 -11 0
-5 -6 10 0
-4 -13 15 0
-4 -9 -16 0
-4 -7 18 0
-4 -6 -17 0
-4 -6 12 0
-4 5 8 0
-4 5 12 0
-4 5 18 0
-4 9 -18 0
-3 -8 10 0
-2 -15 19 0
-2 -6 7 0
-2 3 5 0
-2 4 -20 0
-2 8 13 0
1 -15 -19 0
1 -7 -8 0
1 -4 -7 0
1 -3 -11 0
1 -2 -20 0
1 -2 -17 0
1 -2 11 0
1 3 -8 0
1 8 -15 0
1 13 -16 0
1 14 -20 0
2 -6 -14 0
2 -6 15 0
2 -5 7 0
2 -3 -13 0
2 3 -14 0
2 5 19 0
2 6 -12 0
2 10 17 0
3 -10 -18 0
3 -7 -20 0
3 4 -19 0
3 10 19 0
4 -12 -13 0
4 6 -19 0
5 -14 17 0
5 -12 19 0
5 7 -9 0
5 18 19 0
5 19 -20 0
6 7 -15 0
6 10 -20 0
6 17 -19 0
7 -10 -12 0
7 -10 13 0
7 8 20 0
7 10 -18 0
7 12 18 0
8 -13 15 0
8 -12 14 0
9 -17 18 0
9 -13 19 0
9 11 19 0
9 12 -19 0
11 13 14 0
12 -14 16 0
12 18 -19 0
13 -18 19 0
16 18 -19 0
17 18 20 0
