p cnf 24 102
-19 20 -21 0
-16 -19 -23 0
-16 -17 22 0
-16 18 20 0
-13 17 -20 0
-12 -19 -21 0
-12 16 20 0
-11 17 -19 0
-11 18 21 0
-11 23 -24 0
-10 -20 -21 0
-10 -11 22 0
-9 -22 24 0
-9 -19 20 0
-9 -10 -15 0
-9 11 14 0
-8 -13 20 0
-7 8 -10 0
-7 9 -19 0
-7 13 24 0
-6 -16 24 0
-6 -12 -19 0
-6 -11 -16 0
-6 -10 -12 0
-6 19 -21 0
-5 -12 -22 0
-5 -11 24 0
-5 -7 -8 0
-4 -13 20 0
-4 -10 20 0
-4 5 15 0
-4 7 15 0
-4 18 -19 0
-4 20 21 0
-3 -4 -15 0
-3 6 -20 0
-3 7 22 0
-3 14 -19 0
-3 16 -18 0
-2 -9 10 0
-2 -7 -21 0
-2 -6 -21 0
-2 16 18 0
-2 17 23 0
-2 18 22 0
-2 19 23 0
-1 -2 22 0
-1 4 -5 0
1 -20 24 0
1 -11 19 0
1 -7 12 0
1 -4 15 0
1 2 -12 0
1 6 -12 0
1 17 23 0
1 19 21 0
2 -12 -13 0
2 -7 -18 0
2 6 -7 0
2 9 13 0
2 9 19 0
2 12 -14 0
2 19 -22 0
3 -8 12 0
3 -6 21 0
3 -4 -17 0
3 4 -18 0
3 11 -20 0
3 13 -15 0
3 14 -15 0
4 -20 24 0
4 -10 21 0
4 -9 -17 0
4 -9 20 0
4 5 -23 0
4 12 -17 0
5 -10 23 0
5 13 -24 0
6 -19 24 0
6 -9 16 0
7 -20 21 0
7 -11 12 0
7 13 20 0
7 15 23 0
8 -18 -23 0
8 -17 -22 0
8 -10 17 0
8 12 -23 0
9 -20 -22 0
9 -13 -16 0
9 -13 23 0
9 13 -24 0
9 15 -19 0
10 15 -24 0
11 13 14 0
11 16 20 0
13 -16 20 0
14 15 -16 0
14 16 -19 0
14 21 23 0
15 -22 23 0
15 -18 19 0
