p cnf 120 510
-103 -108 -112 0
-101 105 -115 0
-92 -95 -103 0
-90 -108 110 0
-90 106 -107 0
-89 94 115 0
-86 -94 -103 0
-86 90 -116 0
-83 -97 -98 0
-81 -110 114 0
-79 92 118 0
-79 105 -111 0
-78 -99 113 0
-76 -89 116 0
-75 -88 93 0
-75 -86 120 0
-73 -90 98 0
-71 101 111 0
-71 102 -110 0
-70 -71 81 0
-69 87 105 0
-68 -69 79 0
-66 -81 -93 0
-66 -70 -109 0
-66 96 101 0
-66 99 101 0
-65 -82 109 0
-65 -81 115 0
-65 66 -98 0
-64 78 79 0
-63 -65 93 0
-62 78 -82 0
-61 98 102 0
-60 -61 -81 0
-60 71 97 0
-60 99 -102 0
-59 -104 113 0
-59 65 98 0
-59 67 -80 0
-59 67 92 0
-57 -67 100 0
-57 66 -77 0
-56 111 118 0
-55 -78 -109 0
-55 -78 -95 0
-55 -63 81 0
-55 83 -87 0
-54 -61 80 0
-53 -59 -68 0
-53 58 -78 0
-52 -86 117 0
-52 -57 99 0
-51 -89 106 0
-51 -61 97 0
-51 53 -79 0
-51 54 -106 0
-50 -86 -102 0
-50 72 -92 0
-50 77 108 0
-50 90 -114 0
-49 79 100 0
-48 -90 91 0
-48 -82 105 0
-48 95 -118 0
-48 114 115 0
-47 -78 97 0
-47 -71 -76 0
-47 -60 -88 0
-47 53 81 0
-46 88 99 0
-45 -74 -81 0
-45 -67 -84 0
-45 64 95 0
-44 -56 -70 0
-44 51 -73 0
-44 78 -96 0
-43 98 110 0
-42 -107 -108 0
-42 -67 96 0
-42 -50 -105 0
-41 -80 -90 0
-41 -69 104 0
-41 59 81 0
-41 99 -101 0
-40 -72 -91 0
-40 -64 115 0
-40 -53 -91 0
-40 98 -107 0
-40 98 117 0
-39 -67 92 0
-39 57 -79 0
-38 -99 100 0
-38 -68 -105 0
-37 103 107 0
-36 -103 117 0
-36 -74 93 0
-36 40 108 0
-36 100 102 0
-35 -89 110 0
-35 -82 103 0
-35 47 -109 0
-34 -88 -103 0
-34 -85 102 0
-34 -69 -78 0
-34 38 -119 0
-34 58 117 0
-33 47 -56 0
-33 56 86 0
-33 61 107 0
-32 -35 93 0
-31 -75 -120 0
-31 -66 -84 0
-31 -45 -71 0
-31 57 -79 0
-31 65 -75 0
-31 65 78 0
-31 82 93 0
-31 87 -112 0
-30 -71 -112 0
-29 -68 -73 0
-29 47 84 0
-29 75 -82 0
-28 53 78 0
-27 -57 101 0
-27 -44 -91 0
-27 39 103 0
-27 41 89 0
-27 44 74 0
-27 54 -75 0
-26 -57 115 0
-26 -35 -52 0
-26 76 102 0
-25 30 110 0
-25 35 72 0
-24 -74 93 0
-24 -70 -115 0
-24 -45 48 0
-24 -41 93 0
-24 33 -102 0
-24 59 -116 0
-24 90 -117 0
-23 -76 -107 0
-23 -69 78 0
-23 -68 72 0
-23 30 -62 0
-23 35 89 0
-23 38 91 0
-22 -86 111 0
-22 -46 -92 0
-22 37 67 0
-22 42 84 0
-22 57 58 0
-22 78 -85 0
-22 89 -90 0
-21 -61 71 0
-21 -30 98 0
-21 -27 66 0
-21 -25 -50 0
-21 52 -64 0
-21 60 -114 0
-21 67 -111 0
-21 71 -101 0
-20 -80 -111 0
-19 -89 -92 0
-19 -27 -93 0
-19 24 109 0
-19 35 -45 0
-19 61 84 0
-19 82 101 0
-18 -33 107 0
-18 21 -90 0
-18 36 78 0
-18 41 71 0
-18 62 -108 0
-18 77 97 0
-17 -81 -115 0
-17 -77 -111 0
-17 -72 -120 0
-17 -37 -103 0
-17 -26 118 0
-17 31 81 0
-17 81 -100 0
-16 -72 -119 0
-16 -60 -119 0
-16 20 -29 0
-16 34 -115 0
-15 -90 -93 0
-15 -76 -119 0
-15 54 -56 0
-15 96 118 0
-14 33 -120 0
-13 -109 113 0
-13 -51 -59 0
-13 33 108 0
-13 34 -106 0
-12 -35 76 0
-12 -25 -86 0
-12 19 69 0
-12 31 84 0
-12 37 76 0
-12 54 87 0
-12 64 -102 0
-12 81 -97 0
-11 -96 -118 0
-11 -61 69 0
-11 -30 -62 0
-11 -14 31 0
-11 17 -67 0
-11 19 -23 0
-11 47 -81 0
-11 68 71 0
-11 89 -100 0
-10 -39 112 0
-10 18 -112 0
-10 37 83 0
-10 95 109 0
-10 101 102 0
-9 -79 103 0
-9 -21 84 0
-9 36 104 0
-8 17 47 0
-8 31 116 0
-7 -69 77 0
-7 -16 70 0
-7 10 -83 0
-7 36 -78 0
-7 53 -78 0
-7 57 -62 0
-6 -48 110 0
-6 -14 -92 0
-6 -11 107 0
-6 16 64 0
-6 36 -70 0
-6 60 119 0
-5 -76 90 0
-5 -37 84 0
-4 -75 96 0
-4 -70 74 0
-4 -64 79 0
-4 -44 -83 0
-4 -41 87 0
-4 -19 -120 0
-4 -19 -46 0
-4 -6 12 0
-4 13 -57 0
-4 75 98 0
-4 102 103 0
-3 5 -68 0
-3 7 58 0
-3 10 93 0
-3 42 -110 0
-2 24 -28 0
-2 64 -93 0
-1 -75 -86 0
-1 -52 58 0
-1 -24 25 0
-1 -19 31 0
-1 23 83 0
-1 24 65 0
-1 45 62 0
1 -107 113 0
1 -50 -87 0
1 31 118 0
1 36 -54 0
1 72 76 0
2 13 -61 0
3 -36 -40 0
3 18 107 0
4 19 25 0
4 29 -89 0
4 83 110 0
5 -83 93 0
5 -37 46 0
5 -20 -86 0
5 -11 -116 0
5 -6 108 0
5 55 69 0
5 75 -103 0
6 -90 103 0
6 -69 -112 0
6 -60 89 0
6 -36 37 0
6 -11 -91 0
6 -7 49 0
6 7 -60 0
6 17 27 0
6 45 103 0
6 47 -106 0
6 66 -85 0
7 -75 101 0
7 -71 -81 0
7 -39 -114 0
7 -26 32 0
7 -19 -38 0
7 -10 -94 0
7 15 -32 0
7 61 -66 0
8 14 49 0
8 22 -72 0
8 54 -79 0
8 55 64 0
9 -59 -116 0
9 -42 43 0
9 -38 -47 0
9 -38 87 0
9 16 -111 0
10 -86 -98 0
10 -33 118 0
10 36 120 0
11 -62 75 0
11 -28 -77 0
11 25 -76 0
11 25 75 0
11 40 -47 0
12 -48 91 0
12 -31 -38 0
12 -13 -53 0
12 20 -32 0
12 32 113 0
12 33 -87 0
12 54 -100 0
12 108 109 0
13 -111 120 0
13 -84 109 0
13 -81 -90 0
13 -26 107 0
13 -25 -49 0
13 46 -102 0
14 -81 101 0
14 -52 -63 0
14 -47 86 0
14 -25 -47 0
14 15 -79 0
14 62 -98 0
14 69 -97 0
15 -21 -60 0
15 -18 25 0
15 26 83 0
15 105 109 0
16 -96 -118 0
16 -61 116 0
16 18 94 0
17 -64 89 0
17 -45 100 0
17 48 -83 0
17 64 109 0
17 94 -99 0
18 -67 83 0
18 29 70 0
18 47 -101 0
18 56 84 0
18 71 -87 0
19 -98 114 0
19 -20 -82 0
19 26 -102 0
19 41 80 0
19 58 -94 0
19 104 107 0
20 -89 102 0
20 -63 72 0
20 -27 117 0
21 -99 -114 0
21 41 -85 0
21 63 -120 0
21 66 79 0
23 -35 101 0
23 45 -90 0
23 53 -106 0
23 101 113 0
24 -85 92 0
24 -49 67 0
24 81 87 0
24 101 -120 0
25 -84 -99 0
25 -77 -115 0
25 38 72 0
26 -113 -115 0
26 -51 116 0
26 39 -44 0
27 -103 115 0
27 -46 98 0
28 -53 -63 0
28 57 90 0
28 60 119 0
29 -60 -84 0
29 -54 78 0
29 -47 -86 0
29 32 89 0
29 49 79 0
29 51 86 0
29 67 99 0
29 95 -107 0
30 -77 109 0
30 -65 -88 0
30 -50 64 0
30 -41 87 0
30 -37 -100 0
30 37 -83 0
30 75 -99 0
30 94 -106 0
31 49 -74 0
31 55 80 0
31 69 107 0
31 96 108 0
32 -95 111 0
32 -65 -67 0
33 -37 44 0
33 -34 -42 0
33 40 105 0
33 62 90 0
33 64 -103 0
33 67 -85 0
33 116 118 0
34 -57 102 0
35 -84 88 0
35 -77 -94 0
35 -67 -91 0
35 -46 100 0
36 -104 -120 0
36 -76 -81 0
36 -56 115 0
36 44 -77 0
36 55 108 0
37 -75 -91 0
38 -45 -54 0
38 -39 -44 0
38 74 79 0
39 -49 52 0
39 76 -103 0
39 92 -108 0
40 -92 -103 0
40 -59 105 0
41 63 -88 0
42 -100 -106 0
42 -49 78 0
42 46 -92 0
42 70 120 0
42 81 95 0
42 92 117 0
43 -71 78 0
43 46 -82 0
43 72 109 0
43 77 109 0
44 -70 118 0
44 -54 -78 0
44 54 -107 0
44 89 -106 0
45 -88 -95 0
45 -69 -104 0
45 62 -114 0
46 -81 -84 0
46 -59 70 0
46 109 120 0
47 -88 118 0
47 86 -93 0
48 -55 79 0
49 -54 -110 0
49 75 -89 0
49 97 119 0
50 63 72 0
52 -71 103 0
52 -65 83 0
52 64 -91 0
53 85 -105 0
54 -86 109 0
54 -66 -92 0
54 65 -70 0
54 68 -79 0
55 -102 118 0
55 -98 -120 0
55 -75 88 0
55 59 -94 0
56 57 97 0
56 82 -108 0
56 91 -105 0
57 81 -91 0
57 91 98 0
58 -64 -102 0
58 -62 -92 0
59 -87 -111 0
59 -83 -92 0
59 78 -96 0
60 67 81 0
61 63 68 0
62 -90 116 0
62 -77 90 0
62 78 108 0
63 -75 119 0
63 -72 113 0
63 81 -89 0
64 -92 96 0
64 73 85 0
65 111 -118 0
66 75 -97 0
67 -108 -116 0
67 75 -85 0
67 80 94 0
67 99 116 0
68 -103 -108 0
70 95 102 0
71 82 97 0
73 87 99 0
74 86 -94 0
76 -100 -120 0
79 81 103 0
85 86 -90 0
85 93 100 0
87 -102 -116 0
88 105 -107 0
90 111 -115 0
