p cnf 120 510
-97 -109 114 0
-93 -112 116 0
-91 -93 105 0
-91 103 -119 0
-88 99 109 0
-85 -94 120 0
-83 99 -108 0
-81 -98 103 0
-81 -93 116 0
-78 -92 115 0
-76 -101 106 0
-76 -87 -115 0
-76 86 89 0
-75 -95 99 0
-73 98 116 0
-72 110 -120 0
-71 89 95 0
-69 -88 -102 0
-68 76 107 0
-64 71 -75 0
-63 88 -113 0
-62 -82 -116 0
-62 73 -90 0
-61 -63 74 0
-61 -62 -68 0
-60 -108 -115 0
-60 78 112 0
-60 81 103 0
-59 61 119 0
-57 65 -89 0
-55 -77 -100 0
-55 -69 -94 0
-55 71 92 0
-55 83 102 0
-54 77 -92 0
-53 -63 -114 0
-53 -59 67 0
-53 89 -115 0
-52 -107 108 0
-52 65 -109 0
-51 -63 -70 0
-50 86 96 0
-49 79 89 0
-49 100 -112 0
-48 -61 -63 0
-48 55 84 0
-47 57 87 0
-47 60 -93 0
-47 98 110 0
-46 -63 -110 0
-46 -59 -102 0
-46 -51 -59 0
-46 -47 -65 0
-46 81 107 0
-45 -47 49 0
-45 78 81 0
-44 56 -69 0
-44 78 84 0
-43 53 60 0
-43 93 98 0
-42 -56 -120 0
-42 -56 92 0
-41 -44 -97 0
-41 61 -107 0
-41 65 -84 0
-41 66 81 0
-41 106 -108 0
-40 53 106 0
-40 66 111 0
-40 87 110 0
-39 -91 -112 0
-39 -69 -86 0
-39 -60 -65 0
-39 -57 -118 0
-39 -52 86 0
-39 78 -116 0
-39 81 114 0
-39 106 -120 0
-38 -52 84 0
-38 69 -120 0
-37 41 -94 0
-37 75 104 0
-37 78 -90 0
-36 -82 -120 0
-36 -66 82 0
-36 45 120 0
-35 -74 -111 0
-35 -74 -88 0
-35 -47 -87 0
-35 -38 41 0
-35 53 -120 0
-33 -95 118 0
-33 -78 94 0
-33 53 -62 0
-33 95 -98 0
-32 33 114 0
-32 39 -67 0
-32 45 60 0
-31 69 106 0
-30 48 54 0
-30 49 87 0
-30 79 99 0
-29 -78 90 0
-29 -63 75 0
-29 -59 -87 0
-29 50 69 0
-28 -106 -116 0
-28 -39 89 0
-28 -30 -66 0
-28 64 -110 0
-27 -116 119 0
-27 -39 96 0
-26 -46 78 0
-26 71 -106 0
-26 72 -103 0
-25 65 90 0
-24 -106 114 0
-24 -93 -113 0
-24 27 82 0
-24 41 88 0
-23 -102 104 0
-23 -52 60 0
-23 -29 -32 0
-23 36 114 0
-23 46 96 0
-22 -75 -83 0
-22 -40 49 0
-22 32 -112 0
-22 40 -110 0
-22 44 64 0
-21 -86 -115 0
-21 -64 75 0
-21 -57 65 0
-21 24 -79 0
-21 50 -118 0
-21 65 -98 0
-21 101 -119 0
-20 -38 42 0
-20 -30 -68 0
-20 71 117 0
-19 -55 75 0
-19 29 -104 0
-19 67 101 0
-19 73 116 0
-19 79 -113 0
-17 -91 -106 0
-17 -52 82 0
-17 -48 118 0
-17 -45 65 0
-17 56 106 0
-17 98 109 0
-16 -39 51 0
-16 -38 -118 0
-16 17 41 0
-16 24 -103 0
-16 54 -91 0
-16 83 108 0
-15 -93 97 0
-15 -74 86 0
-15 69 110 0
-14 -113 -119 0
-14 -45 -79 0
-14 -45 102 0
-14 -37 -61 0
-14 -24 -67 0
-14 -23 90 0
-14 18 -77 0
-14 34 -97 0
-14 49 108 0
-14 54 -106 0
-14 55 -70 0
-13 -43 119 0
-13 -20 101 0
-13 -17 -61 0
-12 -75 -111 0
-12 -66 88 0
-12 -54 -58 0
-12 18 -25 0
-11 -97 103 0
-11 -59 83 0
-11 -47 81 0
-11 -44 86 0
-11 -38 72 0
-11 13 119 0
-11 60 -94 0
-10 -22 111 0
-10 12 49 0
-10 31 49 0
-10 56 63 0
-10 61 -71 0
-10 105 114 0
-9 -98 -100 0
-9 -73 93 0
-9 -70 110 0
-9 -65 -105 0
-9 -39 83 0
-9 -30 40 0
-9 14 43 0
-9 23 -58 0
-9 27 -68 0
-9 35 -50 0
-9 36 64 0
-9 53 61 0
-9 66 118 0
-8 -24 83 0
-8 10 72 0
-8 21 38 0
-7 -20 -113 0
-7 -12 -26 0
-7 35 76 0
-7 43 111 0
-6 -72 82 0
-6 -61 -69 0
-6 16 -18 0
-6 18 51 0
-6 30 61 0
-6 87 101 0
-4 -38 63 0
-4 -10 11 0
-4 26 -87 0
-4 62 -90 0
-4 78 -96 0
-3 -91 -92 0
-3 -88 -92 0
-3 -28 -105 0
-3 -13 26 0
-2 -116 -118 0
-2 -45 -102 0
-2 -45 52 0
-2 -26 67 0
-2 -16 -60 0
-2 -10 11 0
-2 19 -62 0
-2 65 107 0
-1 -104 -108 0
-1 -78 89 0
-1 -78 111 0
-1 -49 87 0
-1 -48 -104 0
-1 -13 -33 0
-1 5 -111 0
-1 32 -106 0
-1 99 -103 0
1 -116 117 0
1 -85 111 0
1 -73 89 0
1 -49 54 0
1 -43 -70 0
1 -42 -87 0
1 -42 75 0
1 -36 -107 0
1 -33 -66 0
1 -8 20 0
1 -2 52 0
1 10 -15 0
1 36 68 0
2 -114 -120 0
2 -46 -79 0
2 -31 64 0
2 8 -57 0
2 16 -67 0
2 30 33 0
2 39 -69 0
2 42 68 0
2 56 79 0
2 100 104 0
3 -53 91 0
3 -45 109 0
3 8 32 0
3 85 91 0
4 -47 61 0
4 -8 97 0
4 28 -61 0
4 44 -87 0
4 63 -68 0
5 -79 -97 0
5 -37 46 0
5 -36 -63 0
5 -25 78 0
5 -15 -119 0
5 -13 34 0
5 11 -70 0
6 -35 -45 0
6 -29 82 0
6 28 -67 0
6 29 -90 0
6 38 -70 0
6 53 -89 0
7 -81 -86 0
7 -50 -107 0
7 -10 -55 0
7 17 -30 0
7 19 -33 0
7 74 -75 0
7 74 101 0
7 105 108 0
8 -27 -49 0
8 10 54 0
8 31 114 0
8 45 -110 0
8 53 -78 0
9 -96 -113 0
9 -21 -34 0
9 -18 -28 0
9 -14 -64 0
9 11 85 0
9 36 -94 0
9 36 101 0
9 55 -86 0
10 -15 -59 0
10 -12 -33 0
10 26 57 0
10 39 61 0
10 50 -104 0
10 60 93 0
11 -36 -78 0
11 -35 39 0
11 23 35 0
11 32 76 0
12 -61 -68 0
12 109 112 0
12 116 -120 0
13 -86 -92 0
13 -40 -83 0
14 -106 114 0
14 -65 106 0
14 -37 57 0
14 22 54 0
14 76 -101 0
15 -67 -119 0
15 -65 -80 0
15 -61 101 0
15 -53 92 0
15 -35 97 0
15 31 104 0
15 42 -63 0
15 43 58 0
15 48 -118 0
15 69 108 0
15 82 -113 0
16 -71 -93 0
16 -54 106 0
16 -46 112 0
16 20 -70 0
16 73 76 0
17 -51 103 0
17 -45 104 0
18 -64 -120 0
18 -53 68 0
18 -29 65 0
18 33 104 0
18 45 -61 0
19 -64 -119 0
19 -59 -98 0
19 -26 71 0
19 21 39 0
19 49 -67 0
19 58 103 0
19 82 -98 0
20 -40 -72 0
20 -25 -27 0
20 34 63 0
20 39 48 0
20 51 -63 0
20 102 115 0
21 -80 -85 0
21 -46 108 0
21 -43 63 0
21 52 -79 0
21 81 -102 0
22 -58 -87 0
23 -112 119 0
23 -82 -93 0
23 -30 -74 0
23 27 -117 0
23 34 -74 0
23 45 -59 0
23 47 -51 0
23 52 -75 0
24 -86 -94 0
24 -73 105 0
24 -28 120 0
24 26 88 0
24 45 120 0
24 46 59 0
25 -74 -89 0
25 30 73 0
26 -49 -118 0
26 35 -66 0
27 -50 -53 0
27 -41 -110 0
27 29 59 0
28 -72 -102 0
28 -44 119 0
28 -41 -67 0
28 79 88 0
29 -52 97 0
29 -38 73 0
29 44 105 0
29 66 -79 0
30 -101 112 0
30 -73 -101 0
30 -53 -120 0
30 -44 83 0
30 46 95 0
31 70 -88 0
32 -91 116 0
32 -73 94 0
32 107 116 0
33 -112 -120 0
33 46 -67 0
34 -61 -89 0
34 -47 77 0
35 -50 67 0
36 -96 118 0
36 -79 118 0
36 -68 -73 0
37 -40 82 0
37 38 100 0
37 69 -103 0
37 73 92 0
37 86 -110 0
38 -75 -100 0
38 -64 -68 0
38 -55 -93 0
38 -43 45 0
38 -43 101 0
38 39 91 0
38 54 103 0
38 63 -75 0
38 64 103 0
39 -115 -116 0
39 -106 111 0
39 -104 -109 0
39 -69 -72 0
39 75 -98 0
39 109 -110 0
41 -66 110 0
41 -51 72 0
41 -46 -118 0
42 -60 81 0
42 -45 -59 0
42 56 -105 0
43 65 72 0
44 -86 -99 0
44 46 -119 0
45 -54 -107 0
45 82 -103 0
46 -77 -107 0
46 -66 -120 0
46 98 100 0
47 -61 86 0
47 53 69 0
48 -90 108 0
48 -50 -56 0
48 115 119 0
49 -76 -105 0
49 -60 -63 0
49 52 -115 0
49 67 -72 0
51 -107 117 0
51 -75 115 0
51 83 -119 0
51 102 108 0
52 55 -56 0
53 -91 110 0
53 61 118 0
53 78 -91 0
54 59 -110 0
54 73 115 0
54 84 110 0
55 56 -76 0
55 81 -116 0
56 64 101 0
56 87 -115 0
56 90 -101 0
56 104 -119 0
57 -59 -115 0
61 97 -116 0
64 92 -112 0
66 81 99 0
67 -83 -111 0
67 68 108 0
67 77 -84 0
67 84 99 0
68 -83 101 0
68 74 -89 0
68 89 104 0
68 94 -113 0
69 72 -118 0
72 -89 119 0
73 -81 106 0
74 -106 120 0
77 -110 119 0
77 88 -109 0
78 -84 105 0
80 83 -112 0
81 -90 119 0
82 -94 108 0
85 -109 -111 0
87 89 -94 0
88 108 117 0
88 109 113 0
89 -95 -102 0
89 90 102 0
91 -93 -96 0
93 -102 109 0
93 -96 -103 0
94 108 117 0
101 -102 -114 0
