p cnf 80 340
-68 71 -77 0
-66 -77 78 0
-59 62 80 0
-57 -75 77 0
-56 -58 76 0
-54 -57 -73 0
-54 65 78 0
-53 -55 66 0
-51 -54 -67 0
-51 62 -76 0
-50 -64 -74 0
-49 67 -73 0
-45 -48 63 0
-45 53 -60 0
-44 68 78 0
-43 -55 -71 0
-43 47 -53 0
-42 -52 70 0
-42 60 73 0
-42 66 -72 0
-41 55 61 0
-41 63 -64 0
-40 55 -70 0
-39 -56 -57 0
-39 48 64 0
-39 56 73 0
-38 40 75 0
-37 39 69 0
-36 -69 -75 0
-36 -63 -65 0
-36 37 -77 0
-36 61 -63 0
-35 53 70 0
-35 62 76 0
-34 -43 75 0
-34 57 77 0
-33 -64 79 0
-33 -39 -54 0
-33 36 41 0
-32 46 -68 0
-32 55 -58 0
-31 42 79 0
-29 -55 -65 0
-29 -46 -69 0
-29 42 67 0
-28 -48 -66 0
-28 30 76 0
-28 33 67 0
-28 41 47 0
-28 76 -79 0
-27 -58 67 0
-27 39 -61 0
-26 -42 71 0
-26 34 44 0
-25 -55 80 0
-25 -54 57 0
-25 28 77 0
-24 -44 78 0
-24 54 70 0
-23 -38 -60 0
-23 38 -67 0
-23 63 -77 0
-22 -24 -69 0
-22 27 54 0
-22 58 72 0
-21 -65 73 0
-21 -54 76 0
-21 -22 -41 0
-21 25 43 0
-21 32 44 0
-21 76 80 0
-20 -33 -77 0
-20 -33 -68 0
-20 26 -59 0
-20 28 -52 0
-19 -25 -70 0
-18 -42 65 0
-18 -30 -61 0
-18 20 25 0
-18 32 40 0
-18 45 65 0
-18 57 -65 0
-17 -46 76 0
-17 19 54 0
-17 40 49 0
-16 -40 54 0
-16 -30 -66 0
-16 -29 -33 0
-16 -24 68 0
-16 31 75 0
-16 57 -71 0
-15 -25 -74 0
-15 31 -38 0
-14 -30 54 0
-14 26 68 0
-13 -57 -71 0
-13 -56 -80 0
-13 -51 -73 0
-13 -33 50 0
-13 -27 -73 0
-13 -17 23 0
-13 17 -52 0
-12 -61 64 0
-12 -33 -73 0
-12 -15 -23 0
-12 26 67 0
-12 40 80 0
-12 51 -77 0
-12 64 67 0
-11 -32 -35 0
-11 -29 67 0
-11 16 43 0
-11 22 66 0
-11 23 37 0
-11 62 -77 0
-10 -44 62 0
-10 33 -48 0
-10 34 -44 0
-10 46 -80 0
-10 64 68 0
-9 -39 73 0
-9 -22 76 0
-9 -16 46 0
-9 -10 -11 0
-9 30 79 0
-8 -49 -64 0
-8 -34 36 0
-8 -32 -37 0
-8 -19 -61 0
-8 -17 -77 0
-8 -14 33 0
-8 -12 63 0
-8 -9 -49 0
-8 -9 79 0
-8 12 71 0
-8 13 -37 0
-7 -74 -79 0
-7 -28 30 0
-7 -13 -42 0
-7 24 67 0
-6 -35 -79 0
-6 -13 29 0
-6 -7 -37 0
-6 -7 -34 0
-5 -33 -71 0
-5 -31 62 0
-5 -15 -73 0
-5 6 58 0
-5 22 54 0
-5 32 -73 0
-5 64 68 0
-4 -63 74 0
-4 -22 63 0
-4 -11 58 0
-4 24 -27 0
-4 25 40 0
-3 -64 73 0
-3 -51 76 0
-3 -49 -79 0
-3 -42 55 0
-3 -35 -46 0
-3 -27 32 0
-3 -24 -78 0
-3 -20 -39 0
-3 -17 41 0
-3 -4 62 0
-3 24 -38 0
-3 26 -79 0
-2 -44 57 0
-2 15 -52 0
-1 -31 54 0
-1 -13 32 0
-1 4 -14 0
-1 5 71 0
-1 28 35 0
-1 28 60 0
-1 46 -57 0
1 -33 60 0
1 -7 -39 0
1 2 3 0
1 8 -12 0
1 30 58 0
1 47 -70 0
2 -27 -42 0
2 7 -70 0
2 7 -30 0
2 37 -57 0
2 76 79 0
3 -10 38 0
3 5 -20 0
3 40 -77 0
3 41 -78 0
4 -53 54 0
4 -47 -80 0
4 21 -32 0
4 66 80 0
5 -63 75 0
5 -33 -56 0
6 -37 38 0
6 -16 60 0
6 29 43 0
6 41 74 0
7 -46 59 0
7 12 70 0
7 27 -49 0
8 -25 -51 0
8 -20 -67 0
8 -16 48 0
8 11 -39 0
8 62 -72 0
9 -22 59 0
9 -21 -35 0
9 -10 39 0
9 18 -39 0
9 27 -62 0
9 48 54 0
10 -68 -80 0
10 -19 33 0
10 39 43 0
10 50 -72 0
11 -21 -44 0
11 -12 -18 0
11 21 -29 0
11 23 51 0
11 36 73 0
11 53 -65 0
12 -16 -79 0
12 17 -48 0
12 33 -52 0
12 50 -53 0
12 67 -72 0
12 72 -80 0
13 -51 -53 0
13 -31 50 0
14 -64 -80 0
15 -42 -53 0
15 29 67 0
15 30 -34 0
15 32 -73 0
15 59 69 0
16 -46 -80 0
17 -67 78 0
17 -34 53 0
17 -34 56 0
17 46 52 0
17 56 60 0
18 -23 -40 0
18 35 69 0
19 60 80 0
20 -63 -77 0
20 -57 -80 0
20 -39 -65 0
20 24 -80 0
20 56 -65 0
21 -75 -80 0
21 -46 -73 0
21 -42 47 0
21 45 -49 0
21 45 75 0
21 52 -66 0
21 55 -57 0
22 -35 38 0
22 43 -58 0
22 52 -67 0
23 -50 70 0
23 30 53 0
23 59 68 0
24 -37 -72 0
24 43 -72 0
25 -32 -40 0
25 -31 -38 0
25 29 -43 0
25 43 -75 0
25 50 71 0
26 -64 -74 0
26 -54 57 0
26 28 76 0
26 29 -70 0
26 65 -80 0
27 -43 68 0
27 -32 -64 0
27 38 54 0
27 41 47 0
27 56 -62 0
27 65 -80 0
28 -72 -79 0
28 -67 -77 0
28 -58 -72 0
29 -43 -80 0
29 43 64 0
29 51 73 0
30 58 -77 0
31 -59 -68 0
31 -34 79 0
31 47 -78 0
31 47 58 0
31 58 -70 0
31 75 80 0
32 -44 72 0
32 43 -55 0
33 -55 78 0
33 47 49 0
33 49 -56 0
34 -55 -80 0
35 -45 55 0
35 -42 44 0
35 -36 80 0
35 40 75 0
35 50 -78 0
36 -59 70 0
36 -50 61 0
36 37 -40 0
36 65 -71 0
39 -66 -77 0
39 -41 60 0
39 48 -72 0
39 53 -65 0
39 63 -75 0
39 66 -79 0
40 -58 72 0
40 -50 67 0
41 -57 71 0
41 45 52 0
41 46 61 0
43 -64 -69 0
43 48 -65 0
43 62 74 0
46 -53 -68 0
46 -49 -52 0
46 50 61 0
47 -62 -79 0
47 -53 62 0
48 -52 59 0
48 59 65 0
50 53 -60 0
51 -58 -66 0
54 -66 74 0
57 63 65 0
62 -65 -67 0
65 -72 73 0
