p cnf 60 180
-46 -47 -49 0
-45 52 -55 0
-44 46 -59 0
-40 -42 -57 0
-40 53 -56 0
-32 35 -59 0
-32 40 51 0
-30 -39 52 0
-30 -34 -56 0
-30 49 -51 0
-29 -36 44 0
-29 -36 49 0
-28 -40 56 0
-28 -33 60 0
-26 -54 -59 0
-26 35 36 0
-25 33 51 0
-24 -45 47 0
-24 26 42 0
-24 32 59 0
-23 -50 56 0
-23 -35 -52 0
-23 32 -47 0
-22 33 -56 0
-18 -41 -60 0
-18 -24 47 0
-17 -36 48 0
-16 -34 53 0
-16 -18 -53 0
-16 21 58 0
-16 28 -37 0
-16 38 56 0
-15 -33 -56 0
-15 -23 57 0
-14 -34 37 0
-14 47 52 0
-13 -35 -58 0
-13 -19 39 0
-13 -17 22 0
-13 29 -51 0
-12 13 -36 0
-11 -48 -54 0
-11 -48 54 0
-11 15 57 0
-11 36 56 0
-10 -52 57 0
-10 -30 31 0
-10 -17 -52 0
-9 -14 33 0
-9 30 -57 0
-9 30 -48 0
-9 34 -41 0
-8 -17 -58 0
-8 -17 -52 0
-8 -13 -58 0
-8 48 58 0
-7 -58 -60 0
-7 14 28 0
-7 15 -44 0
-7 16 40 0
-7 21 -49 0
-7 41 -43 0
-6 -20 23 0
-6 7 -59 0
-6 20 -49 0
-5 -8 -41 0
-5 10 -50 0
-5 18 43 0
-5 39 -58 0
-4 23 -55 0
-4 24 37 0
-4 36 45 0
-3 -46 -47 0
-3 -14 41 0
-3 -12 22 0
-3 -10 28 0
-3 13 55 0
-2 6 -30 0
-1 -34 40 0
-1 -13 -42 0
-1 -8 13 0
-1 -7 42 0
-1 11 -25 0
-1 37 49 0
1 -19 36 0
1 16 -25 0
1 22 -34 0
2 -4 42 0
3 28 55 0
3 41 58 0
4 -48 -57 0
5 -51 -53 0
5 -37 -54 0
5 -34 -48 0
5 -26 47 0
5 -12 -29 0
5 26 31 0
5 30 -37 0
6 -33 -46 0
6 -16 33 0
6 22 -39 0
6 38 42 0
7 -9 -34 0
8 -14 -49 0
8 14 55 0
8 29 -51 0
9 -32 -40 0
9 22 56 0
10 -56 -57 0
10 -51 53 0
10 -30 -58 0
10 -24 -37 0
10 -23 -37 0
10 23 -58 0
10 34 -35 0
10 37 52 0
11 -23 36 0
11 20 52 0
11 31 -43 0
12 -47 53 0
12 -39 48 0
12 -29 -48 0
12 -19 -50 0
12 23 54 0
12 24 43 0
12 32 43 0
12 46 -51 0
13 -31 44 0
13 -28 -46 0
13 -19 24 0
13 15 -26 0
13 19 38 0
14 20 60 0
14 34 47 0
15 -39 -55 0
15 20 -26 0
15 53 55 0
16 -26 31 0
16 28 38 0
16 36 57 0
17 -28 -32 0
17 25 -60 0
17 33 -57 0
18 -42 -47 0
18 -35 38 0
18 -34 59 0
18 43 -52 0
19 -36 -45 0
19 43 -46 0
20 -31 -42 0
21 -45 57 0
21 27 -41 0
22 -26 -45 0
22 24 -57 0
22 29 -51 0
23 -34 48 0
23 -30 32 0
23 24 36 0
23 42 -52 0
23 51 -56 0
24 -38 -50 0
25 -39 47 0
25 -29 -43 0
25 26 -28 0
27 -34 60 0
28 -48 51 0
28 -43 -44 0
28 42 54 0
29 -41 52 0
29 49 -53 0
30 32 -45 0
30 36 -41 0
30 49 53 0
33 35 41 0
35 -39 -43 0
37 49 60 0
40 52 -57 0
43 -52 -56 0
45 57 -59 0
53 -55 59 0
