p cnf 60 180
-55 58 59 0
-51 52 -53 0
-50 -51 60 0
-48 -55 -60 0
-44 -48 50 0
-43 -49 56 0
-40 47 51 0
-40 50 -55 0
-37 40 -43 0
-37 41 47 0
-37 43 58 0
-34 38 -53 0
-33 -44 56 0
-33 -40 59 0
-33 42 -58 0
-31 -37 53 0
-31 37 -52 0
-29 -36 43 0
-29 34 -49 0
-29 48 -56 0
-27 -55 59 0
-27 -37 -42 0
-25 38 55 0
-23 26 48 0
-23 46 -57 0
-22 24 -56 0
-22 32 48 0
-22 52 -54 0
-21 -53 57 0
-21 -48 -57 0
-20 -46 58 0
-20 -41 53 0
-20 -34 46 0
-19 -39 -41 0
-19 23 25 0
-19 29 60 0
-18 -53 -55 0
-18 -47 -52 0
-18 35 36 0
-17 -29 44 0
-17 -19 24 0
-16 -48 49 0
-16 -27 34 0
-16 24 49 0
-15 -25 -47 0
-15 -16 40 0
-15 34 49 0
-14 -39 -43 0
-14 29 42 0
-14 39 -43 0
-13 -32 58 0
-13 17 29 0
-13 28 57 0
-12 15 -42 0
-10 -58 59 0
-10 -39 40 0
-10 -30 59 0
-10 27 40 0
-9 15 56 0
-9 47 -57 0
-8 -11 20 0
-8 -9 -34 0
-8 -9 -22 0
-8 44 51 0
-7 -58 -60 0
-7 -42 51 0
-7 -36 -59 0
-7 47 51 0
-7 57 58 0
-6 -11 -42 0
-5 30 -33 0
-4 -41 60 0
-4 -12 31 0
-4 12 16 0
-3 -42 59 0
-3 -12 -57 0
-3 7 12 0
-3 11 36 0
-3 13 -43 0
-3 24 30 0
-3 27 -31 0
-2 -12 42 0
-2 -11 18 0
-2 -8 48 0
-2 -4 36 0
-2 19 35 0
-1 -48 -55 0
-1 -40 -52 0
-1 -36 -55 0
-1 -21 48 0
-1 -7 -36 0
-1 43 55 0
1 -34 -54 0
1 -16 49 0
1 32 54 0
2 -53 54 0
2 -26 -51 0
2 -22 -59 0
2 -10 -25 0
2 5 25 0
2 16 -43 0
2 22 32 0
2 39 57 0
3 -17 38 0
3 -7 -59 0
3 -6 -58 0
3 6 -14 0
3 17 -41 0
3 25 29 0
4 -30 41 0
4 -27 58 0
4 -17 27 0
4 -9 -58 0
4 51 56 0
5 -25 42 0
5 20 57 0
5 44 48 0
5 47 -60 0
6 -32 -50 0
6 -26 -53 0
6 -19 46 0
6 -19 48 0
6 15 32 0
7 -27 -50 0
7 -17 -32 0
7 9 -54 0
7 10 59 0
7 14 46 0
7 49 -52 0
8 -26 -41 0
8 -16 56 0
9 -30 -47 0
9 -19 40 0
9 -17 -30 0
9 35 -50 0
9 37 54 0
10 -37 -54 0
10 -21 34 0
10 -13 30 0
10 18 34 0
11 -31 -54 0
11 -24 -42 0
11 16 -35 0
11 20 -25 0
11 52 60 0
12 -21 -37 0
12 25 -53 0
14 -21 -35 0
14 23 -51 0
14 29 -58 0
15 -32 41 0
15 -25 -37 0
15 -16 59 0
15 27 34 0
16 -42 58 0
18 -37 45 0
18 46 54 0
19 -30 57 0
19 23 40 0
20 -27 -28 0
20 24 -50 0
21 24 -37 0
21 25 -35 0
21 29 -44 0
22 52 55 0
23 -27 -59 0
24 -36 -48 0
24 31 42 0
26 -29 -49 0
27 -31 -43 0
27 29 -52 0
29 30 58 0
30 -44 48 0
30 51 56 0
35 -49 -51 0
37 59 -60 0
38 45 -52 0
39 56 58 0
40 -49 -56 0
43 -50 56 0
