p cnf 140 595
-130 -133 136 0
-125 -128 131 0
-122 -133 -138 0
-121 130 135 0
-117 -124 130 0
-117 -119 137 0
-96 -111 122 0
-87 128 130 0
-86 94 122 0
-83 85 -114 0
-83 95 -135 0
-78 -99 118 0
-77 126 -129 0
-76 -116 129 0
-76 -85 -115 0
-76 87 98 0
-74 76 -133 0
-73 -103 107 0
-73 -82 -118 0
-73 114 130 0
-72 -81 -92 0
-72 77 -96 0
-72 92 132 0
-71 -108 120 0
-71 100 122 0
-71 113 -115 0
-71 117 124 0
-69 93 -114 0
-68 97 -123 0
-68 98 -109 0
-67 -113 133 0
-67 -68 100 0
-66 -120 -124 0
-66 -105 124 0
-65 110 -117 0
-63 -115 116 0
-63 -84 122 0
-63 64 -107 0
-63 75 93 0
-63 76 -101 0
-62 -91 -120 0
-62 -76 113 0
-61 -131 -134 0
-60 -69 -139 0
-60 -67 -68 0
-60 -61 -136 0
-59 -109 112 0
-59 -76 -89 0
-58 -106 -128 0
-57 -59 -133 0
-57 -58 -94 0
-56 -83 -131 0
-56 -69 99 0
-56 -59 -110 0
-56 67 -71 0
-55 -93 -135 0
-54 -93 140 0
-54 56 -113 0
-54 58 94 0
-54 80 -117 0
-54 86 -105 0
-54 87 -112 0
-53 -89 118 0
-53 -63 -66 0
-53 74 133 0
-53 84 -117 0
-52 -106 122 0
-52 -66 122 0
-52 -62 79 0
-52 86 131 0
-52 101 -110 0
-51 -73 -133 0
-51 -64 99 0
-51 64 100 0
-51 71 -91 0
-50 -90 -100 0
-50 60 137 0
-50 67 95 0
-48 -50 58 0
-46 -104 106 0
-46 -69 138 0
-46 -48 -139 0
-46 87 91 0
-45 46 133 0
-45 77 -126 0
-45 87 108 0
-44 -111 139 0
-44 -58 127 0
-44 132 140 0
-43 52 127 0
-43 95 118 0
-42 65 -78 0
-42 76 124 0
-41 -74 -112 0
-41 -59 -103 0
-41 42 137 0
-41 53 -106 0
-41 110 -127 0
-40 -68 83 0
-40 -65 133 0
-40 86 113 0
-40 88 -109 0
-39 -56 90 0
-39 40 -74 0
-39 48 -84 0
-39 107 130 0
-38 -88 117 0
-38 52 -122 0
-38 53 84 0
-37 -87 90 0
-37 -59 -64 0
-37 110 -124 0
-36 -90 136 0
-36 -82 132 0
-36 -65 -82 0
-36 79 118 0
-35 -77 100 0
-35 86 -118 0
-34 -65 114 0
-34 -62 -79 0
-34 48 -116 0
-34 100 -118 0
-33 -56 140 0
-33 -35 -94 0
-33 36 -99 0
-33 83 -115 0
-33 91 -128 0
-32 -43 55 0
-32 52 108 0
-31 -36 42 0
-31 -35 -40 0
-31 77 122 0
-30 -58 81 0
-30 -57 -137 0
-29 -93 134 0
-29 -78 109 0
-29 -34 -59 0
-29 103 114 0
-29 106 129 0
-28 30 117 0
-27 -89 112 0
-27 -62 65 0
-27 -55 -96 0
-27 30 74 0
-27 38 -56 0
-26 -67 -75 0
-26 -63 74 0
-26 -62 -66 0
-26 -49 78 0
-26 56 -82 0
-26 68 -137 0
-25 -77 133 0
-25 -75 76 0
-24 -123 -134 0
-24 -77 102 0
-24 -54 -134 0
-24 133 134 0
-23 -107 -114 0
-23 -102 134 0
-23 -72 123 0
-23 -63 -68 0
-23 -59 96 0
-23 -37 92 0
-23 34 -127 0
-23 40 -118 0
-22 -48 84 0
-22 32 135 0
-22 38 -95 0
-22 43 48 0
-22 43 120 0
-21 -74 -93 0
-21 -43 -51 0
-21 50 -111 0
-21 105 127 0
-20 -74 109 0
-20 -47 -53 0
-20 -35 96 0
-19 -108 -119 0
-19 -103 -109 0
-19 39 42 0
-19 41 -127 0
-19 63 76 0
-18 -39 -119 0
-18 61 -69 0
-18 74 -138 0
-18 78 138 0
-17 -94 -105 0
-17 -84 -100 0
-17 -33 43 0
-17 -20 60 0
-17 -20 125 0
-17 19 51 0
-17 25 104 0
-17 92 -112 0
-17 105 122 0
-16 26 46 0
-16 38 52 0
-16 45 79 0
-16 57 78 0
-16 82 -119 0
-15 -49 83 0
-15 -17 -107 0
-15 27 93 0
-15 56 -61 0
-15 58 138 0
-15 94 -108 0
-14 -58 138 0
-14 -57 -118 0
-14 -55 129 0
-14 -36 -101 0
-14 16 -48 0
-14 53 -64 0
-12 -84 107 0
-12 -67 110 0
-12 -60 -95 0
-12 -28 99 0
-12 -22 -39 0
-12 15 33 0
-12 74 123 0
-11 -64 -82 0
-11 -51 71 0
-11 56 109 0
-10 -102 -133 0
-10 -92 126 0
-10 -90 -94 0
-10 -47 123 0
-10 -29 -126 0
-10 -22 54 0
-9 16 -139 0
-9 33 132 0
-8 -90 121 0
-8 -43 -61 0
-8 -29 -91 0
-8 -27 123 0
-8 -20 140 0
-8 23 -32 0
-8 81 -112 0
-8 103 -114 0
-7 -87 -102 0
-7 -46 118 0
-7 -44 -95 0
-7 18 95 0
-7 35 56 0
-7 102 -121 0
-6 -133 140 0
-6 -121 -124 0
-6 -118 129 0
-6 -106 110 0
-6 -95 101 0
-6 -59 129 0
-6 -58 59 0
-6 -33 -87 0
-6 30 70 0
-6 111 -139 0
-5 -27 91 0
-5 -21 54 0
-5 43 79 0
-4 -69 98 0
-4 -55 -140 0
-4 -38 -78 0
-4 -28 -133 0
-4 -23 37 0
-4 14 87 0
-3 -82 86 0
-3 -60 90 0
-3 -49 75 0
-3 -45 126 0
-3 -25 -74 0
-3 -22 40 0
-3 5 71 0
-3 25 -117 0
-3 43 74 0
-2 -14 -98 0
-2 16 41 0
-2 30 -36 0
-2 31 -38 0
-2 61 -72 0
-2 73 81 0
-1 -116 -137 0
-1 -107 -110 0
-1 -84 139 0
-1 -60 -135 0
-1 -17 -94 0
-1 -5 89 0
-1 8 -24 0
-1 38 -74 0
-1 45 -58 0
-1 71 -123 0
-1 133 -140 0
1 -70 -114 0
1 -66 -109 0
1 -65 115 0
1 -14 24 0
1 11 -25 0
1 30 56 0
1 86 96 0
2 -58 -96 0
2 -38 -98 0
2 -14 63 0
2 37 120 0
2 49 135 0
3 -132 137 0
3 -47 -123 0
3 7 -11 0
3 10 46 0
3 81 129 0
3 125 -129 0
3 130 -136 0
4 -99 -139 0
4 -75 100 0
4 -58 99 0
4 -36 -69 0
4 -26 -83 0
4 -10 69 0
4 16 -120 0
4 57 -73 0
4 61 125 0
4 78 92 0
4 91 -95 0
5 -81 -103 0
5 -57 -87 0
5 -23 92 0
5 69 -83 0
5 81 86 0
5 115 -127 0
6 9 36 0
6 14 -88 0
7 -108 -127 0
7 -43 62 0
7 -11 131 0
8 -55 -131 0
8 -46 112 0
8 -29 -55 0
8 -25 -139 0
8 -21 -97 0
8 39 43 0
8 42 -134 0
8 52 -106 0
9 61 -94 0
10 -103 119 0
10 -46 -98 0
10 27 -138 0
10 39 -73 0
10 39 135 0
10 46 53 0
10 54 -126 0
10 64 100 0
10 93 97 0
11 -107 -108 0
11 -75 110 0
11 -73 129 0
11 -46 -73 0
11 -36 72 0
11 -26 -119 0
11 32 -114 0
11 94 -115 0
12 -114 119 0
12 -103 135 0
12 -66 -133 0
12 -43 -91 0
12 -29 95 0
12 14 108 0
12 66 118 0
12 74 89 0
12 123 140 0
13 -23 34 0
13 -23 78 0
13 -18 -23 0
13 17 86 0
14 -73 -136 0
14 17 -25 0
14 90 126 0
14 119 -128 0
15 -75 81 0
15 -53 -139 0
15 -42 89 0
15 38 124 0
15 76 102 0
16 -20 37 0
16 -17 -81 0
16 55 -102 0
16 77 -112 0
16 99 -136 0
17 -61 -106 0
17 -59 77 0
17 -46 133 0
17 -35 124 0
17 -23 37 0
17 30 -91 0
17 68 -88 0
18 -135 -138 0
18 -66 122 0
18 -51 122 0
18 -22 -110 0
18 85 86 0
19 -127 -130 0
19 -37 109 0
20 -71 122 0
20 -45 111 0
20 -24 -130 0
20 28 -111 0
20 42 -135 0
20 51 114 0
20 123 -139 0
21 -88 95 0
21 -35 80 0
21 30 121 0
21 46 -139 0
21 87 107 0
21 113 116 0
22 -95 109 0
22 -83 -133 0
22 62 94 0
22 101 -125 0
22 118 -129 0
23 -134 -138 0
23 -103 119 0
23 -34 -36 0
23 87 -113 0
24 40 131 0
25 -118 -131 0
25 -115 135 0
25 -109 -137 0
25 -91 104 0
25 -83 -121 0
25 -80 88 0
25 44 -102 0
25 60 119 0
25 77 -114 0
26 -64 81 0
26 -42 -128 0
26 57 118 0
27 -71 72 0
27 -57 112 0
27 -50 -91 0
27 -31 116 0
27 41 -121 0
27 47 -127 0
28 -95 -106 0
28 -29 76 0
28 63 -76 0
28 113 134 0
29 -92 100 0
29 -86 128 0
29 -70 -99 0
29 -50 84 0
29 -30 107 0
29 49 121 0
29 70 140 0
30 -106 115 0
30 119 -121 0
31 -102 -122 0
31 -86 127 0
31 72 125 0
32 -75 102 0
32 -74 111 0
32 42 71 0
32 65 98 0
32 70 88 0
32 122 -128 0
33 -120 -133 0
33 -103 -129 0
33 65 115 0
33 80 -114 0
33 102 118 0
34 -39 124 0
34 44 109 0
34 115 -138 0
35 -69 -74 0
35 -51 -138 0
35 -37 41 0
35 75 129 0
35 110 -120 0
36 -86 96 0
36 63 66 0
36 109 129 0
37 -72 130 0
37 -66 117 0
38 -78 85 0
38 -50 -65 0
38 51 96 0
38 107 116 0
38 108 137 0
39 -110 128 0
39 -75 84 0
39 107 114 0
40 -76 -96 0
40 -54 -111 0
41 -75 -90 0
41 -59 136 0
41 -58 -129 0
41 65 106 0
42 -108 125 0
43 -93 110 0
44 -76 -87 0
44 -71 -98 0
44 -46 134 0
44 68 134 0
44 108 117 0
45 -128 134 0
45 -97 109 0
45 -95 105 0
45 -83 -110 0
45 -53 -70 0
45 59 119 0
46 -55 80 0
46 54 -138 0
47 -71 -135 0
47 -71 120 0
47 -56 74 0
47 59 -111 0
48 -69 115 0
48 77 -112 0
49 -83 84 0
49 -67 -72 0
50 -133 138 0
50 58 -131 0
52 -100 -113 0
52 57 -117 0
52 119 -122 0
53 -111 -135 0
54 -80 97 0
54 -78 -89 0
54 -66 -99 0
54 -64 -99 0
55 117 -120 0
57 -65 -110 0
57 -59 -135 0
57 62 -110 0
57 80 -106 0
57 96 -107 0
58 -70 -131 0
58 70 -96 0
59 61 -88 0
60 88 -135 0
61 -79 -113 0
62 -96 106 0
62 86 -97 0
63 -79 -86 0
63 73 136 0
64 -79 -136 0
64 67 105 0
65 -99 -119 0
65 74 138 0
65 104 131 0
66 -111 -136 0
66 78 108 0
66 85 -125 0
67 -108 134 0
67 80 107 0
67 89 94 0
67 91 125 0
68 -93 132 0
68 -71 111 0
68 74 100 0
69 -96 117 0
69 -83 92 0
70 -75 96 0
71 -120 123 0
71 -86 137 0
71 -85 137 0
71 85 -119 0
72 -98 -113 0
73 -123 -135 0
73 -80 -137 0
73 79 95 0
74 -106 139 0
74 82 92 0
75 -108 122 0
75 79 -140 0
75 83 -138 0
75 104 113 0
75 128 129 0
76 -79 -82 0
76 86 -134 0
78 83 -93 0
79 -126 137 0
80 -82 -106 0
82 -104 -127 0
83 -134 139 0
84 -90 98 0
87 -91 -102 0
87 93 -118 0
89 94 137 0
95 -109 -120 0
98 -121 125 0
98 -101 137 0
99 112 -121 0
101 107 -134 0
102 112 135 0
107 -117 121 0
108 133 -140 0
114 117 130 0
114 128 -130 0
119 -131 -139 0
