p cnf 90 383
-76 -89 90 0
-69 -82 -87 0
-68 -83 -88 0
-63 65 79 0
-62 68 75 0
-59 -66 -74 0
-56 -58 90 0
-56 74 -89 0
-55 64 -90 0
-54 -60 71 0
-53 -73 79 0
-51 52 59 0
-50 -65 -69 0
-49 -71 -83 0
-49 -56 58 0
-49 -54 77 0
-48 58 -83 0
-47 -79 89 0
-46 66 -80 0
-45 -74 80 0
-45 -53 59 0
-45 53 -82 0
-44 69 -78 0
-43 -79 -80 0
-42 -76 83 0
-42 -70 -81 0
-42 62 83 0
-41 -47 -56 0
-41 61 -74 0
-41 82 88 0
-40 -51 88 0
-40 74 -78 0
-38 -80 81 0
-38 -69 -76 0
-37 53 61 0
-37 55 -64 0
-37 59 -89 0
-35 -36 -78 0
-35 41 60 0
-35 76 -88 0
-34 36 -38 0
-33 -37 -40 0
-33 38 -50 0
-33 49 68 0
-33 52 63 0
-32 -58 -60 0
-32 39 -59 0
-32 45 -59 0
-32 57 64 0
-32 58 60 0
-31 -64 66 0
-30 -36 60 0
-30 32 44 0
-30 46 67 0
-29 -60 -81 0
-29 -39 48 0
-29 -36 -44 0
-29 74 85 0
-28 -58 85 0
-28 58 -90 0
-27 -48 -79 0
-27 43 49 0
-27 45 58 0
-27 45 81 0
-27 60 -67 0
-27 85 -88 0
-26 -31 -41 0
-25 -31 66 0
-25 27 35 0
-25 76 -78 0
-24 -42 85 0
-24 -29 -74 0
-24 33 51 0
-24 38 -55 0
-23 -72 -84 0
-23 -61 -89 0
-23 -36 -66 0
-23 -25 -58 0
-23 28 -77 0
-23 32 -70 0
-23 43 78 0
-22 -42 -63 0
-22 -27 40 0
-22 -24 80 0
-22 27 -79 0
-22 40 -54 0
-22 54 -55 0
-22 82 83 0
-21 -53 82 0
-21 -53 83 0
-21 62 72 0
-21 71 82 0
-20 -25 -88 0
-20 25 -77 0
-19 47 71 0
-18 -30 -86 0
-18 -25 53 0
-18 33 73 0
-18 35 70 0
-17 37 -64 0
-16 -38 -75 0
-16 -31 -38 0
-16 -23 90 0
-16 21 -89 0
-16 54 -80 0
-15 17 -63 0
-15 22 55 0
-15 63 -68 0
-14 -17 34 0
-14 23 -56 0
-14 28 -83 0
-14 41 -69 0
-14 66 78 0
-13 -63 -86 0
-13 -34 53 0
-13 -18 40 0
-13 30 -75 0
-13 37 65 0
-13 54 67 0
-13 62 -66 0
-12 -37 -76 0
-12 16 40 0
-12 22 52 0
-12 22 54 0
-12 25 -32 0
-11 -49 71 0
-11 -29 -70 0
-11 -12 81 0
-11 23 -70 0
-11 44 75 0
-11 57 90 0
-10 -66 74 0
-10 -63 -83 0
-10 -17 -42 0
-10 -13 63 0
-10 78 -80 0
-9 -70 -88 0
-9 -56 -58 0
-9 -54 -62 0
-9 -38 41 0
-9 -34 -47 0
-9 -33 34 0
-9 32 36 0
-9 52 67 0
-9 79 -84 0
-8 -63 89 0
-8 -27 -87 0
-8 -27 82 0
-8 -10 -56 0
-8 53 -62 0
-8 54 57 0
-8 60 65 0
-7 -52 -54 0
-7 -34 -39 0
-7 -17 -22 0
-7 -15 71 0
-7 29 49 0
-6 -36 -85 0
-6 -29 57 0
-6 -19 59 0
-6 -9 -66 0
-6 23 -48 0
-6 31 73 0
-6 55 -78 0
-6 62 -65 0
-5 -18 88 0
-5 16 29 0
-5 19 81 0
-5 44 69 0
-4 -54 -87 0
-4 -44 -90 0
-4 -31 -80 0
-4 -28 -43 0
-4 -21 77 0
-4 26 30 0
-4 33 36 0
-4 37 51 0
-3 -77 84 0
-3 -53 75 0
-3 -13 -70 0
-3 26 -74 0
-2 -17 35 0
-2 -16 -80 0
-2 -12 -72 0
-2 -12 -23 0
-2 -11 -21 0
-2 16 -78 0
-2 20 69 0
-2 22 -36 0
-2 39 78 0
-1 -60 -79 0
-1 -16 24 0
-1 -14 -17 0
-1 -13 -52 0
-1 21 85 0
-1 82 89 0
1 -50 -52 0
1 -33 46 0
1 -31 -58 0
1 -17 83 0
1 -8 28 0
1 13 -71 0
1 28 -39 0
1 75 88 0
2 -33 38 0
2 -13 -42 0
2 26 55 0
2 38 70 0
2 46 69 0
3 -36 -88 0
3 52 -54 0
3 73 87 0
4 -76 80 0
4 -60 -80 0
4 -33 -51 0
4 -20 45 0
4 5 -80 0
4 23 -44 0
4 25 -65 0
4 38 84 0
5 -22 33 0
5 -19 -49 0
5 -15 90 0
5 -11 -86 0
5 6 -20 0
5 11 58 0
5 26 31 0
5 31 41 0
5 39 79 0
5 43 -80 0
6 -73 78 0
6 -55 71 0
6 -40 -89 0
6 -35 -66 0
6 -28 42 0
6 -9 -64 0
6 12 33 0
6 29 65 0
6 51 72 0
7 -14 56 0
7 -8 61 0
7 9 56 0
7 20 31 0
8 -26 -38 0
8 -12 -84 0
8 14 -15 0
8 50 -79 0
9 -68 74 0
9 -41 51 0
9 -38 66 0
9 12 87 0
9 21 -54 0
10 -35 -78 0
10 -26 -52 0
10 19 78 0
10 32 61 0
10 34 -59 0
10 57 -73 0
10 60 67 0
11 -29 47 0
11 -22 -32 0
11 -14 -51 0
11 13 18 0
12 -65 86 0
12 -55 58 0
12 -40 53 0
12 -34 -90 0
12 -25 87 0
12 25 -85 0
12 41 -64 0
13 -46 78 0
13 -41 -86 0
13 20 70 0
13 66 -70 0
14 -53 -87 0
14 -34 -64 0
14 18 -66 0
14 29 90 0
14 39 57 0
14 40 65 0
14 49 -71 0
15 -74 -81 0
15 -57 84 0
15 -28 -33 0
15 -18 62 0
15 21 31 0
15 31 -52 0
15 48 -77 0
15 72 -89 0
17 -36 -90 0
17 42 80 0
17 79 80 0
18 -56 -57 0
18 -47 87 0
18 -34 -54 0
19 29 -56 0
19 32 -89 0
20 -32 86 0
20 21 51 0
20 32 -53 0
20 71 -80 0
21 -53 -56 0
21 -49 62 0
21 -44 -71 0
21 -43 68 0
21 43 -54 0
21 46 77 0
23 -34 45 0
23 -27 -77 0
23 34 37 0
24 -45 -78 0
24 41 -48 0
25 -33 63 0
25 28 80 0
25 38 -68 0
25 40 -75 0
25 64 71 0
26 -52 79 0
26 38 39 0
27 59 -60 0
28 -31 -41 0
28 45 -64 0
28 60 -69 0
28 77 -89 0
29 -75 89 0
29 -61 90 0
29 -43 49 0
29 76 77 0
31 -70 84 0
31 -62 -79 0
32 -49 55 0
32 -47 72 0
32 -33 -44 0
32 37 -78 0
32 45 -73 0
33 46 -65 0
33 67 -84 0
33 76 78 0
33 78 -80 0
34 -64 66 0
34 68 -76 0
35 -67 75 0
35 -56 75 0
35 -53 -89 0
37 -55 -71 0
38 -83 -86 0
38 72 85 0
39 -44 -72 0
39 -42 86 0
40 -41 84 0
41 -81 89 0
41 -78 89 0
42 -53 59 0
42 -47 51 0
42 61 -65 0
43 -49 -59 0
44 -57 69 0
44 48 49 0
44 49 69 0
44 55 69 0
45 -55 85 0
45 49 -81 0
46 -62 70 0
46 -57 -73 0
46 52 -76 0
46 58 71 0
46 60 86 0
47 52 -60 0
47 69 78 0
48 50 -70 0
48 55 -87 0
50 -60 -72 0
59 -75 -84 0
59 69 81 0
60 66 -85 0
60 69 -82 0
60 80 -87 0
60 83 87 0
64 65 -74 0
64 69 -86 0
64 82 90 0
66 68 -88 0
66 81 90 0
