p cnf 80 260
-65 -77 -80 0
-65 -71 72 0
-64 -68 -76 0
-62 66 79 0
-56 60 -72 0
-56 68 -70 0
-51 -59 70 0
-50 63 78 0
-49 -68 -77 0
-47 61 64 0
-45 -48 -80 0
-45 65 73 0
-44 57 -79 0
-43 -60 65 0
-43 -57 -79 0
-43 -45 52 0
-42 -44 69 0
-41 -51 66 0
-38 46 56 0
-37 -71 75 0
-36 -63 77 0
-36 -40 79 0
-36 42 -56 0
-36 74 -78 0
-35 -37 -71 0
-35 66 -80 0
-34 -39 -69 0
-32 35 43 0
-31 53 67 0
-31 62 64 0
-30 -41 49 0
-30 -35 -69 0
-30 35 -47 0
-28 -68 74 0
-28 -53 64 0
-28 -39 -71 0
-28 36 41 0
-26 -43 73 0
-26 49 69 0
-24 35 68 0
-24 46 60 0
-24 52 74 0
-23 41 -74 0
-23 42 -49 0
-23 42 73 0
-22 -50 -62 0
-22 26 44 0
-21 -33 75 0
-21 53 -59 0
-20 35 -37 0
-20 48 -54 0
-20 71 -74 0
-19 -29 52 0
-19 34 -72 0
-19 40 79 0
-18 61 -80 0
-17 -27 34 0
-17 53 77 0
-16 32 -47 0
-16 46 79 0
-15 -42 51 0
-15 47 -77 0
-14 -51 -74 0
-14 -37 46 0
-14 -32 -35 0
-14 32 34 0
-13 25 -63 0
-13 48 69 0
-12 -46 -75 0
-12 30 60 0
-11 -40 47 0
-11 -21 -52 0
-11 -19 -49 0
-11 17 -57 0
-11 34 -38 0
-10 -63 -72 0
-10 -59 -78 0
-10 -39 54 0
-10 26 -69 0
-10 45 -65 0
-10 60 72 0
-9 21 -26 0
-9 49 65 0
-9 51 64 0
-7 -32 46 0
-7 -15 26 0
-7 8 30 0
-7 21 72 0
-7 42 73 0
-7 57 69 0
-6 -38 -46 0
-6 -21 -47 0
-6 -10 74 0
-6 10 26 0
-6 15 -76 0
-6 20 -35 0
-6 32 -34 0
-6 39 -42 0
-5 -45 53 0
-5 -24 35 0
-5 -18 32 0
-5 19 -33 0
-5 34 -59 0
-4 -63 -69 0
-3 -38 -41 0
-3 -23 36 0
-3 -12 -33 0
-3 4 51 0
-2 -71 74 0
-2 -27 33 0
-2 -9 -45 0
-2 -5 79 0
-2 9 -42 0
-2 19 -46 0
-1 -49 -63 0
-1 -38 78 0
-1 32 46 0
1 -47 -58 0
1 -43 -80 0
1 -14 16 0
1 16 -46 0
1 22 50 0
2 -60 70 0
2 -51 75 0
2 -20 74 0
2 45 50 0
3 -52 54 0
3 -8 -26 0
3 8 -55 0
3 22 37 0
3 38 -72 0
3 49 54 0
3 56 66 0
4 -35 48 0
4 -6 -72 0
4 17 -69 0
4 22 43 0
4 61 -77 0
5 -37 70 0
5 41 -70 0
6 -50 54 0
6 -36 72 0
6 -34 -58 0
6 -24 -63 0
6 8 42 0
6 20 73 0
6 26 -56 0
6 53 -79 0
7 -77 79 0
7 -19 -61 0
7 33 74 0
7 50 -60 0
8 21 38 0
8 39 51 0
8 44 61 0
8 58 63 0
9 -56 65 0
9 -31 -53 0
9 -23 38 0
10 -44 -65 0
10 -27 -45 0
10 18 -39 0
10 22 58 0
10 33 -67 0
10 41 69 0
11 -35 -53 0
11 -23 -73 0
11 -16 67 0
11 37 -64 0
12 -19 43 0
13 15 -40 0
13 19 -63 0
13 26 -46 0
13 30 -74 0
14 -34 -70 0
14 -27 -40 0
14 20 -32 0
14 56 80 0
14 59 -75 0
15 -71 -72 0
15 -18 -41 0
15 23 -66 0
15 60 -78 0
16 -67 69 0
16 -31 -59 0
16 -29 -51 0
16 -23 39 0
16 43 -71 0
16 60 77 0
17 -24 -77 0
17 -23 -73 0
17 39 -45 0
17 43 -63 0
17 68 76 0
18 -22 56 0
18 30 -63 0
19 -25 26 0
19 23 25 0
19 24 78 0
19 48 70 0
20 -33 49 0
20 21 -59 0
20 56 70 0
21 -65 -69 0
22 -36 71 0
24 -52 64 0
26 33 56 0
26 58 -69 0
26 62 66 0
26 69 -74 0
27 -38 55 0
27 46 -73 0
28 -54 79 0
28 -40 65 0
28 74 -79 0
29 -61 71 0
29 -53 64 0
29 -50 68 0
29 -44 -80 0
29 -31 -58 0
29 45 -70 0
29 47 64 0
29 60 65 0
30 -70 -73 0
30 -46 -69 0
30 -42 -47 0
30 37 74 0
32 -42 50 0
33 -63 70 0
33 -51 69 0
33 49 -77 0
34 -35 39 0
34 62 -77 0
35 -55 58 0
35 -46 -59 0
35 -39 -80 0
36 -40 -54 0
36 -37 -66 0
36 37 -67 0
38 -61 75 0
39 67 -79 0
40 43 62 0
40 61 -78 0
42 53 -66 0
44 47 -79 0
45 52 -79 0
46 -49 77 0
47 50 -57 0
52 -68 -79 0
52 53 56 0
53 63 66 0
54 -63 -77 0
54 -62 78 0
55 -65 69 0
56 -58 63 0
58 60 -67 0
59 70 78 0
60 72 77 0
62 -76 -77 0
69 76 -79 0
