p cnf 120 420
-108 112 118 0
-106 -110 118 0
-96 -112 114 0
-94 -115 120 0
-94 -103 113 0
-91 -108 -116 0
-89 -92 116 0
-88 -96 -106 0
-86 106 -111 0
-84 -104 109 0
-82 87 115 0
-78 -88 114 0
-77 87 -97 0
-76 103 113 0
-75 -83 -104 0
-75 76 -103 0
-74 -83 -115 0
-74 -75 -115 0
-74 75 -80 0
-74 85 118 0
-73 82 -89 0
-72 -96 -117 0
-69 -100 105 0
-69 -89 119 0
-68 75 114 0
-67 84 -112 0
-65 -92 99 0
-62 -69 78 0
-61 -85 113 0
-61 -69 -96 0
-61 77 -84 0
-61 91 98 0
-61 106 113 0
-60 -86 -111 0
-60 -80 111 0
-60 79 86 0
-59 71 -92 0
-59 79 120 0
-57 -95 -104 0
-53 81 -114 0
-51 -99 115 0
-50 -72 -109 0
-49 -68 -118 0
-48 -59 63 0
-48 49 104 0
-48 86 111 0
-47 -74 106 0
-47 55 65 0
-47 74 -114 0
-47 78 -117 0
-46 -58 -82 0
-46 -55 73 0
-45 60 101 0
-44 -65 -98 0
-44 57 -105 0
-43 -75 -97 0
-43 -59 105 0
-43 -56 -61 0
-43 -44 -65 0
-42 -64 71 0
-42 -53 -67 0
-42 55 -75 0
-42 71 95 0
-41 -52 -80 0
-41 -42 116 0
-41 48 -115 0
-41 64 71 0
-41 77 89 0
-39 -98 -119 0
-39 -87 -119 0
-39 -44 -111 0
-39 -43 -62 0
-39 -41 -68 0
-39 47 -70 0
-39 57 -81 0
-38 -65 -87 0
-38 63 95 0
-37 -49 -91 0
-37 39 85 0
-37 54 75 0
-36 -89 -103 0
-36 -73 -116 0
-35 40 102 0
-35 90 -107 0
-34 -80 -107 0
-34 -42 117 0
-34 56 -109 0
-34 70 -120 0
-33 -77 106 0
-33 -37 -51 0
-33 44 -46 0
-33 57 86 0
-32 -100 110 0
-31 -49 -90 0
-31 -48 51 0
-31 -33 -95 0
-31 44 71 0
-31 66 -71 0
-30 31 94 0
-30 64 112 0
-29 -96 111 0
-29 -96 113 0
-29 -66 72 0
-29 81 -108 0
-29 91 112 0
-28 -103 109 0
-28 -80 86 0
-28 -80 109 0
-28 43 63 0
-28 79 113 0
-27 -78 116 0
-27 -51 -119 0
-27 36 83 0
-27 97 101 0
-26 -38 58 0
-26 68 117 0
-26 79 -95 0
-25 -74 -83 0
-25 -59 -84 0
-25 51 73 0
-24 -54 -105 0
-24 -44 -75 0
-24 28 -73 0
-23 -29 114 0
-23 -28 -111 0
-23 28 -98 0
-23 100 -103 0
-22 -72 76 0
-22 39 66 0
-22 59 72 0
-21 -110 -118 0
-21 -27 82 0
-21 -26 57 0
-21 44 49 0
-21 46 99 0
-20 -67 -79 0
-20 -38 -92 0
-20 -38 53 0
-20 -27 109 0
-20 -25 -54 0
-19 -48 93 0
-19 34 -75 0
-19 64 -106 0
-18 -68 80 0
-18 -34 -50 0
-18 65 74 0
-17 -87 113 0
-17 18 84 0
-17 77 -81 0
-16 -40 -95 0
-16 39 55 0
-15 -63 -101 0
-15 47 -93 0
-15 51 85 0
-15 53 87 0
-15 63 -102 0
-14 -62 118 0
-14 -18 80 0
-14 16 53 0
-14 21 63 0
-14 36 -118 0
-14 72 -109 0
-13 -71 108 0
-13 -61 114 0
-13 -33 -80 0
-13 21 108 0
-13 34 -57 0
-13 80 89 0
-12 29 55 0
-11 -54 75 0
-11 -49 -83 0
-11 21 105 0
-11 33 -94 0
-11 59 -64 0
-11 71 -96 0
-10 -106 108 0
-10 -45 70 0
-10 -16 92 0
-10 -14 -16 0
-10 18 -112 0
-10 19 -74 0
-10 21 -73 0
-10 35 97 0
-9 -56 67 0
-9 -26 -113 0
-9 -14 115 0
-8 -66 120 0
-8 -31 104 0
-8 38 64 0
-8 64 -119 0
-8 84 112 0
-8 91 100 0
-7 -108 -109 0
-7 -90 -104 0
-7 -90 104 0
-7 -66 -97 0
-7 -58 70 0
-7 -25 27 0
-7 -20 -117 0
-7 25 -92 0
-6 -68 95 0
-6 -56 -72 0
-6 -16 69 0
-6 -9 -109 0
-6 43 77 0
-6 55 -88 0
-6 56 -87 0
-6 95 103 0
-5 -65 89 0
-5 -29 -86 0
-5 -11 -45 0
-5 -6 -111 0
-5 12 18 0
-5 20 -117 0
-5 20 -67 0
-4 -38 -89 0
-4 31 91 0
-4 41 -98 0
-3 -55 70 0
-3 -45 113 0
-3 -32 99 0
-3 10 16 0
-3 40 117 0
-2 -32 58 0
-2 -22 116 0
-2 -6 -98 0
-2 54 92 0
-2 74 -97 0
-1 79 116 0
-1 104 117 0
1 -73 113 0
1 24 -63 0
1 88 -113 0
2 -45 105 0
2 -30 -31 0
2 -24 98 0
3 -60 61 0
3 -43 -73 0
3 -42 -68 0
3 90 119 0
4 -31 64 0
4 -19 111 0
4 24 102 0
4 34 83 0
5 -85 100 0
5 -84 95 0
5 -47 98 0
5 -37 -38 0
5 21 22 0
6 -10 -37 0
6 -8 46 0
6 45 72 0
6 101 -102 0
7 -87 111 0
7 -51 -81 0
7 19 79 0
7 31 -108 0
8 -69 84 0
8 -16 82 0
8 -15 105 0
8 35 -95 0
8 57 70 0
8 74 94 0
9 -74 -105 0
9 -71 -76 0
9 -69 -97 0
9 -45 65 0
9 -42 43 0
9 -29 -83 0
9 19 -105 0
9 46 -112 0
9 75 -106 0
9 81 88 0
10 -96 -111 0
10 -73 -106 0
10 -34 -37 0
10 -29 48 0
10 -12 13 0
10 -11 85 0
10 43 -65 0
10 51 61 0
11 -36 -117 0
11 -27 95 0
11 86 -105 0
12 -84 -98 0
12 -75 107 0
12 -72 -77 0
12 -33 90 0
12 -18 62 0
13 -90 -109 0
13 -16 86 0
13 17 -92 0
13 20 31 0
13 82 -95 0
14 -52 -108 0
14 -27 75 0
14 -25 -62 0
14 15 -42 0
14 47 -57 0
14 47 74 0
15 -74 106 0
15 -69 71 0
16 60 110 0
17 -22 119 0
17 43 89 0
18 -37 -109 0
18 27 31 0
18 29 50 0
18 47 56 0
19 -36 79 0
19 62 -83 0
20 -79 83 0
20 -66 98 0
20 29 119 0
20 40 102 0
21 -67 -117 0
21 22 32 0
21 34 81 0
21 36 -42 0
22 -35 -88 0
23 62 -74 0
24 -59 -104 0
24 -41 -57 0
24 -33 -60 0
24 36 106 0
24 46 -94 0
25 -108 -114 0
25 82 116 0
26 -88 106 0
26 -33 62 0
26 59 -73 0
27 40 78 0
27 115 -116 0
28 -95 -118 0
28 -60 -67 0
28 61 -80 0
29 -65 99 0
30 -59 -82 0
30 48 -114 0
30 55 69 0
30 58 -64 0
30 96 -103 0
31 -68 116 0
31 99 -103 0
32 -75 82 0
32 -66 75 0
32 -40 81 0
32 34 104 0
32 50 111 0
32 90 -115 0
33 -44 -102 0
33 60 -90 0
33 70 -96 0
34 -40 41 0
35 -94 -117 0
36 -109 115 0
36 -92 107 0
36 37 79 0
36 50 60 0
36 55 103 0
37 -80 -90 0
37 91 -108 0
38 83 108 0
39 -78 -94 0
39 45 -117 0
39 52 90 0
39 79 -102 0
40 -99 -118 0
40 -62 100 0
41 -105 108 0
41 -66 -80 0
42 -61 65 0
42 -47 -118 0
42 52 61 0
43 -49 63 0
43 50 100 0
44 -100 103 0
44 -59 -116 0
45 -63 -68 0
45 74 -87 0
46 -63 94 0
48 -85 -97 0
48 -55 102 0
48 49 105 0
49 50 -68 0
50 -84 -99 0
50 -72 79 0
50 80 112 0
51 -93 -95 0
51 61 99 0
52 71 -90 0
52 71 120 0
53 -74 -110 0
53 -60 88 0
53 -58 78 0
53 74 95 0
53 93 110 0
56 -103 119 0
58 -97 103 0
58 104 -120 0
59 -99 -100 0
62 -93 -109 0
62 -78 79 0
62 -72 73 0
63 93 -95 0
65 -67 89 0
65 102 -110 0
68 81 -85 0
68 81 97 0
73 -84 -109 0
74 -94 -109 0
75 -106 110 0
75 -88 102 0
76 -89 103 0
78 92 112 0
81 96 -101 0
83 -99 105 0
83 -87 -100 0
103 -105 113 0
103 107 -111 0
