p cnf 100 600
-93 -96 98 0
-87 94 100 0
-84 -90 91 0
-76 -79 86 0
-76 94 -98 0
-72 -91 -99 0
-70 90 -96 0
-68 -75 -92 0
-66 -88 95 0
-65 74 82 0
-64 -71 80 0
-63 -76 -77 0
-63 71 100 0
-62 -71 -95 0
-61 67 -86 0
-60 -80 86 0
-59 -70 -82 0
-58 -74 -81 0
-58 60 62 0
-57 -93 -96 0
-57 -84 90 0
-57 61 -84 0
-56 -76 85 0
-56 -73 -98 0
-56 -71 74 0
-56 -60 69 0
-55 -81 94 0
-55 -62 67 0
-55 -56 -63 0
-55 79 87 0
-54 -72 100 0
-54 61 -69 0
-53 -83 -85 0
-53 88 -91 0
-51 -64 79 0
-51 -53 76 0
-51 54 69 0
-49 -81 96 0
-49 79 95 0
-48 51 53 0
-48 75 -97 0
-47 -80 83 0
-47 -67 -73 0
-47 50 -72 0
-47 58 75 0
-46 -76 -96 0
-45 84 93 0
-44 -48 -61 0
-44 -47 -83 0
-44 81 89 0
-43 -81 83 0
-43 -62 85 0
-43 -46 -53 0
-42 50 80 0
-42 53 94 0
-42 88 96 0
-41 50 -65 0
-41 61 81 0
-41 65 -66 0
-41 80 89 0
-40 -95 -98 0
-40 -76 78 0
-40 43 -90 0
-40 75 -77 0
-39 -55 -74 0
-39 -48 66 0
-39 55 -67 0
-39 70 79 0
-39 71 -87 0
-38 -50 -83 0
-38 -39 -49 0
-38 51 -83 0
-37 40 -70 0
-37 42 84 0
-37 45 52 0
-36 -69 95 0
-36 -55 -66 0
-36 -44 92 0
-36 -41 -88 0
-36 39 -53 0
-35 -78 98 0
-35 39 -99 0
-35 54 -92 0
-35 75 83 0
-34 51 69 0
-34 62 88 0
-34 84 98 0
-33 -79 98 0
-33 -67 -80 0
-33 -42 -97 0
-33 -37 -59 0
-33 41 -73 0
-33 48 -52 0
-33 53 -57 0
-32 -58 67 0
-32 -56 96 0
-32 -44 48 0
-32 -40 83 0
-32 -34 47 0
-32 48 98 0
-31 -99 100 0
-31 -35 -54 0
-31 66 -84 0
-31 86 88 0
-31 88 -97 0
-30 -72 -91 0
-30 -55 85 0
-30 46 -96 0
-29 -44 -64 0
-29 -43 97 0
-29 49 -63 0
-29 58 -88 0
-28 76 87 0
-27 -63 -71 0
-27 -47 48 0
-27 -30 -31 0
-27 31 48 0
-27 34 88 0
-27 57 -74 0
-26 -84 -97 0
-26 -53 96 0
-26 -48 -91 0
-26 -27 64 0
-26 32 -55 0
-26 42 -55 0
-26 49 -70 0
-26 89 95 0
-25 -77 -89 0
-25 -62 85 0
-25 -29 -61 0
-25 -26 -33 0
-25 33 -60 0
-25 76 96 0
-24 -45 74 0
-24 -38 72 0
-24 28 56 0
-24 36 98 0
-24 79 -99 0
-23 -83 93 0
-23 -77 97 0
-23 -55 66 0
-23 -27 -77 0
-23 68 93 0
-23 73 -84 0
-23 75 -83 0
-22 -60 94 0
-22 26 -34 0
-22 49 64 0
-22 83 -90 0
-21 -50 71 0
-21 -29 82 0
-21 -22 -49 0
-21 37 56 0
-21 72 83 0
-20 -53 60 0
-20 48 71 0
-19 -71 -96 0
-19 -40 -82 0
-19 -38 83 0
-19 -34 97 0
-19 26 -86 0
-19 42 77 0
-19 57 66 0
-18 -65 -77 0
-18 -26 35 0
-18 -26 58 0
-18 22 -24 0
-18 53 -55 0
-18 59 -92 0
-17 -61 93 0
-17 -20 -61 0
-17 20 -23 0
-17 33 56 0
-16 -40 -45 0
-16 -33 -88 0
-16 18 -55 0
-16 29 -38 0
-16 51 76 0
-16 78 81 0
-16 90 96 0
-15 -41 -57 0
-15 -20 64 0
-15 -20 75 0
-15 -18 60 0
-15 -18 61 0
-15 30 48 0
-14 -52 -83 0
-14 -29 36 0
-14 -20 22 0
-14 -16 -81 0
-14 16 -78 0
-14 20 33 0
-14 38 56 0
-14 54 -56 0
-13 -26 82 0
-13 -18 32 0
-13 24 -46 0
-13 61 -91 0
-13 70 100 0
-13 80 90 0
-12 -65 -72 0
-12 -45 84 0
-12 16 -90 0
-12 29 -85 0
-12 65 79 0
-12 68 -91 0
-11 -35 69 0
-11 -29 32 0
-11 -28 -71 0
-11 12 64 0
-11 13 15 0
-11 25 70 0
-11 40 47 0
-11 46 89 0
-11 88 100 0
-10 -41 70 0
-10 -27 -86 0
-10 -19 39 0
-10 14 79 0
-10 23 -98 0
-10 29 -96 0
-10 42 76 0
-10 90 -94 0
-9 -80 -94 0
-9 -70 -74 0
-9 -26 29 0
-9 -18 92 0
-9 15 42 0
-9 30 32 0
-9 66 72 0
-8 -51 85 0
-8 -39 -40 0
-8 -21 -73 0
-8 -17 -22 0
-8 -13 -51 0
-8 29 43 0
-8 42 88 0
-7 -56 -79 0
-7 -13 -31 0
-7 22 -75 0
-7 33 -88 0
-7 35 -73 0
-7 47 -69 0
-7 73 76 0
-6 -15 -55 0
-6 -12 95 0
-6 12 18 0
-6 43 -45 0
-6 88 -92 0
-5 -37 50 0
-5 -32 -74 0
-5 -27 100 0
-5 12 95 0
-4 -33 53 0
-4 -26 -65 0
-4 9 92 0
-4 10 15 0
-4 15 -40 0
-4 25 -58 0
-3 -88 -89 0
-3 -45 81 0
-3 -30 -96 0
-3 -17 -92 0
-3 13 -70 0
-3 56 -95 0
-2 -59 99 0
-2 -41 -89 0
-2 -32 -54 0
-2 -29 -54 0
-2 -27 -66 0
-2 28 -63 0
-2 29 72 0
-2 33 -35 0
-2 65 -66 0
-2 72 81 0
-1 -66 -78 0
-1 -64 83 0
-1 -51 80 0
-1 -47 -92 0
-1 -36 61 0
-1 -35 -68 0
-1 -32 -88 0
-1 -30 -54 0
-1 -27 -53 0
-1 -10 -41 0
-1 -8 -43 0
-1 -7 -85 0
-1 -7 46 0
-1 7 -42 0
-1 8 -15 0
-1 8 91 0
-1 15 51 0
-1 34 -88 0
-1 36 -63 0
-1 38 -81 0
-1 40 86 0
1 -66 99 0
1 -31 52 0
1 -28 36 0
1 -26 50 0
1 -21 43 0
1 -14 45 0
1 4 -79 0
1 8 -40 0
1 32 88 0
1 57 -96 0
2 -72 -90 0
2 21 84 0
2 33 -57 0
2 36 -64 0
2 54 -56 0
3 -71 -80 0
3 -60 -98 0
3 -56 88 0
3 -45 99 0
3 -37 86 0
3 -33 -74 0
3 -19 -91 0
3 -18 35 0
3 -17 -64 0
3 -13 65 0
3 -10 34 0
3 -5 -27 0
3 10 -77 0
3 16 -73 0
3 16 79 0
3 46 -76 0
3 62 -69 0
3 79 82 0
4 -72 -87 0
4 -45 -92 0
4 -44 53 0
4 -33 -83 0
4 12 57 0
4 13 31 0
4 20 36 0
4 25 -85 0
4 29 -52 0
4 39 42 0
4 44 -98 0
5 -60 -90 0
5 -40 83 0
5 -8 63 0
5 12 -21 0
5 19 -45 0
5 21 -49 0
5 37 50 0
5 73 93 0
6 -61 80 0
6 -21 -23 0
6 -13 88 0
6 30 -58 0
6 38 80 0
6 70 76 0
6 83 95 0
6 93 -97 0
7 -72 -98 0
7 -59 66 0
7 -48 71 0
7 -20 -50 0
7 12 -18 0
7 44 -54 0
7 53 -81 0
8 -82 -86 0
8 -54 -89 0
8 -43 -83 0
8 -41 71 0
8 -32 48 0
8 -22 -95 0
8 13 97 0
8 29 87 0
8 37 -79 0
8 67 -78 0
8 82 -87 0
9 -34 -79 0
9 -32 60 0
9 24 -65 0
9 33 -85 0
9 52 53 0
9 64 -72 0
9 84 97 0
9 87 -100 0
10 -85 -95 0
10 -29 72 0
10 -28 -80 0
10 -17 -57 0
10 -12 57 0
11 -68 84 0
11 -22 91 0
11 -16 53 0
11 12 -13 0
11 28 -57 0
11 37 49 0
12 -25 -41 0
12 26 -94 0
12 36 -86 0
12 36 50 0
12 51 -58 0
12 67 -84 0
13 -79 84 0
13 -71 80 0
13 -56 86 0
13 -38 -91 0
13 -24 47 0
13 34 -56 0
13 52 80 0
13 54 -65 0
13 63 -82 0
13 65 90 0
13 82 83 0
13 90 -97 0
14 -30 91 0
14 50 -82 0
15 -24 -31 0
15 25 -89 0
15 35 -67 0
15 35 47 0
15 41 59 0
15 42 -98 0
15 53 89 0
15 54 -73 0
16 -32 42 0
16 -26 -75 0
16 -20 27 0
16 -19 40 0
16 -18 38 0
16 21 62 0
16 49 -84 0
17 -35 44 0
17 -20 36 0
17 40 80 0
17 77 -81 0
18 -37 66 0
18 21 -68 0
18 51 65 0
18 67 98 0
18 70 -80 0
19 -69 73 0
19 -59 -84 0
19 -44 -70 0
19 -38 -66 0
19 -33 -98 0
19 -27 35 0
19 38 91 0
19 50 -67 0
19 51 86 0
19 68 80 0
20 -35 -85 0
20 38 95 0
20 54 -71 0
21 -58 62 0
21 -50 63 0
21 35 -58 0
22 -79 -91 0
22 -47 -62 0
23 -90 -94 0
23 -70 80 0
23 -51 88 0
23 -28 55 0
23 -28 95 0
23 34 -90 0
23 64 78 0
24 -95 -97 0
24 -65 70 0
24 -47 93 0
24 -42 -51 0
24 -39 68 0
24 -25 52 0
24 46 -47 0
25 -64 -69 0
25 29 -53 0
25 39 -87 0
25 53 63 0
25 55 -80 0
25 58 85 0
26 -88 98 0
26 -50 -76 0
26 41 -86 0
27 -79 -91 0
27 -64 86 0
27 -57 95 0
27 -56 -94 0
27 -33 -86 0
27 30 72 0
27 50 76 0
27 68 -83 0
27 71 75 0
28 -75 86 0
28 -36 -38 0
29 -79 100 0
29 -75 -81 0
29 -41 87 0
29 -32 69 0
29 -31 90 0
29 31 67 0
29 56 62 0
29 57 -86 0
29 58 -60 0
30 -86 -95 0
30 -63 64 0
30 -38 97 0
30 35 46 0
30 47 64 0
31 -37 92 0
31 49 -83 0
32 -87 -92 0
32 -48 60 0
32 -47 -54 0
32 -41 93 0
32 38 76 0
32 89 -92 0
32 92 -96 0
33 34 -93 0
33 54 -72 0
33 56 -97 0
33 66 -96 0
33 82 -94 0
34 -85 88 0
34 -60 -69 0
34 43 91 0
34 45 -50 0
34 47 -64 0
34 53 100 0
34 57 -80 0
35 36 53 0
35 47 70 0
35 60 -89 0
36 -75 -76 0
36 -74 -91 0
36 -46 -47 0
36 38 55 0
36 43 98 0
37 -93 -96 0
37 -62 -87 0
38 -67 -70 0
38 -59 70 0
39 -46 96 0
39 40 -42 0
39 72 74 0
39 80 -100 0
40 66 81 0
41 -79 89 0
41 -59 70 0
41 -45 85 0
41 -43 90 0
41 66 -68 0
41 91 93 0
42 -76 92 0
42 -57 69 0
42 -50 82 0
42 44 -97 0
42 47 -73 0
42 53 -82 0
43 -64 -97 0
43 47 -56 0
44 48 -70 0
45 -78 94 0
45 49 -73 0
45 56 -90 0
45 77 -94 0
46 -54 64 0
48 -71 81 0
48 -52 -86 0
48 64 73 0
48 77 80 0
49 -79 -85 0
50 -62 -92 0
50 55 73 0
51 54 -76 0
52 -56 -85 0
52 65 79 0
52 66 100 0
52 75 -88 0
53 -64 -69 0
53 -56 96 0
53 -54 -81 0
54 65 -78 0
54 70 -79 0
55 -80 81 0
55 58 -70 0
57 -64 -74 0
58 91 97 0
59 -60 85 0
59 64 93 0
60 -72 -76 0
61 -79 -92 0
62 -74 84 0
63 -74 -87 0
64 -77 -79 0
65 75 -97 0
66 72 84 0
67 85 86 0
70 94 -100 0
71 -88 100 0
72 -73 -96 0
73 78 90 0
77 -84 -93 0
82 -83 -94 0
84 87 -92 0
90 92 95 0
