p cnf 80 260
-54 61 -80 0
-53 76 -79 0
-52 -62 -77 0
-52 55 67 0
-52 57 -69 0
-47 49 73 0
-47 52 -68 0
-46 -53 -71 0
-45 -63 69 0
-45 -55 -68 0
-45 -52 64 0
-45 50 -66 0
-42 -50 67 0
-42 45 62 0
-41 -54 70 0
-40 49 -77 0
-39 -48 71 0
-39 -47 49 0
-39 57 -65 0
-39 69 -80 0
-38 -48 70 0
-38 40 -77 0
-37 -49 -57 0
-37 57 69 0
-36 -64 -68 0
-36 -55 67 0
-36 -40 -49 0
-36 56 64 0
-36 60 67 0
-36 62 -76 0
-35 -55 -80 0
-35 50 79 0
-33 -49 -66 0
-33 58 -75 0
-33 59 -66 0
-32 -58 71 0
-32 51 76 0
-31 -56 69 0
-31 -32 37 0
-30 48 59 0
-29 36 44 0
-28 49 60 0
-27 -45 79 0
-27 38 -58 0
-27 52 67 0
-27 70 76 0
-26 -67 74 0
-25 -48 -70 0
-25 -39 41 0
-25 -31 55 0
-25 34 -53 0
-25 43 76 0
-24 40 79 0
-23 63 67 0
-22 -73 -78 0
-21 -46 56 0
-21 -34 -62 0
-21 -32 77 0
-20 -49 75 0
-20 -25 -44 0
-19 -21 -63 0
-18 -33 49 0
-17 -48 63 0
-17 -36 40 0
-17 -24 -59 0
-17 29 67 0
-17 49 -80 0
-16 -30 75 0
-16 19 -40 0
-16 50 -65 0
-15 42 -63 0
-14 -30 61 0
-14 34 -63 0
-13 -27 73 0
-13 14 25 0
-13 16 39 0
-13 37 -69 0
-13 40 -43 0
-12 -30 -37 0
-12 -18 66 0
-12 29 40 0
-12 36 67 0
-11 -50 77 0
-11 -47 56 0
-11 -20 -76 0
-11 -19 -73 0
-11 15 64 0
-11 42 71 0
-11 69 72 0
-11 72 -78 0
-10 -39 63 0
-10 -24 -74 0
-10 18 19 0
-10 59 -62 0
-9 14 73 0
-9 35 68 0
-8 -9 -72 0
-8 27 65 0
-7 -32 58 0
-7 -18 44 0
-7 51 71 0
-6 -43 56 0
-6 -19 38 0
-6 -12 16 0
-6 21 -43 0
-6 38 43 0
-6 58 -74 0
-5 10 55 0
-5 33 58 0
-5 36 61 0
-5 60 79 0
-4 -21 69 0
-4 -17 -52 0
-4 -16 -74 0
-4 17 27 0
-4 28 31 0
-3 14 -20 0
-3 36 -38 0
-3 46 -71 0
-3 55 -76 0
-2 -51 -66 0
-2 -36 -69 0
-2 -20 49 0
-2 7 -55 0
-2 55 65 0
-1 -19 -68 0
-1 -4 35 0
-1 17 57 0
1 -60 -77 0
1 -37 61 0
1 -20 -53 0
1 -17 61 0
1 8 9 0
2 -49 69 0
2 -38 -52 0
2 -25 56 0
2 -6 61 0
2 5 -71 0
2 26 30 0
3 -71 77 0
3 -8 67 0
3 15 26 0
4 -45 74 0
4 -15 59 0
4 -6 70 0
4 26 62 0
5 21 -61 0
5 41 -54 0
6 23 63 0
6 50 -75 0
7 -34 74 0
7 -11 -68 0
7 -9 52 0
7 19 74 0
7 35 -72 0
8 -58 66 0
8 33 74 0
8 53 64 0
8 55 60 0
9 -46 77 0
9 -38 57 0
9 25 48 0
9 42 -79 0
10 -31 -48 0
10 -30 36 0
10 -11 19 0
10 12 42 0
10 13 -68 0
10 27 67 0
11 -58 -68 0
11 17 -19 0
11 41 -56 0
11 45 79 0
11 61 79 0
12 -52 -55 0
12 -51 -73 0
12 -48 -66 0
12 -35 -58 0
12 -18 48 0
12 33 40 0
12 34 -47 0
12 51 -71 0
13 -33 39 0
13 -30 -80 0
13 18 27 0
13 35 80 0
13 44 63 0
13 48 -79 0
14 -54 -60 0
14 -15 66 0
14 22 -41 0
14 22 77 0
14 76 79 0
15 -20 -65 0
15 22 -77 0
15 32 -35 0
16 -51 58 0
16 36 55 0
17 -61 71 0
17 -47 79 0
17 -42 -57 0
17 -33 -37 0
17 31 -43 0
18 -49 -52 0
18 37 -57 0
18 43 52 0
18 62 -80 0
19 -70 76 0
19 36 -67 0
20 27 37 0
21 -41 -49 0
21 -22 33 0
22 -54 72 0
22 -41 -51 0
22 -34 47 0
22 30 -70 0
23 -29 -68 0
24 53 -63 0
25 -55 -76 0
25 34 -71 0
26 -28 74 0
26 38 52 0
26 40 -42 0
26 60 68 0
27 -60 68 0
27 34 41 0
27 74 75 0
28 36 -76 0
29 -32 50 0
29 63 -68 0
30 -38 -50 0
30 64 -74 0
32 -63 71 0
32 53 72 0
34 -71 -73 0
35 47 63 0
36 -71 78 0
36 -42 46 0
37 -59 80 0
38 -42 43 0
38 41 -75 0
40 65 -68 0
41 -62 -80 0
41 52 -71 0
41 68 75 0
43 -53 -67 0
44 -49 64 0
45 -66 -76 0
45 -55 79 0
45 52 -58 0
49 53 -57 0
50 -52 -78 0
52 -60 -69 0
53 56 -68 0
53 61 -66 0
56 73 78 0
57 -61 -77 0
62 -67 -70 0
67 72 75 0
71 -72 75 0
