p cnf 50 213
-33 41 -44 0
-30 39 44 0
-29 30 -50 0
-27 -30 49 0
-26 -29 -48 0
-26 37 41 0
-24 30 33 0
-24 41 45 0
-24 41 47 0
-23 -26 39 0
-23 41 -43 0
-22 29 -30 0
-22 35 39 0
-21 24 26 0
-21 25 27 0
-20 -40 -49 0
-20 -40 -45 0
-20 -39 -44 0
-20 -38 -42 0
-20 27 -47 0
-20 31 -45 0
-20 44 -49 0
-19 -33 -42 0
-19 -20 32 0
-19 41 47 0
-18 -32 37 0
-18 -26 -40 0
-18 -25 -42 0
-18 28 -32 0
-17 -38 50 0
-17 -27 50 0
-17 -26 -34 0
-17 -26 -30 0
-17 -21 -38 0
-17 45 -50 0
-16 -38 43 0
-15 -16 -23 0
-15 20 36 0
-15 23 -40 0
-15 30 -45 0
-14 22 -38 0
-14 22 -35 0
-13 -34 41 0
-13 -20 -41 0
-13 -19 -28 0
-13 -14 36 0
-13 20 39 0
-13 25 50 0
-12 -29 46 0
-12 14 -41 0
-12 25 31 0
-12 44 -48 0
-11 -31 50 0
-11 19 -39 0
-11 27 -41 0
-10 -36 50 0
-10 11 26 0
-10 23 43 0
-10 25 -32 0
-10 27 -29 0
-9 -40 -43 0
-9 -12 21 0
-9 -12 24 0
-9 14 -18 0
-9 19 -29 0
-9 26 27 0
-9 31 -48 0
-8 -27 37 0
-8 -26 -50 0
-8 9 37 0
-8 11 23 0
-8 15 26 0
-8 31 -36 0
-7 -35 -47 0
-7 -34 -50 0
-7 -10 -17 0
-7 12 50 0
-6 -36 -45 0
-6 -29 43 0
-6 -24 -31 0
-6 -23 -33 0
-5 -18 -19 0
-5 -18 42 0
-5 -9 50 0
-5 6 -46 0
-5 6 -44 0
-5 8 20 0
-5 9 32 0
-4 -28 40 0
-4 -16 -23 0
-4 -12 38 0
-4 -9 10 0
-4 -8 36 0
-4 28 -33 0
-4 34 -47 0
-3 -25 35 0
-3 -18 -28 0
-3 -13 21 0
-3 -5 34 0
-3 5 -22 0
-3 8 -42 0
-3 10 -31 0
-2 -3 -24 0
-2 5 -8 0
-2 21 28 0
-1 -29 45 0
-1 -12 -39 0
-1 -10 -35 0
-1 -6 -11 0
-1 16 23 0
1 -16 -28 0
1 -13 -48 0
1 -12 -28 0
1 2 -21 0
2 -27 35 0
2 -8 -43 0
2 -8 -35 0
2 -7 -23 0
2 3 5 0
2 18 46 0
2 36 -40 0
3 -34 42 0
3 -29 31 0
3 -29 41 0
3 -14 -17 0
3 -4 -22 0
3 8 40 0
3 9 -39 0
4 -34 37 0
4 -6 42 0
4 9 37 0
5 -37 -39 0
5 -25 -27 0
5 -14 19 0
5 -14 28 0
5 -10 43 0
5 19 34 0
6 -29 -47 0
6 -24 -42 0
6 -21 44 0
6 -16 23 0
6 -12 -19 0
6 -10 -44 0
6 17 -45 0
6 21 -36 0
6 26 -45 0
6 33 -43 0
6 36 45 0
7 -42 48 0
7 -28 40 0
7 -18 19 0
7 -9 -37 0
7 14 48 0
7 35 -40 0
8 -28 -29 0
8 -19 -21 0
8 -11 19 0
9 -12 -29 0
9 -11 21 0
9 12 -29 0
9 20 -24 0
10 -14 -16 0
10 -12 20 0
10 24 36 0
11 -28 -45 0
11 -23 -40 0
11 -19 44 0
11 13 34 0
11 19 28 0
12 -21 -41 0
12 -18 22 0
12 14 -15 0
12 26 27 0
13 -37 -42 0
13 -32 -37 0
13 -27 -49 0
13 -22 -42 0
13 27 42 0
14 -23 -41 0
14 34 47 0
15 -42 -49 0
16 21 -34 0
16 41 45 0
17 -22 -36 0
18 24 -35 0
18 25 26 0
19 -49 -50 0
19 -32 -45 0
19 -22 43 0
19 20 -26 0
20 -22 30 0
20 38 50 0
21 -41 48 0
21 34 46 0
22 29 -49 0
22 29 38 0
22 33 -46 0
23 -37 49 0
23 40 -41 0
24 -46 50 0
24 -32 -38 0
24 -28 -39 0
25 28 49 0
25 39 48 0
26 35 -43 0
27 31 37 0
27 40 42 0
28 30 49 0
28 31 -48 0
30 36 -46 0
35 -36 41 0
38 -42 -48 0
41 42 -47 0
