p cnf 260 1097
-214 217 251 0
-201 -208 -229 0
-200 -237 -240 0
-199 206 212 0
-199 253 -257 0
-194 228 255 0
-193 -231 -258 0
-186 206 -244 0
-184 -227 260 0
-183 -205 -260 0
-180 -206 -242 0
-180 214 -240 0
-179 -204 231 0
-175 -207 -254 0
-174 176 -235 0
-173 175 242 0
-171 -218 -221 0
-168 230 -232 0
-168 240 248 0
-166 228 -236 0
-165 179 204 0
-163 228 -230 0
-162 -185 209 0
-162 163 -188 0
-159 -177 -181 0
-159 213 -220 0
-158 185 215 0
-158 214 224 0
-157 -236 -241 0
-157 221 242 0
-156 -172 206 0
-156 207 -212 0
-156 213 249 0
-153 -203 -206 0
-153 -195 220 0
-152 -167 235 0
-152 183 -204 0
-152 192 -197 0
-150 -174 -189 0
-150 -154 -245 0
-149 -219 236 0
-149 -163 183 0
-148 174 240 0
-147 -229 231 0
-147 -199 216 0
-146 -195 -217 0
-145 -167 -223 0
-144 -149 -248 0
-144 148 -250 0
-144 153 192 0
-144 190 -212 0
-143 219 255 0
-142 193 213 0
-141 -146 -187 0
-141 -144 181 0
-141 202 208 0
-140 179 -236 0
-138 -220 248 0
-138 149 211 0
-137 141 -192 0
-136 146 250 0
-135 -159 -259 0
-135 -154 -161 0
-134 136 141 0
-134 139 257 0
-133 -227 257 0
-133 -135 203 0
-131 -179 207 0
-131 187 -197 0
-130 -182 -187 0
-130 172 220 0
-130 192 -207 0
-129 -173 202 0
-129 -169 249 0
-129 164 -170 0
-128 -175 -204 0
-128 141 -198 0
-128 149 215 0
-127 -207 -217 0
-127 171 -220 0
-126 -171 172 0
-125 -181 -252 0
-125 -135 257 0
-125 154 -254 0
-123 -215 223 0
-122 -191 254 0
-122 -186 259 0
-121 -171 258 0
-121 -166 -174 0
-120 216 -226 0
-119 -205 244 0
-119 162 165 0
-118 -209 253 0
-118 -158 160 0
-118 133 -167 0
-117 170 -230 0
-117 179 -204 0
-116 142 -206 0
-116 143 -201 0
-115 -234 244 0
-115 140 234 0
-114 129 132 0
-111 121 -164 0
-111 171 -183 0
-109 -118 -249 0
-109 152 164 0
-108 -178 251 0
-108 113 117 0
-108 129 -134 0
-108 196 -235 0
-107 193 221 0
-107 203 230 0
-106 140 152 0
-106 167 252 0
-106 221 238 0
-105 -155 245 0
-105 133 239 0
-105 166 -199 0
-105 215 -226 0
-104 159 -177 0
-102 -210 -230 0
-102 -146 170 0
-102 122 141 0
-102 199 -255 0
-101 -125 194 0
-101 110 217 0
-101 154 241 0
-100 -209 238 0
-100 -169 241 0
-100 112 130 0
-100 192 243 0
-99 -229 -239 0
-99 112 238 0
-99 130 233 0
-98 -121 219 0
-98 -121 233 0
-98 103 131 0
-97 -194 -211 0
-97 -142 -204 0
-97 -121 -190 0
-97 98 -194 0
-97 112 -177 0
-96 -212 246 0
-96 -158 -211 0
-96 -118 217 0
-96 171 -257 0
-94 -150 166 0
-94 -134 228 0
-93 -160 189 0
-93 204 -223 0
-93 227 229 0
-92 -131 189 0
-92 -128 194 0
-92 -114 159 0
-92 -113 146 0
-89 -126 -151 0
-89 109 -151 0
-89 148 231 0
-88 -185 193 0
-88 -125 -162 0
-88 -114 215 0
-88 -105 -181 0
-88 125 -207 0
-88 178 -249 0
-88 228 -249 0
-87 -199 -237 0
-87 -138 165 0
-87 -111 243 0
-87 103 220 0
-87 135 198 0
-87 137 258 0
-87 193 -215 0
-85 -203 -240 0
-84 -171 -233 0
-84 -150 245 0
-84 -103 -109 0
-84 102 -121 0
-84 127 224 0
-84 232 -250 0
-83 -127 219 0
-83 -92 -187 0
-83 -91 212 0
-83 122 -230 0
-83 158 -170 0
-82 -95 -200 0
-81 -144 204 0
-81 -105 215 0
-81 145 172 0
-80 -98 -221 0
-80 89 -179 0
-80 198 -239 0
-80 205 -241 0
-79 -155 203 0
-79 -81 -195 0
-79 -81 234 0
-79 101 -112 0
-79 159 -190 0
-79 195 236 0
-79 207 221 0
-79 226 228 0
-77 90 -110 0
-77 107 -245 0
-77 144 204 0
-76 -119 -139 0
-76 142 -187 0
-76 145 157 0
-76 186 217 0
-75 96 223 0
-75 127 -142 0
-74 116 -189 0
-74 156 256 0
-74 199 214 0
-73 -136 173 0
-73 -123 -144 0
-73 164 -236 0
-72 -113 205 0
-72 -89 187 0
-72 96 141 0
-72 117 -138 0
-72 197 209 0
-70 -188 -250 0
-70 -143 167 0
-70 -132 204 0
-70 -110 -216 0
-70 -94 152 0
-69 -186 -249 0
-69 99 -188 0
-69 130 236 0
-69 195 237 0
-68 -190 234 0
-68 -156 -209 0
-68 -110 188 0
-68 -97 162 0
-68 190 224 0
-67 113 179 0
-67 161 -189 0
-67 177 -247 0
-67 177 224 0
-66 70 -204 0
-66 78 -147 0
-66 90 -238 0
-66 137 -219 0
-66 155 221 0
-65 -99 209 0
-65 80 -210 0
-65 159 222 0
-64 -153 -178 0
-64 -76 -154 0
-64 79 169 0
-64 84 246 0
-64 98 -210 0
-64 129 217 0
-63 -115 124 0
-63 76 -207 0
-63 126 -235 0
-62 -186 -228 0
-62 -87 238 0
-62 -73 -171 0
-62 116 -126 0
-62 140 -247 0
-61 -216 218 0
-61 -110 202 0
-60 -83 -196 0
-60 88 215 0
-60 165 228 0
-60 220 236 0
-59 -117 -250 0
-59 -105 124 0
-59 -73 142 0
-59 62 -254 0
-59 96 -181 0
-58 -169 -241 0
-58 -80 168 0
-58 -61 259 0
-58 95 187 0
-58 150 238 0
-57 -184 232 0
-57 -117 205 0
-57 95 -245 0
-57 113 -199 0
-57 117 -190 0
-56 -119 251 0
-55 -93 -151 0
-55 108 -258 0
-55 149 184 0
-54 -114 121 0
-54 -86 221 0
-54 -62 163 0
-54 74 187 0
-53 -125 -200 0
-53 -60 95 0
-53 75 -231 0
-53 78 -82 0
-52 -187 225 0
-52 -117 194 0
-52 93 -120 0
-51 -138 246 0
-51 93 -123 0
-51 103 -138 0
-51 112 -142 0
-51 132 225 0
-50 -146 -221 0
-50 104 174 0
-50 213 217 0
-49 -121 171 0
-49 101 222 0
-48 -52 -181 0
-48 132 246 0
-47 -220 -252 0
-47 154 -205 0
-46 -175 210 0
-46 -54 -256 0
-46 153 211 0
-46 240 -256 0
-45 -64 -108 0
-45 148 -202 0
-44 -119 -248 0
-44 89 115 0
-44 117 175 0
-43 -201 -229 0
-43 -183 186 0
-43 138 187 0
-42 -115 -219 0
-42 -73 -134 0
-42 48 -235 0
-42 77 193 0
-42 172 192 0
-41 -110 254 0
-41 53 221 0
-41 79 -219 0
-41 83 -148 0
-41 108 -114 0
-41 139 225 0
-41 182 -259 0
-40 -235 240 0
-40 -211 252 0
-40 -204 220 0
-40 142 -154 0
-39 181 -197 0
-38 -170 197 0
-38 -127 209 0
-38 94 -143 0
-38 116 172 0
-38 146 -228 0
-38 159 -249 0
-37 -186 -240 0
-37 -147 194 0
-37 53 -246 0
-37 61 -126 0
-37 196 247 0
-36 -199 -241 0
-36 -59 83 0
-36 -54 164 0
-36 68 -236 0
-36 77 221 0
-36 90 148 0
-36 103 247 0
-36 164 207 0
-35 -171 -205 0
-35 -146 236 0
-35 -90 181 0
-35 -81 123 0
-35 117 -156 0
-35 144 -149 0
-35 151 207 0
-34 59 155 0
-33 -184 260 0
-33 -174 -180 0
-33 -82 -183 0
-33 -57 -180 0
-33 -53 -105 0
-33 49 221 0
-33 79 84 0
-33 120 142 0
-32 -111 215 0
-32 -56 -96 0
-32 -41 -85 0
-32 -36 134 0
-32 149 223 0
-31 -236 248 0
-31 -161 -207 0
-31 95 177 0
-31 116 227 0
-30 -159 -224 0
-30 -39 -89 0
-30 -32 -40 0
-29 30 -157 0
-29 87 -132 0
-29 109 -177 0
-28 -54 -222 0
-28 -54 -200 0
-28 -32 -195 0
-28 130 205 0
-27 33 249 0
-27 62 72 0
-27 168 182 0
-27 193 -222 0
-26 -157 233 0
-26 -79 235 0
-26 -59 -205 0
-26 -53 -238 0
-26 28 -132 0
-26 46 -251 0
-26 64 196 0
-26 88 -187 0
-26 98 187 0
-26 101 -145 0
-25 -210 256 0
-25 -171 -210 0
-25 -111 218 0
-25 -109 -110 0
-24 -155 -251 0
-24 -47 -248 0
-24 27 -239 0
-24 51 203 0
-24 56 205 0
-24 118 175 0
-23 -197 257 0
-23 -141 -188 0
-23 -109 -185 0
-23 -77 -96 0
-23 -34 -160 0
-23 52 -241 0
-23 76 206 0
-23 211 -251 0
-22 -144 204 0
-22 -117 -185 0
-22 39 74 0
-22 44 -161 0
-22 89 -183 0
-21 -182 -184 0
-21 -151 -159 0
-21 191 237 0
-20 -178 190 0
-20 -176 -234 0
-20 -108 -164 0
-20 -26 259 0
-20 30 -177 0
-20 116 252 0
-20 194 220 0
-19 66 122 0
-19 78 -251 0
-19 153 238 0
-19 171 216 0
-18 -22 -230 0
-18 21 -110 0
-18 113 154 0
-17 -62 -152 0
-17 -62 89 0
-17 -42 260 0
-17 29 -88 0
-17 46 -198 0
-17 49 195 0
-17 60 69 0
-17 61 188 0
-17 72 -185 0
-17 74 122 0
-16 -112 146 0
-16 -68 76 0
-16 139 257 0
-16 140 -194 0
-16 185 214 0
-15 33 -86 0
-15 79 252 0
-15 86 -93 0
-15 103 207 0
-14 -79 105 0
-14 15 121 0
-14 52 -253 0
-14 125 -132 0
-14 166 225 0
-13 -98 -193 0
-13 -56 -68 0
-13 23 53 0
-13 24 -131 0
-13 35 -146 0
-13 73 119 0
-13 90 -224 0
-13 149 196 0
-12 -138 -237 0
-12 22 -178 0
-12 59 136 0
-12 69 92 0
-12 72 -159 0
-12 135 -156 0
-11 -88 204 0
-11 -55 -196 0
-11 46 177 0
-11 143 -248 0
-11 172 239 0
-10 -158 246 0
-10 -91 107 0
-10 -64 -197 0
-10 -45 -223 0
-10 -23 154 0
-10 112 -129 0
-9 -78 217 0
-9 -69 73 0
-9 -63 103 0
-9 -17 77 0
-9 53 223 0
-9 59 -118 0
-9 160 -251 0
-8 -152 -158 0
-8 -152 228 0
-8 -145 204 0
-8 -96 167 0
-8 -81 -240 0
-8 -69 136 0
-8 39 -127 0
-8 57 -248 0
-8 68 -244 0
-8 127 249 0
-8 142 -235 0
-7 -140 -194 0
-7 -100 240 0
-7 15 102 0
-7 209 -233 0
-6 -23 249 0
-6 19 -256 0
-6 70 123 0
-6 89 -195 0
-6 124 181 0
-5 -158 -221 0
-5 -43 -113 0
-5 -32 -212 0
-5 -20 -202 0
-5 24 94 0
-5 63 -132 0
-5 105 -216 0
-5 141 153 0
-4 -114 220 0
-4 -105 138 0
-4 -11 85 0
-4 12 -148 0
-4 104 233 0
-4 115 -160 0
-4 138 -256 0
-3 -174 190 0
-3 37 -85 0
-3 46 260 0
-3 79 -132 0
-3 122 -213 0
-3 138 203 0
-2 -151 182 0
-2 -112 -210 0
-2 -40 -165 0
-2 -29 -232 0
-2 36 155 0
-2 105 -225 0
-2 153 -168 0
-1 -154 199 0
-1 -138 -164 0
-1 -115 -117 0
-1 -77 127 0
-1 20 107 0
-1 73 146 0
-1 138 -185 0
-1 164 195 0
-1 194 201 0
-1 248 257 0
1 -70 183 0
1 27 -145 0
1 72 -161 0
1 92 165 0
1 216 255 0
2 -169 -234 0
2 14 -235 0
2 21 -188 0
2 181 -199 0
3 -98 130 0
3 -80 130 0
3 -60 67 0
3 -11 208 0
3 -7 -104 0
3 32 60 0
3 109 206 0
3 121 -128 0
3 178 -192 0
3 197 -236 0
4 -44 182 0
4 -23 -93 0
4 -15 -164 0
4 39 255 0
4 189 -229 0
4 214 260 0
5 -125 -254 0
5 -58 -152 0
5 7 -86 0
5 110 125 0
5 123 257 0
5 200 220 0
6 -185 238 0
6 -181 -237 0
6 -98 146 0
6 28 231 0
6 71 -252 0
6 94 226 0
6 174 244 0
6 228 -230 0
7 -203 -223 0
7 -95 -136 0
7 -70 -206 0
7 -17 -259 0
7 28 -79 0
7 81 -101 0
7 94 106 0
7 99 230 0
8 -164 -258 0
8 -119 -159 0
8 -113 -123 0
8 -111 141 0
8 54 246 0
8 71 149 0
8 93 141 0
8 99 -121 0
9 -80 -220 0
9 -55 -121 0
9 54 -238 0
9 57 -86 0
9 83 257 0
9 89 234 0
9 190 239 0
10 -118 -175 0
10 52 86 0
10 66 157 0
10 73 -118 0
10 113 185 0
10 146 189 0
10 165 194 0
11 -161 245 0
11 -130 140 0
11 14 -146 0
11 22 -25 0
11 65 144 0
12 -187 212 0
12 -136 -257 0
12 37 147 0
12 41 -125 0
12 41 103 0
12 109 222 0
12 127 -233 0
12 161 242 0
13 -243 248 0
13 -225 -250 0
13 -26 241 0
13 32 189 0
13 91 179 0
13 113 122 0
13 119 -249 0
13 150 160 0
14 -165 -197 0
14 -105 187 0
14 34 -201 0
14 189 -195 0
15 -83 177 0
15 -69 -160 0
15 76 102 0
16 -129 213 0
16 -40 148 0
16 60 160 0
17 -64 -210 0
17 -24 -108 0
17 51 186 0
17 109 207 0
18 -36 -256 0
18 118 196 0
19 -224 256 0
19 -211 -223 0
19 -72 -79 0
19 47 -150 0
19 93 210 0
19 106 255 0
19 107 214 0
19 149 200 0
20 -214 224 0
20 -152 167 0
20 -90 172 0
20 -66 176 0
20 -60 101 0
20 -29 125 0
20 90 152 0
20 94 -123 0
20 115 135 0
21 -209 228 0
21 -176 -250 0
21 -156 -169 0
21 -153 -168 0
21 -117 123 0
21 -91 128 0
21 -83 -127 0
21 -62 122 0
21 -25 -49 0
21 105 -130 0
22 -199 -211 0
22 -111 213 0
22 -76 -89 0
22 88 129 0
22 121 198 0
22 163 -186 0
22 165 -176 0
23 -56 -116 0
23 -28 230 0
23 -27 259 0
23 28 98 0
23 75 175 0
23 82 -132 0
23 93 124 0
24 -184 248 0
24 -149 254 0
24 -80 -184 0
24 -59 211 0
24 -43 132 0
24 -43 225 0
24 54 -118 0
25 71 158 0
25 134 192 0
25 159 -163 0
26 -165 -204 0
26 -115 224 0
26 59 -249 0
26 186 -206 0
27 -166 256 0
27 -104 -187 0
27 -88 -243 0
27 85 142 0
27 181 -201 0
28 -54 -63 0
28 215 -234 0
29 -198 242 0
29 -62 247 0
29 87 -112 0
29 170 214 0
29 213 220 0
30 -69 102 0
30 49 -220 0
30 73 118 0
30 77 -200 0
30 85 -236 0
30 119 -139 0
30 136 231 0
31 -229 246 0
31 -109 168 0
31 -92 -131 0
31 -74 -226 0
31 -45 -245 0
31 51 -109 0
31 59 167 0
32 -66 213 0
32 81 250 0
33 -208 -244 0
33 -161 200 0
33 -145 -225 0
33 57 222 0
33 164 200 0
34 -114 -174 0
34 -99 -153 0
34 35 161 0
34 76 -257 0
35 -177 209 0
35 -173 -257 0
35 96 -109 0
35 102 203 0
36 68 -181 0
36 187 237 0
36 217 224 0
37 39 242 0
37 65 99 0
37 138 -161 0
38 -85 239 0
38 -82 -248 0
38 108 -137 0
38 131 243 0
39 -61 -200 0
39 108 -260 0
39 152 -260 0
40 53 222 0
40 232 -254 0
41 -100 192 0
41 74 246 0
41 79 -178 0
41 124 -227 0
41 141 239 0
41 190 258 0
41 239 245 0
42 -50 -148 0
42 121 181 0
43 -101 -183 0
43 61 204 0
43 103 -119 0
43 112 180 0
43 149 228 0
43 151 -196 0
43 242 -252 0
44 -81 96 0
44 81 157 0
45 -155 -219 0
45 57 -228 0
46 -143 205 0
46 -113 -167 0
46 -111 -226 0
46 -60 233 0
46 47 -202 0
46 58 -146 0
46 94 184 0
46 127 193 0
46 185 224 0
47 -130 -177 0
47 -79 222 0
47 54 -157 0
47 56 148 0
47 142 228 0
48 -138 -195 0
48 -65 -67 0
48 56 83 0
48 114 255 0
48 133 201 0
48 160 -163 0
49 -198 -222 0
49 -165 176 0
49 95 -186 0
49 155 260 0
50 -144 -158 0
50 82 -121 0
50 102 186 0
51 -118 191 0
51 131 -187 0
52 -106 -221 0
52 -76 -160 0
52 -69 -162 0
53 57 64 0
53 135 200 0
54 -108 -137 0
54 -82 -260 0
54 65 135 0
54 75 90 0
55 -163 248 0
55 -125 -182 0
55 63 -138 0
56 -181 199 0
56 -111 -158 0
56 -72 118 0
56 80 227 0
56 94 -121 0
57 82 -93 0
57 106 -230 0
57 144 220 0
58 -200 233 0
58 -176 -233 0
58 -124 -156 0
58 -80 117 0
58 200 224 0
59 -111 -246 0
59 -75 239 0
59 -73 76 0
59 67 95 0
60 -67 163 0
60 141 -186 0
60 193 241 0
61 -198 217 0
61 -163 -205 0
61 -142 242 0
61 85 -141 0
62 79 -220 0
62 103 207 0
63 -142 -233 0
63 -142 230 0
63 -95 -136 0
65 -210 243 0
65 150 223 0
66 109 -152 0
66 197 -227 0
67 -141 242 0
67 -81 231 0
67 133 208 0
67 211 233 0
68 -150 171 0
68 -144 158 0
68 -139 163 0
68 -133 205 0
68 -74 143 0
68 108 237 0
68 189 245 0
69 -185 -208 0
69 -135 -194 0
69 -85 158 0
69 139 152 0
69 160 174 0
70 -188 -251 0
70 130 -203 0
70 171 190 0
71 -124 206 0
71 -117 174 0
71 79 152 0
71 98 233 0
72 110 -133 0
72 126 -250 0
72 204 -221 0
73 -195 260 0
73 -179 238 0
73 -92 226 0
73 160 -174 0
74 187 -197 0
74 224 -226 0
75 171 -229 0
76 -139 202 0
76 96 -176 0
76 173 -226 0
77 -80 123 0
77 125 172 0
77 217 223 0
78 -180 212 0
78 -124 -223 0
78 -122 -181 0
78 -97 172 0
78 96 -208 0
79 -157 184 0
79 149 154 0
80 -181 -215 0
80 201 -209 0
81 -90 -189 0
81 83 -143 0
82 -124 176 0
82 -98 -224 0
82 126 -216 0
82 143 -178 0
83 -190 -211 0
83 -110 -218 0
83 -94 -194 0
83 -88 125 0
84 111 180 0
85 89 118 0
85 175 180 0
86 -199 -259 0
86 -148 -250 0
86 93 206 0
86 115 -130 0
86 195 226 0
87 -136 -208 0
87 -115 -116 0
87 -93 -208 0
87 95 198 0
87 118 133 0
88 -151 -152 0
88 -113 208 0
88 -105 -199 0
89 -105 205 0
89 -99 -140 0
89 166 -246 0
90 -125 245 0
90 109 156 0
90 137 -148 0
91 166 -189 0
92 94 -115 0
94 -136 -216 0
94 -127 -243 0
94 95 -155 0
94 130 -141 0
95 153 194 0
95 176 220 0
96 -176 231 0
96 132 -177 0
96 159 219 0
96 173 191 0
97 -175 224 0
97 117 -131 0
98 -165 178 0
99 -131 -246 0
99 -105 -108 0
99 102 123 0
99 138 -256 0
99 214 -231 0
100 -175 -205 0
100 103 213 0
100 112 219 0
101 -102 192 0
101 144 -208 0
102 -187 199 0
102 -143 -242 0
102 129 249 0
102 151 -156 0
102 166 -180 0
102 230 -233 0
103 140 -167 0
104 113 -171 0
104 114 -220 0
104 156 226 0
105 -178 -236 0
106 -142 226 0
106 121 -130 0
106 189 -248 0
107 -174 184 0
107 -122 -230 0
107 130 231 0
107 142 -171 0
107 163 229 0
108 -207 223 0
109 -230 234 0
110 133 178 0
110 201 -222 0
111 -214 252 0
112 -189 211 0
113 -190 -230 0
113 -147 -215 0
114 -117 -185 0
114 169 -209 0
115 148 192 0
115 200 -248 0
116 -162 225 0
116 -117 -148 0
117 191 228 0
118 -226 236 0
119 -191 256 0
119 -175 242 0
119 132 197 0
119 178 -219 0
120 -156 256 0
120 -129 167 0
120 153 187 0
121 141 146 0
124 -194 211 0
125 -130 -174 0
125 140 -146 0
126 -128 -165 0
126 130 214 0
126 210 240 0
127 -154 200 0
128 -136 -183 0
128 143 -222 0
129 -191 -225 0
130 -132 -165 0
130 212 236 0
131 -222 -240 0
131 -140 176 0
131 132 258 0
131 203 250 0
132 -161 209 0
133 -210 -219 0
133 154 243 0
134 135 -156 0
134 178 -215 0
135 -184 255 0
135 -158 164 0
135 136 -225 0
137 -151 165 0
137 -148 -234 0
137 -139 -186 0
138 -217 259 0
138 -171 245 0
138 193 251 0
139 193 -222 0
140 -189 250 0
140 227 254 0
140 241 -259 0
141 -191 -258 0
141 -149 -205 0
141 226 260 0
142 176 217 0
147 -247 259 0
147 -207 -224 0
148 -211 213 0
150 -173 259 0
151 221 -253 0
153 179 195 0
154 228 236 0
156 171 -203 0
156 227 -232 0
158 -167 232 0
159 -165 220 0
159 197 -216 0
161 218 -222 0
163 164 194 0
164 -206 209 0
165 -199 201 0
165 239 253 0
169 -199 -221 0
169 -190 245 0
169 176 181 0
170 185 -210 0
171 -190 -221 0
174 187 -258 0
183 254 258 0
189 219 -243 0
191 202 -236 0
194 222 246 0
195 -197 -207 0
199 212 258 0
200 246 -249 0
203 -220 -221 0
208 236 -242 0
210 -215 220 0
216 224 -254 0
218 -230 234 0
218 -223 -253 0
221 -233 243 0
221 243 247 0
222 230 -259 0
