p cnf 150 638
-116 121 130 0
-111 116 -147 0
-109 -121 139 0
-107 125 -148 0
-106 -116 -142 0
-106 -113 -131 0
-105 115 125 0
-104 109 -121 0
-99 -120 138 0
-99 -113 141 0
-99 -112 -132 0
-99 102 -145 0
-98 -119 142 0
-95 -108 115 0
-95 113 -117 0
-93 105 108 0
-91 127 143 0
-91 129 -139 0
-87 93 131 0
-86 102 -150 0
-85 -110 135 0
-85 128 141 0
-84 -106 143 0
-84 -105 126 0
-84 -102 121 0
-83 134 -137 0
-81 96 -111 0
-80 -129 135 0
-79 -120 128 0
-79 149 -150 0
-77 -86 112 0
-77 89 -101 0
-76 -81 135 0
-76 86 -147 0
-75 -99 130 0
-75 -97 125 0
-75 95 -99 0
-73 -93 108 0
-73 104 118 0
-72 -127 146 0
-72 99 113 0
-72 126 -129 0
-71 -117 -128 0
-71 -90 101 0
-71 79 93 0
-71 106 127 0
-71 138 150 0
-70 -76 -113 0
-68 -77 124 0
-68 -69 73 0
-68 73 83 0
-68 79 132 0
-67 -95 -112 0
-67 -93 -131 0
-67 71 -123 0
-66 68 132 0
-66 105 127 0
-65 115 -123 0
-65 126 139 0
-64 122 127 0
-63 124 -140 0
-62 -75 77 0
-62 66 148 0
-61 62 145 0
-60 -63 79 0
-58 -121 137 0
-58 -69 -97 0
-58 -60 63 0
-57 67 88 0
-56 -104 148 0
-56 -88 120 0
-55 -101 -130 0
-55 72 140 0
-55 73 150 0
-55 110 -148 0
-54 -146 147 0
-54 -71 145 0
-53 -75 -149 0
-53 74 103 0
-53 99 140 0
-53 117 141 0
-52 -110 -132 0
-52 -65 110 0
-52 56 -71 0
-52 104 -133 0
-51 -105 -149 0
-51 -80 -130 0
-51 75 -118 0
-51 89 -140 0
-51 106 140 0
-50 -102 -124 0
-49 -57 -135 0
-48 -126 -144 0
-47 -105 -148 0
-47 -101 -117 0
-47 -94 -138 0
-47 -90 95 0
-47 143 144 0
-46 -134 149 0
-46 -124 137 0
-46 -101 140 0
-46 84 -89 0
-46 93 -133 0
-45 -105 -122 0
-45 -63 94 0
-45 51 -105 0
-45 52 -125 0
-44 -85 -126 0
-44 -84 -90 0
-44 73 -100 0
-44 106 -142 0
-43 59 -105 0
-42 -88 140 0
-42 -81 -149 0
-42 -76 108 0
-42 -72 -131 0
-42 -60 -147 0
-42 -44 107 0
-42 43 -118 0
-42 63 68 0
-42 71 -111 0
-41 61 -63 0
-40 72 -100 0
-40 93 -107 0
-39 -71 -131 0
-39 40 144 0
-39 99 108 0
-38 -134 -146 0
-38 -71 72 0
-38 -63 -81 0
-38 45 -107 0
-37 -110 -121 0
-37 -56 -128 0
-37 -51 -72 0
-37 40 -124 0
-37 52 72 0
-36 -112 -113 0
-36 102 -112 0
-36 112 149 0
-36 122 -138 0
-35 -110 128 0
-34 -39 -60 0
-34 57 104 0
-33 -70 86 0
-32 -103 -110 0
-32 -44 -106 0
-32 47 -102 0
-32 52 -107 0
-32 58 -59 0
-32 90 -121 0
-32 138 -148 0
-31 -88 -105 0
-31 75 -142 0
-30 34 -109 0
-30 35 115 0
-30 63 105 0
-30 118 -131 0
-30 129 133 0
-29 -45 138 0
-29 35 -110 0
-29 54 124 0
-29 122 -125 0
-28 -115 119 0
-28 -50 51 0
-28 -45 -145 0
-28 90 -133 0
-28 114 -130 0
-27 29 50 0
-27 55 -91 0
-27 127 141 0
-26 -28 150 0
-26 61 -86 0
-26 99 -101 0
-25 -93 101 0
-25 107 142 0
-24 -74 125 0
-24 -45 92 0
-24 99 -112 0
-23 -57 61 0
-23 -43 -140 0
-23 -38 -70 0
-23 -37 38 0
-23 49 78 0
-23 77 -150 0
-22 -112 128 0
-22 -83 125 0
-22 -74 130 0
-22 -37 -143 0
-22 25 120 0
-22 36 119 0
-22 45 -72 0
-22 51 124 0
-21 -115 -150 0
-21 116 -134 0
-20 -145 -149 0
-20 -96 -147 0
-20 -71 94 0
-19 -87 -96 0
-19 48 -140 0
-19 49 -65 0
-19 109 119 0
-18 -102 132 0
-18 32 70 0
-18 39 -48 0
-18 66 91 0
-18 77 132 0
-17 -94 128 0
-17 -45 150 0
-17 -33 -87 0
-16 -101 128 0
-16 -100 -147 0
-16 -84 -122 0
-16 -51 -93 0
-16 -21 -57 0
-16 43 -127 0
-16 58 124 0
-15 -103 108 0
-15 -45 48 0
-15 64 -104 0
-15 93 120 0
-14 -75 149 0
-14 -15 26 0
-14 22 -35 0
-14 37 76 0
-14 109 -132 0
-13 -65 -90 0
-13 37 -103 0
-13 83 -121 0
-13 97 -144 0
-12 -119 128 0
-12 -71 99 0
-12 -49 76 0
-12 -45 137 0
-12 -37 145 0
-12 56 -113 0
-12 87 -110 0
-11 -97 107 0
-11 -54 -142 0
-11 -28 -60 0
-11 -27 -39 0
-11 13 -72 0
-11 40 108 0
-10 -76 119 0
-10 -41 -140 0
-10 -28 -95 0
-10 -28 117 0
-10 -24 -117 0
-10 43 52 0
-10 56 91 0
-10 66 89 0
-10 73 107 0
-9 -97 140 0
-9 10 -39 0
-9 17 91 0
-9 22 117 0
-9 31 -90 0
-9 36 37 0
-9 39 98 0
-9 65 -70 0
-9 100 150 0
-8 -41 -111 0
-8 17 75 0
-7 -107 126 0
-7 -59 108 0
-7 -48 -131 0
-7 -42 -111 0
-7 -34 -145 0
-7 -25 140 0
-7 -14 34 0
-7 36 -53 0
-7 46 79 0
-7 77 119 0
-6 -141 -142 0
-6 -70 75 0
-6 -66 -145 0
-6 21 123 0
-6 46 -64 0
-5 -64 93 0
-5 -26 -44 0
-5 -26 61 0
-5 -24 -65 0
-5 -22 -69 0
-5 12 -144 0
-5 18 104 0
-5 22 76 0
-5 38 93 0
-4 -93 145 0
-4 -66 -139 0
-4 -21 126 0
-4 -10 38 0
-4 -5 -130 0
-4 19 -38 0
-4 27 45 0
-3 -69 -78 0
-3 -59 118 0
-3 -40 -116 0
-3 -26 -92 0
-3 36 129 0
-3 41 101 0
-3 116 140 0
-3 132 139 0
-2 -39 -70 0
-2 -21 27 0
-2 -15 -125 0
-2 -13 41 0
-2 -13 105 0
-2 65 -77 0
-2 98 -109 0
-1 -105 136 0
-1 -38 118 0
-1 -33 -105 0
-1 -10 29 0
-1 25 -61 0
-1 41 127 0
-1 44 -66 0
-1 90 147 0
-1 118 -132 0
1 -126 -129 0
1 -59 97 0
1 7 114 0
1 63 -114 0
1 66 111 0
1 126 -146 0
2 -78 104 0
2 -47 -93 0
2 -47 -76 0
2 -7 94 0
2 20 -39 0
3 -72 -148 0
3 -49 134 0
3 9 65 0
3 48 57 0
3 93 -150 0
4 -37 104 0
4 -36 -101 0
4 -30 136 0
4 -19 -54 0
4 8 -50 0
4 15 -95 0
4 106 -127 0
5 -54 110 0
5 -51 -89 0
5 -29 -34 0
5 -23 -122 0
5 7 99 0
5 17 146 0
5 88 131 0
5 90 122 0
7 -120 128 0
7 -87 147 0
7 -65 -94 0
7 -30 41 0
7 -30 107 0
7 12 83 0
7 14 132 0
7 21 -53 0
7 34 -114 0
7 47 -58 0
7 67 -78 0
7 116 -132 0
8 -75 104 0
8 -27 -72 0
8 -24 -64 0
8 13 -99 0
8 28 148 0
8 95 106 0
9 -101 136 0
9 -77 -127 0
9 -70 146 0
9 -22 33 0
9 28 55 0
9 57 65 0
10 -82 112 0
10 -43 -102 0
10 -41 -137 0
10 43 100 0
10 71 -135 0
10 72 -141 0
10 91 137 0
10 117 131 0
11 -102 118 0
11 -86 -124 0
11 -43 -74 0
11 -35 -133 0
11 88 97 0
11 133 138 0
12 -64 -142 0
12 -63 112 0
12 -48 115 0
12 18 43 0
12 46 121 0
13 -60 -113 0
13 28 -88 0
13 31 82 0
14 -115 -121 0
14 -78 132 0
14 -51 -81 0
14 -50 66 0
14 -33 -46 0
14 -16 41 0
14 47 126 0
14 132 -149 0
15 -51 -86 0
15 -18 59 0
15 98 -123 0
15 103 114 0
16 -63 75 0
16 -43 91 0
16 45 58 0
17 36 -69 0
17 62 -102 0
17 79 91 0
17 83 -94 0
18 -57 63 0
18 -48 -103 0
18 -42 76 0
18 -20 48 0
18 38 79 0
18 39 -91 0
18 41 75 0
18 44 -103 0
19 -52 134 0
19 60 -126 0
19 67 122 0
19 69 127 0
20 -41 -51 0
20 30 -75 0
20 81 -87 0
21 -123 -142 0
21 -101 118 0
21 34 150 0
22 -27 -111 0
22 37 84 0
22 68 -79 0
23 -120 -125 0
23 -98 -115 0
23 -94 121 0
23 -29 -133 0
23 29 136 0
23 37 135 0
24 -67 127 0
24 -25 -139 0
24 -25 80 0
24 -25 149 0
24 132 137 0
25 -86 -99 0
25 29 -139 0
26 -60 76 0
26 -37 73 0
27 -113 -116 0
27 57 -66 0
27 60 106 0
27 76 96 0
28 -43 -122 0
28 80 -142 0
28 107 -114 0
29 96 102 0
30 -101 141 0
30 -83 -134 0
30 -44 144 0
30 -42 91 0
31 -114 140 0
31 -55 -107 0
31 39 77 0
31 70 92 0
31 79 -98 0
31 105 -119 0
32 -91 110 0
32 70 77 0
33 -90 140 0
33 -61 150 0
33 -60 -128 0
33 63 89 0
34 -119 -120 0
34 -96 122 0
35 -85 101 0
35 -63 102 0
35 -47 -63 0
35 44 -88 0
35 65 -116 0
35 87 131 0
35 91 -148 0
35 115 -119 0
36 -74 99 0
36 -42 107 0
36 56 -72 0
36 116 -148 0
37 -94 -145 0
37 -63 -112 0
37 -60 -129 0
37 -59 146 0
37 -54 118 0
37 60 -106 0
37 67 134 0
38 -64 -107 0
39 -66 75 0
39 -61 70 0
39 -55 126 0
39 -48 66 0
39 96 -137 0
40 49 59 0
41 -60 97 0
41 119 124 0
42 -83 -106 0
42 83 -140 0
43 -131 132 0
43 -84 136 0
43 -53 113 0
44 73 -137 0
45 -139 141 0
45 49 -59 0
45 96 -124 0
45 135 139 0
46 -81 98 0
46 -65 -73 0
46 130 137 0
47 -105 -133 0
47 -55 132 0
47 54 135 0
47 86 -128 0
48 -124 -149 0
48 -93 -94 0
48 -64 -83 0
48 63 81 0
48 98 -122 0
49 -111 -125 0
49 -86 -101 0
49 -85 -92 0
49 -51 -108 0
49 54 72 0
49 84 138 0
50 -128 -133 0
50 -80 -95 0
50 76 149 0
51 -128 144 0
51 -102 -139 0
51 73 -148 0
51 105 -122 0
52 -62 -107 0
52 55 119 0
53 -55 126 0
53 73 86 0
53 98 -110 0
54 -76 143 0
54 61 116 0
54 116 -119 0
56 -76 130 0
58 -85 130 0
59 -90 -137 0
59 -87 -112 0
60 -134 149 0
60 102 144 0
61 -137 -150 0
61 -125 -134 0
61 -91 -110 0
61 -90 150 0
61 -70 150 0
61 81 88 0
62 -112 -118 0
62 -63 -143 0
63 -122 -125 0
63 -76 -96 0
63 -75 -120 0
63 67 -91 0
63 68 -134 0
63 101 111 0
64 -90 129 0
65 -133 137 0
66 -90 143 0
66 -71 -133 0
66 87 89 0
66 124 148 0
67 111 122 0
68 -81 -100 0
68 69 -130 0
68 81 -109 0
69 -120 -136 0
70 -121 149 0
70 -110 111 0
70 -109 -146 0
70 73 -103 0
70 76 88 0
71 72 -87 0
71 84 103 0
73 -93 121 0
73 -74 115 0
73 82 100 0
73 87 118 0
74 76 143 0
74 98 126 0
75 -98 -118 0
75 -79 -117 0
75 77 117 0
75 108 -132 0
77 -87 125 0
78 104 -141 0
79 -95 -110 0
79 -90 127 0
79 93 -131 0
79 105 -119 0
80 -107 -126 0
80 -107 123 0
80 138 -140 0
81 -91 -126 0
81 86 100 0
81 114 -139 0
82 131 141 0
83 -91 -109 0
85 -94 147 0
85 -92 -98 0
86 -93 146 0
87 105 -126 0
88 -100 128 0
88 92 -124 0
88 122 -144 0
89 -123 -133 0
89 111 -148 0
89 121 147 0
89 139 -149 0
90 96 137 0
90 99 -124 0
91 106 -126 0
92 126 137 0
94 -128 131 0
95 129 -137 0
96 -117 -131 0
97 -131 136 0
98 -120 123 0
98 104 -108 0
101 -110 -150 0
102 120 -135 0
102 133 -140 0
103 -108 113 0
103 -106 -121 0
104 -126 -134 0
104 118 149 0
135 -137 148 0
137 -141 -144 0
