p cnf 60 255
-51 -56 -58 0
-51 53 -54 0
-50 -51 60 0
-50 53 -58 0
-48 52 56 0
-47 -53 -59 0
-47 49 52 0
-44 46 -59 0
-43 -47 54 0
-43 -45 53 0
-42 -56 60 0
-42 44 -55 0
-40 -45 -56 0
-40 -44 -48 0
-38 -48 50 0
-38 -43 -54 0
-37 39 -40 0
-37 45 -58 0
-36 -38 -41 0
-35 -36 -47 0
-35 49 -54 0
-34 -37 -49 0
-32 -34 -60 0
-30 36 45 0
-29 36 -55 0
-28 -49 57 0
-27 -28 -60 0
-27 45 -57 0
-27 50 56 0
-26 -56 60 0
-26 -42 -56 0
-26 28 -53 0
-26 29 40 0
-25 -52 -57 0
-25 32 37 0
-24 -37 -44 0
-24 30 49 0
-23 -36 59 0
-23 -34 -43 0
-21 37 -47 0
-21 55 56 0
-20 30 -57 0
-20 32 55 0
-20 37 -40 0
-19 -46 54 0
-18 -31 60 0
-17 -36 58 0
-16 -17 38 0
-16 18 -52 0
-16 20 -30 0
-16 33 53 0
-16 42 43 0
-15 -52 53 0
-15 -22 43 0
-15 -18 -54 0
-14 -16 23 0
-14 35 -55 0
-13 -39 48 0
-13 24 42 0
-12 -32 -33 0
-12 -25 -48 0
-12 35 48 0
-11 -38 52 0
-11 -32 50 0
-11 -22 36 0
-11 15 -17 0
-11 51 -53 0
-10 18 46 0
-9 -36 -37 0
-9 -21 -41 0
-9 12 25 0
-9 34 54 0
-8 -18 37 0
-8 17 19 0
-8 26 -31 0
-8 29 48 0
-7 -39 50 0
-7 -27 -53 0
-7 -22 -51 0
-7 -20 -54 0
-7 -20 26 0
-7 13 -34 0
-7 35 41 0
-7 49 -52 0
-6 -34 59 0
-6 -21 -39 0
-6 -14 -40 0
-6 -12 60 0
-6 8 -58 0
-6 10 20 0
-6 16 -46 0
-6 49 50 0
-5 -38 40 0
-5 -13 19 0
-5 -6 -47 0
-5 16 -53 0
-5 16 -17 0
-5 23 42 0
-4 -48 55 0
-4 -22 52 0
-4 5 -39 0
-4 6 37 0
-4 56 59 0
-3 -36 45 0
-3 -28 -51 0
-3 -8 24 0
-3 6 -27 0
-3 12 56 0
-3 16 -25 0
-2 -50 -57 0
-2 -48 -59 0
-2 -25 -47 0
-2 17 22 0
-2 18 58 0
-2 20 26 0
-2 20 55 0
-2 28 53 0
-2 38 51 0
-1 20 -28 0
-1 31 -55 0
-1 35 -51 0
-1 42 51 0
1 -56 -58 0
1 -41 54 0
1 -37 -57 0
1 -32 50 0
1 -11 20 0
1 -8 -36 0
1 18 -31 0
1 19 -48 0
1 21 30 0
1 35 51 0
2 -32 44 0
2 -28 -43 0
2 -13 -26 0
2 31 56 0
2 38 -43 0
3 -45 -59 0
3 -27 30 0
3 -25 -47 0
3 -23 -58 0
3 7 42 0
3 14 -44 0
3 23 54 0
3 38 -52 0
4 -27 57 0
4 6 -42 0
4 14 21 0
4 15 -29 0
4 22 58 0
4 29 40 0
4 36 41 0
5 -25 50 0
5 -13 -42 0
5 -10 -15 0
5 7 34 0
5 15 -50 0
5 28 -45 0
5 30 48 0
6 -50 -51 0
6 -35 45 0
6 9 -59 0
6 11 17 0
7 -52 55 0
7 16 -43 0
7 25 55 0
7 27 -33 0
7 46 -48 0
8 -24 25 0
8 -10 20 0
8 20 42 0
9 -42 -51 0
9 -40 56 0
9 -10 -38 0
9 14 56 0
10 -14 52 0
10 11 46 0
10 12 -14 0
10 14 29 0
10 19 -46 0
10 43 54 0
11 -39 -46 0
11 -31 35 0
11 30 36 0
12 -22 -48 0
12 -18 58 0
12 16 -49 0
12 28 50 0
12 29 35 0
13 -54 -60 0
13 -39 52 0
13 30 -34 0
13 38 -54 0
14 -15 -46 0
14 20 38 0
15 -37 -46 0
15 -22 49 0
15 21 -43 0
15 23 -48 0
15 27 45 0
16 -46 -48 0
16 -40 41 0
16 -29 36 0
17 -46 49 0
17 -38 54 0
17 -29 -49 0
17 -25 57 0
17 32 36 0
18 20 37 0
18 32 -45 0
18 39 -58 0
19 -52 -59 0
19 -44 -55 0
19 -38 44 0
19 -31 47 0
19 -29 46 0
19 21 45 0
19 21 55 0
19 50 51 0
20 -36 -37 0
20 -34 -57 0
20 30 -52 0
21 28 53 0
22 -48 -51 0
22 -23 34 0
22 42 -59 0
23 -29 41 0
24 -52 56 0
24 -48 52 0
25 33 55 0
26 -36 45 0
26 -35 38 0
27 -32 59 0
27 -31 -44 0
27 29 46 0
28 -34 59 0
29 -47 57 0
29 -45 55 0
29 45 58 0
30 31 36 0
30 53 55 0
31 -50 -51 0
31 -42 -43 0
31 34 -42 0
31 34 54 0
34 -36 -41 0
35 51 56 0
36 43 -46 0
36 46 50 0
38 53 -55 0
39 -51 53 0
41 51 -54 0
42 -48 -52 0
42 -44 45 0
44 50 -56 0
