p cnf 120 420
-100 -116 -120 0
-100 110 -118 0
-96 100 -110 0
-89 93 -109 0
-89 104 -117 0
-86 -94 -110 0
-86 -91 -99 0
-83 103 108 0
-81 -87 -114 0
-81 84 -97 0
-79 83 117 0
-79 101 109 0
-78 -80 119 0
-75 -87 115 0
-75 -79 -111 0
-72 80 115 0
-67 68 -107 0
-65 -102 108 0
-65 -72 81 0
-65 -66 -75 0
-65 68 -114 0
-64 -79 110 0
-64 74 -87 0
-64 89 -113 0
-64 96 120 0
-63 -70 -96 0
-62 -71 76 0
-62 -68 -93 0
-62 87 103 0
-61 -74 97 0
-61 116 118 0
-59 -109 -120 0
-59 -79 116 0
-58 -106 107 0
-58 -81 119 0
-55 -85 -117 0
-55 69 85 0
-55 81 -113 0
-54 -79 -99 0
-54 -65 93 0
-54 90 104 0
-53 93 96 0
-52 68 -111 0
-52 85 117 0
-50 -106 -116 0
-50 -51 109 0
-49 -87 101 0
-49 -76 -115 0
-49 -75 115 0
-49 -69 -105 0
-49 -53 78 0
-48 -99 -103 0
-48 -71 73 0
-48 -55 82 0
-47 -48 -101 0
-47 69 -89 0
-46 -110 120 0
-46 -49 73 0
-46 61 69 0
-46 66 76 0
-45 -84 93 0
-44 -48 105 0
-44 75 80 0
-43 -78 113 0
-43 -54 -116 0
-43 -51 120 0
-42 43 70 0
-41 45 77 0
-41 46 110 0
-40 -73 113 0
-40 -64 68 0
-40 57 95 0
-40 84 -116 0
-39 -59 -115 0
-39 -54 -89 0
-39 -51 -78 0
-39 55 -90 0
-38 -86 117 0
-38 -42 98 0
-38 57 -113 0
-38 87 -105 0
-37 -50 -57 0
-37 58 -78 0
-37 68 -83 0
-37 80 91 0
-36 89 -106 0
-35 -71 -110 0
-35 -60 94 0
-35 -45 72 0
-35 -41 -99 0
-35 45 100 0
-34 -80 88 0
-34 35 91 0
-33 -35 36 0
-33 35 64 0
-33 53 56 0
-32 -91 -102 0
-32 -51 100 0
-31 -52 98 0
-31 60 118 0
-30 -50 52 0
-30 -32 -82 0
-30 51 62 0
-30 73 -120 0
-30 101 -117 0
-29 -89 116 0
-29 -77 -88 0
-29 -73 113 0
-29 -72 88 0
-29 -41 86 0
-29 37 73 0
-29 66 -73 0
-28 -102 -113 0
-28 -87 -115 0
-28 -72 -106 0
-28 -70 98 0
-28 -41 -43 0
-28 -41 43 0
-27 -62 70 0
-27 69 -115 0
-27 75 -86 0
-26 32 76 0
-26 43 87 0
-25 -71 94 0
-25 44 -92 0
-25 90 -113 0
-24 -61 -114 0
-24 -47 48 0
-24 -30 117 0
-24 47 116 0
-24 56 -104 0
-24 93 116 0
-24 102 -117 0
-23 -29 -38 0
-23 41 -74 0
-22 -80 -100 0
-22 -50 -100 0
-22 -27 -107 0
-22 50 117 0
-21 -45 102 0
-21 -29 -110 0
-21 101 102 0
-20 -71 -85 0
-20 38 88 0
-19 -40 -82 0
-19 -30 63 0
-19 -27 -34 0
-19 40 84 0
-18 -36 70 0
-18 47 -112 0
-17 -69 108 0
-17 -44 89 0
-17 33 60 0
-17 39 -102 0
-16 -95 -107 0
-16 -88 -103 0
-16 -80 -95 0
-16 -50 -90 0
-16 44 -98 0
-15 -89 -116 0
-15 -54 -89 0
-15 18 41 0
-15 42 -64 0
-15 60 -88 0
-14 -103 111 0
-14 26 120 0
-14 64 96 0
-13 -35 43 0
-13 27 56 0
-13 42 -72 0
-13 53 78 0
-13 56 -95 0
-13 91 112 0
-12 22 89 0
-12 29 -103 0
-12 29 -55 0
-12 90 119 0
-11 -14 -92 0
-11 108 114 0
-10 -40 112 0
-10 17 -65 0
-10 73 -80 0
-9 -88 120 0
-9 -43 -71 0
-9 -21 38 0
-9 44 55 0
-8 16 -64 0
-8 17 -61 0
-8 76 90 0
-7 -37 -114 0
-7 -19 95 0
-7 8 -90 0
-7 13 78 0
-7 45 92 0
-7 93 -106 0
-7 109 -112 0
-6 15 -94 0
-6 20 -48 0
-6 51 -112 0
-6 54 109 0
-5 -81 -113 0
-5 -12 -38 0
-4 -93 -113 0
-4 -57 -81 0
-4 -36 -80 0
-4 7 -85 0
-4 31 -61 0
-4 40 71 0
-4 50 58 0
-4 57 -107 0
-4 71 -103 0
-3 -94 -95 0
-3 -8 32 0
-3 11 106 0
-3 54 82 0
-3 55 116 0
-3 63 -101 0
-3 71 79 0
-3 113 -115 0
-2 -114 117 0
-2 -46 -66 0
-2 -16 -100 0
-2 -10 -73 0
-2 -4 -75 0
-2 23 40 0
-2 24 -66 0
-1 -28 39 0
-1 -27 -115 0
-1 -19 32 0
-1 6 -22 0
-1 21 67 0
-1 23 82 0
-1 45 -51 0
1 -85 -117 0
1 -36 59 0
1 8 53 0
2 -65 -114 0
2 -60 66 0
2 -29 -46 0
2 5 18 0
2 28 -107 0
2 34 -104 0
3 -28 -39 0
3 8 20 0
3 12 35 0
3 15 -32 0
4 -86 -117 0
4 -13 96 0
4 11 -118 0
4 81 111 0
5 -6 -78 0
5 12 65 0
5 29 53 0
5 46 82 0
5 50 112 0
5 76 -81 0
5 99 -103 0
6 -22 65 0
6 -18 -52 0
6 35 -40 0
6 37 94 0
6 96 -101 0
7 31 33 0
8 -44 -87 0
8 69 -70 0
9 -100 -109 0
9 -62 -101 0
9 -16 -108 0
9 13 98 0
9 66 -110 0
10 -89 90 0
11 46 -111 0
12 -86 -113 0
12 -75 119 0
12 -67 78 0
12 -53 -117 0
12 44 57 0
13 -92 109 0
13 -71 74 0
13 63 -85 0
13 64 89 0
14 -92 -118 0
14 -55 101 0
14 -51 -60 0
14 -27 71 0
14 25 -71 0
14 50 -99 0
14 50 -73 0
15 -63 107 0
15 -55 -93 0
15 82 -113 0
16 -87 111 0
16 31 -85 0
16 41 77 0
16 72 -97 0
16 76 -118 0
16 83 -86 0
17 -103 116 0
17 -53 -114 0
17 -21 -37 0
18 -72 116 0
18 -20 108 0
18 38 43 0
18 63 -116 0
18 97 101 0
19 -22 -75 0
19 -21 29 0
19 22 -49 0
19 50 67 0
19 58 -88 0
20 -90 112 0
20 -74 118 0
20 -52 87 0
20 115 118 0
21 -41 -113 0
21 35 115 0
21 63 -71 0
21 66 -85 0
21 117 -119 0
22 -47 118 0
22 -37 105 0
22 31 -44 0
22 93 -111 0
23 -116 119 0
24 -89 92 0
24 -61 62 0
24 -58 -110 0
24 -44 -89 0
24 -37 68 0
24 82 120 0
25 -60 -104 0
25 47 69 0
26 -30 68 0
26 61 -68 0
27 54 102 0
28 -94 -108 0
28 35 -102 0
28 76 104 0
30 -81 90 0
30 -78 -113 0
30 -39 94 0
30 -31 -96 0
31 -105 -116 0
31 40 82 0
31 65 -119 0
32 -88 -105 0
32 -36 -97 0
32 35 -103 0
32 39 63 0
33 -56 70 0
33 -51 -63 0
33 -40 114 0
34 -35 56 0
34 38 54 0
34 118 120 0
36 80 -120 0
36 109 -111 0
37 -46 52 0
37 77 105 0
37 94 117 0
38 -104 -116 0
38 101 108 0
40 68 -109 0
40 68 -84 0
40 70 -106 0
40 100 -112 0
41 -110 119 0
41 52 95 0
42 -51 76 0
42 45 77 0
43 -60 99 0
44 55 89 0
45 -79 -114 0
45 -56 -105 0
45 56 -88 0
45 71 -105 0
46 47 85 0
48 -55 -90 0
48 53 -102 0
48 83 -89 0
49 -57 -93 0
50 93 -105 0
51 -56 -79 0
51 81 -97 0
52 -103 -105 0
53 -65 91 0
54 -107 -112 0
54 -76 115 0
55 -77 -102 0
55 92 -105 0
58 -67 -108 0
59 -86 116 0
60 -83 -106 0
60 -65 117 0
60 99 109 0
61 93 108 0
62 90 -110 0
65 95 115 0
66 79 -109 0
67 95 -97 0
68 -73 76 0
69 -92 107 0
69 71 89 0
71 75 -78 0
74 106 -117 0
75 -83 112 0
75 97 101 0
76 -82 104 0
76 82 86 0
79 -82 -87 0
82 101 -105 0
83 -92 94 0
86 91 -102 0
88 102 -109 0
89 -107 111 0
93 104 -109 0
98 -111 -117 0
98 110 -114 0
99 100 -101 0
103 106 108 0
