p cnf 35 149
-28 30 34 0
-28 33 35 0
-24 -30 -31 0
-24 31 -34 0
-21 24 34 0
-21 25 32 0
-21 28 33 0
-18 -27 -33 0
-18 23 24 0
-17 -18 -24 0
-17 22 28 0
-16 -20 34 0
-16 -18 20 0
-15 -29 -31 0
-15 25 -30 0
-14 -21 32 0
-14 -15 22 0
-13 -14 28 0
-12 -27 29 0
-12 -17 -21 0
-12 19 -31 0
-11 -16 -35 0
-11 -13 19 0
-11 13 26 0
-11 14 28 0
-11 19 28 0
-10 -26 27 0
-10 -20 23 0
-10 -17 25 0
-10 -12 26 0
-10 11 -19 0
-10 13 22 0
-9 -16 -31 0
-9 23 -28 0
-8 -22 31 0
-8 14 -18 0
-8 23 29 0
-7 -26 -30 0
-7 -9 33 0
-6 -23 -35 0
-6 -16 20 0
-6 29 -32 0
-5 -34 35 0
-5 -23 30 0
-5 -16 -25 0
-5 -12 17 0
-5 -8 -17 0
-5 9 -17 0
-5 10 11 0
-5 14 22 0
-5 15 25 0
-5 19 -32 0
-5 25 32 0
-4 -16 21 0
-4 5 -33 0
-3 -21 -25 0
-3 -13 32 0
-3 -9 -26 0
-3 5 18 0
-3 9 -14 0
-3 10 25 0
-3 17 18 0
-3 28 31 0
-2 -33 35 0
-2 -14 -32 0
-2 3 28 0
-2 5 26 0
-2 6 33 0
-2 14 -28 0
-2 15 -21 0
-1 -26 31 0
-1 6 -22 0
-1 18 23 0
1 -21 -27 0
1 -13 -17 0
1 -10 -18 0
1 -9 -25 0
1 -5 -33 0
1 13 22 0
2 -21 -25 0
2 -13 27 0
2 -7 30 0
2 8 -35 0
2 10 15 0
2 18 -26 0
2 21 31 0
3 -24 -26 0
3 4 7 0
3 17 26 0
3 27 -34 0
4 -17 27 0
4 -15 17 0
4 -12 28 0
4 7 15 0
4 9 28 0
4 13 22 0
4 16 -35 0
4 19 31 0
5 -22 -30 0
5 -18 34 0
5 20 -25 0
5 29 -33 0
6 -18 -28 0
6 8 -9 0
6 14 29 0
7 -19 -35 0
7 9 -15 0
7 13 17 0
8 -21 -22 0
8 -12 25 0
8 17 -31 0
8 23 -35 0
9 -30 31 0
9 -24 33 0
9 -19 -35 0
9 -14 16 0
9 12 20 0
9 23 -24 0
10 -13 14 0
10 12 34 0
10 13 -24 0
10 24 -30 0
11 -19 31 0
11 13 -15 0
12 -30 -33 0
12 18 -34 0
12 18 24 0
13 21 -34 0
14 -24 33 0
14 -23 35 0
14 15 33 0
14 28 -30 0
15 -22 -25 0
15 -20 -32 0
15 19 -24 0
15 19 32 0
16 23 -27 0
16 30 31 0
17 -22 26 0
17 21 -34 0
19 -24 -32 0
19 28 -32 0
19 34 -35 0
21 22 -34 0
21 32 -34 0
22 -24 29 0
23 28 -32 0
23 29 35 0
26 28 -29 0
