p cnf 40 170
-36 37 38 0
-30 33 38 0
-26 -30 32 0
-25 -30 33 0
-24 29 37 0
-23 -25 -40 0
-22 -23 39 0
-22 26 39 0
-21 24 -30 0
-21 31 -33 0
-20 -26 -28 0
-18 -35 -37 0
-18 -33 -36 0
-18 -26 33 0
-17 -34 -37 0
-17 31 -32 0
-17 31 36 0
-17 36 37 0
-14 -32 38 0
-14 -29 -37 0
-14 26 -40 0
-13 -24 -34 0
-13 -14 22 0
-13 22 28 0
-13 22 32 0
-13 29 35 0
-13 30 -40 0
-12 -21 -28 0
-12 22 27 0
-11 -34 -37 0
-11 -29 -38 0
-11 -12 26 0
-9 -27 -34 0
-9 -23 25 0
-9 -13 -32 0
-9 12 -37 0
-8 -31 -37 0
-8 -18 -39 0
-8 -13 -29 0
-8 -12 -27 0
-8 9 -16 0
-8 15 -36 0
-8 19 34 0
-7 -23 -32 0
-7 -19 -20 0
-7 9 28 0
-6 -23 -27 0
-6 -14 39 0
-6 14 -28 0
-6 15 -21 0
-6 16 -27 0
-5 -18 36 0
-5 -8 21 0
-4 8 19 0
-3 -19 22 0
-3 -15 -31 0
-3 9 32 0
-3 11 25 0
-3 22 36 0
-2 -39 -40 0
-2 -25 31 0
-2 -13 -16 0
-2 -7 36 0
-2 4 15 0
-2 26 39 0
-1 -13 -23 0
-1 -13 14 0
-1 -13 33 0
-1 -7 -8 0
-1 -5 -13 0
-1 12 -14 0
-1 25 -31 0
1 -20 -25 0
1 -16 -38 0
1 -11 -21 0
1 6 -21 0
1 7 25 0
1 10 31 0
1 12 33 0
1 35 -38 0
2 -14 40 0
2 -11 -21 0
2 -7 -8 0
2 5 40 0
2 15 -33 0
2 16 19 0
2 19 28 0
2 23 -29 0
2 24 -35 0
3 -35 37 0
3 -30 -40 0
3 -18 -28 0
3 -18 38 0
3 -14 -30 0
3 11 29 0
3 23 -39 0
4 -29 -33 0
4 -14 29 0
4 -11 30 0
4 6 -14 0
4 24 -35 0
5 -35 -36 0
5 11 31 0
6 9 35 0
6 15 20 0
6 16 26 0
6 22 30 0
7 -31 37 0
7 -15 18 0
7 -13 -31 0
7 13 33 0
8 -31 -32 0
8 -19 -38 0
8 21 -34 0
8 22 -37 0
8 28 40 0
9 -23 39 0
9 -17 -30 0
9 17 21 0
10 -28 -39 0
10 -27 -40 0
10 -22 -24 0
10 -13 -24 0
10 -11 -28 0
10 11 -19 0
10 15 28 0
11 -14 -17 0
11 34 -40 0
12 -37 -39 0
12 -30 40 0
12 -15 -40 0
12 18 20 0
12 22 30 0
13 -22 -39 0
13 17 -38 0
13 26 34 0
14 -26 39 0
14 -24 38 0
14 17 36 0
14 18 39 0
14 28 34 0
15 -33 -34 0
15 -20 -25 0
15 -20 29 0
16 -24 26 0
16 -21 -23 0
16 -18 -21 0
16 29 39 0
17 30 -32 0
17 31 -37 0
18 -33 -38 0
18 -26 -28 0
18 -20 -30 0
19 -31 37 0
19 24 28 0
19 31 35 0
20 22 24 0
21 -34 35 0
21 22 -25 0
21 23 24 0
22 -30 35 0
23 -37 38 0
26 -31 36 0
26 -30 -36 0
26 -28 -34 0
27 -31 32 0
27 35 -38 0
27 37 -38 0
28 -31 -35 0
32 -33 39 0
