p cnf 60 255
-52 53 54 0
-51 -52 -56 0
-47 48 56 0
-43 47 -58 0
-43 56 -59 0
-41 52 59 0
-39 58 60 0
-38 -44 -55 0
-38 48 53 0
-37 -55 59 0
-37 44 -52 0
-36 -44 -48 0
-36 38 59 0
-34 -40 52 0
-33 -45 -51 0
-33 -35 43 0
-32 -51 60 0
-32 -37 -60 0
-32 33 -48 0
-31 -35 46 0
-30 31 -57 0
-29 -34 59 0
-29 39 47 0
-28 55 57 0
-26 -34 55 0
-26 50 53 0
-26 52 -53 0
-25 -47 -51 0
-25 -37 -39 0
-25 -28 58 0
-25 45 -54 0
-24 -32 -54 0
-24 26 -29 0
-24 26 27 0
-24 42 45 0
-24 45 -56 0
-23 -35 59 0
-23 58 59 0
-21 -34 35 0
-21 -22 60 0
-21 25 32 0
-21 30 31 0
-20 24 60 0
-19 -34 -56 0
-19 -20 -39 0
-18 -36 -43 0
-18 -36 58 0
-18 28 -56 0
-18 33 -59 0
-17 -38 -50 0
-17 -24 -30 0
-17 -21 46 0
-17 -20 -25 0
-17 -18 48 0
-17 34 -44 0
-16 -45 -55 0
-16 -41 -51 0
-16 33 42 0
-16 37 43 0
-15 -29 -43 0
-15 25 -35 0
-15 30 46 0
-15 32 -46 0
-14 -46 -60 0
-14 17 -28 0
-13 -17 58 0
-13 -16 -59 0
-12 22 -38 0
-12 25 -57 0
-12 33 37 0
-12 38 -53 0
-11 -41 -55 0
-11 -23 -49 0
-11 47 55 0
-10 -46 52 0
-10 14 21 0
-10 20 -37 0
-9 -29 -60 0
-9 -13 27 0
-9 12 23 0
-9 17 -44 0
-8 -42 -43 0
-8 -28 50 0
-8 -25 48 0
-8 11 36 0
-7 -29 30 0
-7 -13 -41 0
-7 8 37 0
-7 9 27 0
-7 12 29 0
-7 22 -45 0
-7 33 -46 0
-7 36 50 0
-7 53 -55 0
-6 -31 37 0
-6 -7 14 0
-6 9 -27 0
-6 32 53 0
-6 33 49 0
-5 -44 -56 0
-5 -12 47 0
-5 -6 54 0
-5 7 10 0
-5 10 11 0
-4 14 58 0
-4 22 51 0
-4 35 47 0
-3 -36 -53 0
-3 -33 42 0
-3 16 -26 0
-3 44 57 0
-2 -23 -24 0
-2 26 -60 0
-1 -29 -33 0
-1 -13 48 0
-1 -8 56 0
-1 -2 -42 0
-1 8 27 0
-1 13 40 0
-1 36 59 0
1 -23 45 0
1 -4 -38 0
1 21 57 0
1 29 -49 0
1 46 48 0
2 -43 -59 0
2 -36 -53 0
2 -11 -56 0
2 -4 -14 0
2 -3 -36 0
3 -25 48 0
3 -9 -29 0
3 -4 -28 0
3 9 -16 0
3 37 -47 0
4 -43 -59 0
4 -32 -53 0
4 -12 -58 0
4 16 36 0
4 24 -53 0
4 24 60 0
4 25 27 0
5 -21 -46 0
5 8 -38 0
5 9 37 0
5 10 57 0
5 19 40 0
5 20 36 0
6 -33 -52 0
6 -31 -52 0
6 -21 -56 0
6 -21 -55 0
6 -8 -41 0
6 11 -30 0
6 25 -57 0
6 29 -32 0
6 39 -44 0
7 -35 -37 0
7 -15 -40 0
7 26 -34 0
7 30 -51 0
7 36 -55 0
7 50 -55 0
8 -45 -48 0
8 -41 -51 0
8 -18 -54 0
8 29 53 0
8 54 60 0
9 -42 -58 0
9 -35 58 0
9 -17 -25 0
9 -13 -24 0
9 -10 28 0
9 10 -56 0
9 12 -16 0
9 14 17 0
9 28 53 0
10 -21 22 0
10 21 35 0
10 32 60 0
11 -20 41 0
11 -15 -55 0
11 -14 18 0
11 42 59 0
11 47 57 0
12 -48 57 0
12 -40 -55 0
12 -19 36 0
12 19 22 0
12 27 33 0
12 29 41 0
12 41 49 0
13 -51 57 0
13 -30 -42 0
13 31 -41 0
14 -18 34 0
14 -16 18 0
14 23 -48 0
15 -45 53 0
15 -43 -55 0
15 -16 31 0
15 18 40 0
15 24 -54 0
16 -32 -42 0
16 -32 37 0
16 -23 38 0
17 -40 56 0
17 -19 -51 0
17 23 -41 0
18 -25 -31 0
18 48 57 0
19 -32 46 0
19 22 48 0
19 27 58 0
19 33 42 0
20 -45 56 0
20 -43 -53 0
20 36 -44 0
21 -38 -45 0
21 22 -57 0
21 25 59 0
21 29 -55 0
22 -55 58 0
22 -37 38 0
22 -28 31 0
22 -26 -52 0
22 43 59 0
23 25 31 0
24 -25 -39 0
24 29 52 0
25 -27 48 0
25 27 35 0
25 39 40 0
26 37 -60 0
27 30 -50 0
27 52 55 0
28 41 -50 0
30 -56 59 0
30 -47 -60 0
31 -37 60 0
31 35 56 0
33 -43 -60 0
33 34 -43 0
36 -40 45 0
36 43 47 0
39 43 -60 0
39 54 -57 0
40 -53 56 0
40 44 57 0
40 46 -57 0
42 -48 52 0
43 47 58 0
43 53 -58 0
46 52 -59 0
46 54 -55 0
