p cnf 24 102
-16 21 23 0
-14 -15 23 0
-14 15 -21 0
-13 15 -24 0
-11 12 24 0
-11 23 -24 0
-10 -14 15 0
-10 15 -16 0
-10 18 -23 0
-10 20 -24 0
-9 -20 21 0
-9 21 22 0
-8 -22 -24 0
-8 -16 -22 0
-7 -22 -24 0
-7 -15 -16 0
-7 -8 24 0
-7 15 -24 0
-6 -9 -24 0
-6 -8 -11 0
-6 -8 19 0
-6 13 -14 0
-6 14 15 0
-6 15 20 0
-5 -11 19 0
-5 10 -12 0
-4 -13 -16 0
-4 -10 -18 0
-4 14 18 0
-4 17 18 0
-3 -13 16 0
-3 -7 -8 0
-3 6 20 0
-3 9 23 0
-3 9 24 0
-2 -16 21 0
-2 -5 -21 0
-2 -3 -7 0
-2 3 -20 0
-2 3 8 0
-2 12 22 0
-2 13 -24 0
-2 14 19 0
-1 -13 19 0
-1 -5 -22 0
-1 3 24 0
-1 4 9 0
-1 13 -15 0
-1 21 -23 0
1 -11 -16 0
1 -6 -23 0
1 -3 -12 0
1 -3 20 0
1 2 -18 0
2 -11 22 0
2 4 -10 0
2 4 9 0
2 7 -15 0
2 14 15 0
3 -17 22 0
3 -14 -22 0
3 12 -22 0
3 13 14 0
3 13 24 0
4 -20 24 0
4 -10 12 0
4 -6 17 0
4 5 -10 0
4 13 -24 0
4 16 -19 0
5 -9 10 0
5 9 -16 0
5 14 -19 0
6 -18 -20 0
6 8 -13 0
6 11 15 0
6 15 -22 0
6 17 -24 0
7 -11 20 0
7 -10 15 0
7 -8 18 0
7 9 17 0
7 10 -16 0
7 12 24 0
8 -15 -18 0
8 12 -22 0
8 19 -24 0
9 -11 -19 0
9 12 23 0
9 13 -14 0
10 -15 19 0
10 -13 -23 0
10 -13 15 0
10 18 -20 0
10 22 -23 0
11 -15 18 0
11 -13 17 0
11 14 17 0
12 -15 19 0
13 14 -19 0
17 -18 -24 0
18 -21 22 0
