p cnf 80 260
-63 78 80 0
-53 55 60 0
-52 -53 -60 0
-50 59 60 0
-49 67 -69 0
-45 62 -71 0
-44 -54 80 0
-44 46 -59 0
-43 -58 -64 0
-43 55 -66 0
-42 64 -76 0
-38 39 75 0
-38 55 -58 0
-37 -52 74 0
-37 74 78 0
-35 37 55 0
-34 -45 -74 0
-34 50 -79 0
-33 -57 64 0
-33 -36 58 0
-33 59 -78 0
-32 55 58 0
-31 41 66 0
-31 65 71 0
-29 -64 72 0
-29 -39 42 0
-29 49 65 0
-28 -67 -71 0
-28 -55 -62 0
-27 52 80 0
-26 37 51 0
-25 -29 40 0
-24 -47 -52 0
-24 34 66 0
-23 -26 41 0
-23 37 -41 0
-22 -23 43 0
-22 65 -78 0
-21 -34 -53 0
-21 23 37 0
-21 74 -80 0
-20 53 -61 0
-19 -21 38 0
-18 20 68 0
-18 61 -77 0
-17 -76 80 0
-17 -37 79 0
-16 -25 30 0
-16 29 49 0
-16 39 -41 0
-16 52 -63 0
-15 -27 -70 0
-15 26 56 0
-14 -65 78 0
-14 -60 -76 0
-14 -17 65 0
-13 -56 -65 0
-13 -55 64 0
-13 -45 59 0
-13 35 -44 0
-13 45 72 0
-12 -61 -67 0
-12 -32 56 0
-12 -29 -55 0
-12 16 55 0
-12 22 73 0
-11 39 59 0
-11 41 -66 0
-10 -76 -78 0
-9 -35 58 0
-9 -29 -45 0
-9 -20 64 0
-9 19 24 0
-9 20 -39 0
-9 32 -54 0
-8 -49 75 0
-8 -37 -79 0
-8 14 -30 0
-8 32 -76 0
-8 74 -78 0
-7 -46 -78 0
-7 -39 46 0
-7 -33 37 0
-7 -22 71 0
-7 21 -55 0
-6 -20 -64 0
-6 -14 45 0
-6 20 -55 0
-6 40 50 0
-6 49 -65 0
-6 49 54 0
-5 -29 58 0
-5 -6 -42 0
-5 29 -54 0
-5 43 -63 0
-4 -18 -43 0
-4 -13 63 0
-4 6 71 0
-4 7 62 0
-4 11 -61 0
-4 35 -80 0
-3 -38 49 0
-3 4 -39 0
-3 9 -60 0
-2 -41 60 0
-2 -32 -53 0
-2 -25 -65 0
-2 -6 -40 0
-2 8 50 0
-2 20 36 0
-2 21 68 0
-2 26 -60 0
-2 29 -57 0
-2 48 -68 0
-2 63 71 0
-1 -64 -66 0
-1 -42 -51 0
-1 -14 25 0
-1 -7 18 0
-1 3 -25 0
-1 8 35 0
-1 62 -66 0
1 -41 70 0
1 -19 80 0
1 -18 -72 0
2 -27 56 0
2 11 59 0
2 16 -54 0
2 54 69 0
3 -36 -61 0
3 -29 -47 0
3 -23 68 0
3 -11 77 0
3 30 -56 0
4 24 -46 0
4 40 -67 0
4 42 69 0
5 -43 58 0
5 -22 -50 0
5 -21 -25 0
5 -13 -33 0
5 -12 -34 0
5 15 -60 0
5 42 -64 0
6 -49 53 0
6 -38 79 0
6 -37 47 0
6 -31 35 0
6 -18 49 0
6 -17 -39 0
6 -14 73 0
6 10 -68 0
6 61 65 0
7 -30 63 0
7 18 -72 0
7 27 78 0
8 -58 64 0
8 -21 28 0
8 15 23 0
8 40 70 0
9 -23 -34 0
9 17 -37 0
9 24 80 0
9 27 -79 0
10 -26 -72 0
10 21 63 0
10 40 -64 0
11 -64 -76 0
11 -15 37 0
11 15 49 0
11 16 67 0
12 -25 67 0
12 -19 62 0
12 45 69 0
12 46 -77 0
13 43 -62 0
13 56 63 0
14 -46 53 0
14 -23 51 0
14 -16 46 0
14 30 80 0
14 75 -78 0
15 -47 -60 0
15 24 -44 0
16 36 -70 0
16 43 76 0
16 49 71 0
16 59 74 0
16 63 72 0
17 19 69 0
17 49 -70 0
18 -57 74 0
18 -51 -52 0
18 -41 -56 0
18 -37 51 0
18 -29 -65 0
18 20 66 0
18 38 71 0
19 -36 -76 0
19 23 -56 0
19 40 -60 0
20 -63 -75 0
20 -38 69 0
20 -28 30 0
21 -48 49 0
21 -33 -71 0
21 48 77 0
21 56 57 0
22 55 -75 0
24 -59 80 0
24 -51 -59 0
24 57 -74 0
25 -38 45 0
25 29 -41 0
25 30 -65 0
25 30 60 0
26 -42 -65 0
26 -27 29 0
26 53 67 0
26 67 -74 0
27 -39 58 0
27 -30 38 0
27 32 70 0
29 -37 59 0
29 39 69 0
29 72 75 0
30 -31 54 0
30 35 60 0
30 55 -57 0
31 -44 59 0
31 -37 42 0
31 34 -35 0
32 35 -55 0
32 35 -43 0
33 61 -63 0
33 63 -66 0
34 -75 -77 0
34 -59 -64 0
35 42 -77 0
36 -42 65 0
37 38 -60 0
39 -53 -77 0
39 75 -77 0
41 -67 -77 0
41 -51 61 0
42 50 -78 0
43 -58 72 0
45 -46 -49 0
47 50 52 0
49 -55 68 0
50 -75 -77 0
50 -57 -60 0
52 -57 64 0
53 -71 72 0
53 -60 71 0
54 64 -73 0
54 65 70 0
64 -66 -72 0
66 67 70 0
67 69 -73 0
