p cnf 60 180
-52 -56 60 0
-44 -54 58 0
-41 44 -47 0
-40 -47 53 0
-40 47 -59 0
-39 -44 52 0
-39 50 54 0
-36 43 49 0
-33 43 52 0
-32 40 -60 0
-31 37 -56 0
-30 -41 -49 0
-29 35 51 0
-29 40 56 0
-27 -37 44 0
-27 -36 55 0
-27 -31 43 0
-26 34 56 0
-24 -29 -33 0
-24 -25 49 0
-23 -55 -59 0
-23 -34 -38 0
-23 -26 36 0
-23 28 -52 0
-23 31 -50 0
-22 -39 55 0
-22 30 -37 0
-21 29 -41 0
-20 -40 -58 0
-20 -34 54 0
-20 22 24 0
-20 28 34 0
-20 33 51 0
-20 46 -60 0
-20 57 60 0
-18 -30 -49 0
-15 -16 -58 0
-15 17 -30 0
-15 33 -44 0
-14 -52 -59 0
-14 -29 -46 0
-14 -23 -59 0
-14 23 -34 0
-14 59 60 0
-13 -31 46 0
-13 23 -56 0
-13 28 -41 0
-12 -38 -54 0
-12 -32 40 0
-12 15 52 0
-12 25 28 0
-12 45 -60 0
-12 47 -58 0
-11 -19 -60 0
-11 12 16 0
-11 19 -60 0
-11 56 58 0
-10 -45 57 0
-10 16 -36 0
-9 -25 49 0
-9 12 35 0
-9 26 -56 0
-9 39 40 0
-8 -25 47 0
-8 -19 46 0
-8 40 46 0
-8 44 -48 0
-8 47 -57 0
-7 -19 -22 0
-7 -9 28 0
-7 16 23 0
-7 46 49 0
-7 48 53 0
-7 55 56 0
-6 -57 58 0
-6 -46 47 0
-6 13 -26 0
-5 -34 38 0
-5 -33 -59 0
-5 -27 29 0
-5 -18 35 0
-5 16 -37 0
-5 21 44 0
-5 48 54 0
-4 -6 25 0
-3 -17 57 0
-2 -24 -48 0
-2 18 31 0
-2 46 -50 0
-1 -55 -57 0
-1 -47 -52 0
-1 -14 -52 0
-1 12 -47 0
-1 24 27 0
-1 27 -58 0
-1 38 57 0
1 -36 -40 0
1 -29 31 0
1 -21 49 0
1 -12 54 0
1 -9 -10 0
1 3 11 0
1 8 47 0
2 -54 -58 0
2 -20 -48 0
2 -10 22 0
2 10 16 0
2 13 -49 0
2 18 40 0
2 47 -50 0
3 -38 -53 0
3 -17 -18 0
3 -7 16 0
3 21 33 0
4 -48 58 0
4 17 38 0
4 23 26 0
4 24 -55 0
4 44 48 0
5 -20 -32 0
5 -17 -22 0
7 -25 38 0
7 43 -44 0
7 46 53 0
8 -20 -21 0
8 18 -34 0
8 18 33 0
8 25 -45 0
9 -45 56 0
9 12 -22 0
10 14 21 0
10 23 -41 0
10 41 44 0
11 -34 -43 0
11 -27 53 0
11 56 -57 0
12 -16 -57 0
12 48 56 0
13 -36 60 0
13 -31 -60 0
13 19 57 0
13 25 27 0
13 27 39 0
13 30 -50 0
14 -18 -21 0
14 31 -50 0
15 -43 50 0
15 -28 -58 0
15 -21 -32 0
15 17 -48 0
15 29 55 0
17 -40 -42 0
17 28 -36 0
18 -40 -50 0
18 -31 -56 0
19 38 44 0
20 -29 -32 0
20 21 49 0
20 47 -55 0
22 -25 39 0
23 -30 -44 0
23 25 -26 0
23 37 -53 0
24 -38 -49 0
24 27 -46 0
25 56 57 0
26 27 -30 0
28 31 -50 0
28 32 58 0
29 41 59 0
32 -39 -54 0
34 -43 48 0
35 -48 59 0
36 -46 -59 0
38 42 -45 0
39 -49 -57 0
39 -40 57 0
44 50 -60 0
47 57 -59 0
50 57 -58 0
