p cnf 100 360
-86 87 -95 0
-86 95 97 0
-84 -90 -93 0
-82 84 87 0
-81 -88 92 0
-80 -88 -95 0
-75 77 -80 0
-73 75 -100 0
-69 71 76 0
-64 -71 -76 0
-63 -83 -90 0
-62 -77 -95 0
-60 -61 -91 0
-59 -71 -79 0
-58 -61 93 0
-57 -65 91 0
-56 -74 -97 0
-56 79 -90 0
-55 -70 -81 0
-54 -64 67 0
-54 75 78 0
-51 55 -84 0
-50 -77 -98 0
-49 68 -89 0
-48 -65 -82 0
-47 -56 63 0
-43 45 -79 0
-42 -55 -99 0
-42 43 -69 0
-41 -67 85 0
-41 82 -96 0
-40 -51 -94 0
-40 -43 56 0
-39 -67 73 0
-39 -54 -65 0
-38 -98 99 0
-38 -63 -92 0
-38 41 44 0
-38 51 -79 0
-38 52 69 0
-37 -89 -94 0
-37 59 73 0
-36 -83 85 0
-36 -51 74 0
-36 49 -88 0
-35 -50 -77 0
-35 57 76 0
-35 62 75 0
-34 41 69 0
-34 67 72 0
-33 -71 -91 0
-33 70 -71 0
-32 -81 94 0
-32 -39 48 0
-32 36 -43 0
-32 55 -59 0
-31 -69 86 0
-31 -35 -60 0
-31 56 -97 0
-30 -64 -89 0
-29 75 -83 0
-29 80 -85 0
-28 -96 -99 0
-28 -41 54 0
-28 -41 97 0
-28 39 -44 0
-27 -53 -62 0
-27 29 -59 0
-27 49 94 0
-27 52 61 0
-27 60 -85 0
-27 90 -95 0
-26 -38 -65 0
-26 47 88 0
-25 -59 85 0
-25 -44 61 0
-25 -28 44 0
-24 -55 -89 0
-24 -55 60 0
-24 -33 85 0
-24 -31 79 0
-23 24 79 0
-23 47 60 0
-22 -68 100 0
-22 -46 56 0
-22 -34 -74 0
-22 -33 -84 0
-22 -29 -75 0
-22 -23 56 0
-22 30 -68 0
-22 58 72 0
-22 77 -98 0
-21 -38 -47 0
-20 -54 -88 0
-20 -39 -74 0
-20 -22 -98 0
-19 -62 89 0
-19 -40 -53 0
-19 -23 -60 0
-19 33 -36 0
-18 -65 -66 0
-18 47 -92 0
-17 -26 75 0
-17 -25 -91 0
-17 -20 83 0
-17 57 -82 0
-16 -83 -94 0
-15 -57 -88 0
-15 -36 -87 0
-15 -20 41 0
-15 -16 63 0
-14 -51 -61 0
-14 -33 -77 0
-14 23 -76 0
-14 33 -93 0
-13 80 85 0
-12 -83 96 0
-12 -68 -95 0
-12 -18 31 0
-12 19 -58 0
-11 14 46 0
-11 51 -92 0
-11 57 83 0
-10 -17 -21 0
-10 24 -37 0
-10 26 70 0
-10 63 71 0
-10 66 -93 0
-9 -73 -100 0
-9 -63 95 0
-9 22 -74 0
-9 37 85 0
-9 80 95 0
-8 -26 -42 0
-8 -11 17 0
-8 28 -90 0
-8 49 -95 0
-8 55 -70 0
-8 72 -81 0
-7 -93 -94 0
-7 -74 75 0
-7 -34 64 0
-7 -16 -31 0
-7 16 65 0
-7 21 -63 0
-7 21 -35 0
-6 -93 -96 0
-6 -75 -92 0
-6 -72 96 0
-6 7 68 0
-6 25 79 0
-6 38 -61 0
-6 38 -58 0
-6 41 50 0
-6 55 93 0
-5 46 -87 0
-4 -87 -100 0
-4 -46 -98 0
-4 37 63 0
-4 46 -74 0
-3 14 -64 0
-3 45 82 0
-3 54 87 0
-2 -37 -90 0
-2 -32 -98 0
-2 -21 -72 0
-2 -19 -74 0
-2 7 -77 0
-2 13 70 0
-2 39 -43 0
-2 74 80 0
-1 -83 -86 0
-1 -70 76 0
-1 -41 -63 0
-1 -27 79 0
-1 8 -14 0
-1 20 93 0
-1 29 81 0
1 -37 -91 0
1 -30 -58 0
1 -29 -62 0
1 -16 88 0
1 -15 51 0
1 -4 -93 0
1 34 42 0
1 46 81 0
1 53 -79 0
2 -13 77 0
2 4 42 0
2 9 70 0
2 14 -59 0
2 45 -99 0
2 49 -74 0
3 -6 -92 0
3 49 96 0
4 -96 99 0
4 13 -100 0
4 65 100 0
5 -41 -52 0
5 -32 53 0
5 -15 -52 0
5 24 49 0
5 46 -99 0
5 51 -73 0
5 64 -99 0
5 69 -87 0
6 9 -46 0
6 33 90 0
6 56 -67 0
6 74 78 0
7 -63 -75 0
7 -58 -86 0
7 -33 -49 0
7 18 -56 0
7 31 51 0
7 38 41 0
8 -58 -67 0
8 -36 -71 0
8 -28 -52 0
8 85 -100 0
9 -33 60 0
9 22 -92 0
9 24 31 0
9 25 -99 0
9 30 57 0
9 68 -94 0
10 -24 51 0
10 19 -38 0
10 60 -73 0
11 -32 -99 0
11 -14 97 0
11 54 -58 0
12 -65 96 0
12 -49 76 0
12 68 76 0
13 -94 95 0
13 -16 -34 0
14 -45 93 0
14 -19 -41 0
14 16 -66 0
15 -72 -91 0
15 -72 -79 0
15 -61 -79 0
15 -46 80 0
15 -25 61 0
15 -16 -88 0
15 17 -23 0
15 69 92 0
16 -63 88 0
16 -40 -74 0
16 -19 -100 0
16 65 86 0
17 -53 -66 0
17 -52 93 0
17 -45 57 0
17 -40 -71 0
17 27 38 0
17 30 62 0
17 36 -68 0
17 47 58 0
17 72 -73 0
17 81 -95 0
18 -54 81 0
18 -19 -75 0
18 -19 -24 0
18 23 -56 0
18 44 -71 0
19 -52 -74 0
19 20 62 0
19 46 -48 0
20 -33 70 0
20 -28 81 0
20 55 84 0
20 83 -96 0
21 -68 -77 0
21 -41 67 0
21 -31 64 0
21 -28 -66 0
21 34 -80 0
21 56 -81 0
22 -41 -97 0
22 39 70 0
23 32 90 0
23 53 -97 0
23 73 81 0
24 -81 100 0
24 -49 70 0
24 -35 65 0
24 64 -86 0
24 70 92 0
25 -35 97 0
25 -28 -60 0
25 27 76 0
27 -68 94 0
27 -46 47 0
27 -45 -58 0
27 31 32 0
27 35 -90 0
27 56 -98 0
28 -61 62 0
28 -34 -80 0
28 37 -57 0
29 63 95 0
30 -74 83 0
30 -56 80 0
30 33 -47 0
30 57 -80 0
31 -83 -98 0
31 -70 75 0
31 40 81 0
33 -74 81 0
33 37 59 0
33 54 -99 0
34 -58 -64 0
34 66 -78 0
35 -37 -53 0
37 -61 -83 0
38 57 62 0
38 83 98 0
39 -55 61 0
39 -45 -61 0
40 52 -71 0
40 59 95 0
40 83 100 0
41 -57 76 0
42 -48 79 0
42 86 95 0
43 47 64 0
44 62 100 0
46 -75 -86 0
46 -63 -89 0
47 -53 96 0
48 -74 75 0
48 -61 92 0
48 -57 -86 0
48 -55 -68 0
48 56 90 0
49 -69 100 0
52 -87 95 0
52 -79 89 0
52 61 78 0
53 55 64 0
54 64 -91 0
56 62 -94 0
59 83 -85 0
60 -65 -88 0
61 -88 -89 0
61 -73 75 0
61 78 88 0
63 -64 -94 0
63 78 -87 0
64 -79 -84 0
66 69 -98 0
67 72 93 0
71 -91 -94 0
72 -89 -95 0
72 -80 87 0
76 95 -99 0
81 -88 100 0
86 -93 98 0
