p cnf 60 255
-47 49 55 0
-46 -55 -56 0
-41 -46 -47 0
-41 49 56 0
-39 -41 45 0
-38 -40 -50 0
-37 50 57 0
-36 -39 -55 0
-34 -39 57 0
-34 35 -59 0
-33 -36 -49 0
-33 40 -60 0
-33 52 54 0
-32 -51 -56 0
-32 34 36 0
-32 46 -57 0
-30 -48 50 0
-30 -37 46 0
-30 -32 43 0
-30 35 -45 0
-28 40 -53 0
-27 -47 57 0
-27 32 -36 0
-26 -32 -39 0
-23 -43 -60 0
-22 -37 46 0
-22 -36 56 0
-22 -30 -37 0
-22 44 52 0
-21 -40 -43 0
-21 -23 41 0
-20 25 39 0
-18 -25 28 0
-18 19 -49 0
-18 37 38 0
-18 39 48 0
-17 -21 49 0
-17 -20 -41 0
-17 26 41 0
-16 -41 49 0
-16 -34 -60 0
-16 -33 -35 0
-16 -29 46 0
-16 -24 -44 0
-16 25 -42 0
-15 -18 36 0
-15 20 -26 0
-15 24 -42 0
-14 -52 58 0
-14 -40 -41 0
-14 25 29 0
-14 54 -56 0
-13 -50 55 0
-13 -28 46 0
-13 19 33 0
-13 22 -53 0
-12 -32 -37 0
-12 -17 51 0
-12 -16 53 0
-12 28 34 0
-12 36 -57 0
-11 -15 35 0
-11 28 42 0
-10 -32 36 0
-10 -15 -28 0
-10 23 32 0
-10 45 -46 0
-9 13 -48 0
-9 30 32 0
-8 -10 -39 0
-8 22 -39 0
-8 31 -54 0
-8 40 -44 0
-8 47 48 0
-7 -49 51 0
-7 -37 -44 0
-7 -20 36 0
-7 28 47 0
-7 35 56 0
-7 48 52 0
-6 -29 -47 0
-6 39 55 0
-5 -44 -50 0
-5 -26 29 0
-5 -18 30 0
-5 9 19 0
-5 15 17 0
-5 18 37 0
-5 18 38 0
-5 25 -42 0
-5 26 -32 0
-5 39 42 0
-5 48 -59 0
-4 -33 51 0
-4 -18 -54 0
-4 -5 -29 0
-4 25 -51 0
-4 35 57 0
-4 40 47 0
-4 54 58 0
-3 -54 -57 0
-3 -5 -49 0
-3 -4 -33 0
-3 8 22 0
-3 8 48 0
-3 12 28 0
-3 26 58 0
-3 36 56 0
-2 -35 44 0
-2 -21 -23 0
-2 -11 43 0
-2 -10 -20 0
-2 -5 57 0
-2 10 58 0
-2 18 -27 0
-2 19 50 0
-1 -21 -33 0
-1 -10 14 0
-1 2 22 0
-1 7 16 0
1 -24 -48 0
1 -13 27 0
1 -9 -32 0
1 5 -29 0
1 9 32 0
1 23 -39 0
1 29 52 0
1 32 37 0
2 -25 -58 0
2 -18 51 0
2 -10 45 0
2 -3 32 0
2 3 -20 0
2 8 24 0
2 36 -48 0
3 -47 50 0
3 -22 -45 0
3 -20 -56 0
3 13 37 0
4 -38 53 0
4 6 48 0
4 29 -43 0
4 39 48 0
5 -34 -45 0
5 31 35 0
5 52 -53 0
6 -25 36 0
7 -54 -55 0
7 -21 -51 0
7 -21 22 0
7 -12 -40 0
7 12 52 0
7 15 55 0
7 19 60 0
7 21 -31 0
7 30 -50 0
8 -41 -54 0
8 -25 -31 0
8 -21 -40 0
8 -18 31 0
8 -11 53 0
8 -9 -56 0
8 9 -27 0
8 11 -16 0
8 28 40 0
8 30 53 0
9 -47 57 0
9 -40 -54 0
9 -21 -53 0
9 -13 28 0
9 -12 -37 0
9 10 -23 0
9 31 60 0
10 -20 -33 0
10 -19 -42 0
10 11 20 0
10 13 41 0
10 17 51 0
10 41 -43 0
11 -24 29 0
11 18 -24 0
11 19 -42 0
11 24 52 0
11 27 42 0
12 -28 29 0
12 -21 -58 0
12 26 59 0
13 -32 -57 0
13 -30 41 0
13 -20 -30 0
13 21 31 0
14 -42 58 0
14 -18 -39 0
14 -16 57 0
14 15 -26 0
14 18 -33 0
14 31 -38 0
15 -52 59 0
15 -40 -42 0
15 -27 -58 0
15 -20 60 0
15 35 -57 0
16 -51 -55 0
16 -32 -57 0
16 -30 59 0
16 27 58 0
16 40 -59 0
16 43 -49 0
17 -24 -25 0
17 23 -52 0
17 30 -35 0
18 -34 45 0
18 -26 -59 0
19 -53 58 0
19 -48 -50 0
19 -35 -45 0
19 32 57 0
19 42 -52 0
19 48 60 0
20 -25 30 0
20 21 -42 0
21 -48 -52 0
21 -26 -27 0
21 23 59 0
21 25 -52 0
21 27 31 0
21 42 57 0
21 47 58 0
23 25 -44 0
24 -50 51 0
24 37 43 0
24 59 60 0
25 -35 -58 0
25 -35 -36 0
26 30 -49 0
27 -34 -42 0
29 37 -51 0
29 56 57 0
30 38 -45 0
30 39 51 0
31 -41 45 0
31 36 48 0
31 51 -55 0
34 -40 -44 0
35 39 41 0
36 56 60 0
37 -55 57 0
37 43 -44 0
37 48 -60 0
37 49 -59 0
38 -51 -53 0
42 -49 -50 0
42 52 55 0
44 52 59 0
54 -55 59 0
