p cnf 100 600
-88 -91 97 0
-84 -86 97 0
-81 88 94 0
-76 -78 -91 0
-75 -89 -99 0
-72 86 -98 0
-71 -84 -98 0
-70 72 80 0
-70 78 88 0
-69 -99 100 0
-69 -94 -97 0
-68 75 98 0
-67 -71 -85 0
-67 -70 -87 0
-64 69 72 0
-64 86 -90 0
-64 92 -95 0
-62 -74 -80 0
-62 81 -94 0
-61 -81 99 0
-61 -65 93 0
-60 70 -84 0
-59 -73 -89 0
-59 64 -94 0
-58 -60 -91 0
-58 73 -93 0
-57 75 83 0
-56 60 98 0
-56 72 -93 0
-55 65 -77 0
-54 -77 88 0
-54 58 -79 0
-54 61 -98 0
-53 -92 93 0
-52 59 81 0
-51 -70 88 0
-51 -65 86 0
-51 65 73 0
-51 70 95 0
-50 -60 69 0
-50 63 87 0
-48 -54 -57 0
-48 86 -93 0
-47 -70 -93 0
-47 49 -54 0
-47 50 88 0
-47 53 -73 0
-47 69 75 0
-47 76 91 0
-46 47 -64 0
-45 -74 -81 0
-45 -50 82 0
-44 -45 53 0
-43 44 57 0
-42 -50 95 0
-41 -61 71 0
-41 -43 79 0
-40 -63 -68 0
-40 62 -88 0
-40 62 93 0
-39 -45 -60 0
-39 -45 74 0
-39 55 -87 0
-38 59 75 0
-37 -49 -66 0
-37 48 -89 0
-37 62 94 0
-37 71 93 0
-36 -70 85 0
-36 -52 82 0
-36 43 -82 0
-36 73 100 0
-35 -71 -83 0
-35 43 84 0
-35 43 87 0
-34 -79 -87 0
-34 37 39 0
-34 48 -65 0
-34 49 -90 0
-33 -87 90 0
-33 -58 -73 0
-33 -40 -51 0
-33 45 82 0
-33 62 83 0
-33 81 94 0
-32 -53 60 0
-32 36 -86 0
-32 56 -70 0
-31 -73 85 0
-31 -52 -85 0
-31 39 -84 0
-31 42 -49 0
-31 76 99 0
-31 97 -100 0
-30 -80 89 0
-30 -78 -88 0
-30 -58 63 0
-30 -41 100 0
-30 52 92 0
-29 -79 80 0
-29 -64 68 0
-29 40 -60 0
-29 44 75 0
-29 46 60 0
-29 55 76 0
-28 -68 -87 0
-28 -42 87 0
-28 47 50 0
-28 57 64 0
-27 -92 -96 0
-27 -79 84 0
-27 -29 75 0
-27 30 -55 0
-27 33 -82 0
-27 47 96 0
-26 36 50 0
-25 -31 37 0
-25 37 -73 0
-24 -73 -99 0
-24 -32 73 0
-24 -30 -49 0
-24 25 64 0
-24 27 -76 0
-24 45 81 0
-24 55 -98 0
-23 -86 -97 0
-23 -54 -60 0
-23 -49 -65 0
-23 -43 65 0
-23 44 -49 0
-23 70 73 0
-22 -86 99 0
-22 53 75 0
-22 56 94 0
-22 58 98 0
-21 -50 -68 0
-21 30 -99 0
-21 34 59 0
-21 54 -90 0
-20 -41 -86 0
-20 -40 45 0
-20 -28 -95 0
-20 47 84 0
-19 -80 97 0
-19 -66 -72 0
-19 -61 -95 0
-19 -55 -62 0
-19 -43 44 0
-19 -43 48 0
-19 -36 100 0
-19 -25 -51 0
-19 57 85 0
-19 94 -95 0
-18 -38 61 0
-18 26 -85 0
-18 27 84 0
-18 60 -85 0
-17 -77 -88 0
-17 -69 -93 0
-17 -39 -85 0
-17 26 -46 0
-17 30 82 0
-17 31 58 0
-17 34 -64 0
-17 58 -89 0
-16 29 36 0
-16 33 -51 0
-16 42 97 0
-16 53 -77 0
-16 88 96 0
-15 -56 62 0
-15 -30 -66 0
-15 -23 60 0
-15 22 72 0
-15 24 -56 0
-15 31 85 0
-15 47 -94 0
-15 80 -89 0
-14 -47 85 0
-14 -47 86 0
-14 -46 -92 0
-14 -39 -92 0
-14 -37 -99 0
-14 -27 57 0
-14 49 -69 0
-14 58 -62 0
-14 69 -95 0
-13 -42 -73 0
-13 -35 52 0
-13 -21 -36 0
-13 19 -72 0
-13 24 87 0
-13 31 -32 0
-13 40 87 0
-13 50 90 0
-13 60 -71 0
-12 -50 -100 0
-12 -38 -73 0
-12 46 -78 0
-12 50 76 0
-12 50 95 0
-11 -75 82 0
-11 -44 -45 0
-11 -34 -76 0
-11 -23 52 0
-11 35 83 0
-11 49 -75 0
-11 56 59 0
-11 62 -73 0
-11 73 78 0
-11 84 85 0
-10 -80 -97 0
-10 -62 -85 0
-10 -59 93 0
-10 -57 -77 0
-10 -55 -93 0
-10 -54 -72 0
-10 -52 -76 0
-10 -40 95 0
-10 -39 -88 0
-10 -34 97 0
-10 -15 19 0
-10 13 -94 0
-10 14 97 0
-10 22 -58 0
-10 34 94 0
-10 74 -93 0
-9 -28 71 0
-9 24 28 0
-9 26 36 0
-9 38 -98 0
-9 67 -68 0
-9 97 100 0
-8 -90 -96 0
-8 -67 -81 0
-8 -43 -85 0
-8 -43 89 0
-8 -24 -91 0
-8 15 -47 0
-8 52 60 0
-7 -78 -88 0
-7 -22 72 0
-7 -18 -68 0
-7 -10 -58 0
-7 21 32 0
-7 30 56 0
-7 33 59 0
-7 37 -66 0
-7 37 53 0
-7 37 97 0
-7 42 -63 0
-7 45 -70 0
-6 -78 -85 0
-6 -78 96 0
-6 -76 96 0
-6 -58 84 0
-6 -10 -16 0
-6 10 46 0
-5 -96 -99 0
-5 21 54 0
-5 24 -63 0
-5 34 52 0
-5 62 -73 0
-4 -58 -76 0
-4 -56 84 0
-4 -10 49 0
-4 -6 -87 0
-4 28 -62 0
-4 35 -95 0
-4 54 -66 0
-3 -45 -71 0
-3 -31 99 0
-3 -22 89 0
-3 -14 60 0
-3 6 11 0
-3 8 59 0
-3 19 -95 0
-3 28 -52 0
-2 -53 -84 0
-2 -29 -33 0
-2 -28 -97 0
-2 -8 48 0
-2 -7 19 0
-2 -5 34 0
-2 -3 -100 0
-2 10 97 0
-2 16 -81 0
-2 18 19 0
-2 80 -82 0
-1 -73 76 0
-1 -53 -70 0
-1 -45 92 0
-1 -42 -72 0
-1 -41 -97 0
-1 20 29 0
-1 33 60 0
-1 34 88 0
-1 59 72 0
-1 77 -93 0
1 -43 -75 0
1 3 -56 0
1 15 37 0
1 16 82 0
1 18 44 0
1 61 87 0
1 81 -93 0
2 -38 -50 0
2 -10 31 0
2 -3 33 0
2 6 40 0
2 13 23 0
2 28 -59 0
2 72 -83 0
3 -53 -73 0
3 -50 -66 0
3 -42 61 0
3 -12 -75 0
3 -6 -95 0
3 13 57 0
3 14 95 0
3 18 -29 0
3 31 94 0
3 77 -85 0
4 -72 -74 0
4 -48 -81 0
4 -30 -51 0
4 -15 78 0
4 -14 -68 0
4 -10 -67 0
4 5 65 0
4 10 -35 0
4 23 -65 0
4 27 -31 0
4 27 61 0
4 53 -64 0
4 53 80 0
4 62 77 0
4 87 95 0
5 -53 66 0
5 -29 -54 0
5 -25 30 0
5 -19 -73 0
5 -9 -92 0
5 10 -47 0
5 11 27 0
5 17 69 0
5 24 -55 0
5 28 59 0
5 62 -66 0
6 -57 76 0
6 -45 73 0
6 -43 -87 0
6 -38 90 0
6 -28 -37 0
6 -21 92 0
6 -17 -75 0
6 -12 93 0
6 25 26 0
6 75 92 0
7 -87 -99 0
7 -72 -88 0
7 -69 -90 0
7 -54 91 0
7 -45 54 0
7 -30 -83 0
7 -21 39 0
7 -9 -54 0
7 10 58 0
7 32 -37 0
7 44 -76 0
7 81 95 0
8 -44 -75 0
8 13 37 0
8 23 -40 0
8 29 -36 0
9 -54 75 0
9 -35 81 0
9 21 -26 0
9 30 -76 0
9 30 97 0
9 47 -87 0
10 -41 80 0
10 -17 25 0
10 11 -45 0
10 29 -51 0
10 61 -99 0
11 -68 -85 0
11 -27 52 0
11 -15 -68 0
11 -13 22 0
11 30 -31 0
12 -54 -90 0
12 -32 55 0
12 15 44 0
12 34 76 0
13 -76 91 0
13 -69 82 0
13 -59 61 0
13 -49 79 0
13 -26 28 0
13 -15 -71 0
13 25 69 0
13 43 -50 0
13 69 -71 0
13 79 95 0
14 -75 -82 0
14 -39 51 0
14 22 80 0
14 44 76 0
14 63 89 0
14 83 -86 0
15 -85 -99 0
15 -34 -65 0
15 16 43 0
15 20 -86 0
15 21 -92 0
15 27 -83 0
15 39 -67 0
15 39 72 0
15 74 -88 0
16 -33 40 0
17 -38 54 0
17 -19 20 0
17 30 42 0
17 37 -85 0
18 -32 -82 0
18 -20 41 0
18 27 -41 0
18 38 61 0
18 67 -97 0
19 -82 -86 0
19 -41 92 0
19 -40 -80 0
19 48 -77 0
19 69 100 0
19 79 84 0
20 -50 -99 0
20 -47 -55 0
20 -30 -67 0
20 33 -75 0
20 38 83 0
21 -55 73 0
21 -22 -47 0
21 25 62 0
21 64 -96 0
21 75 89 0
22 -55 58 0
22 -52 60 0
22 -44 73 0
22 -32 -56 0
22 26 62 0
22 29 -61 0
22 43 -82 0
22 58 -85 0
22 69 -70 0
23 66 -77 0
24 30 -62 0
24 34 -91 0
24 50 -83 0
24 55 63 0
24 62 67 0
25 -55 -70 0
25 29 -38 0
25 47 96 0
25 48 -58 0
26 -88 -92 0
26 -67 71 0
26 -58 71 0
26 30 -47 0
26 50 -69 0
26 58 -83 0
27 -90 93 0
27 -79 90 0
27 -69 83 0
27 -63 94 0
27 -36 99 0
27 42 -75 0
28 -46 -77 0
28 45 -74 0
28 68 92 0
29 70 -82 0
30 -78 92 0
30 -45 -52 0
30 -40 -48 0
30 -33 -95 0
30 -32 63 0
30 70 98 0
30 80 -97 0
31 -47 -81 0
31 -38 60 0
31 35 -48 0
31 42 55 0
31 69 -70 0
32 -81 -92 0
32 -63 98 0
32 -62 -65 0
32 -34 -90 0
32 77 -91 0
33 -90 95 0
33 -65 85 0
33 -48 -99 0
33 41 98 0
33 47 60 0
34 -53 59 0
34 -42 77 0
34 62 91 0
34 69 -83 0
34 72 77 0
35 -67 -78 0
35 -64 70 0
36 -59 62 0
36 -53 -81 0
36 -40 -87 0
37 -72 -85 0
37 -65 71 0
37 -50 66 0
37 40 -71 0
38 -47 97 0
38 -44 -45 0
38 -41 70 0
39 -63 79 0
39 74 77 0
39 85 92 0
39 89 -95 0
40 -78 92 0
40 -66 91 0
40 49 -76 0
41 -63 77 0
41 -63 98 0
41 -61 67 0
41 -57 90 0
41 75 78 0
42 -87 -98 0
42 53 90 0
43 -52 -53 0
43 58 -94 0
44 64 -72 0
44 79 -89 0
45 -62 -99 0
45 58 -59 0
45 62 -70 0
47 51 -52 0
47 60 100 0
48 -89 96 0
48 63 -72 0
48 71 85 0
49 -56 -88 0
50 -52 -76 0
50 64 -96 0
50 72 77 0
50 79 81 0
51 61 -100 0
52 -55 -84 0
53 -58 99 0
54 59 -81 0
54 82 84 0
55 -94 -97 0
55 -80 -98 0
55 -70 -81 0
56 -77 -83 0
56 88 -94 0
58 -69 79 0
58 59 -97 0
58 60 -70 0
59 -87 -99 0
59 -61 100 0
59 62 -100 0
59 66 -89 0
60 -69 96 0
60 -68 -73 0
60 74 -81 0
60 77 -90 0
61 -76 -96 0
61 -72 -92 0
61 81 85 0
62 -87 -90 0
63 -90 -99 0
64 -84 -89 0
64 -72 74 0
64 -69 -74 0
65 -71 88 0
65 84 95 0
66 -88 93 0
67 69 -100 0
68 -96 100 0
68 -70 -71 0
69 82 -89 0
69 82 96 0
69 88 -96 0
69 89 97 0
70 73 -89 0
71 -76 97 0
73 -77 -78 0
73 88 -92 0
74 -83 91 0
76 -80 82 0
77 -90 -99 0
78 -82 -92 0
84 91 -99 0
90 94 96 0
