p cnf 32 136
-25 -28 -31 0
-21 27 -30 0
-18 28 31 0
-17 18 -30 0
-15 -19 27 0
-14 -24 25 0
-14 -17 -23 0
-14 16 24 0
-14 23 30 0
-13 -25 29 0
-13 -15 -18 0
-13 21 -27 0
-12 -16 -26 0
-12 19 27 0
-12 21 -31 0
-11 -19 -25 0
-11 23 30 0
-10 -15 17 0
-10 12 -28 0
-10 14 -22 0
-10 22 26 0
-10 28 -31 0
-9 -22 -30 0
-9 -17 29 0
-9 -16 -18 0
-8 -23 -30 0
-8 -13 -25 0
-8 10 29 0
-8 11 25 0
-8 12 -18 0
-8 24 -31 0
-8 25 -28 0
-7 -22 24 0
-7 -11 23 0
-7 21 -26 0
-7 21 -22 0
-6 -19 31 0
-6 -18 24 0
-6 -15 -24 0
-6 -15 18 0
-6 17 -24 0
-5 -21 -27 0
-5 -11 28 0
-5 -7 11 0
-5 7 30 0
-5 15 -30 0
-5 18 -24 0
-4 -23 24 0
-4 -17 -21 0
-4 6 10 0
-3 -4 -6 0
-3 4 -15 0
-3 16 -29 0
-2 -7 -18 0
-2 -7 -12 0
-2 -6 -23 0
-2 3 -12 0
-2 3 20 0
-2 6 -28 0
-2 7 -16 0
-2 10 12 0
-2 13 24 0
-2 14 21 0
-1 -17 19 0
-1 -12 13 0
-1 -5 -31 0
-1 3 30 0
1 -24 -26 0
1 -20 -24 0
1 -16 19 0
1 2 5 0
1 3 -4 0
1 4 27 0
1 7 -19 0
1 24 29 0
2 -7 30 0
2 6 19 0
3 -8 -18 0
3 -7 -16 0
3 16 -29 0
3 27 32 0
4 -28 32 0
4 -25 -27 0
4 -24 25 0
4 -18 -26 0
4 -18 -22 0
4 -13 -30 0
4 5 14 0
4 6 -28 0
4 11 -19 0
5 -13 -21 0
5 -11 24 0
5 -9 22 0
5 -9 32 0
5 7 21 0
5 22 26 0
6 -18 -23 0
7 -17 -26 0
7 -15 20 0
7 -8 -13 0
7 -8 -10 0
7 8 -24 0
7 12 27 0
7 16 -26 0
7 24 -29 0
8 -13 -31 0
8 -11 -29 0
9 -11 -27 0
9 10 25 0
9 12 30 0
9 19 -27 0
9 24 31 0
10 -15 18 0
10 -12 24 0
10 13 -32 0
10 26 32 0
11 -19 26 0
11 -15 -22 0
11 20 -21 0
11 25 -30 0
12 -19 -30 0
12 25 -32 0
13 -25 26 0
13 -15 29 0
13 22 25 0
14 -22 31 0
15 21 27 0
16 -17 32 0
16 23 28 0
18 19 -30 0
18 23 32 0
19 21 32 0
20 -26 29 0
20 22 23 0
21 -24 -30 0
21 -22 -23 0
