p cnf 70 298
-53 55 70 0
-50 52 60 0
-47 -57 -69 0
-47 -55 -66 0
-47 -53 -62 0
-46 -47 -63 0
-44 -67 -70 0
-43 -55 61 0
-42 -67 70 0
-42 -47 -51 0
-42 52 -68 0
-40 -54 -69 0
-39 -41 52 0
-39 45 51 0
-38 39 47 0
-37 -45 53 0
-37 65 -70 0
-35 -48 -69 0
-34 -38 63 0
-33 -42 43 0
-32 48 64 0
-30 -41 66 0
-29 -51 -70 0
-29 -31 50 0
-28 -42 59 0
-28 39 42 0
-28 47 -65 0
-27 -36 61 0
-26 -51 57 0
-26 -47 -60 0
-26 27 67 0
-25 -55 -60 0
-25 58 64 0
-24 26 66 0
-23 -48 59 0
-23 -45 69 0
-23 -27 -34 0
-23 26 30 0
-22 -61 70 0
-22 -35 67 0
-22 34 61 0
-22 43 -68 0
-22 63 -65 0
-21 -47 -49 0
-21 -30 -32 0
-21 32 63 0
-21 45 -60 0
-20 -39 -42 0
-20 -27 63 0
-20 26 33 0
-20 44 -51 0
-19 -39 -60 0
-18 28 -60 0
-18 49 65 0
-17 -35 53 0
-17 -30 40 0
-17 19 48 0
-17 30 35 0
-16 -49 63 0
-16 -27 41 0
-16 33 67 0
-15 -56 67 0
-15 -35 -55 0
-15 -34 55 0
-15 -27 -58 0
-15 -27 -38 0
-15 16 64 0
-14 -44 50 0
-14 -40 49 0
-14 -39 -49 0
-14 37 -47 0
-13 -58 -68 0
-13 25 -68 0
-13 27 38 0
-12 -67 69 0
-12 -26 42 0
-12 16 -64 0
-12 39 70 0
-11 -58 -60 0
-11 -12 17 0
-11 16 -29 0
-11 20 35 0
-11 24 44 0
-10 24 35 0
-10 52 -55 0
-9 -23 -49 0
-9 -20 -46 0
-9 -14 -30 0
-9 29 45 0
-8 -33 -40 0
-8 -27 57 0
-8 -18 57 0
-8 -16 -57 0
-8 -10 59 0
-8 13 -40 0
-8 14 -46 0
-8 43 61 0
-8 51 66 0
-7 -40 -68 0
-7 -33 -60 0
-7 -22 -29 0
-7 14 -16 0
-7 16 32 0
-7 20 63 0
-7 21 28 0
-7 33 56 0
-6 -62 -66 0
-6 -62 68 0
-6 -48 -68 0
-6 -32 70 0
-6 16 35 0
-6 26 33 0
-5 -18 38 0
-5 12 41 0
-4 -62 -63 0
-4 -33 -36 0
-4 -7 -17 0
-4 39 -53 0
-3 -33 69 0
-3 12 36 0
-2 -46 60 0
-2 -12 -30 0
-2 8 20 0
-2 13 -50 0
-2 27 57 0
-2 32 35 0
-2 50 -68 0
-1 -34 59 0
-1 14 27 0
-1 19 -49 0
-1 26 35 0
-1 40 50 0
-1 42 -46 0
1 -58 61 0
1 -49 -62 0
1 -31 -45 0
1 -30 -40 0
1 10 -21 0
1 25 -36 0
1 46 -50 0
2 -25 29 0
2 -10 18 0
2 3 -68 0
2 4 12 0
2 7 9 0
2 24 -38 0
2 25 -70 0
2 31 58 0
3 -22 -61 0
3 20 56 0
3 27 -55 0
3 36 46 0
3 53 56 0
4 -62 -67 0
4 -49 -50 0
4 -33 -70 0
4 -15 29 0
4 -13 -67 0
4 -5 46 0
4 5 -58 0
4 13 63 0
4 16 34 0
4 44 52 0
5 -44 -69 0
5 -33 -63 0
5 -17 -29 0
5 25 -40 0
5 33 64 0
6 -65 -69 0
6 -18 -50 0
6 -13 -56 0
6 -10 50 0
6 17 -57 0
6 25 35 0
6 32 52 0
6 35 45 0
7 -37 -63 0
7 17 -54 0
8 -42 -48 0
8 -24 55 0
8 -11 68 0
8 -9 -25 0
8 -9 -20 0
8 15 26 0
8 16 33 0
8 42 -67 0
9 -52 70 0
9 -35 -56 0
9 -26 68 0
9 -23 -52 0
9 -19 -29 0
9 25 -35 0
9 32 -43 0
9 44 56 0
10 -38 -55 0
10 -23 44 0
10 -17 25 0
10 29 -36 0
10 34 -52 0
10 54 -56 0
11 -36 -60 0
11 -34 -39 0
11 -27 -57 0
11 -14 -51 0
11 20 -46 0
11 39 50 0
12 -49 -66 0
12 -38 52 0
12 -19 -46 0
12 35 69 0
12 54 56 0
13 -49 -51 0
13 -38 -65 0
13 22 43 0
13 56 -66 0
14 -37 -41 0
14 -20 51 0
14 32 -44 0
15 -40 42 0
17 -53 64 0
17 -52 68 0
17 18 68 0
17 19 -50 0
17 39 -68 0
18 -46 -52 0
18 -46 47 0
18 -24 -41 0
18 24 37 0
19 -41 -49 0
19 -35 37 0
19 -34 -38 0
19 20 -41 0
19 25 -40 0
19 39 -56 0
19 43 -57 0
20 -43 -61 0
20 -31 -49 0
20 35 -64 0
21 -46 62 0
21 -24 -41 0
22 -32 -64 0
22 28 32 0
22 29 41 0
23 -48 -52 0
23 -48 56 0
23 -37 44 0
23 52 -60 0
24 43 -62 0
25 -27 49 0
25 28 -40 0
25 40 66 0
26 35 -36 0
26 41 50 0
26 48 52 0
27 -52 -53 0
27 -32 57 0
27 -30 -57 0
28 -54 -60 0
28 -40 -56 0
28 30 -70 0
28 34 67 0
29 -39 -50 0
29 -31 40 0
30 -36 45 0
30 66 -68 0
31 -55 -60 0
31 33 -46 0
31 40 61 0
32 45 61 0
32 55 58 0
35 -57 -66 0
35 -48 68 0
35 -41 -56 0
35 45 64 0
36 -39 -47 0
36 46 -65 0
37 47 49 0
37 51 67 0
37 55 -56 0
39 -49 56 0
41 -62 70 0
42 -44 -46 0
43 -44 -48 0
43 57 66 0
44 50 -66 0
44 65 66 0
46 53 60 0
47 -53 68 0
47 48 -51 0
47 58 -68 0
47 64 -65 0
50 57 -64 0
53 57 69 0
53 59 66 0
54 66 -70 0
55 -62 67 0
56 59 63 0
61 63 64 0
