p cnf 100 600
-88 -97 -99 0
-84 -91 -100 0
-74 82 83 0
-73 -84 -97 0
-72 -86 97 0
-70 71 89 0
-69 -70 -95 0
-68 -69 100 0
-68 77 -81 0
-67 -77 96 0
-67 -73 -79 0
-66 -86 -95 0
-66 -77 81 0
-65 75 87 0
-65 90 -98 0
-64 65 -95 0
-59 -81 -97 0
-59 -61 82 0
-58 63 71 0
-57 -94 96 0
-56 -77 -92 0
-56 -70 72 0
-56 66 86 0
-55 77 -80 0
-54 60 -76 0
-54 71 -74 0
-54 74 86 0
-53 -76 -78 0
-53 -56 84 0
-52 72 -76 0
-52 92 100 0
-51 -69 -100 0
-51 -55 84 0
-51 60 -80 0
-50 -74 -90 0
-49 59 87 0
-48 -54 88 0
-47 -62 94 0
-47 -62 95 0
-47 50 73 0
-47 53 -94 0
-44 -71 100 0
-44 -65 -97 0
-44 64 -72 0
-43 -73 -80 0
-43 -60 87 0
-43 46 96 0
-43 77 -94 0
-42 -53 -76 0
-42 53 79 0
-41 -81 82 0
-41 -48 -71 0
-41 42 -64 0
-40 -56 -96 0
-40 49 97 0
-40 60 86 0
-40 70 -75 0
-39 -79 -96 0
-39 -64 89 0
-39 60 66 0
-39 89 -97 0
-38 -84 97 0
-38 52 85 0
-38 75 -85 0
-37 -89 -95 0
-37 -66 -68 0
-37 56 60 0
-37 67 91 0
-36 -53 57 0
-36 -52 64 0
-36 -51 95 0
-36 -40 50 0
-36 63 66 0
-35 -82 87 0
-35 -81 84 0
-35 45 -47 0
-35 63 -78 0
-35 64 84 0
-35 66 94 0
-34 -35 -75 0
-34 37 38 0
-34 56 -67 0
-34 63 -76 0
-34 68 92 0
-33 -43 96 0
-33 -37 89 0
-33 49 72 0
-33 59 73 0
-32 -68 86 0
-32 -34 95 0
-32 48 100 0
-32 56 -68 0
-30 -90 -96 0
-30 38 -70 0
-29 -69 70 0
-29 -47 85 0
-29 31 -96 0
-29 31 83 0
-28 36 79 0
-28 52 59 0
-27 49 82 0
-27 82 98 0
-26 -86 -91 0
-26 -52 -58 0
-26 -36 68 0
-26 -29 81 0
-26 28 100 0
-25 -98 -99 0
-25 30 79 0
-25 56 59 0
-24 -52 -92 0
-24 -42 -100 0
-24 -42 92 0
-24 -31 -62 0
-24 -31 88 0
-24 -28 66 0
-24 33 51 0
-24 45 97 0
-24 76 -85 0
-24 94 -98 0
-23 -71 -93 0
-23 32 -75 0
-23 33 -66 0
-23 63 84 0
-23 86 98 0
-23 91 92 0
-22 -51 -83 0
-22 -38 57 0
-22 64 93 0
-22 66 -67 0
-21 -75 -83 0
-21 -68 96 0
-21 -67 90 0
-21 -38 -40 0
-21 -38 92 0
-21 -34 -42 0
-21 -33 -84 0
-21 38 -59 0
-21 43 64 0
-21 44 -61 0
-21 61 87 0
-20 -21 -45 0
-20 27 34 0
-20 73 -79 0
-19 -36 49 0
-19 32 61 0
-19 48 84 0
-18 -97 100 0
-18 -54 58 0
-18 -49 -98 0
-18 -33 -46 0
-18 47 48 0
-18 62 -68 0
-17 -75 97 0
-17 -58 93 0
-17 -34 -66 0
-17 -33 -34 0
-17 27 -45 0
-17 66 76 0
-17 67 76 0
-17 78 -99 0
-16 -53 83 0
-16 -40 66 0
-16 -27 -76 0
-16 27 36 0
-16 28 62 0
-16 41 -55 0
-16 47 -80 0
-16 73 -94 0
-15 -53 95 0
-15 -35 -38 0
-15 16 23 0
-15 27 100 0
-15 44 94 0
-15 55 84 0
-15 63 98 0
-15 82 -92 0
-14 -86 -97 0
-14 -53 -89 0
-14 -49 66 0
-14 -47 -81 0
-14 -27 -60 0
-14 -22 73 0
-14 -15 25 0
-14 21 30 0
-14 24 -56 0
-14 41 91 0
-14 50 -98 0
-13 -60 86 0
-13 -33 65 0
-13 -18 -67 0
-13 16 61 0
-13 42 55 0
-13 48 72 0
-12 -72 100 0
-12 -41 -43 0
-12 -28 29 0
-12 37 60 0
-12 38 -76 0
-12 59 87 0
-11 -90 96 0
-11 -53 100 0
-11 -28 74 0
-11 -25 -43 0
-11 -24 -71 0
-11 -19 81 0
-11 14 -64 0
-11 26 59 0
-11 43 73 0
-11 45 62 0
-10 -57 -69 0
-10 -43 -74 0
-10 -21 -77 0
-10 -15 -61 0
-10 40 -61 0
-10 46 58 0
-10 59 84 0
-10 66 77 0
-9 -58 -71 0
-9 -46 63 0
-9 -46 100 0
-9 -35 -42 0
-9 -28 -64 0
-9 -26 -29 0
-9 -21 -56 0
-9 -18 62 0
-9 -17 -45 0
-9 -14 68 0
-9 11 75 0
-9 19 84 0
-9 35 89 0
-8 -44 -49 0
-8 -28 94 0
-8 14 16 0
-8 25 -96 0
-8 25 97 0
-8 26 80 0
-8 29 -94 0
-7 -36 -38 0
-7 -12 -85 0
-7 -8 9 0
-7 15 19 0
-7 15 64 0
-7 17 34 0
-7 18 -71 0
-7 24 -33 0
-7 24 56 0
-7 32 -72 0
-7 34 -79 0
-7 39 -40 0
-7 40 -52 0
-7 84 100 0
-6 -62 -87 0
-6 -28 98 0
-6 -27 30 0
-6 -21 -28 0
-6 -17 -91 0
-6 10 71 0
-6 16 -86 0
-6 27 -45 0
-6 31 33 0
-6 44 91 0
-6 54 66 0
-6 67 95 0
-5 -87 95 0
-5 -51 99 0
-5 -49 51 0
-5 -26 -27 0
-5 -15 33 0
-5 -14 75 0
-5 13 -14 0
-5 16 38 0
-5 57 -82 0
-5 72 -87 0
-5 73 90 0
-5 75 100 0
-4 -55 -87 0
-4 -48 65 0
-4 -29 45 0
-4 -18 -74 0
-4 -14 33 0
-4 -14 59 0
-4 -7 -58 0
-4 -5 56 0
-4 5 -73 0
-4 8 -67 0
-4 36 54 0
-4 40 -42 0
-3 -65 -85 0
-3 -48 57 0
-3 -44 96 0
-3 -37 -96 0
-3 -21 -51 0
-3 -9 89 0
-3 13 22 0
-3 30 -76 0
-3 31 82 0
-3 33 -34 0
-3 82 92 0
-2 -50 -57 0
-2 -30 71 0
-2 -29 55 0
-2 -10 -85 0
-2 7 88 0
-2 16 46 0
-2 21 77 0
-2 25 -66 0
-2 76 96 0
-1 -90 93 0
-1 -56 74 0
-1 -37 51 0
-1 -32 41 0
-1 -21 95 0
-1 -6 -84 0
-1 -4 -45 0
1 -66 -79 0
1 -22 -52 0
1 -21 -58 0
1 -18 -53 0
1 -3 -92 0
1 4 90 0
1 12 -82 0
1 12 77 0
1 16 -64 0
1 16 30 0
1 17 -68 0
1 21 -93 0
1 56 75 0
1 60 70 0
1 69 -70 0
2 -30 58 0
2 -13 48 0
2 -13 75 0
2 5 -83 0
2 17 47 0
2 46 -50 0
2 48 73 0
3 -32 -38 0
3 -23 43 0
3 -19 -33 0
3 -7 77 0
3 15 -82 0
3 19 -68 0
3 42 68 0
3 59 -85 0
3 75 87 0
3 75 98 0
4 -65 -74 0
4 -44 67 0
4 -44 86 0
4 13 -98 0
4 29 -93 0
4 30 85 0
5 -44 98 0
5 12 65 0
5 16 -55 0
5 27 61 0
5 45 -88 0
6 -85 -97 0
6 -77 94 0
6 -36 91 0
6 14 -64 0
6 31 53 0
6 40 -80 0
6 45 -83 0
6 87 99 0
6 98 -99 0
7 -82 93 0
7 -81 97 0
7 -79 90 0
7 -69 97 0
7 -41 -100 0
7 48 66 0
7 80 -94 0
8 -63 98 0
8 -57 -72 0
8 -54 63 0
8 -20 80 0
8 -12 -52 0
8 56 -59 0
9 -70 73 0
9 -64 -97 0
9 -36 -53 0
9 22 71 0
9 30 52 0
9 41 -62 0
9 42 76 0
9 64 -68 0
9 83 -96 0
10 -77 -96 0
10 -41 -57 0
10 -36 88 0
10 -34 -91 0
10 -33 89 0
10 -25 -64 0
10 -21 -87 0
10 -21 53 0
10 -20 65 0
10 15 81 0
10 21 -43 0
10 25 -54 0
10 54 66 0
11 -47 -99 0
11 -45 -90 0
11 -37 -98 0
11 -32 85 0
11 -12 -97 0
11 30 -65 0
11 44 83 0
11 46 -80 0
11 53 90 0
11 61 64 0
12 -36 -97 0
12 -33 89 0
12 -24 -31 0
12 -20 -75 0
12 -19 47 0
12 14 -84 0
13 -66 -84 0
13 40 86 0
13 53 81 0
13 66 -72 0
14 -30 -52 0
14 -19 -57 0
15 -98 -100 0
15 -81 94 0
15 -53 -90 0
15 -36 47 0
15 -27 34 0
15 -25 58 0
15 -23 87 0
15 25 96 0
15 27 94 0
15 35 60 0
15 39 44 0
15 44 -71 0
16 -47 65 0
16 -23 68 0
16 41 -46 0
16 60 62 0
17 -76 -94 0
17 -62 97 0
18 -80 -82 0
18 25 -27 0
18 74 76 0
19 -44 62 0
19 -40 84 0
19 -32 -72 0
19 -31 97 0
19 -30 80 0
19 -28 100 0
19 -21 -84 0
19 29 -94 0
19 53 77 0
19 56 63 0
20 -43 -52 0
20 29 68 0
20 67 -73 0
20 85 94 0
21 -79 80 0
21 -45 78 0
21 -36 60 0
21 -35 39 0
21 -24 62 0
21 33 84 0
22 -81 -89 0
22 -75 96 0
22 -70 -87 0
22 -29 -96 0
22 -26 -43 0
22 27 -81 0
22 39 -84 0
23 -62 93 0
23 47 -83 0
23 50 88 0
23 53 -57 0
23 56 -73 0
24 -73 94 0
24 -59 84 0
24 -50 -67 0
24 52 -86 0
24 74 -92 0
25 -30 59 0
25 36 100 0
26 -67 69 0
26 -31 -47 0
26 44 89 0
27 36 39 0
28 -66 76 0
28 -62 -69 0
28 -60 87 0
28 -44 -93 0
28 -40 -41 0
29 -61 84 0
29 41 -93 0
29 44 -98 0
30 -48 -51 0
30 -46 -88 0
30 44 -59 0
30 46 88 0
31 -69 -95 0
31 46 85 0
31 47 -80 0
31 55 -81 0
31 68 99 0
32 -33 66 0
32 34 -61 0
32 59 -62 0
33 -51 -54 0
33 -51 91 0
33 42 -49 0
33 52 90 0
33 72 -89 0
34 -85 87 0
34 -76 97 0
34 -52 61 0
34 -51 -75 0
34 -36 98 0
34 70 -71 0
35 50 -96 0
35 51 -88 0
35 65 66 0
36 -78 -82 0
36 -74 98 0
36 -61 -68 0
36 41 -50 0
36 73 100 0
37 59 -81 0
37 69 -75 0
37 89 -98 0
38 45 -99 0
38 56 -67 0
38 71 -89 0
39 45 63 0
39 49 56 0
39 80 -88 0
39 82 -86 0
40 -72 99 0
40 -48 -86 0
40 -48 -77 0
40 64 65 0
41 -45 -84 0
41 51 94 0
41 55 96 0
41 70 90 0
42 -87 89 0
42 -58 68 0
42 75 92 0
42 81 -90 0
43 -88 -98 0
43 -59 74 0
43 44 69 0
43 45 67 0
44 -68 -71 0
44 -63 74 0
44 55 -95 0
44 55 90 0
45 -74 -89 0
45 -49 76 0
45 47 76 0
46 -72 -94 0
47 -51 54 0
47 49 81 0
47 59 -88 0
49 51 -60 0
49 54 -63 0
49 68 -76 0
50 -58 -66 0
50 -57 68 0
50 80 -85 0
51 -52 59 0
52 -56 -61 0
52 54 -93 0
52 55 98 0
52 61 -73 0
56 -62 -97 0
56 -60 -97 0
56 58 86 0
56 61 -89 0
56 87 91 0
57 -70 -79 0
59 60 74 0
60 -96 -97 0
61 -90 -96 0
62 -64 66 0
63 71 -84 0
64 -88 100 0
66 -73 -90 0
67 -80 -100 0
67 -71 89 0
68 -70 -87 0
68 85 89 0
70 -79 97 0
72 75 -91 0
73 -85 100 0
74 -75 -78 0
76 -82 -90 0
78 -80 100 0
86 87 -91 0
90 98 -99 0
