p cnf 100 425
-92 93 -98 0
-86 -94 -99 0
-81 85 99 0
-79 84 -97 0
-76 85 -86 0
-73 78 92 0
-71 -77 91 0
-71 -72 94 0
-68 -69 75 0
-67 -80 86 0
-67 83 99 0
-64 70 -78 0
-63 -79 84 0
-62 -85 91 0
-62 -66 68 0
-60 83 -91 0
-58 -81 87 0
-58 64 85 0
-57 78 -89 0
-55 -65 -82 0
-54 78 -86 0
-52 -93 96 0
-52 -56 -74 0
-51 -61 63 0
-50 56 65 0
-50 96 97 0
-49 -52 -60 0
-48 58 72 0
-46 -62 -95 0
-45 -88 98 0
-45 -75 -90 0
-45 -67 94 0
-44 66 90 0
-43 -47 82 0
-42 -56 -75 0
-42 44 -57 0
-42 80 -92 0
-40 -46 62 0
-40 69 100 0
-39 -67 99 0
-39 -48 66 0
-38 -70 81 0
-36 -72 -85 0
-36 38 -71 0
-36 52 54 0
-36 60 -61 0
-36 67 84 0
-36 86 97 0
-35 -48 81 0
-35 40 -64 0
-34 -53 -72 0
-34 -35 -43 0
-34 59 75 0
-34 59 93 0
-33 -55 83 0
-33 -52 -59 0
-33 -40 -76 0
-33 -34 -91 0
-33 65 72 0
-32 -41 83 0
-32 42 -93 0
-31 -46 -50 0
-31 43 88 0
-31 68 75 0
-30 -44 -83 0
-29 -34 -76 0
-29 34 97 0
-29 47 57 0
-29 67 98 0
-28 30 62 0
-28 31 -61 0
-27 -73 75 0
-27 -39 -72 0
-27 -37 -55 0
-27 -31 -72 0
-27 28 -99 0
-26 -93 100 0
-26 -90 91 0
-26 -82 -86 0
-26 -61 -78 0
-26 -42 50 0
-26 31 97 0
-25 -57 92 0
-25 -56 95 0
-25 -48 51 0
-25 -38 52 0
-25 -36 -63 0
-25 32 -75 0
-24 -25 -76 0
-24 27 -68 0
-24 36 -77 0
-24 59 61 0
-24 63 92 0
-24 78 95 0
-23 -65 98 0
-23 26 64 0
-23 43 97 0
-22 -87 -90 0
-22 -61 89 0
-22 -59 72 0
-22 -37 40 0
-22 32 58 0
-22 54 -56 0
-21 -45 99 0
-20 -53 79 0
-20 -48 -76 0
-19 -38 64 0
-19 -22 60 0
-19 44 71 0
-18 -60 -64 0
-18 21 -64 0
-18 65 -87 0
-18 67 100 0
-17 -70 -91 0
-17 -18 97 0
-17 39 -86 0
-17 43 -62 0
-16 -64 89 0
-16 -25 53 0
-15 -90 -93 0
-15 -89 98 0
-15 -44 51 0
-15 36 57 0
-14 -55 96 0
-14 -40 -66 0
-14 -35 -45 0
-14 -31 60 0
-14 -20 56 0
-14 17 95 0
-14 92 -98 0
-13 -49 96 0
-13 -43 -91 0
-13 -35 -77 0
-13 -25 -71 0
-13 -23 -40 0
-13 51 -60 0
-12 -65 66 0
-12 -53 -97 0
-12 33 -44 0
-12 84 98 0
-11 -54 -86 0
-11 -43 46 0
-11 -43 72 0
-11 -40 -82 0
-11 15 -43 0
-11 87 89 0
-10 -66 78 0
-10 -65 -85 0
-10 -28 -98 0
-10 -23 -50 0
-10 29 45 0
-10 49 51 0
-9 -72 -93 0
-9 34 91 0
-9 36 -40 0
-9 55 -85 0
-9 76 -88 0
-9 84 -89 0
-8 12 19 0
-8 19 43 0
-7 -55 -76 0
-7 39 54 0
-6 -62 -72 0
-6 -32 33 0
-6 7 24 0
-6 17 80 0
-6 39 92 0
-6 70 -75 0
-5 -80 -83 0
-5 -14 -61 0
-4 -29 -52 0
-4 22 69 0
-3 15 60 0
-3 37 -73 0
-3 63 87 0
-3 64 76 0
-3 65 -80 0
-2 -48 -74 0
-2 -40 91 0
-2 -29 -68 0
-2 -11 64 0
-2 4 -32 0
-2 33 -75 0
-2 58 -93 0
-1 -28 95 0
-1 -2 -15 0
-1 40 -49 0
-1 45 -97 0
-1 51 92 0
1 -72 75 0
1 -37 -71 0
1 -31 -41 0
1 15 -92 0
1 25 -64 0
1 26 -90 0
1 39 -43 0
1 77 94 0
1 82 -99 0
2 -45 -73 0
2 -14 57 0
2 6 -83 0
2 13 71 0
2 39 -58 0
2 40 -76 0
2 55 68 0
2 69 89 0
2 72 97 0
3 -83 -87 0
3 -35 82 0
3 13 30 0
3 20 -63 0
3 39 -65 0
3 51 77 0
4 -97 100 0
4 -84 -94 0
4 -74 -94 0
4 -59 -81 0
4 -42 47 0
4 -29 -42 0
4 -13 23 0
4 -12 -74 0
4 -7 -94 0
4 8 -42 0
4 13 94 0
4 24 94 0
4 51 -56 0
4 75 -87 0
5 -31 76 0
5 -16 -72 0
5 58 66 0
6 -49 -55 0
6 -30 -90 0
6 -30 87 0
6 -23 -75 0
6 -16 -32 0
6 -13 -49 0
6 -7 63 0
6 14 87 0
6 15 51 0
6 44 -77 0
6 50 92 0
7 -77 79 0
7 -74 -88 0
7 -53 -70 0
7 -39 99 0
7 -34 -76 0
7 -15 -53 0
7 20 63 0
8 -76 98 0
8 -71 -76 0
8 -41 -49 0
8 -31 -35 0
8 -13 -94 0
8 50 -53 0
8 51 79 0
9 -35 78 0
9 -34 -51 0
9 44 74 0
9 84 91 0
10 -79 94 0
10 -20 -31 0
10 26 -99 0
10 36 -82 0
10 47 -55 0
11 -54 -88 0
11 -53 86 0
11 16 94 0
11 26 -68 0
11 28 60 0
12 -58 77 0
12 -56 -86 0
12 -21 33 0
12 77 -82 0
13 -50 -51 0
13 -27 75 0
13 21 88 0
13 45 -97 0
13 80 89 0
14 -26 -29 0
14 -16 -26 0
14 -15 -84 0
14 43 92 0
14 44 56 0
14 45 -69 0
15 16 -61 0
15 25 54 0
15 35 69 0
15 38 -47 0
15 82 96 0
16 -83 90 0
16 -49 -88 0
16 -44 65 0
16 -27 55 0
16 29 37 0
16 78 -87 0
17 -55 -70 0
17 -26 49 0
17 18 -72 0
17 39 51 0
17 43 -84 0
17 55 -90 0
18 20 76 0
19 22 -44 0
19 28 -45 0
19 34 76 0
19 47 -64 0
20 -52 94 0
20 -32 -42 0
20 -26 45 0
20 -25 62 0
20 -22 -46 0
20 27 -46 0
20 61 -75 0
20 62 93 0
21 -70 -97 0
21 -27 -88 0
21 69 -87 0
22 -46 70 0
22 -27 75 0
22 61 70 0
22 86 93 0
23 -68 -93 0
23 -38 43 0
23 26 64 0
24 -45 -49 0
24 49 91 0
24 50 55 0
24 82 90 0
25 -80 -99 0
25 -33 -91 0
25 27 -79 0
25 63 89 0
25 82 97 0
26 -61 93 0
26 -47 -61 0
27 -62 -73 0
27 -35 -79 0
27 45 49 0
28 -43 -76 0
28 -39 -58 0
28 45 -94 0
28 83 86 0
28 85 93 0
29 -32 61 0
29 32 45 0
29 45 -80 0
30 -44 90 0
30 -43 51 0
30 46 62 0
31 -78 91 0
31 -54 -94 0
31 64 -74 0
31 88 99 0
32 -39 74 0
32 -38 100 0
32 59 -63 0
33 57 -66 0
33 66 85 0
34 -85 -88 0
34 -71 80 0
34 -49 65 0
34 47 85 0
34 91 95 0
35 -54 79 0
35 48 -58 0
36 -73 -96 0
36 -69 77 0
36 48 -53 0
36 67 -68 0
36 81 88 0
36 89 -90 0
37 -40 -41 0
37 49 -54 0
37 52 70 0
38 -66 71 0
38 -62 88 0
38 -49 -90 0
38 -45 -80 0
38 39 60 0
40 74 -82 0
41 61 94 0
42 -61 -90 0
42 43 -83 0
42 55 70 0
42 61 80 0
43 -52 71 0
43 -49 62 0
43 79 92 0
44 -62 72 0
44 -52 65 0
44 -46 89 0
46 -74 -85 0
47 -55 56 0
47 -51 68 0
48 -75 91 0
48 -66 -72 0
48 54 -77 0
49 -79 82 0
49 -59 -68 0
50 -65 79 0
50 58 -89 0
51 72 -89 0
53 -56 -78 0
54 56 -83 0
55 61 62 0
55 63 -75 0
56 -59 -64 0
56 81 -98 0
57 -67 -96 0
57 -58 -74 0
58 67 -74 0
59 -84 -90 0
59 84 -98 0
63 85 92 0
64 65 -72 0
64 69 71 0
65 -74 94 0
65 -67 70 0
68 -84 95 0
70 86 88 0
71 -88 89 0
71 89 -98 0
72 -89 -96 0
82 84 -85 0
93 94 -95 0
