p cnf 120 420
-106 109 113 0
-97 -106 116 0
-89 -105 -107 0
-89 -95 -107 0
-84 93 -119 0
-83 -91 -92 0
-83 92 94 0
-82 104 -119 0
-79 98 -108 0
-78 -81 -104 0
-77 -95 -101 0
-72 -102 -114 0
-71 86 90 0
-70 -101 -104 0
-70 -94 -117 0
-69 -76 104 0
-69 78 99 0
-68 81 106 0
-68 103 -112 0
-67 -79 -85 0
-67 -68 -106 0
-67 73 96 0
-67 78 -119 0
-66 -99 108 0
-64 97 -100 0
-63 78 -87 0
-63 82 -108 0
-62 -89 -109 0
-62 77 95 0
-61 -91 -113 0
-61 80 -81 0
-61 89 92 0
-59 -79 118 0
-58 -101 -117 0
-58 -85 -105 0
-57 60 -102 0
-57 74 108 0
-57 100 101 0
-56 -75 -119 0
-55 -65 120 0
-55 57 98 0
-54 -57 111 0
-54 117 -119 0
-53 64 119 0
-51 -71 76 0
-51 98 -105 0
-50 -74 -92 0
-50 -72 -96 0
-50 -70 110 0
-50 101 -116 0
-48 -63 -107 0
-48 -50 56 0
-46 -82 -92 0
-46 -67 76 0
-46 51 -60 0
-46 61 98 0
-45 -62 -98 0
-45 -46 109 0
-44 -64 73 0
-43 -48 -71 0
-43 70 -114 0
-42 -70 97 0
-42 53 -95 0
-41 -108 113 0
-41 47 -77 0
-40 -89 96 0
-39 -47 -100 0
-36 70 -99 0
-35 -105 -109 0
-35 -79 104 0
-35 47 99 0
-34 -46 -56 0
-34 -44 78 0
-34 73 -116 0
-34 77 98 0
-34 104 107 0
-33 43 -56 0
-32 -38 93 0
-31 39 57 0
-31 71 -116 0
-31 79 -101 0
-30 -67 -117 0
-30 -33 61 0
-30 43 -56 0
-30 46 -86 0
-30 118 -120 0
-29 76 115 0
-28 67 93 0
-27 -60 76 0
-27 -32 -33 0
-27 44 -83 0
-27 61 86 0
-27 64 -109 0
-27 104 105 0
-26 -94 -110 0
-26 -50 116 0
-26 -27 30 0
-26 58 -70 0
-26 73 -111 0
-25 -42 94 0
-25 51 -108 0
-25 52 -91 0
-25 82 98 0
-24 -49 65 0
-24 26 -109 0
-24 60 -106 0
-23 -98 104 0
-23 24 -116 0
-23 32 -113 0
-23 55 106 0
-23 59 66 0
-23 106 -120 0
-22 -33 42 0
-22 38 -67 0
-22 100 104 0
-22 110 -116 0
-21 -43 -45 0
-21 -42 -51 0
-21 -23 -82 0
-21 72 97 0
-20 -95 -102 0
-20 -83 -88 0
-20 -73 120 0
-20 -63 -102 0
-20 -59 -105 0
-20 80 -93 0
-19 -96 106 0
-19 -35 63 0
-19 53 -117 0
-18 -49 72 0
-18 -37 77 0
-18 -29 -92 0
-18 54 -76 0
-18 76 89 0
-17 -70 -84 0
-17 -47 73 0
-17 -35 -54 0
-17 -30 -43 0
-17 -21 114 0
-17 21 -71 0
-16 -86 -97 0
-16 -74 -84 0
-16 -51 89 0
-15 -86 -99 0
-15 -79 102 0
-15 16 -71 0
-15 39 -97 0
-15 69 99 0
-14 -46 96 0
-14 -30 112 0
-14 20 -118 0
-14 23 -70 0
-14 62 100 0
-14 78 -99 0
-13 -82 -109 0
-13 -51 62 0
-13 -42 70 0
-13 -17 -29 0
-12 -28 -55 0
-12 14 100 0
-12 34 -83 0
-11 -75 106 0
-11 -67 116 0
-11 -56 -101 0
-11 -36 -66 0
-11 -20 -89 0
-11 90 99 0
-10 -65 72 0
-10 -31 -52 0
-10 -18 -96 0
-10 -13 -80 0
-10 12 65 0
-10 36 -91 0
-10 57 112 0
-9 -33 36 0
-9 -11 -75 0
-9 32 68 0
-9 44 85 0
-9 62 -96 0
-8 -76 84 0
-8 26 -80 0
-8 38 -85 0
-8 61 84 0
-7 -70 117 0
-7 -59 91 0
-7 -31 -116 0
-7 12 61 0
-7 31 32 0
-7 86 -91 0
-6 -15 -48 0
-6 18 74 0
-6 88 -95 0
-5 13 30 0
-4 -88 -115 0
-4 -54 88 0
-4 -36 70 0
-4 -36 75 0
-4 -29 50 0
-4 -26 -90 0
-4 -23 109 0
-4 -9 11 0
-4 -8 -96 0
-4 36 85 0
-3 -23 -109 0
-3 -23 -82 0
-3 -14 111 0
-3 29 41 0
-3 49 -88 0
-2 -35 49 0
-2 56 108 0
-2 78 -85 0
-2 83 93 0
-1 -33 -43 0
-1 43 82 0
1 -51 111 0
1 -36 78 0
1 -10 -81 0
1 -9 75 0
1 -5 16 0
1 17 24 0
1 20 -40 0
1 24 -86 0
1 50 86 0
1 59 -118 0
1 94 -117 0
2 -55 72 0
2 -46 116 0
2 -23 91 0
2 20 -50 0
3 -70 86 0
3 -39 63 0
3 -25 -72 0
3 -16 114 0
3 -7 -104 0
4 -83 -110 0
4 -8 15 0
4 -7 -110 0
4 22 94 0
5 -12 62 0
5 68 -78 0
5 78 -97 0
6 -18 60 0
6 11 -24 0
6 26 82 0
6 40 62 0
7 -84 -115 0
7 -80 120 0
7 -27 55 0
7 -21 -59 0
7 23 120 0
7 109 -114 0
8 -71 87 0
8 -53 116 0
8 -31 75 0
8 -29 -70 0
8 -10 39 0
8 18 43 0
9 -29 96 0
9 28 -34 0
9 31 113 0
9 86 94 0
10 -83 -101 0
10 -42 56 0
10 -27 76 0
10 12 -48 0
10 23 32 0
10 46 -114 0
10 99 -101 0
11 -67 -119 0
11 -49 75 0
11 17 -63 0
11 41 94 0
12 -92 105 0
12 -49 -51 0
12 -40 -55 0
12 -36 105 0
13 -49 92 0
13 -18 -57 0
13 -17 -29 0
13 26 41 0
13 47 -111 0
14 18 -37 0
14 23 57 0
15 -56 -107 0
15 -33 107 0
15 19 -88 0
15 87 105 0
16 -114 -118 0
16 -77 -103 0
16 -27 -88 0
16 18 -83 0
16 21 39 0
17 -72 -93 0
17 18 -84 0
18 25 -99 0
18 110 114 0
19 -101 105 0
19 -87 -93 0
19 -42 -85 0
20 -31 64 0
20 -30 34 0
20 29 115 0
20 54 -103 0
21 -38 -84 0
22 -84 91 0
22 -37 60 0
22 42 -57 0
22 71 118 0
22 74 -119 0
23 -38 -120 0
23 -35 -77 0
23 34 -63 0
23 107 -110 0
24 -98 104 0
24 59 -82 0
25 -107 119 0
25 -71 -107 0
25 -61 100 0
25 -41 -44 0
25 72 85 0
26 -52 88 0
26 61 93 0
27 -91 -120 0
27 -85 107 0
27 85 115 0
28 -40 101 0
28 35 -114 0
29 -90 -112 0
29 44 102 0
29 53 -96 0
30 -81 83 0
30 -44 52 0
31 -44 116 0
32 -55 63 0
32 -47 118 0
32 -43 -48 0
32 65 113 0
33 -58 -104 0
34 101 117 0
35 83 93 0
35 112 -116 0
36 -66 -95 0
36 -62 -97 0
37 -39 -51 0
37 -38 49 0
37 47 -60 0
37 64 79 0
37 67 -99 0
38 -83 109 0
38 -68 -118 0
38 -66 -119 0
39 -61 -114 0
39 41 -109 0
40 -68 109 0
40 43 52 0
40 49 -64 0
40 52 -112 0
40 107 -113 0
41 -54 109 0
41 -52 93 0
41 61 103 0
42 -87 110 0
42 57 -79 0
43 -54 95 0
43 102 119 0
44 -97 -105 0
45 -50 109 0
45 71 -77 0
46 75 -98 0
47 -48 -81 0
48 -57 60 0
48 82 84 0
49 92 98 0
49 116 -119 0
50 74 -84 0
51 -103 117 0
51 81 -97 0
52 -59 108 0
52 114 118 0
53 -56 110 0
53 59 -110 0
53 90 -109 0
55 76 -79 0
56 61 103 0
56 95 -120 0
57 73 80 0
58 -99 102 0
58 -63 -101 0
58 110 120 0
59 -65 -70 0
59 81 -96 0
59 97 -117 0
60 76 -88 0
61 -97 -116 0
62 -80 -88 0
62 86 106 0
64 -68 -101 0
64 86 99 0
64 107 -120 0
68 93 104 0
69 -103 -117 0
69 -99 -109 0
72 85 116 0
74 -85 95 0
75 80 -96 0
76 111 115 0
78 -98 99 0
78 -85 106 0
80 -89 -98 0
82 86 -114 0
84 -106 -116 0
84 88 -98 0
87 102 -103 0
89 -96 -100 0
89 99 -108 0
91 -106 -113 0
94 105 108 0
94 110 119 0
104 -106 109 0
105 -107 116 0
