p cnf 30 128
-21 -26 -29 0
-20 -24 30 0
-20 25 30 0
-19 -23 30 0
-19 -22 -27 0
-19 21 -25 0
-17 23 29 0
-16 21 22 0
-15 -19 -24 0
-14 -25 -30 0
-14 21 25 0
-13 23 -30 0
-12 -19 -24 0
-12 13 24 0
-12 14 -30 0
-11 17 -23 0
-11 18 -19 0
-11 22 -24 0
-10 16 -23 0
-10 20 29 0
-9 -22 -30 0
-9 -21 24 0
-9 -19 -24 0
-9 11 30 0
-9 15 -24 0
-9 19 24 0
-9 24 -29 0
-9 28 29 0
-8 -13 15 0
-8 10 29 0
-8 21 28 0
-8 23 28 0
-7 -23 29 0
-7 -18 25 0
-7 -15 16 0
-7 -13 14 0
-7 11 23 0
-7 14 17 0
-7 19 28 0
-6 -14 -16 0
-6 -8 27 0
-6 -7 -27 0
-6 8 -16 0
-6 14 -16 0
-5 10 17 0
-4 -14 30 0
-4 6 -25 0
-4 14 27 0
-4 21 22 0
-4 28 29 0
-3 -14 17 0
-3 -12 -24 0
-3 -6 -11 0
-3 21 25 0
-2 -8 10 0
-2 -4 -22 0
-2 4 -29 0
-2 27 29 0
-1 -15 22 0
-1 -7 -27 0
-1 13 27 0
-1 14 -30 0
-1 15 -28 0
1 -6 23 0
1 -5 9 0
1 5 -14 0
1 8 -19 0
1 12 25 0
1 14 22 0
1 18 -22 0
1 22 25 0
2 -26 28 0
2 -17 26 0
3 -20 27 0
3 -16 27 0
3 -13 19 0
3 -4 -10 0
3 8 12 0
3 9 -27 0
3 12 -29 0
3 14 -28 0
3 14 22 0
3 17 -23 0
4 -14 27 0
4 7 -11 0
4 7 9 0
5 -10 29 0
5 7 -15 0
5 8 -14 0
5 11 25 0
5 15 -26 0
5 20 -27 0
6 -11 -12 0
6 -9 20 0
6 -7 -25 0
6 7 -17 0
6 11 20 0
6 12 -28 0
6 13 -30 0
6 13 27 0
7 -22 -27 0
7 -13 -30 0
7 -13 16 0
7 -11 -30 0
7 17 23 0
8 -15 22 0
8 9 13 0
8 17 -26 0
8 27 29 0
9 12 25 0
10 12 -17 0
11 -20 28 0
11 12 27 0
11 13 27 0
11 26 27 0
13 21 24 0
14 23 -28 0
16 -26 -30 0
16 -20 29 0
17 -21 -24 0
17 -20 -22 0
17 26 29 0
19 -26 30 0
19 -23 -27 0
19 -20 22 0
19 21 -24 0
20 -26 28 0
23 -25 -27 0
