p cnf 30 128
-22 -24 28 0
-21 -24 27 0
-20 22 -30 0
-19 -22 28 0
-18 -26 -30 0
-18 -24 -30 0
-17 -20 30 0
-16 20 28 0
-16 24 27 0
-15 18 -26 0
-14 -22 -28 0
-14 -17 20 0
-14 15 -30 0
-13 -17 -27 0
-13 -17 -19 0
-13 -14 27 0
-13 16 30 0
-13 20 21 0
-12 -27 -28 0
-12 -27 28 0
-11 -14 27 0
-11 17 28 0
-11 22 -28 0
-10 -21 -27 0
-10 -18 -24 0
-10 14 15 0
-9 -13 28 0
-9 10 30 0
-9 12 13 0
-9 13 -22 0
-9 20 -22 0
-7 -18 -30 0
-7 12 -13 0
-7 13 23 0
-6 8 25 0
-6 13 27 0
-6 24 29 0
-5 -8 29 0
-5 7 -9 0
-5 15 16 0
-5 16 20 0
-5 17 -27 0
-4 -18 22 0
-4 10 17 0
-4 14 22 0
-4 16 21 0
-3 -13 14 0
-2 -22 -26 0
-2 -17 -30 0
-2 -8 -11 0
-2 -4 6 0
-2 3 19 0
-2 13 -17 0
-1 -15 -25 0
-1 -8 11 0
-1 10 24 0
-1 18 -26 0
1 -13 -20 0
1 -11 16 0
1 -8 17 0
1 -6 20 0
1 -5 29 0
1 -4 12 0
1 4 -29 0
1 5 17 0
1 6 25 0
1 16 -26 0
1 23 -29 0
2 -18 -21 0
2 -12 15 0
2 -11 15 0
2 -7 -19 0
2 -4 30 0
2 5 -7 0
2 10 28 0
2 14 19 0
2 19 28 0
3 -21 -30 0
4 -26 27 0
4 -17 23 0
4 16 -25 0
4 21 27 0
5 -12 -27 0
5 6 -25 0
5 9 26 0
5 10 24 0
5 19 -30 0
5 23 -28 0
6 -23 29 0
6 -20 -21 0
6 -15 -18 0
6 -13 28 0
6 -10 -28 0
6 10 -20 0
6 13 20 0
7 -18 -26 0
7 -16 -19 0
7 23 -25 0
8 16 -25 0
9 -22 27 0
9 15 18 0
9 17 -19 0
9 17 21 0
9 17 27 0
9 18 -24 0
10 -17 26 0
10 -16 28 0
10 -12 17 0
10 -11 -29 0
11 13 -21 0
11 13 26 0
11 17 -28 0
12 -22 -25 0
12 -20 -29 0
13 -21 -22 0
14 15 -28 0
14 19 24 0
14 21 23 0
14 24 26 0
15 -18 30 0
17 21 24 0
17 21 25 0
18 -26 30 0
19 -23 26 0
19 20 -27 0
19 23 -28 0
21 22 -26 0
22 -25 30 0
