p cnf 150 525
-140 -141 -150 0
-135 138 -149 0
-109 116 -132 0
-108 121 143 0
-106 -115 -126 0
-106 107 -111 0
-102 -119 -134 0
-102 121 -124 0
-102 131 -142 0
-100 -117 132 0
-97 -102 -142 0
-97 -100 -137 0
-97 105 -137 0
-97 109 135 0
-97 110 128 0
-97 111 -136 0
-96 -124 127 0
-95 -123 143 0
-95 -102 114 0
-95 -102 149 0
-95 111 124 0
-94 -98 -110 0
-93 109 -144 0
-84 -120 126 0
-84 92 141 0
-84 111 -115 0
-82 117 142 0
-80 -121 135 0
-80 131 147 0
-79 110 -122 0
-78 -83 137 0
-78 83 -125 0
-76 80 -89 0
-75 -83 89 0
-74 -129 141 0
-74 -82 140 0
-73 -77 -148 0
-73 87 -88 0
-72 75 125 0
-72 91 132 0
-72 102 -116 0
-71 100 -109 0
-70 75 116 0
-70 89 106 0
-70 133 -135 0
-69 -73 -106 0
-69 80 126 0
-69 84 149 0
-69 92 135 0
-68 -115 144 0
-68 -108 -150 0
-68 84 90 0
-67 -74 -95 0
-67 101 140 0
-66 89 111 0
-64 -82 -109 0
-64 -67 -78 0
-64 107 142 0
-62 -89 -109 0
-62 -82 95 0
-62 -65 146 0
-61 69 -137 0
-61 114 129 0
-60 -75 -119 0
-60 63 146 0
-60 81 83 0
-59 -84 -141 0
-59 -66 72 0
-58 -71 -129 0
-58 -66 -96 0
-58 69 111 0
-57 -74 -142 0
-57 -61 135 0
-56 57 71 0
-56 82 135 0
-55 -113 -114 0
-55 -69 -89 0
-55 -62 71 0
-55 62 124 0
-55 127 150 0
-54 -69 101 0
-54 -61 129 0
-54 55 -128 0
-54 103 139 0
-53 -103 -137 0
-52 -93 -96 0
-52 -65 130 0
-52 67 -76 0
-52 84 131 0
-52 92 -146 0
-52 104 149 0
-52 121 -129 0
-51 -64 77 0
-50 -67 -108 0
-50 110 -130 0
-50 116 146 0
-49 -72 114 0
-49 -60 74 0
-49 52 -90 0
-49 53 -109 0
-49 59 136 0
-48 -114 -122 0
-48 -60 106 0
-48 51 -146 0
-47 -82 142 0
-47 -67 135 0
-47 52 95 0
-47 81 89 0
-47 120 -129 0
-47 132 138 0
-46 -60 -81 0
-46 64 -117 0
-45 -110 126 0
-45 130 149 0
-44 46 62 0
-43 -78 -131 0
-43 47 50 0
-43 62 -69 0
-42 -127 -131 0
-42 51 -93 0
-41 -57 -129 0
-41 60 -133 0
-40 -95 106 0
-40 -85 -141 0
-38 -40 -65 0
-38 66 105 0
-37 -67 -113 0
-37 113 -136 0
-36 -43 -143 0
-36 73 107 0
-36 123 146 0
-35 -104 -141 0
-33 93 -100 0
-33 99 149 0
-32 69 96 0
-32 94 -105 0
-32 112 -144 0
-31 -125 -129 0
-31 -32 73 0
-31 55 -118 0
-30 -72 -83 0
-29 -55 -67 0
-29 -35 -102 0
-29 35 128 0
-28 -104 111 0
-28 -70 -85 0
-28 -51 -83 0
-28 30 -62 0
-27 -86 -100 0
-27 -79 111 0
-27 36 38 0
-27 71 147 0
-26 -75 -107 0
-26 -40 124 0
-26 53 106 0
-26 83 131 0
-25 35 50 0
-24 39 -98 0
-23 -119 138 0
-23 -97 -134 0
-23 -97 124 0
-23 -66 126 0
-23 -43 74 0
-23 25 -140 0
-23 70 -71 0
-22 -48 71 0
-22 28 29 0
-21 -53 117 0
-21 32 67 0
-21 39 -125 0
-20 -44 58 0
-20 -28 -144 0
-20 -25 39 0
-20 74 -93 0
-20 85 137 0
-19 76 112 0
-19 104 -129 0
-18 32 134 0
-18 67 -109 0
-17 -128 -147 0
-17 -70 -147 0
-17 -36 -122 0
-17 73 -115 0
-15 -100 135 0
-15 -56 75 0
-15 -43 -51 0
-15 31 109 0
-15 76 -83 0
-14 -84 132 0
-14 -40 -66 0
-14 -16 25 0
-14 54 -141 0
-14 65 78 0
-14 65 143 0
-13 -34 63 0
-13 38 -146 0
-12 -111 133 0
-12 -54 84 0
-12 22 -74 0
-12 64 92 0
-12 93 -123 0
-12 129 -148 0
-11 -134 141 0
-11 -97 -147 0
-11 -69 -109 0
-11 32 39 0
-11 94 110 0
-10 -136 139 0
-10 -86 106 0
-10 24 -25 0
-10 53 -121 0
-10 55 103 0
-10 71 -87 0
-10 86 96 0
-10 100 -143 0
-10 102 143 0
-10 130 139 0
-9 -24 140 0
-9 77 -141 0
-8 -115 -116 0
-8 -41 -114 0
-8 48 -116 0
-8 79 -121 0
-8 125 -133 0
-7 -60 67 0
-7 16 139 0
-7 25 -70 0
-7 48 -149 0
-7 71 107 0
-7 140 -145 0
-6 -86 -100 0
-6 -23 -34 0
-6 -14 -121 0
-6 -8 -54 0
-6 13 48 0
-6 34 134 0
-6 49 -122 0
-6 83 96 0
-6 144 149 0
-5 15 114 0
-5 79 -110 0
-5 85 -119 0
-4 -115 -126 0
-4 -50 -75 0
-4 -33 50 0
-4 21 146 0
-4 40 -96 0
-3 -135 148 0
-3 8 114 0
-3 12 100 0
-3 14 64 0
-3 21 -113 0
-3 83 98 0
-3 88 -90 0
-2 -87 123 0
-2 -51 91 0
-2 -3 5 0
-2 83 141 0
-2 126 147 0
-1 -75 -79 0
-1 -54 -135 0
-1 -2 94 0
1 -82 113 0
1 -49 -79 0
1 87 111 0
1 100 -148 0
2 -54 95 0
2 -9 91 0
3 -40 74 0
3 9 -35 0
3 11 -137 0
3 79 91 0
4 15 -90 0
4 35 -126 0
4 56 147 0
4 71 113 0
4 112 136 0
5 -95 -120 0
5 -22 37 0
5 20 -134 0
5 30 100 0
5 39 104 0
5 52 115 0
5 61 -103 0
5 117 122 0
6 -83 87 0
6 -29 -32 0
6 -18 98 0
6 78 141 0
7 44 77 0
7 56 -113 0
7 71 -147 0
8 -41 124 0
8 87 -147 0
9 -63 68 0
9 -25 122 0
9 70 150 0
10 -46 53 0
10 -34 -119 0
10 12 73 0
10 16 98 0
10 33 109 0
11 -119 -148 0
11 -66 -108 0
11 -56 -92 0
12 -103 -116 0
12 -89 -134 0
12 -80 -112 0
12 -32 98 0
12 104 -137 0
12 127 131 0
13 -131 -144 0
13 -98 99 0
14 -89 91 0
14 -79 99 0
14 -64 -84 0
14 -35 86 0
14 78 98 0
15 -62 87 0
15 -31 138 0
15 -18 33 0
15 34 -104 0
15 59 -89 0
15 86 -133 0
16 -50 58 0
16 -39 -82 0
16 63 -111 0
16 93 146 0
17 -126 144 0
17 -64 125 0
17 -25 -51 0
17 67 109 0
17 73 76 0
17 91 -110 0
17 102 126 0
18 -30 -106 0
18 109 123 0
19 -129 -141 0
19 -57 -63 0
19 -44 -115 0
19 -44 146 0
19 -35 -76 0
19 58 118 0
19 77 121 0
20 -60 -110 0
20 27 143 0
20 100 137 0
20 134 148 0
20 138 140 0
21 -33 43 0
21 120 -146 0
22 -45 97 0
22 -41 141 0
22 34 58 0
22 58 64 0
22 125 130 0
23 -35 -97 0
23 -35 -71 0
24 -69 -150 0
24 75 -138 0
25 -117 129 0
25 40 -133 0
25 50 92 0
25 80 119 0
26 -108 147 0
26 -105 -134 0
26 -104 -129 0
26 -62 -108 0
26 36 136 0
26 67 -141 0
26 73 -132 0
27 -39 -125 0
27 110 136 0
28 -30 -108 0
28 43 -96 0
28 60 101 0
28 138 -139 0
29 -56 62 0
29 33 109 0
30 -34 130 0
30 68 -73 0
30 134 -143 0
31 -111 -132 0
31 -95 106 0
31 -61 -137 0
31 -60 -120 0
31 -55 -95 0
31 36 127 0
31 81 -131 0
32 -111 128 0
32 -63 -146 0
32 -48 56 0
32 77 -146 0
32 87 -128 0
33 -124 -150 0
33 35 86 0
33 39 -67 0
33 47 -80 0
33 59 -71 0
34 -98 -131 0
34 -91 -134 0
34 52 -69 0
34 80 -112 0
36 -124 -132 0
36 -121 134 0
37 -107 132 0
37 -65 -115 0
37 40 -110 0
37 42 -146 0
37 49 86 0
37 59 -65 0
38 -73 92 0
38 40 -74 0
38 42 111 0
38 115 -134 0
38 117 140 0
39 55 -62 0
40 -41 -127 0
40 92 -120 0
42 -101 -128 0
42 -59 -83 0
42 95 -101 0
42 112 148 0
44 67 -134 0
44 68 -117 0
45 -133 -137 0
45 -92 -135 0
45 -57 80 0
45 65 83 0
45 111 124 0
46 83 -123 0
47 -104 -131 0
47 106 119 0
48 -53 -99 0
48 108 -141 0
48 108 143 0
49 -93 -139 0
49 -69 -99 0
49 -62 119 0
50 -71 73 0
50 72 105 0
50 93 117 0
52 -135 143 0
52 -63 66 0
52 135 149 0
53 -79 102 0
53 -77 -139 0
54 -79 110 0
54 -59 -100 0
55 67 -147 0
55 88 122 0
55 108 113 0
56 -118 -133 0
56 64 -65 0
56 79 103 0
57 -63 73 0
57 128 149 0
58 -86 -88 0
59 84 -132 0
60 100 117 0
61 -129 136 0
61 98 -111 0
61 118 126 0
62 -109 -116 0
62 -78 92 0
62 71 -134 0
62 73 144 0
62 109 147 0
62 122 -131 0
63 -74 134 0
63 104 -140 0
65 76 -107 0
66 71 -74 0
67 -117 130 0
67 -79 -107 0
67 70 -140 0
67 74 94 0
68 -96 127 0
68 -79 -95 0
68 103 -127 0
69 -78 -144 0
69 96 98 0
69 110 148 0
70 -84 -129 0
70 81 -90 0
70 140 -143 0
73 -103 148 0
74 -109 120 0
75 76 -118 0
76 -115 -126 0
76 -92 128 0
77 -136 -143 0
77 -125 -134 0
77 -81 114 0
79 -124 139 0
79 -116 -131 0
79 85 104 0
79 117 -125 0
80 88 -138 0
80 112 147 0
81 82 -143 0
81 106 -109 0
82 -95 -128 0
83 85 -108 0
86 91 -118 0
88 -109 -123 0
88 126 147 0
91 132 -136 0
95 -111 113 0
95 -106 -109 0
95 123 -147 0
96 100 149 0
96 108 -137 0
98 -121 129 0
98 99 127 0
104 -117 -126 0
108 -116 -124 0
108 135 142 0
110 -137 147 0
112 -116 142 0
117 122 -148 0
120 125 -130 0
125 -129 137 0
131 138 150 0
138 -143 -147 0
