p cnf 80 260
-63 -64 72 0
-56 61 72 0
-55 -68 -70 0
-52 -65 72 0
-51 -55 78 0
-48 -50 -77 0
-47 56 -72 0
-46 50 74 0
-44 -62 73 0
-44 57 76 0
-41 57 59 0
-40 54 66 0
-39 -59 66 0
-39 -55 -75 0
-39 64 75 0
-38 -49 53 0
-36 -52 54 0
-36 -47 48 0
-35 45 57 0
-32 -40 -59 0
-31 -47 66 0
-31 59 63 0
-31 64 -79 0
-30 -62 67 0
-30 -53 -56 0
-30 39 69 0
-30 51 66 0
-29 -49 66 0
-29 -41 61 0
-29 50 58 0
-28 -56 -61 0
-28 -39 -66 0
-28 73 75 0
-27 -36 49 0
-27 43 67 0
-26 -52 -55 0
-26 -39 69 0
-26 52 54 0
-25 39 41 0
-24 50 -76 0
-23 34 -57 0
-23 39 -49 0
-22 -59 65 0
-22 -49 60 0
-22 -42 57 0
-22 -33 -60 0
-22 30 -67 0
-21 -65 -68 0
-21 -37 -46 0
-21 -34 64 0
-20 -21 72 0
-20 36 59 0
-20 63 71 0
-19 -35 -43 0
-18 -27 57 0
-18 -21 29 0
-18 27 -44 0
-18 38 51 0
-18 56 -63 0
-17 -33 -73 0
-17 -28 45 0
-16 -69 80 0
-15 -67 -76 0
-15 -39 -72 0
-15 -26 44 0
-15 -17 28 0
-14 -66 68 0
-14 -20 -80 0
-14 45 -53 0
-13 -42 72 0
-13 24 -37 0
-13 28 -59 0
-13 37 62 0
-13 47 -53 0
-12 -52 75 0
-12 -29 -37 0
-12 -28 62 0
-12 -26 30 0
-12 -20 -59 0
-12 15 -49 0
-12 26 69 0
-12 38 -77 0
-12 61 -72 0
-11 -26 33 0
-11 -23 26 0
-11 37 -39 0
-11 39 71 0
-11 52 -67 0
-10 -48 -68 0
-10 -11 -17 0
-10 29 -38 0
-10 35 -77 0
-10 35 72 0
-10 44 -55 0
-10 58 75 0
-10 64 -74 0
-9 -42 61 0
-9 -17 58 0
-9 -14 38 0
-8 -29 70 0
-8 12 -72 0
-8 36 55 0
-7 -24 60 0
-7 -13 41 0
-7 24 25 0
-7 35 50 0
-6 -27 30 0
-6 -13 -26 0
-6 18 58 0
-6 38 54 0
-5 41 -53 0
-5 46 -65 0
-4 -34 -57 0
-4 -33 46 0
-4 -17 70 0
-4 11 -54 0
-4 31 -69 0
-3 -42 65 0
-3 -40 -80 0
-3 32 -37 0
-3 62 68 0
-2 -38 69 0
-2 16 66 0
-2 31 49 0
-2 34 39 0
-2 37 52 0
-2 59 -61 0
-1 -56 59 0
-1 -28 -67 0
-1 27 -45 0
-1 28 -62 0
-1 32 -67 0
-1 42 47 0
1 -25 27 0
1 21 -50 0
1 30 66 0
1 43 80 0
2 -58 -65 0
2 -10 57 0
2 3 30 0
2 19 -54 0
3 -25 26 0
3 -22 -63 0
3 -10 68 0
3 36 69 0
3 39 -53 0
3 47 -55 0
4 -55 64 0
4 18 35 0
4 28 -61 0
4 40 -65 0
4 41 -67 0
4 43 75 0
5 -58 67 0
5 -24 50 0
5 -19 48 0
5 -17 -23 0
5 -7 -8 0
5 11 54 0
5 29 50 0
5 33 -47 0
6 -35 44 0
6 -20 -70 0
6 -19 55 0
6 13 47 0
6 65 74 0
8 -39 69 0
8 -25 54 0
8 16 55 0
8 26 43 0
8 28 -71 0
9 -55 66 0
9 -15 26 0
9 36 -43 0
10 -27 -55 0
10 24 -64 0
10 41 54 0
10 52 54 0
10 59 -68 0
11 -60 68 0
11 -36 60 0
11 -18 76 0
11 31 -33 0
12 -55 -74 0
12 -36 69 0
12 -27 52 0
12 -19 44 0
12 16 49 0
12 24 -57 0
12 31 62 0
13 -32 56 0
14 -30 -79 0
14 26 39 0
14 27 -76 0
14 42 -47 0
15 -33 64 0
15 -28 72 0
15 16 53 0
15 25 -57 0
15 41 -79 0
16 -71 80 0
16 20 37 0
16 23 58 0
17 36 56 0
18 57 -65 0
19 -49 61 0
19 22 33 0
19 29 -34 0
19 43 70 0
20 -52 80 0
20 32 -58 0
20 60 -79 0
21 -31 -79 0
21 -24 -28 0
21 25 -41 0
22 30 -62 0
22 32 -53 0
22 47 -54 0
23 -43 69 0
23 29 -57 0
24 -45 49 0
24 -33 -42 0
24 36 46 0
24 45 55 0
26 -33 -63 0
27 -79 -80 0
28 -42 -74 0
28 -29 -66 0
28 48 -74 0
30 -57 76 0
30 -48 -76 0
30 46 -74 0
31 49 -79 0
33 46 -57 0
35 45 69 0
36 45 80 0
36 47 62 0
37 -60 -69 0
38 -52 -67 0
38 -45 79 0
39 -57 77 0
39 -51 73 0
39 68 -69 0
41 -59 70 0
41 -56 70 0
44 -46 80 0
44 68 80 0
46 -48 -57 0
47 65 73 0
48 64 77 0
49 -68 -79 0
50 53 -60 0
51 -59 69 0
51 -55 65 0
53 75 -80 0
54 59 -74 0
56 -61 62 0
59 61 -70 0
65 69 -78 0
65 78 79 0
