p cnf 20 85
-16 18 19 0
-15 17 18 0
-12 -13 14 0
-12 16 -19 0
-11 -14 16 0
-11 13 -17 0
-10 13 16 0
-10 15 19 0
-8 10 12 0
-8 15 -16 0
-7 -10 -17 0
-7 13 14 0
-6 -15 -16 0
-6 -11 -17 0
-6 9 12 0
-5 -17 19 0
-5 9 -17 0
-5 9 13 0
-4 -7 -12 0
-4 -5 8 0
-4 -5 12 0
-4 5 9 0
-4 9 -10 0
-4 10 -14 0
-4 10 -12 0
-3 -16 19 0
-3 -14 17 0
-3 -7 14 0
-3 -5 -17 0
-3 -5 -8 0
-3 4 14 0
-3 15 -20 0
-2 -3 -16 0
-2 8 -15 0
-2 8 15 0
-2 9 -14 0
-1 -11 20 0
-1 -8 13 0
-1 10 11 0
-1 10 20 0
-1 12 17 0
-1 17 -19 0
1 -10 -17 0
1 -8 17 0
1 -5 -13 0
1 -3 -18 0
1 2 14 0
1 3 -11 0
1 10 13 0
2 -11 -20 0
2 -7 18 0
2 3 -10 0
2 8 11 0
3 -10 16 0
3 -4 17 0
3 14 -19 0
4 -12 -16 0
4 5 -12 0
4 12 -17 0
5 -16 18 0
5 7 -19 0
5 11 17 0
5 12 -14 0
6 -7 19 0
6 8 -12 0
6 8 -10 0
7 9 -11 0
7 12 -17 0
7 12 20 0
8 -16 -17 0
8 -16 18 0
8 -10 19 0
8 10 18 0
8 17 19 0
9 -16 -17 0
9 -14 20 0
9 -13 -20 0
9 -11 -14 0
10 -12 15 0
10 -11 18 0
10 14 18 0
10 15 20 0
10 18 -19 0
13 -14 18 0
14 17 -18 0
