p cnf 35 149
-26 -27 35 0
-23 25 31 0
-23 27 35 0
-22 28 -35 0
-21 27 32 0
-20 -23 -34 0
-20 31 -33 0
-19 -30 33 0
-16 -20 -25 0
-16 21 22 0
-16 24 -26 0
-16 25 -27 0
-16 31 35 0
-15 16 19 0
-15 17 -21 0
-15 18 22 0
-15 24 30 0
-15 26 30 0
-15 30 32 0
-14 -24 -27 0
-14 16 35 0
-14 20 21 0
-14 27 -35 0
-13 -26 33 0
-13 -21 25 0
-13 -18 -30 0
-13 32 35 0
-12 20 35 0
-11 -25 -31 0
-11 -17 -29 0
-10 -22 33 0
-10 -18 20 0
-10 19 -20 0
-10 26 32 0
-9 -11 30 0
-8 -27 32 0
-8 -12 -31 0
-8 9 13 0
-8 25 34 0
-8 26 29 0
-7 -22 27 0
-7 -13 -21 0
-7 31 -32 0
-6 -23 -31 0
-6 -15 31 0
-6 -13 -22 0
-6 10 26 0
-6 12 32 0
-6 16 -20 0
-5 -11 15 0
-5 8 -24 0
-4 -21 23 0
-4 -17 -28 0
-4 17 27 0
-3 -25 33 0
-3 -16 -30 0
-3 -11 -21 0
-3 5 21 0
-3 8 -32 0
-3 14 -30 0
-2 -17 25 0
-2 -17 34 0
-2 -10 29 0
-2 29 31 0
-1 -21 33 0
-1 -19 -22 0
-1 -14 17 0
-1 -9 21 0
-1 12 21 0
-1 18 -23 0
1 -30 35 0
1 -25 -34 0
1 -14 28 0
1 -6 25 0
1 -6 27 0
1 8 27 0
1 17 -35 0
2 -29 35 0
2 -26 -29 0
2 -24 35 0
2 -21 -24 0
2 -18 -31 0
2 -6 -24 0
2 -6 8 0
2 8 24 0
2 9 31 0
2 15 -17 0
3 -21 24 0
3 -10 -13 0
3 -8 -23 0
3 7 -18 0
3 8 -21 0
3 10 -16 0
3 24 -30 0
4 -25 -35 0
4 -24 35 0
4 -7 12 0
4 -6 25 0
4 -5 -10 0
4 6 -22 0
4 7 -17 0
4 11 -19 0
4 12 17 0
4 22 -33 0
5 -11 -28 0
5 -11 -22 0
5 18 25 0
6 10 -23 0
6 15 -30 0
6 18 22 0
7 -30 -32 0
7 -25 28 0
7 13 -31 0
7 14 -17 0
8 -14 -30 0
8 9 34 0
8 10 14 0
9 -18 35 0
9 -13 19 0
9 11 -17 0
9 16 34 0
9 25 35 0
9 26 32 0
10 -26 27 0
10 -21 29 0
10 15 18 0
11 23 31 0
11 25 -27 0
12 -24 -28 0
12 -18 -19 0
12 27 28 0
13 -18 -21 0
13 -16 22 0
13 -15 30 0
13 16 20 0
13 20 -32 0
13 26 34 0
14 -20 22 0
14 19 -26 0
14 23 -34 0
14 30 31 0
15 21 -22 0
15 23 -35 0
20 26 -29 0
21 -23 -32 0
24 -27 -30 0
26 32 33 0
27 -29 35 0
28 -32 -33 0
