p cnf 150 525
-136 -139 140 0
-117 124 -144 0
-114 127 135 0
-112 -130 150 0
-111 -129 141 0
-109 119 120 0
-108 136 -141 0
-107 -130 136 0
-107 -126 143 0
-103 -104 -145 0
-99 -112 147 0
-97 100 125 0
-97 129 133 0
-95 -146 147 0
-95 -124 125 0
-93 113 147 0
-92 -101 -113 0
-91 104 -105 0
-90 -117 -129 0
-90 99 114 0
-89 -117 -141 0
-88 116 -120 0
-87 -90 -120 0
-87 140 144 0
-84 -100 -112 0
-82 -83 148 0
-82 85 -95 0
-81 119 141 0
-77 96 137 0
-76 81 -114 0
-76 120 -145 0
-75 83 -120 0
-75 110 116 0
-73 -109 115 0
-73 -107 -126 0
-72 -127 -150 0
-72 -91 -118 0
-72 -80 -135 0
-71 -82 -95 0
-71 88 -93 0
-70 72 108 0
-70 88 -120 0
-67 -121 -125 0
-67 -107 130 0
-67 -87 130 0
-67 -70 -116 0
-67 89 133 0
-66 109 148 0
-65 66 106 0
-64 -128 -130 0
-64 -83 -89 0
-64 -73 -133 0
-64 110 123 0
-63 -101 150 0
-63 138 -148 0
-62 -85 105 0
-62 80 142 0
-62 104 137 0
-61 -78 -84 0
-61 -71 103 0
-60 75 127 0
-60 106 -120 0
-59 -66 -120 0
-59 103 -137 0
-58 -109 116 0
-58 -71 -111 0
-58 61 123 0
-58 67 111 0
-57 -70 104 0
-56 -105 -112 0
-56 59 146 0
-55 63 -99 0
-54 72 -101 0
-54 85 -110 0
-53 -89 119 0
-52 -77 142 0
-52 127 142 0
-51 -96 149 0
-51 68 -105 0
-51 79 -102 0
-50 -91 -146 0
-50 127 -147 0
-50 135 138 0
-49 -62 137 0
-49 75 117 0
-48 97 -128 0
-47 -50 53 0
-46 -62 131 0
-46 49 -128 0
-45 -131 -141 0
-45 -71 80 0
-45 62 -147 0
-45 65 -75 0
-45 80 144 0
-44 -107 114 0
-44 -100 104 0
-44 -80 135 0
-44 68 115 0
-42 56 140 0
-42 72 -146 0
-41 -55 85 0
-40 -73 -133 0
-40 84 131 0
-40 114 -148 0
-39 -41 -126 0
-39 76 -95 0
-39 79 132 0
-39 103 145 0
-38 -102 134 0
-38 -63 75 0
-38 56 111 0
-37 -107 -125 0
-36 -98 141 0
-36 -81 101 0
-36 82 136 0
-35 121 147 0
-34 -94 -123 0
-34 114 -116 0
-33 -54 119 0
-31 -85 87 0
-31 34 121 0
-31 79 80 0
-30 -146 -147 0
-30 56 144 0
-30 68 89 0
-29 -71 123 0
-28 -79 148 0
-28 61 68 0
-28 80 141 0
-28 94 -101 0
-27 -138 -148 0
-27 -69 -111 0
-27 -48 -101 0
-26 27 32 0
-25 -49 88 0
-25 -37 -150 0
-25 -36 -120 0
-24 -99 -103 0
-24 -58 -71 0
-24 127 -146 0
-23 -28 58 0
-23 31 107 0
-23 65 110 0
-22 -112 -118 0
-22 -98 -142 0
-22 -95 148 0
-22 46 -123 0
-22 59 92 0
-22 60 -116 0
-22 78 147 0
-21 -24 42 0
-20 -67 88 0
-20 72 -75 0
-19 -41 109 0
-19 47 -66 0
-19 72 137 0
-18 -89 115 0
-18 -71 114 0
-18 -70 -144 0
-18 33 -120 0
-18 58 -106 0
-18 89 -91 0
-17 -123 146 0
-17 -94 150 0
-17 -75 -129 0
-17 -43 63 0
-17 105 -142 0
-16 -72 -121 0
-16 -30 -99 0
-16 59 -127 0
-16 87 -147 0
-16 98 139 0
-16 136 147 0
-15 -27 -108 0
-15 20 45 0
-15 72 -148 0
-15 80 115 0
-14 -118 126 0
-14 -34 -105 0
-14 -27 30 0
-14 -21 -124 0
-14 20 -56 0
-14 64 96 0
-14 142 -144 0
-13 -74 76 0
-13 60 140 0
-12 -78 -85 0
-12 -36 -82 0
-12 -16 -135 0
-11 -61 -77 0
-11 -33 -61 0
-11 16 72 0
-11 26 -100 0
-11 54 87 0
-11 82 96 0
-11 127 149 0
-10 -99 -146 0
-10 -11 -107 0
-10 47 137 0
-9 -70 -141 0
-9 -33 -34 0
-8 -107 -130 0
-8 -68 128 0
-8 -66 104 0
-8 -48 -125 0
-8 -30 76 0
-8 -10 70 0
-8 71 131 0
-8 72 93 0
-8 79 94 0
-8 87 147 0
-8 108 -143 0
-7 -70 -139 0
-7 33 72 0
-7 49 116 0
-7 119 -130 0
-6 -64 -82 0
-6 16 -77 0
-6 18 -76 0
-6 39 43 0
-6 51 127 0
-6 52 -99 0
-6 120 -132 0
-5 -69 -72 0
-5 -29 -139 0
-5 -21 34 0
-5 9 14 0
-5 10 -117 0
-5 11 108 0
-5 83 100 0
-5 108 -147 0
-3 -102 145 0
-3 -33 81 0
-3 -6 -138 0
-3 26 -110 0
-3 75 100 0
-2 -3 23 0
-2 10 -35 0
-2 20 77 0
-1 -32 47 0
-1 -22 128 0
-1 -4 -28 0
-1 46 55 0
1 -114 132 0
1 -83 120 0
1 -42 64 0
1 14 -102 0
1 53 97 0
1 55 98 0
1 76 -137 0
1 89 118 0
1 99 129 0
2 -118 147 0
2 -106 141 0
2 -103 131 0
2 -76 91 0
2 -62 -75 0
2 -18 70 0
2 3 -99 0
2 69 119 0
3 -107 146 0
3 -60 -72 0
3 -56 -73 0
3 -35 50 0
3 -25 -132 0
3 -13 -83 0
3 5 37 0
3 75 110 0
4 -137 -143 0
4 -51 -138 0
4 -10 28 0
4 72 150 0
5 -126 129 0
5 -95 -136 0
5 -70 85 0
5 16 135 0
5 85 100 0
6 -73 -144 0
6 -70 -89 0
6 28 -148 0
7 -54 -122 0
7 -50 -150 0
7 -32 -57 0
7 26 94 0
7 33 -100 0
7 52 -72 0
7 109 131 0
8 -83 84 0
8 -64 128 0
8 -42 137 0
8 21 -100 0
8 49 -150 0
8 94 145 0
9 -94 126 0
9 -48 -79 0
9 116 148 0
10 -48 -145 0
10 102 -126 0
11 -51 58 0
11 -40 87 0
11 -13 22 0
11 13 74 0
11 28 -126 0
11 35 111 0
11 58 134 0
11 146 147 0
12 -125 -127 0
12 -92 104 0
12 -63 -124 0
12 56 -79 0
12 82 -102 0
12 120 -132 0
13 -74 128 0
13 -26 134 0
13 -20 -30 0
13 23 -25 0
13 48 119 0
13 58 -99 0
14 -66 -118 0
14 -64 129 0
14 -51 70 0
14 22 -108 0
14 23 45 0
14 92 -101 0
14 113 -149 0
15 -84 103 0
15 -54 87 0
15 -24 -114 0
15 37 -91 0
16 -59 -86 0
16 39 -97 0
16 47 -147 0
16 78 134 0
17 -76 -149 0
17 -73 -140 0
17 53 62 0
17 69 109 0
18 -115 144 0
18 -99 110 0
18 -29 38 0
18 22 -75 0
19 -102 -135 0
19 -62 106 0
19 62 -111 0
19 112 -140 0
20 -58 -71 0
20 27 -86 0
20 61 103 0
20 74 -88 0
21 -34 -147 0
21 29 -103 0
21 65 -128 0
21 73 79 0
22 -37 -125 0
22 26 139 0
22 76 98 0
23 -81 -126 0
23 114 136 0
24 -127 -141 0
24 -97 -133 0
24 -85 -101 0
24 30 -33 0
24 41 -108 0
24 48 60 0
24 59 -127 0
24 92 -146 0
25 -49 103 0
25 -35 87 0
25 77 110 0
26 -60 115 0
26 -48 -130 0
26 34 -43 0
26 56 -59 0
27 -35 -56 0
27 -33 95 0
27 66 -124 0
28 -78 -148 0
28 -65 -69 0
28 40 44 0
28 77 -107 0
28 99 145 0
29 -127 -148 0
29 -49 57 0
29 39 -98 0
29 93 -109 0
29 98 -129 0
30 -60 92 0
30 114 -117 0
31 -76 -150 0
31 -36 70 0
31 65 66 0
31 90 91 0
31 90 128 0
32 -99 -139 0
32 -97 -119 0
33 -87 -130 0
33 -38 92 0
33 57 139 0
34 52 101 0
34 112 -129 0
35 -85 137 0
35 -81 -86 0
35 -45 91 0
35 39 148 0
35 54 -135 0
37 -50 -60 0
37 -50 109 0
37 74 -95 0
40 -47 -66 0
40 94 100 0
41 -83 -97 0
41 -63 -146 0
41 -43 -104 0
41 97 -113 0
41 125 -148 0
42 146 149 0
43 -136 148 0
43 -44 -97 0
43 53 -54 0
43 65 -97 0
44 -120 132 0
44 -63 144 0
44 74 111 0
44 84 108 0
45 -89 100 0
45 -89 118 0
46 -64 85 0
47 -94 -119 0
47 -72 140 0
47 79 116 0
48 63 -147 0
49 53 -114 0
49 62 -101 0
50 -77 -127 0
50 92 -100 0
51 -57 68 0
53 -69 90 0
54 93 104 0
55 89 -148 0
55 110 -140 0
56 -116 128 0
56 -81 133 0
56 96 -147 0
57 -67 102 0
57 78 -119 0
58 -117 -130 0
58 61 125 0
58 86 132 0
59 -126 -132 0
59 -114 -115 0
59 -101 -106 0
59 84 98 0
60 69 -112 0
61 -105 -119 0
61 66 -91 0
61 72 146 0
62 -84 149 0
62 -69 95 0
62 88 -93 0
63 -64 -78 0
63 80 133 0
64 -121 -137 0
64 70 118 0
65 72 -109 0
66 -120 126 0
66 -81 -82 0
67 69 -119 0
67 77 -121 0
67 133 140 0
68 -86 133 0
68 102 148 0
68 115 -124 0
69 -111 -140 0
69 -87 103 0
69 124 143 0
70 -120 -150 0
71 75 79 0
73 -97 -100 0
73 -87 -146 0
73 76 -102 0
73 94 126 0
73 101 109 0
73 110 129 0
73 138 -145 0
74 -123 -137 0
74 142 145 0
75 -99 128 0
76 97 103 0
76 116 -126 0
77 -114 137 0
78 79 109 0
78 109 -145 0
79 -106 -127 0
83 -125 -136 0
83 88 104 0
84 -115 -136 0
86 88 90 0
87 -96 -97 0
87 111 135 0
87 117 -150 0
89 91 -102 0
90 -133 -134 0
90 -93 -94 0
91 -109 -113 0
95 -115 -146 0
96 -103 -134 0
96 114 138 0
97 140 146 0
98 -129 -136 0
99 -126 -132 0
99 -118 -123 0
99 129 -137 0
100 -127 -149 0
102 -141 150 0
103 108 -115 0
103 123 147 0
106 -146 150 0
108 -116 -120 0
110 -125 -127 0
114 -127 136 0
114 131 142 0
117 -131 143 0
121 140 146 0
131 141 -150 0
134 -146 -149 0
