p cnf 300 1266
-278 -295 -299 0
-254 -291 292 0
-244 261 267 0
-241 -256 -262 0
-238 -261 -298 0
-235 270 298 0
-234 -278 -292 0
-230 -267 -288 0
-226 -248 255 0
-224 292 300 0
-223 -255 298 0
-220 257 273 0
-219 227 -286 0
-218 280 300 0
-213 271 -300 0
-211 212 238 0
-210 225 269 0
-209 227 298 0
-205 -220 -294 0
-203 -211 -220 0
-203 209 217 0
-202 -226 -263 0
-200 206 299 0
-199 250 300 0
-198 203 -246 0
-197 275 293 0
-196 251 275 0
-194 243 -270 0
-193 204 -232 0
-192 212 228 0
-191 -224 -289 0
-191 198 -256 0
-191 223 -276 0
-190 -293 -294 0
-190 197 295 0
-190 205 -253 0
-189 275 294 0
-187 -198 206 0
-187 259 272 0
-185 -191 268 0
-185 212 224 0
-184 -242 -271 0
-182 -240 -295 0
-181 182 191 0
-178 -249 -272 0
-178 -223 258 0
-178 -207 237 0
-178 -182 221 0
-178 -181 246 0
-177 -261 -293 0
-176 -222 -281 0
-176 -190 -238 0
-176 -186 -232 0
-176 186 285 0
-176 204 267 0
-176 215 -237 0
-176 237 -251 0
-175 -199 -289 0
-174 -231 -280 0
-174 -216 300 0
-173 177 -196 0
-173 278 293 0
-172 175 210 0
-171 -247 262 0
-171 243 -292 0
-170 -189 -251 0
-170 179 247 0
-169 279 -298 0
-166 -248 -264 0
-166 172 -264 0
-166 187 191 0
-165 170 185 0
-165 183 192 0
-165 189 228 0
-164 -282 287 0
-163 -227 237 0
-162 -201 -220 0
-162 185 212 0
-162 195 -272 0
-159 -256 274 0
-159 -245 -280 0
-159 -162 236 0
-158 -252 -279 0
-158 170 275 0
-157 -199 -258 0
-157 193 234 0
-156 -224 296 0
-156 -213 -232 0
-156 -190 290 0
-155 -178 289 0
-155 -175 237 0
-155 235 273 0
-154 -221 268 0
-154 -188 -242 0
-154 176 285 0
-153 162 -275 0
-153 181 -263 0
-153 219 239 0
-152 -215 299 0
-152 160 288 0
-152 187 -251 0
-152 250 278 0
-151 -224 251 0
-148 -164 205 0
-147 -241 -289 0
-147 -184 241 0
-147 -181 182 0
-147 -151 156 0
-146 151 249 0
-146 198 -253 0
-144 -161 166 0
-143 -217 287 0
-143 190 -219 0
-142 -242 -271 0
-142 -197 210 0
-142 191 -298 0
-141 143 237 0
-140 166 -263 0
-138 -172 224 0
-138 -152 218 0
-136 -210 236 0
-136 269 300 0
-135 -271 -285 0
-135 -143 168 0
-134 163 209 0
-134 210 -227 0
-133 222 257 0
-131 -291 -300 0
-130 160 -183 0
-130 243 -244 0
-129 150 -171 0
-129 206 -212 0
-128 144 199 0
-128 196 202 0
-127 -139 208 0
-127 -134 -157 0
-126 189 -212 0
-125 219 -232 0
-124 -251 289 0
-124 -170 221 0
-124 -159 245 0
-123 -185 -220 0
-122 -242 -259 0
-122 -146 -167 0
-122 -130 -300 0
-122 160 291 0
-121 -136 178 0
-119 -275 296 0
-119 -150 -262 0
-119 -150 194 0
-119 184 -285 0
-118 187 -202 0
-117 -194 -215 0
-117 -134 142 0
-117 166 -191 0
-116 -166 277 0
-116 185 -216 0
-115 -149 -270 0
-115 -129 141 0
-115 118 -298 0
-115 137 225 0
-115 223 290 0
-114 -219 -231 0
-114 -141 -289 0
-114 -120 -167 0
-114 118 181 0
-114 182 215 0
-114 254 259 0
-113 -143 -178 0
-113 114 -177 0
-113 119 -210 0
-112 -166 267 0
-112 117 231 0
-112 160 -176 0
-112 190 296 0
-112 204 -300 0
-111 -214 -295 0
-110 -218 -300 0
-110 -181 190 0
-110 -123 -159 0
-110 143 216 0
-109 -160 -192 0
-108 -172 -295 0
-108 -118 187 0
-108 152 211 0
-108 223 286 0
-107 -241 -253 0
-107 -155 181 0
-107 -141 -154 0
-107 -130 -218 0
-105 -118 -173 0
-105 167 -278 0
-105 232 -267 0
-104 -172 -239 0
-104 -159 -173 0
-102 -232 -291 0
-102 -161 278 0
-102 151 -243 0
-101 -148 -212 0
-101 133 -248 0
-99 -133 -225 0
-99 -131 300 0
-99 117 269 0
-99 190 -265 0
-98 -158 -196 0
-98 -135 -167 0
-98 134 173 0
-98 139 218 0
-97 127 232 0
-97 142 -230 0
-97 195 285 0
-96 -138 229 0
-96 -118 -157 0
-95 -197 -254 0
-95 246 299 0
-95 265 -279 0
-94 -119 -124 0
-94 103 -178 0
-94 124 -224 0
-94 156 -269 0
-93 -112 123 0
-93 -112 184 0
-93 96 209 0
-92 -130 -201 0
-92 -128 209 0
-91 -113 -256 0
-91 129 292 0
-91 141 230 0
-90 109 295 0
-89 -134 179 0
-89 106 192 0
-89 151 -182 0
-88 -236 292 0
-88 -192 266 0
-88 -125 -167 0
-88 121 167 0
-88 151 -271 0
-88 167 168 0
-87 -245 -286 0
-87 -218 -226 0
-87 -209 -246 0
-87 -157 247 0
-87 -154 -273 0
-87 90 -207 0
-86 -199 268 0
-86 -199 279 0
-86 -186 249 0
-85 167 -172 0
-84 -180 -263 0
-84 146 -246 0
-83 -195 217 0
-83 212 253 0
-83 283 298 0
-82 -169 -258 0
-82 -90 -167 0
-82 151 -285 0
-81 -148 252 0
-81 -147 277 0
-81 -129 -250 0
-81 85 218 0
-81 126 -166 0
-81 129 -214 0
-81 210 -263 0
-80 -126 235 0
-79 -204 -262 0
-79 -133 -183 0
-79 93 229 0
-79 133 -237 0
-79 152 175 0
-79 220 274 0
-78 -131 213 0
-78 -106 180 0
-78 83 167 0
-78 87 -171 0
-78 115 -151 0
-78 221 276 0
-77 -190 193 0
-77 -108 -151 0
-77 152 168 0
-76 -127 -170 0
-76 99 -112 0
-76 130 -192 0
-75 -255 259 0
-75 -146 -147 0
-75 -99 -110 0
-75 -84 -246 0
-75 104 145 0
-75 128 300 0
-74 -154 242 0
-74 115 288 0
-74 175 202 0
-73 77 -272 0
-73 168 218 0
-73 197 -280 0
-73 248 -255 0
-72 -201 277 0
-72 -186 -231 0
-71 -125 -149 0
-71 80 233 0
-70 96 209 0
-70 105 -211 0
-70 105 183 0
-69 -155 230 0
-69 -126 -219 0
-69 -122 184 0
-69 -96 244 0
-68 -271 -298 0
-68 -221 -226 0
-68 91 -185 0
-68 197 285 0
-68 200 214 0
-68 213 -281 0
-67 101 -204 0
-67 176 -208 0
-66 -197 -238 0
-66 -160 -265 0
-66 -150 -201 0
-66 85 -102 0
-65 -208 -211 0
-65 -123 -175 0
-65 -99 211 0
-65 82 -253 0
-65 112 287 0
-64 -67 260 0
-63 -112 -147 0
-63 201 -267 0
-63 202 259 0
-62 -250 -253 0
-62 -108 -209 0
-62 143 184 0
-62 183 238 0
-62 278 -279 0
-61 -125 290 0
-61 -100 122 0
-61 106 282 0
-61 145 -207 0
-61 173 205 0
-60 -206 -283 0
-60 -182 288 0
-60 -78 84 0
-60 207 299 0
-59 -197 -280 0
-59 -147 -157 0
-59 -134 198 0
-59 -111 117 0
-59 89 277 0
-59 107 -166 0
-59 123 273 0
-59 192 226 0
-58 128 255 0
-57 -61 62 0
-57 -60 223 0
-57 65 -225 0
-57 95 -126 0
-57 105 300 0
-57 230 -279 0
-56 -95 101 0
-56 -86 156 0
-55 -176 -278 0
-55 -120 -262 0
-55 -68 -222 0
-54 -122 -168 0
-54 -120 -210 0
-54 156 294 0
-53 -111 166 0
-52 -231 -242 0
-52 57 -133 0
-52 89 273 0
-52 178 -294 0
-51 -198 -280 0
-51 66 133 0
-51 72 110 0
-51 161 180 0
-51 180 -297 0
-51 191 -280 0
-50 -232 -272 0
-50 -158 254 0
-50 -97 -272 0
-50 -76 84 0
-50 73 161 0
-49 -62 -84 0
-49 62 194 0
-49 100 -234 0
-48 -71 88 0
-48 -60 -271 0
-48 58 203 0
-48 67 115 0
-47 -76 234 0
-47 64 -286 0
-47 81 118 0
-47 120 -127 0
-46 -54 154 0
-46 168 206 0
-46 222 -282 0
-45 -238 250 0
-45 -77 271 0
-45 -46 -203 0
-45 112 198 0
-45 163 -230 0
-44 -221 -297 0
-44 -129 260 0
-44 -110 219 0
-44 -84 173 0
-44 70 -107 0
-44 109 275 0
-44 156 -189 0
-44 173 187 0
-43 -216 256 0
-43 -199 258 0
-42 -171 -202 0
-42 -99 -201 0
-41 -202 239 0
-41 -110 287 0
-41 -102 119 0
-41 -100 207 0
-41 -84 107 0
-41 -66 283 0
-41 54 180 0
-41 61 -222 0
-41 80 -86 0
-41 132 -211 0
-41 183 219 0
-40 -183 -258 0
-40 -69 90 0
-40 119 221 0
-39 -232 -275 0
-39 -52 -100 0
-39 48 -109 0
-39 180 -250 0
-38 -183 280 0
-38 -152 185 0
-38 -149 269 0
-38 91 -171 0
-38 158 266 0
-38 169 -247 0
-38 264 -273 0
-37 -130 -159 0
-37 -93 156 0
-37 -84 -135 0
-37 -64 -180 0
-37 65 -123 0
-37 161 265 0
-37 193 292 0
-36 46 -108 0
-36 86 283 0
-36 235 283 0
-35 -158 -235 0
-35 -85 159 0
-35 -79 -140 0
-35 -59 -291 0
-35 -51 -136 0
-35 -38 159 0
-35 99 -268 0
-35 153 -218 0
-35 171 281 0
-34 -202 -276 0
-34 -167 -170 0
-34 -160 225 0
-34 50 -251 0
-34 102 -150 0
-34 122 -165 0
-34 157 297 0
-34 179 -196 0
-33 -138 165 0
-33 -95 -251 0
-33 85 -121 0
-32 -194 -241 0
-32 211 291 0
-31 -260 -263 0
-31 -227 279 0
-31 -166 179 0
-31 -164 -282 0
-31 -74 -134 0
-31 69 -289 0
-31 69 -137 0
-30 -204 298 0
-30 50 -209 0
-30 57 254 0
-30 160 220 0
-30 182 206 0
-29 -223 287 0
-29 -84 -202 0
-29 -62 -261 0
-29 -35 -227 0
-29 34 41 0
-29 74 -197 0
-29 105 -122 0
-29 115 176 0
-29 154 -177 0
-28 -217 -251 0
-28 -105 -266 0
-28 -66 268 0
-28 111 233 0
-27 -132 -219 0
-27 98 273 0
-27 221 -299 0
-27 264 -294 0
-26 -228 300 0
-26 -138 -230 0
-26 -116 -261 0
-26 -92 206 0
-26 110 293 0
-25 -111 143 0
-25 -54 222 0
-25 -42 -182 0
-25 29 -256 0
-25 145 238 0
-24 -191 284 0
-24 -165 178 0
-24 -131 169 0
-24 35 128 0
-24 107 -141 0
-23 -205 296 0
-23 -125 -249 0
-23 -102 198 0
-23 35 -80 0
-23 110 -139 0
-22 -223 -261 0
-22 -161 230 0
-22 -139 -234 0
-22 -118 -135 0
-22 -43 -285 0
-22 -26 -63 0
-22 65 -100 0
-22 152 -172 0
-21 -137 -292 0
-21 -86 -156 0
-21 -36 -159 0
-21 99 -201 0
-21 116 291 0
-21 143 -269 0
-21 188 191 0
-20 -118 249 0
-20 -84 -252 0
-20 -36 89 0
-20 147 249 0
-19 -120 208 0
-19 -29 -168 0
-19 -29 195 0
-19 99 -121 0
-19 174 -234 0
-18 -168 -227 0
-18 -73 283 0
-18 -47 -103 0
-18 26 77 0
-18 50 258 0
-17 -70 -113 0
-17 -19 171 0
-17 55 208 0
-17 173 -216 0
-16 -211 -244 0
-16 70 -224 0
-15 -52 -287 0
-15 -31 222 0
-15 54 152 0
-14 -180 -254 0
-14 -50 -264 0
-14 110 158 0
-14 199 -224 0
-13 -155 -222 0
-13 -22 208 0
-13 -21 -232 0
-13 76 -88 0
-13 87 -228 0
-13 120 162 0
-13 154 -166 0
-12 -178 -290 0
-12 -147 -153 0
-12 -26 268 0
-12 58 -111 0
-12 129 -280 0
-12 154 260 0
-12 162 -251 0
-12 222 -263 0
-12 240 -257 0
-11 -63 240 0
-11 44 135 0
-11 69 220 0
-10 -25 -26 0
-10 109 -153 0
-10 180 -259 0
-9 -76 232 0
-9 25 -272 0
-9 38 176 0
-9 71 -239 0
-8 -185 270 0
-8 -111 146 0
-8 -29 -119 0
-8 16 239 0
-8 24 259 0
-8 30 133 0
-7 -187 241 0
-7 -47 119 0
-7 80 231 0
-6 -82 104 0
-6 -78 -250 0
-6 -50 -169 0
-6 -49 142 0
-6 -36 -266 0
-6 -18 -224 0
-6 25 226 0
-6 47 -237 0
-6 97 -170 0
-6 155 -169 0
-5 -22 -184 0
-5 -18 169 0
-5 19 -183 0
-5 20 212 0
-5 83 -85 0
-4 -113 168 0
-4 -90 100 0
-4 37 -218 0
-4 59 -259 0
-4 88 98 0
-4 106 -194 0
-4 107 -123 0
-4 214 -227 0
-3 -61 -297 0
-3 -26 48 0
-3 81 206 0
-3 83 -229 0
-3 90 -158 0
-3 106 211 0
-3 112 -220 0
-3 137 -272 0
-3 209 272 0
-2 -256 266 0
-2 31 85 0
-2 132 -259 0
-1 -51 -273 0
-1 -44 258 0
-1 18 104 0
-1 22 -233 0
-1 129 260 0
1 -282 -288 0
1 -181 190 0
1 -6 246 0
1 165 277 0
1 181 -241 0
2 -217 227 0
2 -98 -159 0
2 5 249 0
2 14 269 0
3 -244 -263 0
3 -186 -202 0
3 -78 241 0
3 -21 -250 0
3 15 -204 0
3 54 -208 0
3 103 -238 0
3 131 201 0
3 150 -291 0
4 -91 106 0
4 85 -238 0
5 -135 -232 0
5 -111 -270 0
5 -37 -95 0
5 83 195 0
5 101 -162 0
6 -225 -298 0
7 -243 292 0
7 -238 283 0
7 -226 -230 0
7 -154 241 0
7 -22 -52 0
7 -10 -73 0
7 69 -167 0
8 -52 289 0
9 30 238 0
9 76 99 0
9 96 279 0
9 152 249 0
10 -96 -265 0
10 -88 -106 0
10 -50 145 0
10 -44 53 0
10 22 169 0
10 33 -162 0
10 66 -151 0
10 132 180 0
10 148 -300 0
11 -52 -248 0
11 -39 247 0
11 58 190 0
11 69 -294 0
11 69 136 0
11 130 -249 0
11 155 184 0
11 286 291 0
12 -291 -292 0
12 -248 264 0
12 -33 -247 0
12 64 118 0
13 -263 -290 0
13 -207 -265 0
13 -172 186 0
13 -153 210 0
13 -17 65 0
14 -282 283 0
14 -258 272 0
14 -158 175 0
14 -156 -207 0
14 -98 179 0
14 -53 -223 0
14 -41 243 0
14 -33 -150 0
14 89 125 0
15 -226 240 0
15 -174 -293 0
15 -81 116 0
15 -73 -196 0
15 20 229 0
15 26 149 0
15 36 47 0
15 78 248 0
15 80 -98 0
15 197 293 0
16 -112 -210 0
16 63 -271 0
16 82 242 0
17 -163 -180 0
17 -89 92 0
17 36 -291 0
17 253 -257 0
18 -213 -269 0
18 -97 -124 0
18 -87 -205 0
18 -65 104 0
18 69 -196 0
18 228 286 0
19 -171 -272 0
19 -101 -175 0
19 68 -147 0
19 191 236 0
20 -42 -208 0
20 79 -151 0
20 239 277 0
21 -258 -297 0
21 -197 295 0
21 -151 193 0
21 70 -104 0
21 74 168 0
21 210 223 0
22 -115 -266 0
22 49 -93 0
22 83 -191 0
22 195 201 0
22 206 -264 0
23 -151 -296 0
23 35 -258 0
23 75 -194 0
23 134 250 0
23 151 -267 0
23 192 -221 0
24 -226 242 0
24 -219 -241 0
24 -200 -285 0
24 -121 -137 0
24 -101 124 0
24 84 -207 0
25 -193 -212 0
25 28 144 0
25 42 -172 0
26 -211 231 0
26 -54 137 0
26 102 204 0
26 115 -258 0
26 146 250 0
27 -117 -183 0
27 -44 -227 0
27 37 210 0
27 65 187 0
27 128 129 0
28 -211 -214 0
28 -138 236 0
28 -115 139 0
28 112 -126 0
29 -51 268 0
29 60 -113 0
29 159 260 0
30 -135 -199 0
30 -117 283 0
30 -84 91 0
30 -55 -210 0
31 -161 234 0
31 -80 -108 0
31 37 -95 0
31 66 -200 0
32 -195 -231 0
32 -77 -194 0
32 35 271 0
32 94 -142 0
32 136 194 0
32 206 300 0
33 -241 279 0
33 -198 -205 0
33 -171 -174 0
33 -80 -140 0
33 -64 223 0
33 46 -226 0
34 -97 -140 0
34 -50 200 0
34 170 -223 0
35 -288 296 0
35 110 131 0
35 213 286 0
36 -65 -190 0
36 -55 72 0
36 -38 -240 0
36 184 -281 0
37 -132 133 0
37 73 152 0
37 90 232 0
37 106 198 0
37 122 287 0
37 130 245 0
37 208 254 0
38 -261 -291 0
38 -238 239 0
38 -104 -107 0
38 -101 -238 0
38 -75 -118 0
38 72 130 0
38 189 -257 0
39 -259 283 0
39 -87 185 0
39 76 -204 0
39 99 212 0
39 215 -237 0
40 -89 206 0
40 99 -295 0
40 108 191 0
40 140 -231 0
41 -198 222 0
41 120 -204 0
41 167 201 0
42 -192 -256 0
42 -126 197 0
42 -86 152 0
42 47 128 0
42 48 227 0
42 56 286 0
42 57 284 0
42 64 -69 0
42 149 211 0
43 46 -48 0
43 71 -131 0
43 89 -191 0
44 -263 276 0
44 -136 -291 0
44 -61 -144 0
44 67 223 0
44 212 249 0
44 217 234 0
45 -81 -264 0
45 -75 262 0
45 -60 283 0
45 65 -238 0
45 71 -253 0
45 86 -150 0
45 169 -206 0
46 -181 -292 0
46 -154 -245 0
46 -129 -153 0
46 -72 124 0
46 153 285 0
46 192 277 0
47 -228 231 0
47 -114 204 0
47 -95 151 0
47 -64 103 0
47 67 -210 0
47 111 -118 0
47 112 -239 0
47 116 -235 0
47 116 -153 0
47 195 294 0
47 225 298 0
48 -118 -163 0
48 85 -199 0
48 172 -248 0
48 217 292 0
49 -73 -89 0
50 -134 191 0
50 83 184 0
50 109 130 0
50 111 -285 0
50 122 -215 0
51 -126 -290 0
51 -110 227 0
51 -81 -152 0
51 -52 231 0
51 189 269 0
52 -232 259 0
52 57 -278 0
52 66 -113 0
52 99 -292 0
53 -199 -275 0
53 -167 -242 0
53 -165 -263 0
53 -144 203 0
53 -88 252 0
54 -93 144 0
55 -101 -213 0
55 147 -233 0
56 -82 -106 0
56 116 -291 0
56 151 237 0
56 191 204 0
57 -219 -251 0
57 -133 293 0
57 -115 -289 0
57 69 -227 0
57 83 -271 0
57 91 -261 0
57 135 -267 0
57 205 255 0
58 -142 -158 0
58 -85 -123 0
58 -69 -119 0
58 77 154 0
58 248 -273 0
59 -122 -186 0
59 -107 178 0
59 109 -207 0
59 130 -229 0
59 202 270 0
60 -135 -198 0
60 68 -119 0
60 147 176 0
60 157 246 0
61 -261 279 0
61 -105 -132 0
61 -96 -131 0
61 -89 144 0
62 -143 -193 0
62 -132 258 0
62 70 161 0
62 120 -199 0
62 186 -290 0
63 -89 -250 0
63 89 -225 0
63 130 -187 0
63 204 283 0
64 -171 212 0
64 -124 262 0
64 -110 228 0
64 178 -239 0
65 -114 -153 0
65 -86 -157 0
65 -80 210 0
65 108 -264 0
65 193 215 0
65 200 -242 0
66 86 -213 0
66 130 272 0
66 165 -207 0
67 -224 -268 0
68 94 126 0
68 102 166 0
69 -238 -274 0
69 -186 217 0
69 -123 300 0
69 -122 170 0
69 107 183 0
69 224 269 0
70 -194 -267 0
70 -143 -262 0
70 -99 -226 0
70 135 -235 0
70 164 -186 0
71 76 -234 0
71 161 174 0
71 196 240 0
71 216 278 0
72 -133 152 0
72 203 -249 0
73 -132 -257 0
73 82 89 0
73 95 -224 0
73 118 191 0
73 125 285 0
73 178 189 0
73 238 291 0
74 -154 -210 0
74 -82 94 0
74 -76 -107 0
74 127 -185 0
74 156 167 0
76 132 -280 0
76 153 244 0
76 193 239 0
77 -150 -200 0
77 -149 158 0
77 160 205 0
77 235 270 0
77 235 294 0
78 200 -283 0
79 -136 268 0
79 -97 -173 0
79 96 -101 0
79 123 -238 0
80 -263 266 0
80 -226 258 0
80 -154 222 0
80 -120 265 0
81 -243 280 0
81 -241 264 0
81 -151 -220 0
81 -106 170 0
81 115 130 0
81 120 -184 0
81 135 259 0
81 170 -178 0
83 -162 173 0
83 109 -290 0
83 120 172 0
84 -88 -292 0
84 221 291 0
85 -145 -180 0
85 -89 -100 0
85 98 -300 0
85 140 149 0
86 -177 279 0
86 96 -292 0
87 -110 300 0
87 154 -167 0
87 195 232 0
88 178 -244 0
89 -260 262 0
90 -274 -299 0
90 -171 208 0
90 207 -257 0
91 -266 -290 0
91 -220 -295 0
91 -185 -290 0
91 -155 -226 0
91 178 297 0
92 -255 288 0
92 -239 -241 0
92 -228 276 0
92 -119 -194 0
92 224 246 0
93 121 -266 0
93 124 -223 0
93 170 -242 0
93 210 -270 0
94 107 -143 0
94 222 293 0
94 247 -292 0
95 99 -171 0
95 164 -280 0
95 196 296 0
96 -111 -116 0
96 141 156 0
96 167 -245 0
97 -180 188 0
97 -164 206 0
97 -152 286 0
97 -117 223 0
98 -145 -195 0
98 292 297 0
99 105 192 0
100 -137 -180 0
100 -131 132 0
100 -117 -231 0
100 -112 -194 0
100 117 -192 0
100 117 268 0
101 -141 265 0
101 -138 -141 0
101 -113 -300 0
101 106 135 0
101 118 -200 0
101 148 182 0
102 -183 -272 0
102 -153 -286 0
102 -109 296 0
102 157 247 0
103 -160 175 0
103 156 -282 0
103 162 -247 0
104 -227 -252 0
106 -218 280 0
106 -193 -202 0
106 224 -292 0
107 -155 168 0
107 119 -166 0
107 196 290 0
107 212 263 0
108 -273 -274 0
108 -133 -291 0
108 174 -243 0
108 254 297 0
109 -228 -252 0
109 171 243 0
110 -277 287 0
110 149 266 0
110 212 293 0
110 257 297 0
111 -133 -271 0
111 -117 271 0
111 175 -272 0
111 181 -269 0
112 -262 -267 0
112 -242 -285 0
112 -151 -242 0
112 -144 164 0
112 -140 -211 0
112 162 274 0
113 -189 -253 0
114 -153 -289 0
114 -153 -226 0
115 -162 -239 0
115 -136 170 0
115 129 261 0
115 138 -149 0
116 -138 148 0
116 -126 176 0
116 148 249 0
117 -179 243 0
117 287 -296 0
119 158 189 0
119 185 286 0
119 253 -263 0
120 272 291 0
121 -216 243 0
121 -135 -174 0
121 -124 -276 0
121 122 -136 0
121 229 -282 0
122 -169 -285 0
122 216 232 0
123 -234 250 0
123 -220 -228 0
123 131 -182 0
123 178 -235 0
123 178 -186 0
124 -164 -247 0
124 133 225 0
125 135 -194 0
126 135 162 0
127 -194 -222 0
127 -182 193 0
127 -169 252 0
127 147 -252 0
127 181 224 0
127 182 -190 0
127 198 -297 0
127 220 247 0
129 -220 298 0
129 176 284 0
133 -210 -271 0
133 142 240 0
133 161 -251 0
134 -136 242 0
136 -263 -297 0
136 -147 254 0
136 199 -240 0
137 -257 -287 0
137 -170 -233 0
137 217 -229 0
138 -219 241 0
138 -163 227 0
139 -143 -210 0
139 145 231 0
139 169 -295 0
139 180 238 0
140 155 -294 0
141 -234 -265 0
141 167 198 0
141 213 -218 0
142 278 -279 0
143 -200 -244 0
143 151 205 0
143 184 -213 0
145 -178 -241 0
146 185 -297 0
147 181 184 0
148 163 -276 0
148 209 -262 0
149 172 -182 0
150 -218 278 0
150 216 300 0
151 180 -215 0
152 206 239 0
153 276 -281 0
154 -184 -189 0
154 261 -297 0
156 196 -292 0
156 201 240 0
157 177 204 0
157 183 227 0
158 183 -272 0
159 162 -230 0
160 227 -248 0
160 270 284 0
161 -178 -204 0
162 -197 253 0
162 283 292 0
163 174 284 0
167 -273 -287 0
167 197 -228 0
167 274 -280 0
168 182 -234 0
170 238 -250 0
171 -187 -261 0
171 -176 -255 0
171 195 234 0
172 213 -263 0
172 235 259 0
172 256 -275 0
173 -208 279 0
176 -292 294 0
176 -219 -235 0
179 -228 288 0
179 -196 -246 0
179 224 252 0
179 237 293 0
180 202 -227 0
180 204 -257 0
182 207 -255 0
183 -219 236 0
183 185 -277 0
184 189 -245 0
185 -211 -299 0
186 -189 -199 0
186 205 -285 0
188 193 -254 0
191 -237 -270 0
195 253 255 0
196 -238 262 0
198 200 -233 0
199 -202 287 0
200 205 -300 0
200 266 -289 0
201 219 -228 0
201 231 263 0
201 260 -296 0
202 -227 -235 0
204 -247 -276 0
205 -206 -216 0
205 221 -253 0
207 214 221 0
209 -253 -282 0
211 -226 -277 0
211 -220 -253 0
212 259 -261 0
213 261 297 0
213 277 -296 0
214 -229 289 0
215 -256 285 0
218 243 -285 0
218 272 289 0
219 -278 280 0
219 -276 287 0
221 -235 247 0
222 -223 235 0
223 276 -289 0
229 -238 258 0
230 238 239 0
235 237 289 0
236 -262 -267 0
240 -275 -278 0
240 251 277 0
248 279 -285 0
