p cnf 120 510
-111 113 -117 0
-100 -107 -120 0
-98 -104 -107 0
-95 -104 -108 0
-94 -104 112 0
-93 -95 99 0
-93 97 106 0
-88 -113 114 0
-84 -88 106 0
-83 -104 114 0
-83 86 -97 0
-82 -103 -109 0
-81 -100 118 0
-81 -99 117 0
-79 -85 -101 0
-77 90 107 0
-76 85 -116 0
-74 -87 -106 0
-74 99 -102 0
-73 -104 113 0
-72 87 99 0
-72 88 117 0
-70 107 -115 0
-69 92 -98 0
-67 -78 104 0
-67 86 91 0
-66 67 100 0
-65 -74 98 0
-65 -67 74 0
-64 71 76 0
-63 -112 -120 0
-62 -65 -78 0
-62 68 88 0
-61 -95 107 0
-61 -91 94 0
-61 -80 107 0
-60 -61 109 0
-60 76 -109 0
-60 110 -111 0
-59 -83 -85 0
-58 64 115 0
-57 -62 82 0
-57 116 117 0
-55 56 -102 0
-55 79 113 0
-54 81 112 0
-54 88 113 0
-54 100 -111 0
-53 -96 116 0
-53 -54 68 0
-52 63 113 0
-52 92 -103 0
-51 -72 -100 0
-51 -63 -119 0
-51 -55 116 0
-51 85 102 0
-50 56 100 0
-49 -87 91 0
-48 79 -111 0
-48 88 -112 0
-48 97 119 0
-47 -63 103 0
-47 66 -104 0
-46 -51 82 0
-46 -48 117 0
-46 75 -89 0
-46 93 -120 0
-45 -47 -53 0
-44 -71 -74 0
-44 -68 -71 0
-42 -88 107 0
-42 98 118 0
-41 -66 -119 0
-40 -68 -79 0
-40 -51 -100 0
-40 61 93 0
-40 65 70 0
-39 -86 -111 0
-39 -65 66 0
-38 77 -111 0
-37 -43 -83 0
-37 45 49 0
-37 52 -104 0
-37 63 92 0
-36 -44 -98 0
-36 -37 -54 0
-36 60 -113 0
-36 62 111 0
-36 104 -110 0
-35 -88 -89 0
-35 -46 99 0
-35 38 -70 0
-34 -87 107 0
-34 -77 115 0
-34 -40 -77 0
-34 44 70 0
-34 92 -120 0
-34 93 118 0
-34 101 -112 0
-33 36 -88 0
-33 36 101 0
-33 55 -102 0
-33 96 100 0
-32 -94 114 0
-32 33 -51 0
-32 37 -111 0
-32 44 74 0
-32 55 71 0
-32 83 110 0
-31 -48 -91 0
-31 45 -74 0
-31 62 -99 0
-31 82 84 0
-31 87 88 0
-30 66 114 0
-29 -59 97 0
-29 -50 118 0
-29 49 84 0
-29 93 102 0
-29 101 119 0
-28 -69 106 0
-28 29 58 0
-28 37 -97 0
-27 -58 -111 0
-27 -58 71 0
-26 -61 104 0
-25 -75 89 0
-24 -64 109 0
-24 28 33 0
-23 -68 -112 0
-23 -55 75 0
-23 -37 66 0
-23 26 66 0
-22 -92 108 0
-22 41 -103 0
-22 60 71 0
-22 66 102 0
-22 96 -111 0
-21 -53 110 0
-21 29 107 0
-21 43 -114 0
-21 56 118 0
-20 -80 -91 0
-20 -75 -79 0
-20 -31 72 0
-20 -22 -74 0
-20 38 93 0
-20 67 -114 0
-20 75 -115 0
-20 82 -104 0
-20 106 -111 0
-19 -90 100 0
-19 -64 -108 0
-18 60 77 0
-18 79 106 0
-17 -53 -81 0
-17 -43 -78 0
-17 69 112 0
-16 -77 -91 0
-16 -39 -59 0
-16 -36 -106 0
-16 -20 118 0
-16 35 85 0
-16 64 93 0
-16 102 -114 0
-15 -80 107 0
-15 21 -23 0
-15 23 83 0
-15 26 -85 0
-15 32 101 0
-15 102 117 0
-14 -64 -79 0
-14 -50 88 0
-14 15 63 0
-14 39 84 0
-14 62 -75 0
-14 86 104 0
-13 -24 119 0
-13 20 -70 0
-13 94 116 0
-12 -100 -113 0
-12 -72 -73 0
-12 -49 -85 0
-12 -32 -38 0
-12 23 -85 0
-12 27 55 0
-12 43 72 0
-12 56 -86 0
-12 68 -78 0
-12 109 -119 0
-11 -53 -109 0
-11 -23 -112 0
-11 33 -82 0
-10 15 -40 0
-10 25 -109 0
-10 91 -96 0
-9 -31 -77 0
-9 -20 -107 0
-9 -12 92 0
-9 22 118 0
-9 27 93 0
-9 93 99 0
-8 -85 -87 0
-8 -44 81 0
-8 26 56 0
-8 28 -43 0
-8 102 -105 0
-7 -78 -102 0
-7 -60 104 0
-7 -50 -85 0
-7 -34 40 0
-7 -33 -62 0
-7 -19 110 0
-7 26 -35 0
-7 29 -66 0
-7 45 -106 0
-7 64 -73 0
-7 84 92 0
-6 -67 118 0
-6 -63 81 0
-6 -29 59 0
-6 12 -48 0
-6 46 -116 0
-5 -13 -84 0
-5 -13 -49 0
-5 -11 56 0
-5 -8 -96 0
-5 11 -118 0
-5 15 -118 0
-5 25 -99 0
-5 41 -106 0
-5 63 -92 0
-4 55 -107 0
-3 -63 -69 0
-3 -61 -75 0
-3 -51 80 0
-3 -16 20 0
-3 -9 -84 0
-3 15 -32 0
-3 58 63 0
-3 92 115 0
-2 -14 111 0
-2 -4 61 0
-2 5 11 0
-1 -61 62 0
-1 -35 56 0
-1 -7 -34 0
-1 54 119 0
-1 61 115 0
-1 77 -100 0
-1 86 91 0
1 -24 -78 0
1 15 -92 0
1 25 -37 0
1 36 68 0
1 58 77 0
2 -11 -70 0
2 44 74 0
2 46 104 0
3 -71 -118 0
3 40 43 0
3 45 97 0
3 49 102 0
3 72 -109 0
4 -22 82 0
5 -86 -90 0
5 -77 115 0
5 -73 -105 0
5 -55 116 0
5 -54 -96 0
5 -27 -63 0
5 -27 109 0
5 -16 30 0
5 15 -97 0
5 43 -57 0
5 45 -92 0
5 83 86 0
6 -63 89 0
6 12 -83 0
6 35 -57 0
6 36 -85 0
6 85 -120 0
7 -104 105 0
7 -50 80 0
7 -28 69 0
7 38 -106 0
7 45 103 0
7 106 -107 0
8 -71 -75 0
8 -52 -82 0
8 -46 102 0
9 -66 -115 0
9 -65 -120 0
9 -14 -46 0
9 32 -105 0
9 34 -41 0
9 65 116 0
10 -95 -96 0
10 15 -76 0
10 37 100 0
11 -103 -116 0
11 -52 54 0
11 -17 105 0
11 20 -106 0
12 26 43 0
12 48 -109 0
12 58 -116 0
12 61 -105 0
13 -50 109 0
13 -40 -66 0
13 -34 87 0
13 15 83 0
13 18 55 0
13 58 -102 0
13 77 108 0
13 96 110 0
14 -96 -118 0
14 -78 83 0
14 30 84 0
14 41 -97 0
15 -69 75 0
15 -20 -36 0
15 29 40 0
16 -65 -93 0
16 -24 97 0
16 -22 -65 0
16 41 -74 0
16 41 90 0
16 53 -111 0
16 95 -97 0
17 -90 -94 0
17 -75 -93 0
17 -64 -116 0
17 -37 87 0
17 23 -109 0
17 23 28 0
17 24 -96 0
17 84 98 0
18 -68 73 0
18 38 57 0
18 92 -116 0
19 -45 -71 0
19 26 -120 0
19 33 -42 0
19 68 -70 0
19 102 -113 0
20 -95 109 0
20 -79 -117 0
20 -33 -41 0
20 24 61 0
20 43 49 0
20 46 -112 0
20 48 74 0
20 70 -113 0
20 77 -79 0
20 85 116 0
21 37 97 0
22 -28 37 0
22 31 -100 0
22 53 70 0
23 -106 111 0
24 -60 -102 0
24 -59 -77 0
24 -51 -95 0
24 -33 92 0
24 39 -95 0
24 47 99 0
24 76 -81 0
25 -82 -84 0
25 -68 70 0
25 33 42 0
25 54 93 0
27 -43 -48 0
27 -34 -51 0
27 58 -98 0
27 77 83 0
28 -82 83 0
28 -61 -102 0
28 -38 -40 0
28 48 -105 0
28 55 -85 0
28 58 60 0
28 63 -101 0
28 86 104 0
29 -118 -119 0
30 -43 76 0
30 68 84 0
30 72 -90 0
31 -101 -110 0
31 -65 -76 0
31 -45 106 0
31 -33 77 0
31 43 -73 0
31 69 97 0
32 -111 -112 0
32 -74 113 0
32 -74 118 0
32 -59 -96 0
32 -52 106 0
32 57 -118 0
32 79 120 0
32 85 -104 0
32 85 91 0
33 -94 112 0
33 -77 -81 0
33 83 84 0
33 92 -117 0
34 -86 111 0
34 -85 110 0
34 -51 66 0
34 -45 -90 0
34 39 -99 0
34 48 -105 0
34 57 -113 0
34 62 111 0
35 -115 119 0
35 -55 -65 0
35 55 -112 0
36 -89 102 0
36 -40 -117 0
37 77 96 0
37 82 -89 0
37 85 -101 0
38 -66 86 0
38 -62 -106 0
38 -41 96 0
38 98 -116 0
39 -101 -117 0
39 -87 -115 0
39 -62 114 0
39 -54 -86 0
39 50 -52 0
39 55 -78 0
39 101 -119 0
40 -64 82 0
40 72 84 0
41 44 57 0
41 46 69 0
42 -89 118 0
42 -49 64 0
42 -48 -115 0
42 45 113 0
43 -52 -117 0
45 48 99 0
45 51 -113 0
45 57 116 0
46 -86 -118 0
46 -77 -116 0
46 56 -73 0
46 66 112 0
47 55 105 0
48 -108 -109 0
48 -73 101 0
48 -64 -65 0
48 -60 -83 0
48 -57 61 0
48 50 108 0
48 60 99 0
49 -58 -94 0
49 55 -91 0
50 71 97 0
50 75 -113 0
50 79 -99 0
51 62 100 0
51 114 119 0
52 -103 -113 0
53 -83 -85 0
53 92 -116 0
54 -88 93 0
54 91 -104 0
55 79 84 0
57 -92 -114 0
57 77 -80 0
58 -87 106 0
58 -79 -89 0
58 64 -69 0
60 86 -104 0
60 89 -103 0
61 84 -100 0
62 -97 98 0
62 68 81 0
63 80 -120 0
64 -75 104 0
65 -97 -104 0
65 -67 -99 0
65 95 -105 0
66 -109 115 0
66 -72 120 0
67 75 -94 0
68 70 78 0
69 -83 90 0
70 -87 95 0
72 -101 110 0
72 82 -102 0
75 -85 120 0
76 -81 -106 0
79 -91 117 0
79 94 -119 0
80 81 116 0
81 -91 -92 0
84 -90 -115 0
85 -88 -90 0
88 -91 -100 0
89 98 119 0
89 100 -102 0
90 93 -100 0
95 100 108 0
95 113 -120 0
105 107 117 0
107 110 -119 0
