p cnf 120 510
-95 -101 107 0
-91 93 -105 0
-91 93 -96 0
-86 93 -101 0
-84 -97 -118 0
-82 -83 -93 0
-80 82 -101 0
-77 -93 -111 0
-76 -103 -112 0
-73 98 112 0
-72 -77 82 0
-72 75 -119 0
-72 80 -90 0
-72 110 -120 0
-70 -100 115 0
-69 -88 93 0
-69 76 -95 0
-68 -69 100 0
-68 83 86 0
-67 75 -112 0
-65 80 100 0
-64 -75 -82 0
-64 93 95 0
-63 70 -102 0
-62 -76 94 0
-62 93 -96 0
-61 -82 -107 0
-61 70 101 0
-60 -81 99 0
-59 61 -92 0
-59 73 -98 0
-58 -64 87 0
-58 71 -106 0
-58 76 -119 0
-57 -72 120 0
-57 72 -79 0
-56 -63 81 0
-56 83 -103 0
-56 90 -112 0
-55 -71 -81 0
-54 -76 118 0
-54 -68 -111 0
-54 -55 97 0
-54 70 -82 0
-53 -73 117 0
-53 -58 87 0
-53 -57 59 0
-52 -60 -76 0
-52 86 105 0
-52 90 -101 0
-50 52 79 0
-50 56 69 0
-50 77 80 0
-49 -84 112 0
-49 -74 -113 0
-49 -64 101 0
-49 -52 93 0
-49 52 104 0
-49 70 -77 0
-48 -83 -120 0
-48 51 92 0
-47 -54 -76 0
-47 88 106 0
-46 47 -89 0
-46 101 106 0
-45 -77 -84 0
-45 53 66 0
-44 68 103 0
-42 51 64 0
-41 -53 54 0
-41 56 -87 0
-41 69 -84 0
-41 88 -101 0
-40 56 -79 0
-40 59 -111 0
-39 -93 -110 0
-39 74 116 0
-39 84 -89 0
-38 79 -105 0
-37 -51 119 0
-37 41 54 0
-37 50 61 0
-37 71 118 0
-37 80 101 0
-36 -74 106 0
-36 -50 -54 0
-36 -39 68 0
-36 41 112 0
-36 43 87 0
-36 75 81 0
-35 -108 -114 0
-35 -39 63 0
-35 45 70 0
-35 52 71 0
-35 78 113 0
-35 80 -118 0
-34 -52 -120 0
-34 -40 119 0
-33 -83 -96 0
-33 -41 -75 0
-33 40 -70 0
-33 44 47 0
-33 56 103 0
-33 69 -111 0
-33 89 -91 0
-32 -55 113 0
-32 37 -106 0
-32 98 -104 0
-31 -91 99 0
-31 -55 -74 0
-31 32 -51 0
-31 43 -44 0
-31 46 104 0
-31 66 111 0
-31 79 -120 0
-30 91 -109 0
-29 -74 94 0
-29 -66 -69 0
-29 43 -113 0
-29 79 -87 0
-28 -108 -110 0
-28 -92 -120 0
-28 -92 -97 0
-28 40 -60 0
-27 -61 96 0
-27 -50 -111 0
-27 -45 -98 0
-27 -44 58 0
-27 31 76 0
-27 32 -105 0
-27 49 80 0
-26 -83 -103 0
-26 -61 -91 0
-26 -38 71 0
-26 39 106 0
-26 60 -92 0
-26 66 -78 0
-25 -103 -106 0
-25 45 62 0
-25 82 -87 0
-25 90 107 0
-24 -74 -76 0
-24 -25 69 0
-24 37 104 0
-24 43 111 0
-24 59 -73 0
-24 74 96 0
-23 -37 -102 0
-23 60 -63 0
-23 78 -107 0
-22 -89 100 0
-22 -61 62 0
-22 28 120 0
-22 44 92 0
-21 -22 -54 0
-20 -45 -61 0
-20 26 62 0
-20 34 -99 0
-20 46 106 0
-20 70 -110 0
-19 -56 68 0
-19 -51 67 0
-19 -48 85 0
-19 -41 103 0
-19 -22 35 0
-19 -21 64 0
-19 22 -84 0
-19 34 -83 0
-19 111 -114 0
-18 43 59 0
-18 73 93 0
-18 81 -100 0
-17 34 75 0
-17 49 -95 0
-16 -69 108 0
-16 -31 44 0
-16 32 70 0
-16 64 75 0
-16 85 111 0
-16 108 112 0
-15 -76 -117 0
-15 -39 100 0
-15 -35 -81 0
-15 20 95 0
-15 41 -51 0
-15 53 54 0
-14 -59 87 0
-14 -19 -90 0
-14 19 49 0
-14 43 -54 0
-14 90 -114 0
-13 -46 92 0
-13 -19 -46 0
-12 -104 -107 0
-12 -60 -85 0
-12 -59 62 0
-12 -47 -104 0
-12 45 -70 0
-12 78 -79 0
-11 -39 -105 0
-11 -37 41 0
-10 -37 78 0
-10 33 -85 0
-9 -40 -71 0
-9 -18 67 0
-9 58 -85 0
-9 97 -114 0
-8 -45 102 0
-8 -39 80 0
-8 -9 -17 0
-7 -90 -117 0
-7 -61 83 0
-7 -34 -108 0
-7 -33 -64 0
-7 12 65 0
-7 29 76 0
-7 31 -100 0
-7 38 106 0
-7 59 -83 0
-6 -97 -103 0
-6 -80 104 0
-6 -56 108 0
-6 -49 -64 0
-6 -27 -111 0
-6 -21 99 0
-6 -10 62 0
-6 38 91 0
-6 72 86 0
-5 -84 -118 0
-5 -12 43 0
-5 -9 -37 0
-5 16 -23 0
-5 30 -86 0
-4 -80 -98 0
-4 -16 83 0
-4 21 85 0
-4 49 82 0
-3 -55 -72 0
-3 -16 -74 0
-3 21 -34 0
-3 23 -115 0
-3 69 97 0
-3 90 100 0
-2 -95 111 0
-2 -11 -106 0
-2 67 -74 0
-1 -39 72 0
-1 3 110 0
-1 4 25 0
-1 7 105 0
-1 12 62 0
-1 14 -15 0
-1 35 -99 0
1 -73 -117 0
1 -41 98 0
1 7 -32 0
1 17 61 0
1 18 35 0
1 20 75 0
1 24 92 0
1 34 -38 0
2 -86 97 0
2 -77 94 0
2 -17 -92 0
2 16 -88 0
2 31 -68 0
3 -91 -113 0
3 -75 -79 0
3 -25 -26 0
3 19 -108 0
3 19 49 0
3 27 111 0
3 40 97 0
4 -48 -102 0
4 -12 -34 0
4 7 -120 0
4 7 95 0
4 20 87 0
4 28 115 0
5 -71 116 0
5 -63 114 0
5 -58 -102 0
5 -34 83 0
5 -12 -59 0
5 12 -30 0
6 -49 -74 0
6 23 -106 0
6 50 107 0
6 61 81 0
6 62 73 0
7 -48 -72 0
7 -38 -72 0
7 9 -19 0
8 32 79 0
8 44 116 0
9 -58 70 0
9 -15 -76 0
9 48 86 0
10 -85 -105 0
10 35 111 0
10 62 -119 0
11 -48 -70 0
11 24 41 0
11 64 104 0
11 105 111 0
12 -85 -114 0
12 -64 101 0
12 -44 58 0
12 -36 -116 0
12 -14 -95 0
12 -13 -45 0
12 -13 37 0
12 14 15 0
12 17 -70 0
12 81 -115 0
13 -41 -81 0
13 -27 -49 0
13 15 64 0
13 38 -82 0
13 44 -54 0
13 46 -110 0
14 -39 51 0
14 -25 39 0
14 21 -80 0
14 33 -113 0
14 33 -57 0
14 39 99 0
15 -62 118 0
15 -23 99 0
15 -22 67 0
15 16 107 0
15 25 -55 0
15 62 104 0
16 -56 70 0
16 -40 -64 0
16 -32 99 0
16 -22 -27 0
16 78 88 0
16 84 -89 0
17 -75 -120 0
17 -35 47 0
17 -34 -74 0
17 27 -68 0
17 41 79 0
17 58 115 0
17 68 88 0
17 74 102 0
18 -62 -118 0
19 -34 118 0
19 -25 -30 0
20 -71 84 0
20 74 -99 0
21 -58 110 0
21 -34 74 0
21 -29 -86 0
21 38 -83 0
21 42 115 0
22 -85 -117 0
22 -62 112 0
22 -59 115 0
22 -39 76 0
22 33 76 0
22 34 -63 0
22 59 -120 0
22 68 -120 0
22 77 103 0
22 82 -116 0
23 -75 107 0
23 -48 109 0
23 -39 -83 0
23 -31 50 0
23 -27 -87 0
23 35 -66 0
24 -79 103 0
24 -63 90 0
24 26 -68 0
25 -59 -85 0
25 65 107 0
26 -83 -101 0
26 -76 77 0
26 -66 -87 0
26 -44 -118 0
26 57 -89 0
27 98 100 0
28 -49 86 0
28 30 120 0
29 -44 -72 0
29 44 -84 0
29 53 -115 0
29 98 -101 0
30 39 87 0
31 -66 108 0
31 -60 -116 0
31 -48 80 0
31 38 -73 0
31 47 61 0
31 56 -62 0
31 60 -87 0
32 -64 -117 0
32 -40 119 0
32 71 -85 0
32 83 91 0
32 90 -105 0
33 -47 -52 0
33 -39 114 0
34 -69 -107 0
34 -42 103 0
34 46 -52 0
34 74 -93 0
35 48 -99 0
35 64 85 0
35 76 -112 0
36 42 -97 0
37 -54 -98 0
37 -51 -91 0
37 83 -105 0
38 -77 -87 0
38 -69 114 0
38 -49 59 0
38 78 114 0
38 79 -82 0
38 95 -111 0
39 -91 -94 0
39 -67 -108 0
39 -55 -57 0
39 -51 -74 0
40 -45 -53 0
40 58 96 0
40 84 -114 0
41 -72 -106 0
41 49 -116 0
41 51 79 0
41 83 120 0
41 91 -115 0
41 99 -116 0
42 -58 70 0
42 44 104 0
43 -60 94 0
44 -93 -109 0
44 -76 99 0
44 -55 90 0
44 103 107 0
45 -77 96 0
45 -63 68 0
45 46 -61 0
45 99 -112 0
46 -66 -103 0
46 51 99 0
46 54 -58 0
46 64 113 0
46 73 -99 0
47 -73 107 0
47 81 83 0
48 59 -82 0
48 75 -111 0
49 -79 90 0
49 -68 115 0
49 67 -76 0
50 -75 -83 0
50 -54 81 0
50 65 -95 0
50 67 -112 0
51 -68 -108 0
51 66 -102 0
52 69 -75 0
53 -76 108 0
53 76 -77 0
54 81 94 0
54 91 -116 0
55 86 97 0
56 58 -115 0
56 93 116 0
57 -83 -100 0
57 -80 111 0
58 72 82 0
58 76 83 0
58 89 -104 0
59 -88 110 0
59 -66 88 0
62 -83 -108 0
62 -70 113 0
63 -68 -102 0
64 -111 -113 0
64 -96 115 0
64 83 -103 0
65 -81 119 0
65 97 107 0
66 98 110 0
67 85 104 0
67 93 -98 0
68 -77 105 0
68 69 -114 0
70 -74 107 0
71 -89 -95 0
71 99 118 0
71 107 110 0
72 105 -116 0
73 -74 -80 0
78 86 -97 0
80 84 87 0
80 94 -118 0
83 -86 -104 0
83 -84 87 0
89 -98 103 0
90 -98 112 0
91 101 -113 0
91 107 -111 0
92 -106 119 0
97 108 113 0
98 -113 114 0
