p cnf 100 360
-79 -81 96 0
-78 -82 -100 0
-78 81 -90 0
-69 71 79 0
-68 -89 -97 0
-67 -81 93 0
-65 66 -80 0
-63 75 -86 0
-61 65 -91 0
-61 77 85 0
-59 61 99 0
-58 -88 100 0
-58 64 -88 0
-56 -60 87 0
-56 64 91 0
-53 75 100 0
-52 -69 -77 0
-52 -60 -70 0
-50 53 99 0
-50 55 -83 0
-50 56 67 0
-49 -70 -89 0
-49 60 63 0
-48 80 93 0
-46 -70 -87 0
-46 47 -72 0
-45 -58 97 0
-44 58 -75 0
-43 -61 -88 0
-43 64 83 0
-43 69 75 0
-42 -48 70 0
-42 46 97 0
-42 62 -83 0
-42 65 92 0
-41 -82 -86 0
-41 47 81 0
-40 56 -94 0
-39 -55 93 0
-39 -44 -45 0
-38 -45 -98 0
-37 -49 -98 0
-37 45 -79 0
-36 -47 -94 0
-36 -44 -62 0
-36 56 92 0
-35 -83 -87 0
-35 -62 -69 0
-35 -56 93 0
-35 -37 65 0
-35 57 67 0
-34 -55 56 0
-34 -43 -56 0
-33 -42 -47 0
-33 34 72 0
-33 37 -81 0
-33 95 -96 0
-32 -62 81 0
-32 41 -77 0
-31 -67 84 0
-31 33 69 0
-30 -48 -90 0
-30 -38 -65 0
-30 38 78 0
-29 -84 91 0
-29 31 83 0
-28 33 90 0
-27 -36 -90 0
-27 52 -87 0
-27 52 -57 0
-26 27 -75 0
-26 29 -39 0
-25 -31 -93 0
-25 -26 -32 0
-25 -26 79 0
-25 37 -86 0
-25 76 94 0
-24 -81 -83 0
-22 -61 71 0
-22 -41 87 0
-22 -36 -83 0
-22 -27 -55 0
-22 41 -63 0
-22 63 81 0
-21 -50 -69 0
-21 -40 86 0
-21 -38 72 0
-21 -31 45 0
-20 -65 80 0
-20 -55 -57 0
-20 -32 -42 0
-19 -73 -89 0
-19 -21 97 0
-19 74 -85 0
-18 -63 -73 0
-18 -50 -88 0
-18 -19 -43 0
-17 -43 -69 0
-17 -20 -95 0
-17 22 -100 0
-17 26 -86 0
-17 44 -92 0
-16 -81 -87 0
-16 -65 73 0
-16 -34 88 0
-16 -30 68 0
-16 -17 33 0
-16 23 -76 0
-16 29 -85 0
-16 34 -65 0
-16 52 85 0
-15 -90 99 0
-15 25 87 0
-15 39 -62 0
-15 49 79 0
-14 -67 -92 0
-14 -17 -94 0
-14 30 60 0
-14 57 -62 0
-13 -64 81 0
-13 -48 70 0
-13 -42 90 0
-13 -28 67 0
-13 -24 27 0
-13 17 -54 0
-13 37 -85 0
-13 72 73 0
-12 -51 -57 0
-12 -50 -51 0
-12 -26 -33 0
-12 27 -69 0
-12 52 -58 0
-11 -74 -100 0
-11 -43 88 0
-11 29 62 0
-10 -63 -91 0
-10 -54 -58 0
-10 -44 77 0
-10 -37 75 0
-10 -24 82 0
-10 -12 -92 0
-10 35 -67 0
-9 -41 -63 0
-9 -24 97 0
-9 16 96 0
-9 32 -89 0
-9 62 65 0
-8 -45 -79 0
-8 -37 77 0
-8 -21 36 0
-8 39 100 0
-8 46 -63 0
-8 52 56 0
-7 -35 -90 0
-7 -26 -88 0
-7 45 -47 0
-6 -32 -80 0
-6 -18 83 0
-6 -15 -52 0
-6 9 -68 0
-5 28 68 0
-5 73 82 0
-4 -84 -88 0
-4 -46 -48 0
-4 12 -91 0
-4 27 -87 0
-3 -89 -99 0
-3 -54 55 0
-3 -46 60 0
-2 -73 85 0
-2 -44 -64 0
-2 -36 87 0
-2 -25 -96 0
-2 -13 61 0
-2 -5 33 0
-1 -50 -78 0
-1 11 48 0
-1 41 91 0
-1 56 -88 0
-1 60 67 0
1 -44 -87 0
1 -43 -78 0
1 -23 -82 0
1 -4 -24 0
1 8 81 0
1 17 -97 0
1 23 -38 0
1 33 -72 0
2 -32 73 0
2 -27 -61 0
2 -24 39 0
2 -7 -93 0
2 14 45 0
2 23 -38 0
2 40 60 0
2 52 -55 0
3 -56 95 0
3 -25 66 0
3 -17 -39 0
3 -4 -17 0
3 8 -73 0
3 27 -56 0
4 -83 -84 0
4 -74 -100 0
4 -57 92 0
4 -43 97 0
4 -27 -43 0
4 -6 -49 0
4 42 -74 0
4 55 -79 0
4 59 -73 0
5 -46 -48 0
5 30 75 0
6 -76 90 0
6 -74 77 0
6 -58 86 0
6 -37 -72 0
6 -25 -94 0
6 -14 -99 0
6 8 -10 0
6 9 -28 0
6 13 60 0
6 41 -95 0
6 64 92 0
6 67 70 0
7 -68 82 0
7 18 45 0
8 -81 84 0
8 -63 100 0
8 18 -65 0
8 26 -43 0
8 55 94 0
8 74 95 0
9 -72 83 0
9 -57 96 0
9 11 64 0
9 64 -91 0
9 70 92 0
10 -38 96 0
10 -36 71 0
10 -24 34 0
10 -11 -87 0
10 -11 91 0
10 24 98 0
10 31 94 0
10 76 -82 0
10 84 87 0
11 -46 88 0
11 -38 80 0
11 -36 58 0
11 20 -26 0
11 39 55 0
11 69 79 0
12 -50 -88 0
12 69 -71 0
13 77 -88 0
14 -34 95 0
14 -21 23 0
14 81 -93 0
15 -39 47 0
15 17 -70 0
15 20 -74 0
16 -48 51 0
16 -18 -41 0
16 27 70 0
16 53 -61 0
16 66 -70 0
17 -43 -76 0
17 18 92 0
18 -81 90 0
18 -30 83 0
18 -26 79 0
19 -65 -66 0
19 -40 -69 0
19 -28 -42 0
19 42 -45 0
19 79 88 0
20 -63 -89 0
20 -39 -45 0
20 -29 -67 0
20 60 -95 0
21 35 95 0
21 55 67 0
22 -43 -94 0
22 -27 89 0
22 24 89 0
22 33 -99 0
22 63 -87 0
23 -41 -76 0
23 39 75 0
23 47 -74 0
23 53 -82 0
24 -53 -55 0
24 50 -90 0
25 -53 96 0
25 -32 -36 0
26 -60 64 0
26 -38 73 0
26 -33 -90 0
26 31 62 0
26 35 48 0
27 -48 58 0
27 47 55 0
28 -40 -93 0
28 -38 69 0
29 -83 -86 0
29 -71 91 0
29 -31 -80 0
29 37 -100 0
30 -54 -83 0
30 -48 -77 0
30 54 -89 0
31 -62 74 0
34 -57 80 0
35 56 97 0
36 -67 75 0
36 -58 67 0
37 -65 -76 0
38 -50 -70 0
39 -75 79 0
39 -57 89 0
39 46 79 0
39 93 -95 0
40 -53 -98 0
41 -77 -93 0
41 -42 -93 0
41 42 -80 0
41 46 53 0
42 -67 76 0
42 -66 -80 0
42 -44 -63 0
42 59 63 0
42 59 76 0
43 -69 91 0
43 -47 -86 0
43 48 59 0
44 76 -93 0
45 -48 90 0
47 -70 -93 0
48 56 -85 0
50 70 83 0
52 -65 -99 0
52 61 -91 0
53 -70 76 0
54 -75 96 0
54 58 96 0
56 -88 -95 0
59 -82 87 0
61 81 98 0
62 -78 87 0
66 92 100 0
67 80 96 0
69 78 98 0
71 78 -100 0
77 82 -91 0
77 85 90 0
78 89 100 0
81 -84 -92 0
83 94 100 0
93 -97 98 0
