p cnf 60 255
-53 -56 60 0
-51 -54 56 0
-48 -51 53 0
-48 56 57 0
-47 49 -55 0
-45 -50 -59 0
-44 -48 56 0
-44 52 59 0
-42 43 51 0
-36 -39 -58 0
-36 42 -54 0
-35 38 50 0
-33 -44 -57 0
-33 -35 58 0
-32 35 50 0
-32 42 46 0
-32 42 51 0
-31 -41 55 0
-31 34 49 0
-30 -49 50 0
-30 -40 48 0
-29 -38 40 0
-29 32 -46 0
-29 37 -47 0
-29 47 -48 0
-27 -40 51 0
-27 -38 47 0
-26 -47 49 0
-26 36 -46 0
-25 47 -59 0
-24 -40 49 0
-24 -37 45 0
-24 25 37 0
-24 31 55 0
-23 -44 45 0
-23 30 31 0
-22 -46 -48 0
-22 -35 -39 0
-22 -35 54 0
-21 26 -44 0
-21 36 47 0
-21 41 51 0
-21 43 50 0
-20 21 -60 0
-20 42 -57 0
-19 -34 -40 0
-19 -23 -32 0
-19 -23 58 0
-19 -20 -30 0
-19 20 55 0
-19 49 -58 0
-18 -31 -57 0
-18 -28 -53 0
-18 -24 59 0
-18 -20 54 0
-18 21 -35 0
-17 -34 -43 0
-16 -43 -57 0
-16 -36 -60 0
-16 29 -45 0
-15 -44 -45 0
-15 37 53 0
-15 45 55 0
-14 19 34 0
-14 45 57 0
-13 -42 -45 0
-13 -42 46 0
-13 -30 31 0
-13 -26 -60 0
-13 29 -57 0
-12 18 -50 0
-12 28 -58 0
-12 37 55 0
-12 40 41 0
-12 46 -56 0
-11 -18 42 0
-11 -14 -18 0
-11 -12 54 0
-11 21 -58 0
-11 21 46 0
-11 35 -55 0
-10 -39 56 0
-10 -20 -32 0
-10 16 -39 0
-10 26 -35 0
-10 47 59 0
-9 -11 -23 0
-9 15 46 0
-9 31 -45 0
-8 -32 -40 0
-8 -30 37 0
-8 -23 -26 0
-8 -21 58 0
-8 24 -53 0
-7 -55 59 0
-7 -26 39 0
-7 -15 30 0
-7 10 -43 0
-7 42 54 0
-6 9 -51 0
-6 25 30 0
-6 25 34 0
-6 33 -49 0
-5 -40 -53 0
-5 -21 -22 0
-5 -18 38 0
-5 14 22 0
-5 18 -42 0
-4 -38 -52 0
-4 -24 49 0
-4 -23 -47 0
-4 -5 -6 0
-4 8 -57 0
-4 10 31 0
-4 12 -35 0
-4 16 -34 0
-4 25 42 0
-3 11 21 0
-3 42 -49 0
-2 -14 -52 0
-2 -11 -15 0
-2 -11 57 0
-2 45 54 0
-1 -27 30 0
-1 -13 -39 0
-1 -7 11 0
-1 31 59 0
-1 34 -40 0
-1 44 -59 0
1 -39 -40 0
1 -33 57 0
1 -32 55 0
1 -8 48 0
1 27 35 0
2 -5 49 0
2 9 -13 0
2 11 27 0
2 33 -41 0
2 39 -45 0
3 -30 42 0
3 -28 31 0
3 -20 -42 0
3 7 11 0
3 11 56 0
3 26 51 0
3 29 -57 0
3 40 47 0
3 52 54 0
3 58 -60 0
4 -58 -60 0
4 -10 -39 0
4 -9 21 0
4 -8 14 0
4 7 55 0
4 18 -27 0
4 27 -48 0
5 -15 -47 0
5 27 41 0
5 41 -46 0
6 -53 58 0
6 -24 -59 0
6 14 22 0
6 15 42 0
6 25 41 0
6 27 52 0
7 -24 -38 0
7 9 -56 0
7 24 25 0
8 -43 60 0
8 -11 -33 0
8 22 -27 0
8 36 -57 0
9 -39 -54 0
9 -34 40 0
9 22 39 0
9 34 41 0
9 39 54 0
10 -43 54 0
10 -22 53 0
10 -19 47 0
10 -15 -40 0
10 -13 -38 0
10 11 24 0
10 22 -60 0
10 34 36 0
10 37 39 0
11 -41 -51 0
11 -41 49 0
11 -24 44 0
11 43 55 0
12 -25 42 0
12 19 -28 0
12 42 48 0
13 -44 49 0
13 -30 51 0
13 -17 60 0
13 19 51 0
13 24 -40 0
13 47 57 0
13 48 58 0
14 -39 -48 0
14 -15 -25 0
15 -49 -55 0
15 -32 39 0
15 -30 58 0
15 26 -51 0
15 29 -45 0
15 32 -44 0
16 -50 -56 0
16 -22 -48 0
16 -22 -46 0
17 19 51 0
17 26 -49 0
18 -23 -52 0
18 -19 43 0
18 42 50 0
20 -31 -36 0
20 -23 41 0
20 27 -60 0
21 35 41 0
21 37 52 0
21 48 -53 0
21 59 60 0
22 28 -30 0
22 30 -40 0
22 32 56 0
22 34 -58 0
22 51 -52 0
23 37 -56 0
24 -25 50 0
24 37 -41 0
24 41 60 0
25 44 45 0
26 -39 -45 0
26 -32 36 0
26 -30 -59 0
26 36 52 0
26 38 -39 0
27 -41 59 0
28 -29 48 0
28 30 -40 0
29 30 -38 0
32 -43 53 0
32 -36 -44 0
33 -47 48 0
33 -40 59 0
33 45 58 0
34 35 -50 0
37 -51 -53 0
37 -40 54 0
37 51 52 0
39 48 -54 0
44 48 -49 0
45 56 57 0
50 54 -56 0
