p cnf 28 119
-22 25 27 0
-20 -22 23 0
-19 23 24 0
-18 -23 28 0
-18 25 27 0
-17 -21 24 0
-17 21 27 0
-16 -21 -28 0
-15 22 25 0
-13 -19 -21 0
-13 -15 24 0
-12 -23 28 0
-12 -22 24 0
-12 -19 -20 0
-12 -15 24 0
-12 17 -28 0
-11 -12 28 0
-10 -21 22 0
-10 -16 -18 0
-10 -14 -25 0
-10 11 15 0
-10 16 -24 0
-9 -23 27 0
-9 -20 -22 0
-9 24 27 0
-8 -17 28 0
-8 -16 24 0
-8 -14 -23 0
-8 -12 -27 0
-8 11 20 0
-8 14 -25 0
-7 -19 -28 0
-7 -19 24 0
-7 -17 22 0
-7 -8 -13 0
-7 10 21 0
-7 13 -18 0
-7 19 25 0
-6 -13 26 0
-6 -8 28 0
-6 10 22 0
-5 6 -18 0
-5 6 23 0
-5 16 20 0
-4 -13 -15 0
-4 -11 -16 0
-4 7 17 0
-4 19 -20 0
-3 -7 18 0
-3 4 -13 0
-3 6 8 0
-3 10 12 0
-2 -21 23 0
-2 -5 -8 0
-2 5 -7 0
-2 5 16 0
-2 8 16 0
-2 11 16 0
-2 14 -25 0
-2 20 -26 0
-1 -8 -18 0
-1 -7 26 0
-1 4 12 0
-1 8 -18 0
-1 20 21 0
-1 24 27 0
1 -19 20 0
1 -18 22 0
1 -10 27 0
1 -3 -12 0
1 4 -22 0
1 5 -8 0
2 -20 25 0
2 -19 24 0
2 -13 -20 0
2 -5 20 0
2 -4 -9 0
3 -10 24 0
3 -8 -15 0
3 15 -18 0
3 18 22 0
3 21 25 0
4 -7 -18 0
4 14 24 0
5 -13 -15 0
5 13 20 0
5 16 20 0
6 -26 -27 0
6 -24 -27 0
6 -10 11 0
6 -9 21 0
6 -7 -17 0
6 -7 13 0
6 11 20 0
6 19 25 0
7 18 -28 0
8 -18 22 0
8 16 24 0
8 27 28 0
9 -21 -24 0
9 -14 -17 0
10 12 16 0
10 20 -25 0
11 -24 27 0
11 -16 -26 0
11 20 28 0
12 -14 -15 0
12 20 -28 0
13 -18 22 0
13 -17 -18 0
14 -18 -28 0
14 -16 25 0
14 19 -28 0
15 -24 -25 0
15 21 27 0
16 23 28 0
17 -21 24 0
18 -19 -22 0
22 23 25 0
