p cnf 24 102
-19 -21 23 0
-17 18 22 0
-15 -17 22 0
-15 -16 22 0
-14 17 22 0
-13 -18 22 0
-13 -14 22 0
-13 14 -24 0
-10 -18 -22 0
-10 -17 22 0
-10 -12 -14 0
-10 16 -24 0
-10 17 18 0
-9 -13 -18 0
-8 -14 17 0
-8 9 17 0
-7 -14 19 0
-7 -8 16 0
-7 12 23 0
-7 14 -22 0
-6 -18 -24 0
-6 7 -20 0
-6 8 23 0
-6 10 -14 0
-6 13 23 0
-5 -12 -17 0
-5 7 24 0
-5 11 -13 0
-4 -16 -24 0
-4 -7 -9 0
-4 17 -20 0
-4 19 -21 0
-3 -13 -23 0
-3 7 -8 0
-3 11 12 0
-3 14 -15 0
-3 15 22 0
-2 -9 -13 0
-2 -9 -10 0
-2 -6 -18 0
-2 -3 -21 0
-2 -3 19 0
-2 5 18 0
-2 13 -18 0
-1 3 -5 0
-1 5 17 0
-1 6 -24 0
-1 12 13 0
-1 16 -23 0
1 -13 -17 0
1 -6 7 0
1 -3 22 0
1 3 -6 0
1 18 -21 0
2 -13 19 0
2 -9 20 0
2 -5 -22 0
2 3 -14 0
2 6 -24 0
3 -9 22 0
3 11 -13 0
3 21 22 0
4 -10 23 0
4 12 -17 0
4 15 -19 0
4 17 -23 0
5 -12 15 0
5 -8 -17 0
5 9 -16 0
5 11 -12 0
5 21 -22 0
6 -9 -15 0
6 -9 20 0
6 -7 13 0
6 9 -11 0
6 13 14 0
6 14 15 0
7 -10 -21 0
8 -15 -22 0
8 -13 -21 0
8 -10 16 0
8 20 23 0
9 -21 24 0
9 16 -23 0
9 20 -24 0
10 12 -19 0
11 -14 21 0
11 15 21 0
11 18 23 0
12 -17 20 0
12 -17 24 0
12 -13 14 0
12 23 24 0
13 18 20 0
13 20 -21 0
14 -15 23 0
14 15 -19 0
15 19 -24 0
15 22 24 0
17 19 -22 0
18 -22 24 0
19 20 -22 0
