p cnf 28 119
-20 -23 -27 0
-19 22 -24 0
-15 -24 -26 0
-15 -19 -22 0
-15 17 22 0
-15 21 23 0
-13 -23 27 0
-13 -16 -21 0
-13 -14 19 0
-12 -26 -27 0
-11 -24 -27 0
-11 -12 -16 0
-11 20 23 0
-10 -12 14 0
-10 16 -28 0
-9 -19 23 0
-9 -16 21 0
-8 -24 26 0
-8 -16 -28 0
-8 -15 -17 0
-8 13 -24 0
-8 15 -17 0
-8 18 -22 0
-7 -14 -23 0
-7 8 -27 0
-7 10 -20 0
-7 13 17 0
-6 -15 -20 0
-6 -10 18 0
-6 -9 18 0
-5 -8 26 0
-5 6 12 0
-5 7 -24 0
-5 10 -12 0
-5 11 -15 0
-5 18 -24 0
-4 -8 11 0
-4 6 -14 0
-4 11 -20 0
-3 -15 25 0
-3 -13 -26 0
-3 10 -26 0
-3 10 -20 0
-3 22 -26 0
-2 3 -10 0
-2 23 28 0
-1 -5 14 0
-1 -4 -15 0
-1 -3 20 0
-1 -2 -28 0
1 -11 27 0
1 -8 -11 0
1 -2 -19 0
1 -2 -15 0
1 2 -16 0
1 10 13 0
2 -24 27 0
2 -3 7 0
2 4 7 0
2 6 -8 0
2 6 -7 0
2 12 25 0
2 18 27 0
2 19 -23 0
3 -8 25 0
3 6 12 0
3 21 -28 0
4 -12 -19 0
4 -7 -23 0
4 10 -27 0
4 11 16 0
4 18 -22 0
5 -13 24 0
5 -11 -20 0
5 10 -12 0
6 -10 21 0
6 10 -17 0
6 10 -14 0
6 11 15 0
6 17 -28 0
7 -18 28 0
7 -12 -28 0
7 -8 15 0
7 -8 17 0
7 -8 26 0
7 8 25 0
8 -24 -25 0
8 -11 24 0
9 -18 -26 0
9 -17 -24 0
10 -24 -27 0
10 -15 -16 0
10 15 16 0
10 19 -27 0
10 25 -28 0
11 -20 -21 0
11 -15 -18 0
11 21 23 0
12 -24 28 0
12 -17 23 0
12 -14 18 0
13 -25 -26 0
13 -17 20 0
15 16 -19 0
15 18 -25 0
16 -22 23 0
16 -19 21 0
16 -19 22 0
16 20 28 0
16 22 23 0
17 -20 -25 0
17 23 -27 0
18 -24 26 0
18 21 -28 0
18 21 23 0
19 -23 -26 0
19 -22 23 0
20 -25 28 0
22 23 26 0
