p cnf 32 136
-24 25 -31 0
-23 -25 -29 0
-23 27 -30 0
-23 28 -30 0
-22 -24 27 0
-20 -23 27 0
-16 -17 -21 0
-16 27 -32 0
-15 -22 30 0
-15 -20 -29 0
-15 -17 -22 0
-15 -16 28 0
-15 17 -21 0
-15 17 31 0
-14 17 32 0
-13 -20 28 0
-13 -18 -27 0
-12 -30 -32 0
-12 -19 -20 0
-12 19 -21 0
-12 22 28 0
-11 -19 28 0
-11 -15 32 0
-11 -12 -30 0
-11 13 -23 0
-11 16 21 0
-11 19 -20 0
-10 -18 30 0
-10 -11 13 0
-10 26 -28 0
-10 27 -30 0
-9 -23 31 0
-9 -19 -28 0
-9 -11 -22 0
-9 11 -19 0
-8 -12 30 0
-8 -11 -25 0
-8 -10 -32 0
-7 15 -31 0
-7 28 30 0
-6 -21 32 0
-6 -16 21 0
-6 -15 30 0
-6 -9 18 0
-6 10 23 0
-5 26 -28 0
-4 -30 31 0
-4 -24 -27 0
-4 -16 -26 0
-4 9 -29 0
-4 11 -28 0
-4 21 -31 0
-4 29 30 0
-3 -18 -20 0
-3 8 28 0
-3 17 -28 0
-3 20 29 0
-2 -29 32 0
-2 -17 -31 0
-2 -9 24 0
-2 10 31 0
-2 13 31 0
-2 16 -19 0
-2 26 30 0
-1 -13 -19 0
-1 -9 13 0
-1 -7 8 0
1 -26 29 0
1 -13 26 0
1 -12 -32 0
1 -11 -15 0
1 -8 -30 0
1 -7 8 0
1 5 -12 0
1 14 24 0
2 -24 25 0
2 -18 -26 0
2 -8 26 0
2 11 -29 0
2 12 19 0
2 14 27 0
2 24 -32 0
3 -12 27 0
3 -6 -23 0
3 4 13 0
3 16 -23 0
4 -22 -27 0
4 10 23 0
4 12 26 0
4 14 -25 0
4 23 -25 0
4 27 30 0
4 28 -31 0
5 -27 31 0
5 -9 30 0
5 7 -10 0
5 20 23 0
6 -14 22 0
6 -13 19 0
6 -12 32 0
6 -9 11 0
6 7 -15 0
6 10 14 0
6 17 25 0
6 28 -32 0
7 -18 -25 0
7 -17 -22 0
7 -9 22 0
7 26 28 0
8 -10 30 0
8 14 -18 0
8 20 21 0
9 24 27 0
10 -17 22 0
11 -18 -29 0
11 14 20 0
12 29 -30 0
13 -22 -29 0
13 -17 -24 0
13 14 -21 0
13 17 -28 0
13 19 -21 0
13 24 26 0
15 -28 30 0
15 -16 -22 0
16 25 28 0
17 -29 31 0
17 22 23 0
18 -19 -28 0
20 -30 -31 0
20 29 -31 0
22 -26 -32 0
24 -27 -29 0
24 30 32 0
25 29 32 0
27 -28 -29 0
