p cnf 140 595
-112 -124 -138 0
-100 -128 -138 0
-99 -106 -131 0
-98 131 133 0
-95 -96 109 0
-91 -129 134 0
-91 -118 127 0
-91 -93 106 0
-90 -113 115 0
-88 -111 127 0
-88 -97 133 0
-88 102 -122 0
-87 -116 125 0
-87 105 123 0
-86 98 118 0
-85 90 121 0
-85 92 135 0
-85 104 -138 0
-85 112 125 0
-84 -111 118 0
-84 -92 -124 0
-82 -94 -113 0
-80 100 104 0
-80 131 138 0
-79 -113 125 0
-79 118 -129 0
-78 -95 128 0
-78 109 113 0
-77 -125 -131 0
-77 -92 116 0
-77 78 115 0
-77 89 94 0
-75 -103 -134 0
-75 -84 -120 0
-74 -120 -135 0
-74 -118 133 0
-73 -101 -118 0
-73 -101 -115 0
-72 -89 117 0
-72 92 -127 0
-71 89 -132 0
-70 -126 -139 0
-70 98 -115 0
-70 103 -139 0
-69 -90 110 0
-69 86 116 0
-68 116 119 0
-67 -117 122 0
-67 -92 111 0
-67 -69 81 0
-66 -120 -135 0
-66 78 -115 0
-66 90 -101 0
-64 -78 139 0
-64 71 -113 0
-63 -78 96 0
-63 67 -116 0
-61 -66 71 0
-60 63 130 0
-59 83 105 0
-59 124 -138 0
-58 -100 114 0
-58 63 83 0
-58 86 -97 0
-57 -109 115 0
-57 -104 127 0
-57 73 -124 0
-57 135 140 0
-56 -107 122 0
-56 61 92 0
-55 126 -135 0
-54 -112 128 0
-54 -82 127 0
-54 -63 -81 0
-54 95 112 0
-54 96 -131 0
-53 -97 -104 0
-53 -93 123 0
-52 -62 67 0
-50 -84 102 0
-48 -61 -121 0
-48 56 -58 0
-48 117 -136 0
-47 -100 -126 0
-47 52 116 0
-47 61 115 0
-47 117 -139 0
-46 -64 75 0
-46 -61 127 0
-46 -47 -111 0
-45 85 99 0
-45 97 -105 0
-44 -80 -129 0
-44 -53 -92 0
-44 65 103 0
-44 78 -125 0
-43 -66 92 0
-42 -99 -139 0
-42 48 -75 0
-42 82 107 0
-41 -84 115 0
-41 -55 -56 0
-41 88 -115 0
-40 -67 100 0
-40 -66 -126 0
-40 41 -78 0
-40 53 -115 0
-40 56 -91 0
-40 126 132 0
-39 -112 -116 0
-39 -58 117 0
-39 43 -92 0
-39 83 107 0
-38 -103 -135 0
-38 -46 130 0
-37 -50 -109 0
-37 45 -135 0
-37 79 -110 0
-36 81 106 0
-35 -110 116 0
-35 36 88 0
-35 104 111 0
-34 -128 136 0
-34 -66 122 0
-34 -58 -87 0
-34 -35 48 0
-34 37 -83 0
-33 -85 -130 0
-33 -60 -126 0
-33 -39 91 0
-33 45 -68 0
-33 52 -56 0
-33 55 115 0
-33 85 129 0
-32 -65 -97 0
-32 -44 78 0
-32 88 138 0
-31 -95 -123 0
-31 37 53 0
-31 45 48 0
-31 51 -71 0
-30 -97 119 0
-30 -75 93 0
-30 -72 -97 0
-30 -31 83 0
-30 32 109 0
-29 -127 132 0
-29 -108 -110 0
-29 -77 100 0
-29 -70 95 0
-29 66 -106 0
-28 -106 118 0
-28 -65 118 0
-28 30 -116 0
-28 72 -105 0
-27 -80 94 0
-27 57 -90 0
-26 -57 -70 0
-26 -56 -106 0
-26 49 -63 0
-26 61 -99 0
-25 -93 -126 0
-25 -80 -90 0
-25 -58 135 0
-25 -52 64 0
-24 -116 -120 0
-24 -104 133 0
-24 -55 82 0
-24 -51 -127 0
-24 86 129 0
-23 -30 -123 0
-23 -26 54 0
-22 -77 -106 0
-22 -39 -59 0
-22 117 -140 0
-21 -92 -114 0
-21 -60 95 0
-21 -57 140 0
-21 -43 -94 0
-21 112 123 0
-20 -101 124 0
-20 -35 102 0
-20 -24 103 0
-19 -92 93 0
-19 55 -101 0
-19 69 87 0
-19 108 -136 0
-18 23 -117 0
-17 -87 99 0
-17 22 54 0
-16 -61 -88 0
-16 -42 54 0
-16 -33 90 0
-16 -20 92 0
-16 32 66 0
-16 123 135 0
-15 -28 104 0
-15 -21 -71 0
-15 -17 72 0
-15 71 81 0
-14 24 -44 0
-14 42 67 0
-14 57 -73 0
-14 84 113 0
-14 85 118 0
-13 -49 -66 0
-13 16 -29 0
-13 53 -86 0
-13 70 -99 0
-12 -49 130 0
-12 -30 57 0
-12 69 -72 0
-12 103 -104 0
-11 -66 -117 0
-11 -57 -69 0
-11 -52 -135 0
-11 -26 65 0
-10 -64 -67 0
-10 -33 105 0
-10 -25 -73 0
-10 16 -104 0
-10 34 -107 0
-10 34 134 0
-10 90 -94 0
-9 -12 -131 0
-9 25 -96 0
-9 26 -133 0
-9 54 -97 0
-9 65 -93 0
-8 -104 -123 0
-8 -34 -120 0
-8 -13 -83 0
-8 79 -112 0
-8 113 121 0
-7 -14 -92 0
-7 18 -71 0
-7 18 105 0
-7 51 -124 0
-6 -90 -125 0
-6 -84 -102 0
-6 -15 29 0
-6 35 58 0
-6 47 100 0
-6 54 114 0
-6 69 110 0
-6 90 -94 0
-5 -61 -129 0
-5 -40 -94 0
-5 -6 73 0
-5 15 67 0
-5 43 -118 0
-5 70 119 0
-5 80 117 0
-4 -113 121 0
-4 -56 104 0
-4 -15 118 0
-3 -57 76 0
-3 -46 -105 0
-3 -14 61 0
-3 14 15 0
-3 25 -60 0
-2 -65 -140 0
-2 -64 -117 0
-2 -57 82 0
-2 -48 -110 0
-2 -29 121 0
-2 -8 -92 0
-2 -6 -12 0
-2 -4 -54 0
-2 8 -40 0
-2 20 135 0
-2 35 -39 0
-2 48 93 0
-1 -136 138 0
-1 -105 -108 0
-1 -52 120 0
-1 -11 32 0
-1 7 42 0
-1 17 36 0
-1 73 139 0
-1 77 -78 0
1 -43 92 0
1 13 71 0
1 15 106 0
1 18 -27 0
1 47 123 0
1 89 128 0
1 112 -122 0
2 -34 -39 0
2 25 -132 0
2 41 -91 0
2 105 122 0
3 -111 -117 0
3 -14 -40 0
3 7 -106 0
3 7 -44 0
3 81 133 0
3 100 -138 0
4 -66 -79 0
4 -17 52 0
4 13 120 0
4 47 61 0
4 120 139 0
5 -104 112 0
5 -60 -69 0
5 -52 113 0
5 -26 42 0
5 84 98 0
6 -50 103 0
6 -28 -107 0
6 11 -83 0
6 38 -134 0
6 43 107 0
6 59 62 0
6 87 -133 0
7 -82 -91 0
7 -78 103 0
7 -26 -38 0
7 -18 -106 0
7 -18 -58 0
7 20 -51 0
7 27 -87 0
7 55 -78 0
7 74 -135 0
7 120 -133 0
8 -117 131 0
8 -72 -117 0
8 -58 86 0
8 -11 82 0
8 15 -45 0
8 18 -89 0
8 21 -53 0
8 99 104 0
9 -79 80 0
9 -45 122 0
9 -30 104 0
9 -18 -131 0
9 13 -102 0
9 42 -43 0
9 53 100 0
10 -36 -87 0
10 -32 138 0
10 -18 133 0
10 72 137 0
10 101 127 0
11 -53 -110 0
11 -38 -47 0
11 19 -46 0
11 23 -73 0
11 46 69 0
11 49 71 0
11 59 -89 0
11 86 139 0
11 112 129 0
12 -57 -136 0
12 -57 76 0
12 -14 63 0
12 22 -46 0
12 29 128 0
13 -89 -105 0
13 -23 95 0
13 17 -48 0
13 78 -133 0
13 78 -81 0
13 88 -119 0
13 126 -134 0
14 -92 134 0
14 -60 -85 0
14 -34 -123 0
14 34 -52 0
14 61 72 0
15 -62 -99 0
15 -57 76 0
15 21 50 0
16 -135 137 0
16 -125 137 0
16 -124 128 0
16 -88 -89 0
16 -86 132 0
16 -59 -67 0
16 20 -69 0
16 40 -63 0
16 105 126 0
17 -73 90 0
17 -40 55 0
17 -30 -51 0
17 27 78 0
17 46 -108 0
18 -96 -103 0
18 -80 136 0
18 -58 90 0
18 -45 71 0
19 -109 140 0
19 -53 69 0
19 -22 -89 0
19 40 -59 0
19 69 89 0
19 87 -112 0
19 88 -93 0
20 -121 130 0
20 -102 -122 0
20 -82 -109 0
20 45 -121 0
21 -100 125 0
21 -67 -99 0
21 -42 103 0
21 -30 -60 0
21 -28 -33 0
21 25 36 0
21 28 -34 0
21 45 -77 0
21 60 -84 0
22 -78 89 0
22 -74 -106 0
22 -24 135 0
22 52 71 0
23 -39 -100 0
23 -36 111 0
24 -77 117 0
24 -60 -61 0
24 35 42 0
24 48 -140 0
24 64 -138 0
25 -31 -109 0
25 68 -120 0
26 -54 114 0
26 30 106 0
26 31 -123 0
26 53 93 0
26 54 -108 0
27 -61 91 0
27 -42 124 0
27 32 -69 0
27 40 -111 0
27 72 95 0
27 107 132 0
28 -60 -64 0
28 -59 121 0
28 -47 -114 0
28 -44 -65 0
28 45 -93 0
29 -100 111 0
29 -98 122 0
29 -55 -61 0
29 -32 64 0
29 30 35 0
29 108 -140 0
30 39 68 0
30 82 -133 0
31 -71 -95 0
31 -34 -82 0
31 40 62 0
31 77 140 0
32 -99 -105 0
32 -63 120 0
32 -53 -85 0
32 -42 117 0
32 35 -53 0
33 -91 -128 0
33 -58 61 0
33 -38 -66 0
33 67 -73 0
34 -130 -134 0
34 -118 120 0
34 -82 107 0
35 -94 -123 0
35 -49 -54 0
35 -39 -104 0
35 37 88 0
35 42 87 0
36 -59 95 0
36 -55 -135 0
36 51 109 0
36 125 139 0
37 -90 -121 0
37 -65 99 0
37 -42 52 0
37 79 133 0
38 -111 -130 0
38 -75 95 0
38 -56 -89 0
38 -42 46 0
38 56 -71 0
38 62 -67 0
39 123 -132 0
40 46 84 0
40 47 -110 0
40 121 124 0
41 61 -64 0
41 77 -78 0
41 113 -136 0
42 -62 -88 0
42 96 137 0
43 -64 -116 0
43 -55 -90 0
43 47 115 0
43 119 -128 0
44 55 69 0
44 71 82 0
44 108 -135 0
45 -123 -130 0
45 -55 140 0
45 94 -124 0
46 -53 84 0
46 80 90 0
46 87 -117 0
47 -92 -106 0
47 -80 -125 0
47 -69 105 0
47 104 106 0
48 -108 -136 0
48 -59 113 0
48 58 72 0
49 -51 113 0
49 96 129 0
50 -121 -135 0
50 -109 119 0
50 -57 -140 0
50 -57 79 0
50 60 -67 0
50 61 97 0
51 -133 136 0
52 54 124 0
54 -73 133 0
54 -61 -92 0
55 -91 114 0
55 91 -122 0
56 -65 -123 0
56 84 85 0
57 -96 112 0
57 105 -110 0
58 -85 -137 0
58 -82 131 0
59 -75 -90 0
59 83 129 0
60 -82 89 0
60 -67 79 0
61 70 103 0
61 80 -88 0
61 83 -113 0
62 -109 -139 0
63 66 -72 0
63 72 116 0
63 79 -136 0
64 -97 -99 0
64 -96 -118 0
64 66 83 0
65 74 139 0
65 84 103 0
66 -69 -107 0
66 82 133 0
66 101 -123 0
67 -70 -127 0
70 -132 135 0
70 -78 91 0
70 73 128 0
71 -100 -111 0
71 -72 -134 0
72 -113 -131 0
73 -87 122 0
73 -85 128 0
73 92 -101 0
73 96 114 0
74 -129 136 0
74 -100 122 0
75 -112 -140 0
75 -88 -126 0
75 102 123 0
76 133 135 0
77 80 -111 0
78 79 -88 0
78 81 -105 0
80 -116 -135 0
80 -111 130 0
83 -125 135 0
83 89 -114 0
84 -102 118 0
84 -85 -95 0
84 85 88 0
84 105 -110 0
85 86 -94 0
85 92 -122 0
86 -89 -118 0
89 -106 140 0
90 -98 -129 0
92 -96 -139 0
96 -127 133 0
97 -136 -137 0
100 -134 139 0
100 129 -132 0
104 116 124 0
111 120 131 0
112 -124 -125 0
112 -118 -121 0
113 -125 -134 0
