p cnf 40 170
-28 -32 37 0
-28 -29 34 0
-25 31 -40 0
-24 28 -31 0
-23 -31 -33 0
-22 -23 -29 0
-22 -23 34 0
-21 26 28 0
-21 28 31 0
-20 -21 -23 0
-19 -28 40 0
-19 25 30 0
-17 -29 -36 0
-17 19 -35 0
-17 37 -39 0
-16 -30 -36 0
-16 -17 40 0
-16 27 30 0
-15 27 34 0
-14 -31 -40 0
-14 -30 33 0
-14 -21 -32 0
-14 -20 33 0
-13 -25 40 0
-13 -14 -21 0
-13 14 38 0
-13 20 -35 0
-13 38 40 0
-12 -30 -31 0
-12 -28 34 0
-12 -24 38 0
-12 -19 -38 0
-12 -14 -26 0
-12 19 -27 0
-10 -28 -33 0
-10 -27 -39 0
-10 -21 27 0
-10 12 -27 0
-10 18 -32 0
-10 18 -30 0
-9 33 -36 0
-8 -9 -40 0
-8 17 32 0
-8 20 25 0
-7 -31 -37 0
-7 -25 -29 0
-7 -16 38 0
-7 10 20 0
-7 16 -31 0
-6 -29 30 0
-6 -15 18 0
-6 27 30 0
-5 -7 -39 0
-5 6 -8 0
-5 18 32 0
-4 -29 -37 0
-4 -24 -37 0
-4 -20 -25 0
-4 -16 -34 0
-4 -15 -21 0
-4 -15 18 0
-4 6 10 0
-4 6 25 0
-4 7 -40 0
-4 19 -37 0
-4 35 -36 0
-3 -34 37 0
-3 -5 31 0
-3 4 13 0
-3 12 -19 0
-3 14 23 0
-3 23 26 0
-3 26 37 0
-2 -22 30 0
-2 -13 32 0
-2 -4 6 0
-2 3 -25 0
-2 8 -35 0
-2 11 22 0
-2 16 36 0
-2 27 -36 0
-2 33 -37 0
-1 -4 -31 0
-1 -3 -32 0
-1 -2 -14 0
-1 11 -19 0
-1 16 29 0
1 -4 26 0
1 -2 11 0
1 8 32 0
1 9 -39 0
1 14 -15 0
1 30 34 0
2 -27 30 0
2 -10 -22 0
2 -4 -37 0
2 3 -15 0
2 10 21 0
2 12 30 0
2 13 38 0
3 -14 29 0
3 8 -12 0
3 14 -38 0
3 19 -35 0
4 -6 -30 0
4 7 19 0
4 21 27 0
5 -11 31 0
5 10 15 0
5 10 16 0
5 14 -40 0
5 16 34 0
5 21 -31 0
5 26 40 0
6 -17 28 0
6 -14 31 0
6 -8 38 0
6 15 39 0
6 22 35 0
6 23 -33 0
6 26 -35 0
6 33 35 0
7 -9 12 0
7 14 -40 0
7 17 37 0
8 -35 -36 0
8 -10 -12 0
8 14 -26 0
8 29 -30 0
9 -31 -38 0
9 -22 -28 0
9 -19 -21 0
9 -17 -39 0
9 10 18 0
9 11 -16 0
9 16 -19 0
9 22 39 0
10 -26 -40 0
10 31 36 0
11 -32 35 0
11 15 -26 0
12 -35 -39 0
12 33 39 0
13 -25 35 0
13 -14 40 0
13 20 28 0
15 -28 -35 0
15 16 -26 0
15 28 29 0
16 -28 -32 0
16 24 36 0
17 -37 -40 0
17 -20 -29 0
18 -23 -36 0
18 37 40 0
19 33 37 0
20 -31 -34 0
20 -29 30 0
20 22 26 0
21 32 -36 0
22 -28 37 0
22 27 34 0
23 25 -40 0
24 -26 -38 0
24 32 40 0
25 -27 -35 0
27 -35 -38 0
27 -32 -33 0
27 38 -40 0
33 -35 36 0
