p cnf 30 128
-20 24 25 0
-20 25 -30 0
-19 -21 29 0
-18 -23 -28 0
-18 -23 28 0
-18 20 -23 0
-17 -21 24 0
-17 23 -25 0
-16 17 24 0
-16 18 21 0
-16 25 26 0
-16 27 30 0
-15 -18 -21 0
-15 17 -29 0
-14 -24 -27 0
-13 23 24 0
-12 14 -29 0
-11 14 29 0
-11 16 -28 0
-10 11 -25 0
-10 15 28 0
-10 18 -29 0
-9 13 18 0
-8 -15 21 0
-8 -13 16 0
-8 -12 -15 0
-8 -10 -30 0
-7 -21 28 0
-7 11 12 0
-7 21 23 0
-6 -14 16 0
-6 -12 -26 0
-6 -11 -26 0
-6 -9 -12 0
-6 12 14 0
-5 -15 -21 0
-5 7 15 0
-4 11 28 0
-4 17 28 0
-4 18 26 0
-3 -12 19 0
-3 -11 -18 0
-3 -6 8 0
-3 10 21 0
-3 16 -17 0
-3 18 -26 0
-2 -21 23 0
-2 -6 -12 0
-2 -5 8 0
-2 8 20 0
-2 21 22 0
-1 -28 -29 0
-1 -26 28 0
-1 -8 -9 0
-1 -7 17 0
-1 -7 21 0
-1 -5 28 0
-1 -3 21 0
-1 7 18 0
-1 23 -27 0
1 -13 29 0
1 -12 -17 0
1 -10 -28 0
1 -6 -13 0
1 3 -9 0
1 12 -27 0
2 -7 -20 0
2 -6 -9 0
2 -4 -5 0
2 22 -27 0
3 4 -13 0
3 7 15 0
3 13 18 0
3 15 26 0
3 15 27 0
3 17 -21 0
3 22 29 0
4 -27 30 0
4 -10 24 0
4 -9 24 0
4 12 -21 0
4 13 -27 0
4 14 -20 0
4 17 -20 0
5 -12 20 0
5 -8 19 0
5 8 28 0
5 8 29 0
5 9 -22 0
5 17 -18 0
5 22 -28 0
5 26 29 0
6 -9 -24 0
6 -9 -14 0
6 -9 12 0
6 7 -26 0
6 7 14 0
7 9 20 0
7 15 18 0
8 -10 14 0
8 11 28 0
8 12 -13 0
8 14 -23 0
9 10 21 0
9 11 -15 0
9 26 29 0
10 -24 -30 0
10 15 -28 0
11 -24 26 0
11 -13 15 0
11 15 -23 0
11 16 -17 0
11 20 26 0
12 -15 -17 0
13 -15 22 0
13 24 -25 0
14 -28 29 0
15 -18 -20 0
15 20 24 0
15 24 -30 0
16 -22 25 0
16 -21 28 0
16 17 21 0
16 20 -27 0
16 24 27 0
18 -21 -29 0
20 22 -28 0
22 24 -25 0
