p cnf 20 85
-11 -18 -20 0
-11 12 20 0
-11 13 -15 0
-11 14 -18 0
-10 12 13 0
-9 -11 -19 0
-9 -11 13 0
-8 -15 -19 0
-8 13 -17 0
-7 -17 18 0
-7 -12 -20 0
-7 -12 18 0
-7 -9 12 0
-7 9 13 0
-7 11 19 0
-7 13 -18 0
-6 -10 -15 0
-6 11 16 0
-5 -10 -11 0
-5 13 -17 0
-5 13 20 0
-5 14 19 0
-5 15 -17 0
-5 16 18 0
-4 -12 15 0
-4 9 20 0
-4 11 -14 0
-4 16 18 0
-4 17 19 0
-3 -9 -19 0
-3 6 -15 0
-3 11 14 0
-3 12 18 0
-2 -5 8 0
-2 6 -19 0
-1 -12 17 0
-1 -9 14 0
-1 -2 13 0
1 -9 13 0
1 -5 -11 0
1 -3 -14 0
1 14 18 0
1 15 -18 0
1 16 -17 0
1 17 -20 0
2 -14 18 0
2 -5 -14 0
2 6 18 0
2 12 20 0
2 13 -17 0
3 -15 16 0
3 -11 -15 0
3 -7 -9 0
3 -6 -8 0
3 4 -18 0
3 4 11 0
3 5 8 0
3 6 -8 0
3 10 -18 0
3 10 -12 0
3 16 18 0
4 -15 -19 0
4 -15 16 0
4 -9 -11 0
4 6 -18 0
4 10 -20 0
5 -14 18 0
5 9 11 0
6 -12 18 0
7 -12 -15 0
7 -11 12 0
7 9 -12 0
7 17 -19 0
8 -18 19 0
8 14 17 0
8 16 -20 0
9 -15 16 0
9 12 -17 0
11 -17 -19 0
11 -16 17 0
11 12 -14 0
14 -16 -19 0
15 -18 19 0
16 17 18 0
17 -19 -20 0
