p cnf 150 638
-136 137 -150 0
-128 137 -141 0
-123 -133 146 0
-120 126 -138 0
-119 137 146 0
-117 121 -122 0
-110 -112 134 0
-109 -116 -142 0
-109 110 -145 0
-109 111 122 0
-105 132 137 0
-101 -104 140 0
-99 -109 144 0
-99 -101 -127 0
-97 98 -127 0
-97 116 133 0
-96 123 141 0
-95 -134 141 0
-94 -133 -141 0
-94 -120 -123 0
-94 100 108 0
-94 109 125 0
-93 96 -97 0
-93 122 -142 0
-91 113 -127 0
-88 -127 142 0
-88 -90 145 0
-86 -94 108 0
-85 141 143 0
-82 -129 -137 0
-81 -97 -135 0
-80 -99 -137 0
-79 -97 -126 0
-79 -81 105 0
-79 114 -117 0
-78 -95 97 0
-77 -115 -139 0
-77 -101 -120 0
-77 108 -136 0
-76 99 -129 0
-74 -123 -145 0
-72 -119 -146 0
-71 -114 116 0
-71 123 -139 0
-70 -89 -120 0
-70 99 -150 0
-69 -96 -145 0
-69 114 144 0
-69 118 -139 0
-68 -115 -146 0
-68 -90 -142 0
-68 -81 -86 0
-68 -79 135 0
-68 94 -148 0
-68 120 126 0
-66 -80 -133 0
-65 -95 -105 0
-65 -79 148 0
-65 126 -135 0
-64 -90 -141 0
-64 70 -125 0
-64 70 83 0
-64 125 -135 0
-63 -83 86 0
-63 80 149 0
-63 105 123 0
-61 -114 148 0
-61 70 125 0
-61 81 97 0
-61 103 149 0
-61 110 143 0
-60 -70 -77 0
-60 -61 107 0
-59 -65 136 0
-58 124 -148 0
-57 -111 -118 0
-57 -86 -104 0
-57 -59 93 0
-57 117 125 0
-56 64 -112 0
-56 104 -130 0
-55 -85 -119 0
-54 -78 -97 0
-54 114 -130 0
-54 141 146 0
-53 -122 -126 0
-53 -120 132 0
-53 90 134 0
-52 -87 111 0
-52 -87 127 0
-52 66 117 0
-52 74 124 0
-52 92 -136 0
-52 110 -147 0
-51 54 130 0
-50 -93 109 0
-50 58 119 0
-49 -101 105 0
-49 -78 117 0
-49 -53 113 0
-48 63 110 0
-48 75 137 0
-48 89 141 0
-48 101 108 0
-47 -129 131 0
-47 -63 -132 0
-47 62 -63 0
-46 -105 127 0
-46 -73 -134 0
-46 -47 -121 0
-46 59 103 0
-45 51 -58 0
-45 130 -132 0
-44 -91 -111 0
-44 -47 -51 0
-44 57 -106 0
-44 68 137 0
-44 74 -80 0
-44 106 -137 0
-43 80 130 0
-43 129 -149 0
-42 -103 -126 0
-42 -55 -57 0
-42 92 -148 0
-42 100 144 0
-42 128 147 0
-42 132 150 0
-41 -122 147 0
-41 -94 137 0
-41 -47 -75 0
-41 65 101 0
-40 -127 -143 0
-40 -110 126 0
-40 -100 -142 0
-40 -96 131 0
-40 -54 -87 0
-40 -42 53 0
-40 76 -100 0
-39 -49 106 0
-38 -112 140 0
-38 -96 -132 0
-38 53 -134 0
-37 -94 129 0
-37 -44 52 0
-37 -40 102 0
-36 -55 -136 0
-36 46 141 0
-36 110 -120 0
-35 -70 -116 0
-35 -65 80 0
-35 -56 -92 0
-35 47 -65 0
-34 -49 82 0
-34 57 -89 0
-34 73 -112 0
-33 -63 128 0
-33 70 116 0
-33 132 140 0
-32 52 -116 0
-31 -51 -52 0
-31 87 137 0
-31 100 -141 0
-31 129 142 0
-30 -149 150 0
-30 -35 95 0
-29 -37 52 0
-29 75 98 0
-29 115 -144 0
-28 -87 128 0
-28 -44 56 0
-28 -30 40 0
-28 33 -104 0
-28 76 -140 0
-27 -133 145 0
-27 -51 -94 0
-27 -44 130 0
-27 29 45 0
-26 -58 146 0
-26 -35 60 0
-25 -92 110 0
-25 -47 -112 0
-25 29 64 0
-25 44 47 0
-25 57 -82 0
-25 101 -129 0
-24 -78 122 0
-24 -74 134 0
-24 -70 -90 0
-24 -53 -88 0
-24 -49 83 0
-24 68 149 0
-24 73 140 0
-24 87 -93 0
-23 -83 -118 0
-23 -61 138 0
-23 27 48 0
-23 34 128 0
-23 44 -76 0
-22 -90 -143 0
-22 -43 -44 0
-22 28 71 0
-22 35 -46 0
-22 64 -134 0
-22 79 84 0
-21 36 111 0
-20 -101 144 0
-20 -79 130 0
-20 -29 82 0
-20 -26 -140 0
-19 -44 50 0
-19 20 -127 0
-19 29 117 0
-19 135 142 0
-18 -49 77 0
-18 42 -130 0
-18 53 -97 0
-17 -26 -43 0
-17 33 -82 0
-17 41 143 0
-17 110 125 0
-16 -59 -64 0
-16 -58 117 0
-16 -21 -86 0
-16 27 -61 0
-16 47 96 0
-16 61 68 0
-16 63 -138 0
-16 69 120 0
-16 91 -108 0
-15 -32 45 0
-15 22 -57 0
-15 25 149 0
-15 64 -148 0
-15 93 -115 0
-14 -76 -113 0
-14 -51 64 0
-14 -28 77 0
-14 72 -126 0
-14 87 105 0
-14 112 145 0
-13 -17 -50 0
-13 24 99 0
-13 76 147 0
-12 -88 -99 0
-12 -57 -95 0
-12 -40 87 0
-12 -15 66 0
-11 -86 -105 0
-11 -76 79 0
-11 -68 103 0
-11 -25 -43 0
-11 16 -47 0
-11 62 129 0
-10 -105 131 0
-10 -80 99 0
-10 13 121 0
-10 33 -140 0
-10 58 -148 0
-10 70 145 0
-10 84 86 0
-10 127 138 0
-9 -90 -94 0
-9 -60 66 0
-9 -44 -126 0
-9 -42 112 0
-9 16 -138 0
-9 65 -77 0
-9 71 -149 0
-9 87 142 0
-9 100 122 0
-9 119 -121 0
-8 -101 -112 0
-8 -89 -141 0
-8 -51 -74 0
-8 -32 -83 0
-8 76 -87 0
-8 126 -134 0
-7 -108 112 0
-7 -82 -116 0
-7 -58 -71 0
-7 -27 -110 0
-7 9 -24 0
-7 37 -63 0
-7 69 -118 0
-6 -32 -115 0
-6 9 99 0
-6 10 -59 0
-6 85 117 0
-5 -107 -111 0
-5 -100 118 0
-5 -46 -88 0
-5 -45 137 0
-5 -43 53 0
-5 -30 106 0
-5 -28 50 0
-5 6 124 0
-5 26 37 0
-5 62 150 0
-5 87 -104 0
-4 -43 -123 0
-4 9 -72 0
-4 41 53 0
-4 84 -86 0
-3 -104 -119 0
-3 -21 50 0
-3 21 -29 0
-2 -42 111 0
-2 -12 92 0
-2 20 84 0
-2 77 -129 0
-2 87 100 0
-1 -55 84 0
-1 14 -30 0
-1 54 98 0
-1 84 148 0
1 -94 110 0
1 -58 110 0
1 -4 -27 0
1 27 -114 0
1 42 -98 0
1 54 -83 0
1 55 -111 0
2 -31 135 0
2 16 29 0
2 103 109 0
3 -14 41 0
3 -12 -112 0
3 10 16 0
3 75 116 0
4 27 28 0
4 67 84 0
4 99 129 0
4 140 -150 0
5 -97 -140 0
5 -24 -105 0
5 -22 -128 0
5 18 -21 0
5 80 -119 0
5 110 133 0
6 -87 -142 0
6 -60 149 0
6 -31 88 0
6 -23 112 0
6 -21 53 0
6 67 90 0
7 -99 -118 0
7 -82 -126 0
7 -15 -108 0
7 22 -57 0
7 98 125 0
8 -93 -126 0
8 -33 102 0
8 -24 -139 0
8 -22 -118 0
9 -107 137 0
9 24 -96 0
9 50 139 0
9 78 -126 0
10 -93 -112 0
10 -49 95 0
10 -36 -79 0
10 -14 -45 0
10 12 54 0
10 45 111 0
10 61 99 0
10 105 145 0
11 -45 -106 0
11 24 135 0
11 42 126 0
11 50 73 0
12 -143 149 0
12 -23 -128 0
12 51 -128 0
12 91 -128 0
13 -91 -138 0
13 -27 -109 0
13 -21 -97 0
13 23 112 0
13 46 139 0
13 82 126 0
14 -110 -137 0
14 -42 44 0
14 -34 139 0
14 36 -43 0
14 80 144 0
14 83 121 0
15 -105 138 0
15 -56 -117 0
16 -108 -141 0
16 -26 -118 0
16 23 -95 0
16 31 -107 0
16 46 130 0
16 63 -71 0
16 70 -107 0
17 -89 117 0
17 60 -83 0
17 64 119 0
17 95 150 0
18 -46 -110 0
18 -41 86 0
18 -34 -97 0
18 20 -144 0
18 20 -124 0
18 61 -121 0
18 76 -110 0
18 90 96 0
18 95 -146 0
19 -131 -141 0
19 -94 -109 0
19 -70 87 0
19 -56 -135 0
19 -22 -84 0
19 -22 47 0
19 52 -54 0
19 72 -77 0
20 -64 93 0
20 -47 92 0
20 -39 -95 0
21 123 -134 0
22 -90 98 0
22 -72 -108 0
22 -56 147 0
22 -45 -49 0
22 -24 98 0
22 90 -96 0
22 119 -140 0
23 -79 -114 0
23 -51 106 0
23 54 -119 0
24 -94 -133 0
24 -39 -143 0
25 -73 -100 0
25 -34 -92 0
25 41 -59 0
25 57 105 0
25 69 143 0
25 89 -145 0
25 133 143 0
26 -39 -115 0
26 -32 39 0
26 -31 141 0
26 89 140 0
27 33 41 0
27 64 110 0
27 74 -96 0
28 -116 -132 0
28 -109 -123 0
28 31 84 0
28 46 -53 0
29 -39 56 0
29 -35 -114 0
29 31 -97 0
29 39 -147 0
29 70 -150 0
30 -141 144 0
30 -82 -140 0
30 -52 -102 0
30 52 88 0
30 54 -125 0
30 70 75 0
30 81 116 0
30 92 -96 0
33 -116 140 0
33 -105 140 0
33 -80 -110 0
33 -61 -97 0
33 -58 -92 0
33 -57 -104 0
33 139 146 0
34 -63 -99 0
34 -60 113 0
34 62 82 0
34 76 145 0
35 -85 117 0
35 -70 74 0
35 -46 -109 0
35 134 -141 0
36 -81 -131 0
36 43 112 0
37 -119 -131 0
37 -90 -124 0
37 -84 117 0
37 -76 77 0
37 -54 -63 0
37 51 117 0
37 84 96 0
37 126 -139 0
38 -134 148 0
38 -76 102 0
38 -55 100 0
38 52 -66 0
38 57 71 0
38 61 -150 0
38 61 98 0
39 91 -108 0
40 -67 99 0
40 51 -100 0
40 93 -110 0
41 57 90 0
41 77 136 0
41 109 116 0
42 -60 -133 0
42 -57 109 0
42 88 -150 0
43 52 -110 0
43 61 -129 0
44 -101 -113 0
44 -53 59 0
44 -47 -112 0
44 84 -121 0
45 -84 -95 0
45 79 93 0
45 98 -141 0
46 -76 -81 0
46 -47 -49 0
46 54 -107 0
47 -83 149 0
47 75 -144 0
47 98 -144 0
47 110 -124 0
48 -101 -111 0
48 56 135 0
48 63 141 0
49 -124 138 0
49 73 77 0
49 76 -137 0
50 -92 -133 0
50 -82 85 0
50 -69 -95 0
50 72 131 0
50 112 -131 0
51 -98 -140 0
51 -79 116 0
51 -58 120 0
51 -52 -130 0
51 109 113 0
52 -88 -98 0
52 -75 -115 0
52 70 -83 0
52 80 125 0
53 -98 -147 0
53 -93 -144 0
53 141 -147 0
54 -90 129 0
54 -85 130 0
54 -76 -125 0
54 130 141 0
55 -62 -147 0
55 69 149 0
56 -125 131 0
56 118 -127 0
57 87 141 0
57 97 -139 0
58 69 -78 0
58 126 143 0
59 -86 124 0
59 -70 72 0
59 76 120 0
60 -142 -146 0
60 68 120 0
60 109 145 0
60 112 -118 0
61 -99 122 0
61 -94 124 0
61 83 -125 0
62 -90 136 0
62 118 -124 0
63 -131 136 0
63 83 133 0
64 -74 125 0
64 -69 -137 0
65 -120 -142 0
65 66 -87 0
65 67 75 0
66 -113 118 0
66 68 127 0
66 101 121 0
68 -86 -115 0
68 118 -149 0
71 -116 150 0
71 126 -131 0
73 -87 -147 0
73 -81 -121 0
73 91 -137 0
75 -107 -108 0
75 -105 -150 0
78 -102 -108 0
78 -99 129 0
78 -92 -112 0
78 -81 -108 0
78 107 144 0
79 82 -134 0
79 106 123 0
79 111 -146 0
80 -124 141 0
80 -120 136 0
81 116 -125 0
82 -92 -147 0
83 -113 130 0
83 -102 121 0
83 -99 106 0
83 96 106 0
83 103 -105 0
84 -107 140 0
84 -99 108 0
84 104 -126 0
84 116 -135 0
86 125 -135 0
88 -99 -101 0
88 90 99 0
89 -144 -147 0
89 -130 -141 0
89 -114 -124 0
91 101 -115 0
92 -108 -121 0
93 125 129 0
93 141 148 0
94 -137 148 0
95 -116 -150 0
95 119 150 0
97 -107 -121 0
98 -110 -120 0
98 -105 149 0
100 -121 146 0
100 -119 138 0
100 126 -150 0
101 107 150 0
102 -103 -110 0
103 -109 139 0
104 109 -120 0
106 -121 133 0
106 110 132 0
108 -124 141 0
108 115 -128 0
109 126 -130 0
117 118 -126 0
139 -144 146 0
