p cnf 140 595
-114 -126 134 0
-114 116 117 0
-113 -118 138 0
-108 -132 -135 0
-104 113 -132 0
-95 106 -112 0
-93 -121 -125 0
-93 -111 -115 0
-91 -93 98 0
-87 -89 -104 0
-85 -96 130 0
-85 90 112 0
-83 -86 -122 0
-82 -99 134 0
-82 114 127 0
-81 -94 103 0
-80 -89 -132 0
-80 86 128 0
-78 82 108 0
-77 -98 126 0
-76 124 -137 0
-75 -88 -89 0
-75 78 94 0
-75 101 -132 0
-74 87 -92 0
-73 -79 98 0
-73 88 130 0
-72 -84 86 0
-72 81 -97 0
-72 103 -122 0
-70 102 -132 0
-70 108 109 0
-70 132 139 0
-69 -83 -140 0
-69 -74 -129 0
-67 73 -79 0
-66 82 -90 0
-66 84 -109 0
-65 -125 140 0
-65 -115 124 0
-65 66 -138 0
-65 122 -136 0
-64 -76 -86 0
-64 69 87 0
-64 74 109 0
-63 -76 101 0
-63 -73 -138 0
-62 66 97 0
-62 76 130 0
-61 105 -110 0
-61 107 116 0
-60 -109 -121 0
-60 -76 -78 0
-60 -64 140 0
-58 65 -84 0
-58 98 -140 0
-57 -72 -109 0
-56 104 115 0
-55 93 -125 0
-54 -59 114 0
-53 -114 -138 0
-53 65 -99 0
-52 -92 100 0
-52 82 100 0
-52 89 119 0
-52 104 -122 0
-51 94 -140 0
-50 72 -109 0
-49 53 129 0
-48 -95 124 0
-48 60 -135 0
-48 96 -110 0
-47 -87 97 0
-47 -48 -80 0
-47 70 -137 0
-46 -47 -85 0
-46 65 -105 0
-46 84 97 0
-45 -96 119 0
-45 -95 110 0
-45 -92 113 0
-45 47 -138 0
-45 86 -118 0
-44 -61 -118 0
-44 46 -138 0
-44 57 93 0
-44 94 136 0
-43 -58 -83 0
-43 -46 77 0
-42 -105 106 0
-42 -60 112 0
-42 51 78 0
-42 58 69 0
-42 83 88 0
-41 -65 -113 0
-41 -49 85 0
-41 50 -106 0
-41 50 61 0
-40 -55 -80 0
-40 -48 64 0
-40 41 55 0
-40 83 -137 0
-40 127 -137 0
-39 -118 120 0
-39 -49 62 0
-39 -43 -81 0
-39 40 91 0
-39 46 -87 0
-39 57 -79 0
-39 57 120 0
-39 91 -119 0
-38 -108 131 0
-38 -100 -103 0
-38 -96 -105 0
-38 -52 -87 0
-38 66 -72 0
-38 97 -114 0
-36 88 114 0
-35 -123 -138 0
-35 55 79 0
-34 -109 -125 0
-34 -81 138 0
-34 -77 119 0
-34 -61 100 0
-34 -38 95 0
-34 43 -88 0
-33 -46 56 0
-33 53 -88 0
-33 69 -121 0
-32 -113 118 0
-32 52 -59 0
-32 54 -116 0
-32 56 83 0
-32 69 -77 0
-32 130 137 0
-31 -65 -119 0
-31 110 -140 0
-30 -77 -95 0
-30 -62 -86 0
-30 42 132 0
-30 53 -87 0
-30 132 -139 0
-29 -96 -104 0
-29 66 -81 0
-28 34 92 0
-28 38 -61 0
-28 50 106 0
-28 72 126 0
-27 -81 90 0
-27 -66 -107 0
-27 -48 77 0
-27 32 53 0
-27 80 100 0
-27 84 -116 0
-26 -119 -124 0
-26 -70 -112 0
-26 -32 -123 0
-26 -30 76 0
-26 76 -78 0
-26 82 -104 0
-26 92 131 0
-25 -136 137 0
-25 -59 -62 0
-25 49 -99 0
-25 62 65 0
-24 -78 -134 0
-24 -54 59 0
-24 -49 -65 0
-24 -37 134 0
-24 45 119 0
-23 -77 107 0
-23 -45 123 0
-23 -39 -94 0
-23 48 131 0
-23 53 99 0
-23 61 140 0
-23 68 100 0
-22 -95 -98 0
-22 -91 -103 0
-22 -66 -71 0
-22 -65 -89 0
-22 -57 -78 0
-22 -39 70 0
-22 -33 63 0
-22 -32 89 0
-22 40 99 0
-22 73 122 0
-22 82 -115 0
-21 -92 108 0
-21 38 -79 0
-20 -110 119 0
-20 -53 76 0
-20 -45 -83 0
-20 -30 61 0
-20 28 -128 0
-20 35 92 0
-20 59 137 0
-19 -96 122 0
-19 -76 111 0
-19 -24 -80 0
-18 -106 -119 0
-18 33 -78 0
-18 87 -110 0
-18 105 -130 0
-18 106 107 0
-17 -93 136 0
-17 -61 88 0
-17 50 89 0
-17 53 -114 0
-17 94 111 0
-17 98 -105 0
-16 -116 121 0
-16 -94 100 0
-16 -61 -67 0
-16 58 62 0
-16 74 -79 0
-16 127 130 0
-15 -103 110 0
-15 -100 116 0
-15 -60 116 0
-15 -52 -65 0
-15 -35 -64 0
-15 41 118 0
-15 47 -113 0
-14 -116 129 0
-14 -102 -104 0
-14 24 -92 0
-14 102 -106 0
-13 -98 118 0
-13 -69 106 0
-13 -44 -140 0
-13 32 68 0
-13 46 -114 0
-13 64 121 0
-12 -86 95 0
-12 -40 -94 0
-12 -16 80 0
-12 77 -133 0
-12 112 123 0
-12 113 132 0
-11 -70 99 0
-11 -58 133 0
-11 -39 59 0
-11 -37 -101 0
-11 36 37 0
-11 86 -102 0
-11 91 136 0
-10 -35 76 0
-10 33 126 0
-10 97 109 0
-9 -81 -125 0
-9 -71 87 0
-9 -54 -137 0
-9 -17 51 0
-9 12 -20 0
-9 65 138 0
-9 126 -139 0
-8 -101 117 0
-8 -52 94 0
-8 -33 -67 0
-8 -22 -73 0
-8 24 61 0
-8 32 140 0
-8 39 61 0
-8 48 -82 0
-7 -40 -51 0
-7 -19 -42 0
-7 50 -84 0
-6 -123 124 0
-6 -84 95 0
-6 -55 97 0
-6 -25 -62 0
-6 -17 131 0
-6 80 132 0
-5 -89 117 0
-5 -66 129 0
-5 -49 -74 0
-5 -48 -115 0
-5 19 -91 0
-5 135 136 0
-4 -94 -98 0
-4 -88 -90 0
-4 -59 116 0
-4 -40 -80 0
-4 -32 -83 0
-4 -25 76 0
-4 20 -51 0
-4 65 -124 0
-4 71 -117 0
-4 106 -138 0
-4 126 -132 0
-3 -42 132 0
-3 -20 -92 0
-3 -13 51 0
-3 28 -104 0
-2 -53 66 0
-2 -34 -58 0
-2 -19 73 0
-2 7 119 0
-2 12 101 0
-2 44 51 0
-2 49 68 0
-2 70 139 0
-2 98 100 0
-1 -122 125 0
-1 -35 42 0
-1 -6 46 0
-1 9 -32 0
-1 20 -129 0
-1 22 54 0
-1 31 137 0
-1 41 -70 0
1 -126 137 0
1 -20 -115 0
1 43 -116 0
1 68 -138 0
2 -114 -133 0
2 -81 123 0
2 -16 41 0
2 21 84 0
2 47 82 0
2 72 -124 0
2 77 -113 0
2 82 135 0
3 -63 99 0
3 -57 -90 0
3 -44 -51 0
3 -13 64 0
3 27 -45 0
4 -53 100 0
4 -33 -125 0
4 -23 -139 0
4 25 -104 0
4 27 -105 0
4 70 97 0
4 75 95 0
5 -87 123 0
5 -49 -60 0
5 -6 -63 0
5 14 -66 0
5 16 -126 0
5 35 94 0
5 39 -84 0
5 60 -92 0
5 104 -119 0
6 -110 -125 0
6 -103 -110 0
6 -35 -117 0
6 -18 -71 0
6 -13 -24 0
6 10 -131 0
6 24 -134 0
6 92 -113 0
7 -57 -87 0
7 -47 -99 0
7 -43 -58 0
7 -37 78 0
7 -15 103 0
7 24 103 0
7 41 -116 0
7 43 138 0
8 -23 -76 0
8 23 -78 0
9 -103 -104 0
9 -73 -108 0
9 24 92 0
9 51 -106 0
10 -43 -59 0
10 24 123 0
11 -96 100 0
11 -14 -84 0
11 85 127 0
11 112 -116 0
12 48 -140 0
12 49 66 0
12 71 -130 0
12 93 106 0
13 -82 87 0
13 -65 -77 0
13 29 -127 0
13 33 -69 0
13 80 109 0
14 -111 127 0
14 -45 -119 0
14 -33 -43 0
14 -29 88 0
14 -19 51 0
14 68 105 0
15 -40 67 0
15 23 137 0
15 70 106 0
16 17 129 0
16 18 125 0
16 50 -68 0
16 65 -124 0
16 88 106 0
16 104 140 0
17 -56 -106 0
17 -31 75 0
17 23 136 0
17 26 -121 0
17 45 -70 0
17 91 -125 0
17 93 -116 0
18 -39 120 0
18 -34 -133 0
18 -28 89 0
18 37 119 0
18 77 -123 0
18 113 -118 0
19 -83 -114 0
19 -44 -95 0
19 104 134 0
20 -108 138 0
20 -62 77 0
21 -40 53 0
21 30 105 0
21 53 -60 0
22 -115 -132 0
22 -56 86 0
22 61 126 0
23 -57 -105 0
23 -52 136 0
23 44 94 0
23 135 -136 0
24 32 44 0
24 44 -52 0
24 92 114 0
24 112 -113 0
25 30 46 0
26 -64 -68 0
26 28 -49 0
27 -79 117 0
27 48 105 0
27 57 -113 0
27 75 -108 0
28 -63 99 0
28 -40 -101 0
28 73 -102 0
28 91 -137 0
28 110 -122 0
28 119 -121 0
29 -69 -115 0
29 -62 94 0
29 -50 -98 0
30 -127 -135 0
30 -50 97 0
30 74 -100 0
31 -69 -108 0
31 -66 81 0
31 62 84 0
31 66 -78 0
32 -111 136 0
32 49 63 0
32 102 133 0
33 -137 -138 0
33 57 129 0
33 67 -91 0
33 82 96 0
33 95 -100 0
34 -130 -135 0
34 87 89 0
34 101 -103 0
35 -56 69 0
35 -47 131 0
35 75 111 0
35 84 90 0
36 -38 -96 0
36 43 -123 0
36 48 -128 0
36 124 -129 0
37 -40 -63 0
37 -39 -91 0
37 -39 117 0
37 38 138 0
37 45 -77 0
39 -68 -76 0
39 -62 -113 0
39 -57 -96 0
40 -86 -108 0
40 -60 75 0
40 -53 104 0
40 -47 93 0
40 43 -56 0
40 65 -92 0
40 97 120 0
41 -116 137 0
41 -85 99 0
41 -51 -81 0
41 -50 -125 0
41 -50 -108 0
41 68 -135 0
41 80 -97 0
41 118 -125 0
42 -65 113 0
43 62 129 0
44 -98 135 0
44 -67 130 0
44 64 76 0
45 -77 117 0
46 -66 -70 0
47 -74 95 0
47 73 -91 0
47 98 -121 0
48 -65 -121 0
48 49 87 0
49 -74 -111 0
50 -64 79 0
50 76 -108 0
51 -77 133 0
52 -88 -131 0
52 69 72 0
52 81 122 0
52 101 -102 0
53 -77 -111 0
53 56 -131 0
53 61 83 0
54 -116 121 0
54 -95 138 0
54 -79 112 0
55 -69 126 0
55 58 103 0
56 68 139 0
58 -95 -116 0
58 60 127 0
58 71 80 0
58 94 131 0
59 -76 -112 0
59 116 -121 0
59 124 140 0
59 138 -140 0
60 -112 -117 0
60 -69 119 0
61 75 -111 0
61 104 -135 0
62 -92 129 0
62 -78 -123 0
62 126 -135 0
63 -89 112 0
63 -71 -112 0
63 76 -92 0
63 110 -111 0
64 -114 138 0
64 72 -117 0
64 98 -123 0
65 92 -126 0
66 -67 81 0
66 93 -130 0
67 -79 -136 0
68 116 130 0
69 -78 140 0
69 -74 118 0
70 89 -94 0
70 96 -97 0
71 80 88 0
71 138 140 0
72 87 -96 0
72 88 -134 0
73 -111 112 0
73 -82 -132 0
73 105 108 0
74 -100 114 0
75 -115 139 0
75 -112 138 0
75 -96 -102 0
78 -110 -139 0
78 -97 135 0
78 111 133 0
78 124 139 0
79 -129 -132 0
79 85 -97 0
81 96 125 0
81 102 -104 0
82 -87 -115 0
82 101 114 0
85 -102 -106 0
86 119 127 0
87 125 140 0
88 -107 116 0
88 -97 116 0
89 -108 131 0
89 -98 -105 0
89 -98 109 0
90 94 106 0
91 102 121 0
96 115 128 0
97 101 117 0
97 107 118 0
98 -108 -115 0
99 -126 -134 0
105 -109 -112 0
105 113 138 0
107 125 -127 0
110 119 -132 0
114 -122 136 0
