p cnf 50 213
-36 -38 -44 0
-35 -43 50 0
-35 44 -45 0
-33 -38 -45 0
-33 -37 48 0
-33 -36 -39 0
-27 -29 -40 0
-25 -33 48 0
-24 28 43 0
-24 29 -44 0
-23 -28 47 0
-23 26 -46 0
-23 39 -47 0
-23 44 -49 0
-22 -29 -43 0
-22 28 -42 0
-22 29 50 0
-21 38 40 0
-20 -35 45 0
-20 -33 34 0
-20 43 -46 0
-19 -39 48 0
-19 27 33 0
-19 30 -37 0
-18 -37 -48 0
-18 -33 40 0
-18 -26 44 0
-17 -25 -42 0
-17 -20 -25 0
-17 31 -32 0
-16 -26 39 0
-16 -22 36 0
-16 26 -38 0
-16 33 -38 0
-15 -33 46 0
-15 -29 32 0
-15 22 -48 0
-15 24 -37 0
-15 27 45 0
-15 31 45 0
-14 -21 -48 0
-14 -16 49 0
-14 -15 23 0
-14 17 32 0
-14 29 -30 0
-14 32 44 0
-13 -30 31 0
-13 -20 33 0
-13 -17 -29 0
-12 -36 46 0
-12 -31 37 0
-12 23 49 0
-12 29 30 0
-11 -39 43 0
-11 -21 35 0
-11 14 -25 0
-11 33 44 0
-11 36 44 0
-11 45 -50 0
-10 -41 -50 0
-10 -34 -38 0
-10 -28 -50 0
-10 -17 18 0
-10 -15 -19 0
-10 26 31 0
-9 -14 -50 0
-8 -34 -47 0
-8 -31 -39 0
-8 -22 -34 0
-8 -22 27 0
-8 -18 -30 0
-8 16 -36 0
-8 30 -47 0
-7 -45 46 0
-7 -38 -49 0
-7 -35 39 0
-7 -26 39 0
-7 -13 -36 0
-7 9 19 0
-7 29 -40 0
-7 42 -47 0
-6 -25 32 0
-6 -16 40 0
-6 -12 -50 0
-6 -11 35 0
-6 -7 -8 0
-5 -15 28 0
-5 -10 -46 0
-5 -9 -41 0
-5 22 -50 0
-5 36 -47 0
-4 -40 -45 0
-4 12 33 0
-4 44 -46 0
-3 -20 41 0
-3 -15 29 0
-3 -9 -21 0
-3 -8 23 0
-3 7 31 0
-2 -29 -48 0
-2 -18 36 0
-2 5 -27 0
-2 23 -31 0
-2 36 46 0
-1 -37 40 0
-1 -32 -34 0
-1 -19 27 0
-1 -15 36 0
-1 5 -44 0
-1 9 -26 0
-1 10 23 0
-1 11 -38 0
-1 12 -37 0
-1 14 -20 0
1 -18 45 0
1 -15 -37 0
1 -15 37 0
1 -2 12 0
1 8 -40 0
1 16 -44 0
1 20 26 0
1 26 -46 0
2 -22 -33 0
2 -17 -34 0
2 10 -14 0
2 17 -46 0
2 30 -36 0
2 33 36 0
2 39 41 0
3 11 41 0
3 31 -40 0
3 31 -36 0
4 -34 43 0
4 -32 -46 0
4 -21 -46 0
4 -12 48 0
4 -9 -17 0
4 21 -23 0
4 24 38 0
4 44 45 0
5 -39 49 0
5 -24 40 0
5 -23 -50 0
5 -14 -43 0
5 -9 37 0
5 -6 -50 0
5 6 8 0
6 -20 -37 0
6 -7 -19 0
6 15 35 0
7 -41 45 0
7 -38 -44 0
7 20 -29 0
7 23 34 0
7 23 39 0
8 -44 46 0
8 -42 43 0
8 -10 36 0
8 14 -37 0
8 18 -39 0
8 28 -35 0
9 -33 34 0
9 11 19 0
9 21 -34 0
9 36 -38 0
10 -22 29 0
10 -12 40 0
10 21 -32 0
10 23 37 0
10 38 49 0
10 42 -46 0
11 -31 -37 0
11 -17 -31 0
11 37 -42 0
12 -39 -45 0
12 19 -31 0
12 24 41 0
12 25 -41 0
12 29 -43 0
13 -24 35 0
13 28 -40 0
13 29 -32 0
14 -27 -45 0
14 40 43 0
15 -28 -35 0
15 35 -47 0
17 -34 -42 0
17 -31 34 0
17 -26 47 0
17 -25 29 0
17 25 -48 0
18 -28 30 0
18 19 49 0
18 21 -35 0
20 26 -41 0
21 -45 -49 0
21 31 -43 0
22 25 31 0
22 29 43 0
22 31 -40 0
23 26 27 0
27 -43 -46 0
27 -37 49 0
28 33 47 0
29 -36 -37 0
29 -30 -44 0
31 -39 -41 0
32 -35 36 0
33 47 49 0
34 45 46 0
35 37 -38 0
36 41 44 0
41 -44 -45 0
