p cnf 55 234
-45 -52 53 0
-43 45 -54 0
-40 41 -55 0
-39 43 48 0
-37 -45 -46 0
-37 38 40 0
-37 45 53 0
-34 -43 -50 0
-34 36 -50 0
-33 -40 -53 0
-31 -48 -54 0
-31 44 49 0
-30 -32 -38 0
-30 47 -50 0
-29 37 -50 0
-28 32 35 0
-27 -36 52 0
-27 -33 -39 0
-27 31 -52 0
-27 45 -49 0
-26 30 39 0
-25 41 -52 0
-24 31 40 0
-24 37 -40 0
-24 40 -53 0
-23 47 -54 0
-23 47 55 0
-22 43 47 0
-21 -32 45 0
-21 -31 -55 0
-21 40 -50 0
-20 21 -34 0
-18 23 38 0
-18 30 -37 0
-17 18 -29 0
-17 23 41 0
-17 26 37 0
-17 32 -53 0
-17 48 54 0
-16 -42 51 0
-15 -30 34 0
-15 -20 35 0
-15 -17 -34 0
-15 43 51 0
-14 -23 38 0
-14 -15 -24 0
-14 -15 29 0
-14 35 -51 0
-14 35 -49 0
-13 -17 44 0
-13 38 41 0
-12 -21 -37 0
-12 21 -32 0
-12 22 45 0
-12 27 55 0
-11 -31 -32 0
-11 -30 50 0
-11 -14 21 0
-11 33 -46 0
-10 -42 45 0
-10 -19 -33 0
-10 21 -36 0
-10 28 -36 0
-10 37 44 0
-10 41 -42 0
-10 49 -54 0
-9 -14 40 0
-9 21 50 0
-9 28 -49 0
-8 -30 40 0
-8 -15 27 0
-8 -14 16 0
-8 10 -30 0
-7 -23 43 0
-7 -10 -33 0
-7 11 37 0
-7 24 39 0
-7 25 -26 0
-7 37 -51 0
-6 -47 -54 0
-6 -33 38 0
-6 -8 -11 0
-6 20 -27 0
-6 28 52 0
-5 -49 -52 0
-5 -39 -52 0
-5 21 -39 0
-5 40 -47 0
-4 -21 -32 0
-4 9 21 0
-3 -22 23 0
-3 -7 -39 0
-3 -4 -6 0
-2 -42 49 0
-2 -27 52 0
-2 -19 32 0
-2 -13 -19 0
-2 19 -46 0
-2 24 -31 0
-2 28 48 0
-1 -30 -48 0
-1 2 21 0
-1 4 -51 0
-1 4 -11 0
-1 6 -12 0
-1 6 -7 0
-1 37 51 0
1 -31 -55 0
1 -7 -46 0
1 23 -44 0
1 29 48 0
1 33 -46 0
2 -39 -43 0
2 -29 -35 0
2 -14 33 0
2 -13 39 0
2 -12 34 0
2 -6 18 0
2 5 7 0
2 10 43 0
2 14 30 0
2 21 48 0
2 25 48 0
2 26 35 0
2 28 -55 0
3 -35 37 0
3 -22 -46 0
3 -11 -12 0
3 -5 15 0
3 -4 26 0
3 5 -51 0
3 6 16 0
3 21 22 0
3 24 -52 0
4 -31 45 0
4 -25 51 0
4 9 -18 0
4 14 33 0
5 -30 -32 0
5 -17 51 0
5 10 17 0
5 27 -33 0
6 -49 -52 0
6 -32 -50 0
6 -30 -36 0
6 -29 -49 0
6 -28 48 0
6 -24 -49 0
6 -9 39 0
6 14 46 0
6 35 -40 0
7 -9 -14 0
7 -8 -15 0
7 29 -39 0
7 35 -43 0
7 37 -44 0
8 -31 -35 0
8 -25 48 0
8 -12 35 0
8 12 -39 0
8 29 -40 0
8 30 -35 0
9 -36 -51 0
9 -22 -32 0
9 -21 38 0
9 10 -53 0
9 33 -38 0
10 -29 54 0
10 -28 -52 0
10 23 48 0
10 42 51 0
11 27 -41 0
11 40 -42 0
12 -16 -25 0
13 -26 -31 0
13 -19 -22 0
13 26 38 0
13 27 37 0
13 28 -49 0
13 28 46 0
13 31 52 0
14 -47 55 0
14 -24 -29 0
15 -29 48 0
15 -27 41 0
15 -22 33 0
15 -16 37 0
15 34 -48 0
15 36 -45 0
16 22 48 0
16 24 49 0
16 38 -52 0
16 41 -49 0
17 19 23 0
17 19 32 0
17 41 48 0
17 46 -51 0
18 -20 -50 0
19 -42 44 0
19 -20 -33 0
20 36 -44 0
20 39 49 0
21 -24 53 0
22 32 -49 0
22 36 39 0
23 -32 -39 0
23 -26 31 0
23 32 35 0
23 48 -53 0
24 -48 -51 0
24 35 -46 0
25 -34 -36 0
25 -34 45 0
25 -32 41 0
25 27 -50 0
25 28 -41 0
27 29 -51 0
27 39 43 0
27 47 -54 0
28 -36 -41 0
28 36 -42 0
29 -42 -55 0
29 -42 -47 0
29 -31 35 0
31 39 43 0
32 -39 -55 0
39 51 -55 0
41 44 55 0
41 45 46 0
42 -51 -54 0
43 44 51 0
43 48 -50 0
44 53 54 0
51 -52 53 0
