p cnf 70 298
-63 64 -68 0
-55 -64 69 0
-50 -55 -63 0
-46 57 -67 0
-45 64 -69 0
-42 62 64 0
-41 49 -67 0
-41 58 65 0
-40 -57 -64 0
-40 -56 60 0
-40 56 -58 0
-39 -51 58 0
-39 61 -65 0
-37 -40 -62 0
-37 50 62 0
-36 -38 -52 0
-35 47 58 0
-35 60 63 0
-34 57 62 0
-33 -36 -48 0
-33 59 70 0
-32 -45 67 0
-32 44 -55 0
-31 -39 -40 0
-31 -35 48 0
-31 35 -36 0
-28 34 -36 0
-27 -33 -49 0
-27 61 65 0
-26 39 44 0
-25 -28 50 0
-25 44 63 0
-25 55 65 0
-24 -55 -66 0
-24 -44 51 0
-24 -33 -51 0
-24 -32 -47 0
-24 46 67 0
-23 -28 29 0
-23 26 -28 0
-22 -58 70 0
-22 -51 61 0
-22 -47 57 0
-22 -30 35 0
-22 -29 -53 0
-21 -57 68 0
-21 22 31 0
-21 33 65 0
-20 -61 -68 0
-20 -49 51 0
-20 -40 49 0
-20 34 47 0
-20 38 58 0
-19 -46 -57 0
-19 -45 47 0
-19 -37 -55 0
-19 -35 59 0
-19 -32 -64 0
-19 47 -60 0
-19 48 -53 0
-19 50 -61 0
-18 21 57 0
-18 41 -58 0
-18 47 69 0
-17 -24 30 0
-17 -21 -24 0
-17 -18 -27 0
-17 23 -34 0
-17 26 49 0
-16 -35 38 0
-16 19 25 0
-16 20 -68 0
-15 -19 39 0
-15 -17 -55 0
-15 18 -20 0
-15 35 42 0
-14 -43 -56 0
-14 -42 70 0
-14 -25 38 0
-14 -20 -55 0
-14 -18 -52 0
-13 -18 57 0
-13 17 69 0
-13 18 -45 0
-13 32 47 0
-13 38 -48 0
-12 -61 64 0
-12 -58 -59 0
-12 -36 -56 0
-12 -22 -28 0
-12 61 62 0
-10 -50 -59 0
-10 -41 -55 0
-10 -19 60 0
-10 -15 -38 0
-10 29 45 0
-10 34 54 0
-10 36 -38 0
-9 -25 55 0
-8 -30 60 0
-8 14 -46 0
-8 41 -69 0
-7 -17 67 0
-7 11 -68 0
-7 16 31 0
-7 18 54 0
-7 35 38 0
-6 -56 -68 0
-6 -50 70 0
-6 -44 -59 0
-6 -29 59 0
-6 -12 -24 0
-6 14 -26 0
-5 -48 59 0
-5 -29 -42 0
-5 -10 59 0
-5 14 -39 0
-4 -53 -55 0
-4 -52 68 0
-4 -36 67 0
-4 -9 11 0
-4 -6 34 0
-4 -5 29 0
-3 -27 -49 0
-3 -25 48 0
-3 7 -17 0
-3 31 54 0
-3 32 55 0
-3 39 67 0
-2 -46 -49 0
-2 -32 51 0
-2 -3 47 0
-2 -3 50 0
-2 11 -60 0
-2 17 -27 0
-1 -57 -63 0
-1 -57 68 0
-1 -49 50 0
-1 -4 -32 0
-1 6 66 0
-1 42 -53 0
-1 53 64 0
1 -45 47 0
1 -31 68 0
1 -23 -34 0
1 -19 -30 0
1 -12 50 0
1 13 26 0
1 18 -65 0
1 18 -51 0
1 51 -63 0
2 5 9 0
2 7 -67 0
2 23 -28 0
2 59 61 0
3 -48 49 0
3 -16 -70 0
4 -60 -63 0
4 -42 -63 0
4 -39 -66 0
4 -9 32 0
4 -5 68 0
4 27 -56 0
5 -18 -28 0
5 -13 -27 0
5 -10 17 0
5 6 -61 0
5 49 -66 0
5 53 69 0
6 -38 66 0
6 -12 13 0
6 30 -63 0
6 61 68 0
6 65 70 0
7 -37 60 0
7 -13 43 0
7 21 -58 0
7 22 -44 0
7 42 -46 0
8 -32 53 0
8 -24 -37 0
8 18 38 0
8 18 65 0
8 22 -57 0
8 23 62 0
8 40 -44 0
9 -29 40 0
9 -24 -43 0
9 -16 -24 0
9 -13 -56 0
9 -12 37 0
9 21 -56 0
9 28 62 0
10 37 -63 0
11 -46 -52 0
11 13 50 0
11 15 41 0
12 -50 -69 0
12 -43 58 0
12 31 57 0
13 -19 32 0
13 -15 48 0
13 26 41 0
13 39 43 0
13 42 57 0
13 46 -52 0
14 18 39 0
14 20 41 0
15 -54 66 0
15 -40 -45 0
15 -36 40 0
15 -29 43 0
15 20 34 0
15 21 56 0
15 25 42 0
15 53 -68 0
16 -63 -67 0
16 -45 -54 0
16 36 58 0
16 54 69 0
16 55 -63 0
17 -54 68 0
17 29 -41 0
17 33 62 0
18 -60 66 0
18 -44 66 0
18 -38 61 0
18 -31 62 0
18 21 38 0
18 36 -52 0
18 40 -58 0
19 -56 -64 0
19 21 -49 0
19 55 69 0
20 -53 -66 0
20 -49 -68 0
20 -31 49 0
20 35 -65 0
20 49 -62 0
21 -56 70 0
21 -44 60 0
21 -36 -48 0
21 -29 31 0
21 47 -56 0
22 -32 -35 0
22 -30 56 0
22 -27 59 0
22 28 45 0
23 -44 -49 0
23 -33 60 0
23 30 56 0
23 34 -68 0
23 50 65 0
24 -35 67 0
24 -31 -63 0
24 41 63 0
25 -29 -69 0
26 31 -36 0
26 44 63 0
27 66 68 0
28 -62 -65 0
28 34 48 0
29 -38 -62 0
29 32 -39 0
29 57 -67 0
30 31 33 0
31 39 59 0
32 -41 -59 0
32 -36 58 0
32 35 51 0
33 -36 55 0
34 -42 -52 0
35 -42 -64 0
35 45 66 0
35 56 -60 0
36 -51 68 0
36 -41 55 0
36 57 -66 0
36 58 -67 0
37 -45 -54 0
38 62 67 0
39 -47 -63 0
39 45 -70 0
40 -46 66 0
42 -51 54 0
42 46 -69 0
42 59 67 0
45 -49 -61 0
46 -52 -67 0
47 52 -58 0
48 -56 -68 0
48 50 59 0
49 -60 64 0
51 -53 -64 0
52 -62 65 0
52 -53 55 0
52 66 67 0
59 63 -70 0
