p cnf 150 638
-131 138 -149 0
-121 143 145 0
-113 123 135 0
-107 115 132 0
-105 119 -124 0
-104 122 -124 0
-103 -112 -120 0
-102 -114 -148 0
-100 -106 -127 0
-97 -124 144 0
-96 -97 150 0
-92 -127 133 0
-92 94 -98 0
-91 -124 148 0
-91 -115 116 0
-91 113 144 0
-90 -127 131 0
-89 -91 143 0
-86 -102 147 0
-86 116 -144 0
-85 -122 -125 0
-85 -93 -140 0
-84 -90 109 0
-84 113 -142 0
-83 86 -107 0
-82 -88 99 0
-78 92 -118 0
-78 99 -140 0
-77 -140 -148 0
-76 -130 146 0
-75 -86 90 0
-75 97 113 0
-74 84 138 0
-73 96 -116 0
-73 109 -135 0
-72 -92 -115 0
-71 -84 104 0
-71 -76 -120 0
-70 82 -107 0
-70 99 101 0
-69 -85 141 0
-69 97 -140 0
-68 -79 119 0
-68 94 -101 0
-67 -109 131 0
-67 -99 -129 0
-67 96 102 0
-66 92 104 0
-66 126 145 0
-65 -103 131 0
-65 101 -149 0
-64 83 -84 0
-63 -106 -132 0
-63 -67 -77 0
-63 131 138 0
-62 -116 -145 0
-62 70 71 0
-62 90 136 0
-61 -114 127 0
-61 -91 136 0
-61 82 -107 0
-61 103 -130 0
-59 -104 105 0
-59 -70 -89 0
-59 -68 113 0
-59 88 129 0
-59 100 -141 0
-59 104 -139 0
-58 102 -126 0
-57 -91 -108 0
-57 -75 -131 0
-57 60 70 0
-57 82 -110 0
-57 113 144 0
-56 -117 135 0
-56 -61 -84 0
-56 88 97 0
-55 66 125 0
-55 85 -88 0
-55 94 104 0
-55 105 -141 0
-55 113 120 0
-54 -126 149 0
-54 -66 -85 0
-53 -125 132 0
-53 -58 78 0
-52 -131 -134 0
-52 79 -130 0
-52 100 120 0
-52 127 142 0
-51 73 -99 0
-51 76 148 0
-51 89 -130 0
-50 -122 130 0
-50 -99 146 0
-50 90 -118 0
-49 -132 -142 0
-49 -57 -136 0
-49 -56 -67 0
-49 60 -82 0
-49 84 135 0
-49 90 -95 0
-49 101 -121 0
-49 121 138 0
-48 -104 123 0
-48 58 -70 0
-48 67 -99 0
-47 -74 83 0
-47 -61 -78 0
-47 -60 -90 0
-47 133 137 0
-46 -52 107 0
-46 52 -136 0
-45 -128 -137 0
-45 64 116 0
-45 66 90 0
-45 70 102 0
-44 -123 145 0
-44 -60 122 0
-44 146 -147 0
-43 51 -82 0
-43 105 -123 0
-42 -65 69 0
-42 58 -126 0
-42 76 -143 0
-41 -109 -119 0
-41 70 -138 0
-41 82 122 0
-41 126 -150 0
-40 -87 112 0
-40 41 -43 0
-40 43 67 0
-40 114 -116 0
-39 -81 -94 0
-39 -59 116 0
-39 -47 73 0
-39 45 144 0
-39 67 -113 0
-38 -99 145 0
-38 -43 -70 0
-38 41 -77 0
-38 68 -99 0
-37 -105 -143 0
-37 -59 -126 0
-37 -47 61 0
-37 42 114 0
-37 77 -141 0
-37 89 136 0
-36 -91 -105 0
-36 -71 -116 0
-36 -57 106 0
-36 99 -113 0
-35 -39 83 0
-35 46 68 0
-35 106 108 0
-34 -53 -61 0
-34 42 -52 0
-34 66 -81 0
-34 67 -97 0
-34 67 142 0
-34 83 -146 0
-34 84 135 0
-33 -71 -87 0
-33 37 -77 0
-33 47 126 0
-33 75 -92 0
-33 131 -144 0
-32 -134 141 0
-32 -123 -128 0
-32 -114 -145 0
-32 -92 -147 0
-32 -69 144 0
-32 42 138 0
-32 61 144 0
-32 121 123 0
-31 -78 -108 0
-31 -73 92 0
-31 -72 120 0
-31 -65 -146 0
-31 -58 88 0
-31 64 -72 0
-30 -76 87 0
-30 -59 -149 0
-30 -41 71 0
-30 89 -130 0
-30 115 -126 0
-29 -37 -123 0
-29 51 -84 0
-28 -38 87 0
-28 47 -146 0
-28 75 105 0
-28 84 -99 0
-28 88 98 0
-28 105 -113 0
-27 -59 83 0
-27 -52 56 0
-27 30 59 0
-27 46 -102 0
-27 108 138 0
-26 -74 -133 0
-26 28 41 0
-25 -101 133 0
-25 -90 96 0
-25 -82 99 0
-25 -79 -145 0
-25 -67 -120 0
-25 -37 -136 0
-25 32 -96 0
-25 48 -56 0
-25 54 90 0
-25 63 -64 0
-23 -57 -144 0
-23 -43 -68 0
-23 91 -98 0
-22 -141 143 0
-22 -78 -121 0
-22 -54 -57 0
-22 -40 -43 0
-22 -38 93 0
-22 72 -142 0
-21 -122 -142 0
-21 -77 -103 0
-21 25 -119 0
-21 55 -94 0
-21 111 -145 0
-21 115 -124 0
-20 -123 146 0
-20 -69 131 0
-20 -34 110 0
-20 34 -35 0
-20 49 -54 0
-19 -92 97 0
-19 42 82 0
-19 101 -144 0
-18 -130 144 0
-18 -117 136 0
-18 -45 -66 0
-17 -28 128 0
-16 -75 101 0
-16 -45 82 0
-16 37 53 0
-16 50 107 0
-16 103 133 0
-14 -15 133 0
-14 26 -59 0
-14 93 105 0
-14 104 116 0
-13 -108 -122 0
-13 -27 62 0
-13 24 -136 0
-13 119 139 0
-12 -117 -132 0
-12 -112 -150 0
-12 -74 -81 0
-12 -25 -144 0
-12 48 64 0
-12 105 -116 0
-11 -107 -120 0
-11 48 -97 0
-10 -108 -142 0
-10 -75 -77 0
-10 32 -139 0
-10 42 74 0
-9 -107 139 0
-9 -64 -90 0
-9 -36 -147 0
-9 -21 -68 0
-9 -21 36 0
-9 19 130 0
-9 27 143 0
-9 55 -121 0
-9 60 89 0
-9 61 -114 0
-9 96 148 0
-8 -56 106 0
-8 -49 -75 0
-8 -49 91 0
-8 -24 -64 0
-8 -13 123 0
-8 66 -132 0
-8 133 -146 0
-7 -116 133 0
-7 -109 122 0
-7 -39 41 0
-7 -38 86 0
-7 -25 65 0
-7 43 -73 0
-6 -32 83 0
-6 -21 39 0
-6 -15 -45 0
-6 -7 83 0
-6 38 -116 0
-5 -115 -150 0
-5 -49 130 0
-5 -30 -54 0
-5 -14 -52 0
-5 -6 -32 0
-5 19 -117 0
-5 54 -85 0
-5 110 134 0
-4 -50 -128 0
-4 35 -126 0
-4 71 75 0
-4 84 -142 0
-3 -95 -120 0
-3 -85 99 0
-2 -73 118 0
-2 -12 60 0
-2 53 -136 0
-2 54 114 0
-1 -33 105 0
-1 -11 -100 0
-1 39 -103 0
1 -41 51 0
1 -24 99 0
1 20 -33 0
1 27 -118 0
1 27 113 0
1 32 53 0
1 40 -128 0
2 -69 112 0
2 -27 29 0
2 -23 147 0
2 -13 93 0
2 54 -91 0
2 64 -107 0
2 113 -115 0
2 120 -148 0
2 127 128 0
3 -115 -118 0
3 -88 113 0
3 -62 -130 0
3 -55 120 0
3 15 78 0
3 72 80 0
3 73 108 0
3 90 -111 0
4 -16 -30 0
4 -14 145 0
4 -12 109 0
4 12 103 0
5 -107 -148 0
5 -95 104 0
5 19 -35 0
5 138 -149 0
6 -48 -65 0
6 19 -37 0
6 121 -142 0
7 -121 -132 0
7 -11 -78 0
7 19 129 0
7 53 -144 0
7 56 117 0
7 71 -105 0
8 -76 96 0
8 -59 78 0
8 23 112 0
8 84 116 0
8 107 148 0
9 -108 -118 0
9 -93 136 0
9 -41 -60 0
9 -35 -64 0
9 -26 91 0
9 27 35 0
9 36 57 0
9 43 -80 0
9 60 117 0
10 -106 112 0
10 -58 -110 0
10 -48 -75 0
10 -28 -55 0
10 39 81 0
10 75 -111 0
11 -105 -142 0
11 39 -83 0
11 84 96 0
11 90 -115 0
11 118 -123 0
12 -84 99 0
12 27 -60 0
13 -31 -81 0
13 -22 -66 0
13 54 142 0
13 74 -148 0
13 103 -114 0
13 106 121 0
14 -33 132 0
14 -15 -88 0
15 -103 -147 0
15 35 52 0
15 95 -109 0
16 -60 -120 0
16 -43 -100 0
16 -35 -115 0
16 18 133 0
16 65 -138 0
17 -116 118 0
17 -110 114 0
17 -107 -120 0
17 47 139 0
17 50 -57 0
17 60 -150 0
18 -108 134 0
18 -37 -109 0
18 101 -122 0
19 -128 -135 0
19 -44 94 0
19 20 -135 0
19 25 -76 0
19 39 -62 0
19 78 -149 0
19 80 117 0
19 82 100 0
19 126 -144 0
20 -72 -126 0
20 -27 -58 0
20 49 -90 0
20 75 141 0
21 -111 130 0
21 -60 -112 0
21 24 76 0
21 62 118 0
21 72 -95 0
21 79 -85 0
22 -101 149 0
22 -36 -68 0
22 38 -136 0
22 60 -129 0
23 -74 95 0
23 -27 84 0
23 34 37 0
23 75 -137 0
23 112 127 0
24 -69 -147 0
24 -38 72 0
24 42 -99 0
24 54 68 0
24 114 -119 0
25 -112 120 0
25 -105 134 0
25 -103 -120 0
25 -41 -102 0
25 109 -123 0
26 -56 -121 0
26 -46 -79 0
26 -35 76 0
26 37 47 0
26 71 125 0
26 102 103 0
27 -138 148 0
27 -76 104 0
27 -52 54 0
27 -49 110 0
28 -95 -143 0
28 -65 144 0
28 86 -123 0
29 -121 125 0
29 -115 148 0
29 -71 134 0
29 -54 -150 0
29 44 121 0
30 73 78 0
30 78 -138 0
31 -71 -144 0
31 -71 -121 0
31 33 -75 0
31 42 -137 0
31 63 -108 0
32 -47 -112 0
32 38 75 0
32 57 95 0
32 59 -125 0
32 112 115 0
33 -84 -103 0
33 -63 -91 0
33 57 -105 0
34 -89 127 0
34 45 -133 0
35 -103 -141 0
35 -97 -109 0
35 -93 -134 0
35 70 147 0
35 92 -124 0
35 97 145 0
35 106 115 0
36 -118 123 0
36 73 99 0
36 93 -129 0
37 -72 -149 0
37 -54 142 0
37 -48 121 0
37 -46 -142 0
37 -43 -84 0
37 40 -118 0
37 82 -125 0
37 123 150 0
38 -109 115 0
38 -91 -141 0
38 -43 -147 0
38 40 -44 0
38 90 -129 0
38 101 -108 0
39 -78 83 0
39 83 -115 0
39 87 -91 0
39 117 -118 0
40 -136 143 0
40 -75 -129 0
40 -49 130 0
40 -45 46 0
40 55 -123 0
40 66 -76 0
41 -90 124 0
41 -84 104 0
41 106 139 0
41 134 142 0
42 -93 137 0
42 -89 -124 0
42 67 82 0
42 88 -101 0
43 -84 141 0
44 -129 149 0
44 52 88 0
45 -76 -136 0
45 74 131 0
45 92 118 0
46 -110 124 0
46 69 -115 0
47 -124 -139 0
47 -88 -94 0
48 -119 148 0
48 -94 -126 0
48 -67 70 0
48 52 71 0
48 70 -137 0
48 70 75 0
50 -72 -134 0
50 64 -142 0
50 95 122 0
51 77 -83 0
52 -120 -150 0
52 -92 102 0
52 -81 -114 0
52 -75 -130 0
52 -62 108 0
52 -62 129 0
52 -53 107 0
53 -78 118 0
55 58 -127 0
55 62 89 0
55 64 109 0
55 73 -75 0
56 -102 111 0
56 -58 135 0
56 63 -100 0
56 83 95 0
56 84 131 0
57 -100 144 0
57 80 93 0
57 100 104 0
59 -89 -92 0
59 -62 -76 0
60 138 141 0
61 -69 -130 0
61 113 138 0
63 -99 110 0
64 75 -110 0
64 99 138 0
65 -68 114 0
65 88 -98 0
65 111 149 0
66 -70 75 0
66 83 125 0
67 -86 147 0
67 78 -126 0
67 119 121 0
68 -71 -115 0
70 73 -138 0
70 113 -135 0
70 135 -148 0
71 -120 -124 0
72 -122 -136 0
73 -100 146 0
74 92 118 0
75 -110 130 0
75 -100 132 0
75 81 -129 0
75 107 111 0
76 109 148 0
77 -114 -144 0
77 -91 -125 0
78 -83 108 0
78 95 121 0
79 -86 147 0
79 87 -90 0
79 98 -130 0
81 -85 -98 0
81 82 -116 0
81 98 -140 0
84 -112 -146 0
84 -110 120 0
84 -106 -121 0
84 107 -111 0
85 -86 130 0
86 -102 139 0
87 -103 -139 0
87 122 124 0
87 133 150 0
88 -112 131 0
88 108 -118 0
89 -103 -146 0
90 -97 -116 0
91 -100 136 0
91 149 150 0
93 -102 103 0
93 110 -116 0
94 -131 141 0
94 -120 146 0
94 104 -110 0
95 105 -117 0
95 112 -134 0
96 -98 -124 0
96 100 148 0
96 126 132 0
97 126 141 0
99 108 -148 0
101 120 -144 0
103 -123 -136 0
103 106 -109 0
108 -131 -138 0
108 -131 148 0
109 125 -139 0
112 -139 -146 0
114 -125 -127 0
121 -133 -141 0
125 133 136 0
128 135 -145 0
