p cnf 80 340
-60 -65 69 0
-60 64 -75 0
-55 -68 79 0
-54 57 68 0
-52 -67 -76 0
-50 -65 -66 0
-50 -63 -64 0
-48 49 -62 0
-48 59 68 0
-47 -53 -65 0
-46 -68 80 0
-46 51 62 0
-44 75 -76 0
-43 45 64 0
-43 64 -76 0
-41 -61 76 0
-39 -47 53 0
-39 46 59 0
-38 -43 69 0
-38 -41 -65 0
-38 60 70 0
-37 -38 -71 0
-36 -64 -65 0
-36 -60 -76 0
-36 -43 -76 0
-36 51 58 0
-36 61 -69 0
-36 66 -78 0
-35 38 -52 0
-35 46 -65 0
-35 47 -62 0
-35 61 -68 0
-34 -39 71 0
-34 77 -78 0
-33 -46 66 0
-33 -41 -75 0
-32 -45 -52 0
-31 -40 -80 0
-31 33 35 0
-30 -69 -79 0
-30 -40 -71 0
-30 -37 -72 0
-30 -35 -69 0
-29 -69 -77 0
-29 -40 -75 0
-29 33 60 0
-29 42 -57 0
-29 46 -69 0
-29 63 68 0
-28 -51 69 0
-28 -38 41 0
-28 -32 71 0
-28 31 70 0
-28 37 41 0
-28 42 -61 0
-27 -45 -55 0
-27 -43 66 0
-27 -40 71 0
-27 33 -47 0
-27 63 73 0
-27 70 76 0
-26 -28 -80 0
-26 -27 -75 0
-25 -63 -74 0
-25 45 77 0
-25 57 64 0
-24 38 49 0
-24 51 -72 0
-23 47 -65 0
-23 57 -77 0
-22 -63 -74 0
-22 -46 -76 0
-22 23 63 0
-22 30 -76 0
-22 47 -59 0
-21 -48 -51 0
-21 38 73 0
-21 49 -60 0
-21 52 80 0
-20 -41 56 0
-20 -33 57 0
-20 42 72 0
-19 62 -72 0
-18 -33 66 0
-18 19 -31 0
-18 19 42 0
-18 30 -79 0
-18 55 -80 0
-17 -70 75 0
-17 -39 42 0
-17 23 65 0
-17 25 -39 0
-17 33 60 0
-17 38 43 0
-17 66 -72 0
-16 -65 80 0
-16 -30 -74 0
-16 -18 77 0
-16 19 51 0
-16 28 -32 0
-16 34 -35 0
-16 39 50 0
-16 40 -56 0
-16 54 -78 0
-16 55 -59 0
-16 69 73 0
-15 -23 -73 0
-15 23 -61 0
-14 -54 80 0
-14 -15 32 0
-13 -69 -75 0
-13 -52 60 0
-13 -15 -77 0
-13 14 72 0
-13 49 -76 0
-13 56 61 0
-13 60 61 0
-12 -49 52 0
-12 -28 -49 0
-12 50 72 0
-11 -44 62 0
-11 -30 46 0
-11 29 40 0
-11 66 -71 0
-10 42 -79 0
-9 -54 -67 0
-9 72 -80 0
-9 76 -79 0
-8 -62 68 0
-8 -46 -50 0
-8 -26 61 0
-8 -17 -43 0
-8 15 22 0
-8 27 31 0
-8 48 55 0
-7 10 -66 0
-7 14 36 0
-7 15 -30 0
-7 21 -65 0
-6 12 52 0
-6 14 61 0
-6 15 54 0
-5 -55 -70 0
-5 10 -64 0
-5 10 45 0
-5 19 21 0
-5 45 -74 0
-5 61 75 0
-4 -64 -74 0
-4 -9 -77 0
-4 -6 -60 0
-4 56 -60 0
-3 -41 -75 0
-3 -33 40 0
-3 -15 49 0
-3 -13 79 0
-3 -12 22 0
-3 -8 42 0
-3 -7 -76 0
-3 5 -61 0
-3 14 65 0
-3 38 -55 0
-3 41 -49 0
-3 45 68 0
-3 53 -55 0
-2 -47 -48 0
-2 -26 -66 0
-2 -12 -24 0
-2 31 -60 0
-1 -69 -71 0
-1 -61 -79 0
-1 -38 -75 0
-1 -9 71 0
-1 10 -51 0
-1 28 53 0
-1 56 71 0
1 -47 54 0
1 -44 -45 0
1 -29 48 0
1 -18 62 0
1 -14 -27 0
1 -11 -57 0
1 -7 67 0
1 4 -55 0
1 23 35 0
1 35 -48 0
1 43 70 0
2 -22 38 0
2 20 77 0
2 32 50 0
3 -25 71 0
3 -24 -71 0
3 5 -9 0
4 -49 -62 0
4 21 63 0
4 31 42 0
5 -59 -68 0
5 -59 -64 0
5 -41 -78 0
5 -11 50 0
5 -11 73 0
5 10 56 0
6 -30 -75 0
6 9 40 0
6 13 -18 0
6 17 -59 0
6 18 -73 0
6 30 -57 0
6 50 -53 0
6 52 66 0
7 -30 -78 0
7 -25 37 0
7 13 -70 0
7 18 -25 0
7 37 73 0
7 53 -61 0
7 66 78 0
8 -39 -51 0
8 -38 76 0
8 -26 51 0
8 -13 -32 0
8 12 69 0
8 15 79 0
8 18 -28 0
9 -32 41 0
9 -24 31 0
9 -23 -57 0
9 -14 -46 0
9 14 -62 0
9 26 -31 0
9 31 -51 0
10 -65 -79 0
10 -51 72 0
10 -43 -48 0
10 -37 -68 0
10 34 64 0
10 42 -50 0
11 -38 -74 0
11 -13 76 0
11 19 -54 0
11 34 65 0
11 45 68 0
11 73 -75 0
12 -25 -76 0
12 -20 54 0
12 -14 22 0
12 21 -75 0
12 28 -40 0
13 -59 61 0
13 -27 -64 0
13 40 -76 0
13 54 74 0
13 59 -72 0
13 75 -78 0
14 -32 46 0
14 -23 24 0
14 24 50 0
14 59 -68 0
15 18 45 0
15 20 33 0
16 -57 64 0
16 -26 61 0
17 -67 75 0
17 -33 -72 0
17 31 38 0
18 -58 -73 0
18 -50 54 0
18 -28 38 0
19 -53 57 0
19 -42 -64 0
19 21 35 0
19 36 75 0
19 57 68 0
20 -66 74 0
20 28 70 0
20 43 -48 0
20 70 -78 0
21 -53 65 0
21 40 -71 0
21 52 66 0
21 58 78 0
22 34 -71 0
23 48 -50 0
24 -27 57 0
24 -25 -31 0
24 29 -49 0
24 51 58 0
24 57 72 0
25 -72 -80 0
25 39 -56 0
26 -54 56 0
26 -31 -72 0
26 -30 -63 0
26 31 60 0
26 31 63 0
26 61 77 0
26 69 79 0
27 -66 -72 0
28 -59 69 0
28 -32 58 0
28 35 -72 0
28 49 71 0
28 56 -72 0
29 -41 65 0
29 -37 -75 0
31 46 -80 0
31 47 -59 0
31 48 -68 0
32 -38 43 0
33 -44 56 0
33 -39 53 0
34 -54 74 0
34 -45 74 0
35 -46 -60 0
35 -42 43 0
35 -36 74 0
35 37 -42 0
36 -37 75 0
37 -38 69 0
38 -59 70 0
38 55 -64 0
39 46 -51 0
41 -71 -72 0
41 47 -72 0
42 -62 -65 0
42 -59 76 0
43 -50 -51 0
44 -60 -72 0
46 -69 77 0
47 61 -74 0
48 -61 78 0
49 -58 -70 0
50 -58 80 0
51 -71 80 0
51 -66 -69 0
51 -55 78 0
53 75 -80 0
55 62 72 0
56 -64 -65 0
67 72 73 0
