p cnf 80 340
-68 -71 78 0
-65 73 -77 0
-62 -63 68 0
-61 -75 -77 0
-61 -73 -76 0
-61 -65 -75 0
-52 57 -65 0
-50 60 72 0
-49 -50 -61 0
-49 67 70 0
-48 -74 79 0
-48 -67 73 0
-47 -61 76 0
-47 -50 -70 0
-44 45 47 0
-44 45 72 0
-42 -47 55 0
-42 58 -74 0
-42 69 71 0
-39 40 49 0
-39 41 43 0
-39 44 51 0
-39 51 -71 0
-39 64 -77 0
-38 -63 70 0
-35 44 -55 0
-34 -70 75 0
-34 -62 64 0
-34 40 -51 0
-34 41 74 0
-34 54 -71 0
-34 62 -77 0
-33 53 58 0
-33 64 -70 0
-33 73 76 0
-32 50 53 0
-31 -71 -73 0
-31 -39 79 0
-31 -34 68 0
-31 56 61 0
-30 36 38 0
-29 -50 -75 0
-29 -40 44 0
-29 -35 55 0
-29 31 -48 0
-28 -49 55 0
-28 -32 -69 0
-28 34 55 0
-27 -60 70 0
-27 -50 75 0
-27 -31 -54 0
-27 39 50 0
-27 47 75 0
-26 -59 64 0
-26 28 80 0
-26 36 45 0
-25 -26 -72 0
-25 -26 -37 0
-25 41 73 0
-25 52 -68 0
-24 -33 49 0
-24 44 -76 0
-23 -54 -61 0
-23 -30 -79 0
-23 24 78 0
-23 64 -72 0
-23 70 -73 0
-22 -37 45 0
-22 -25 -57 0
-22 28 40 0
-22 31 -42 0
-22 64 -77 0
-21 -70 -73 0
-21 -36 -48 0
-21 -34 -47 0
-21 22 -33 0
-21 43 -61 0
-20 24 -46 0
-19 -23 49 0
-19 52 57 0
-18 -58 -79 0
-18 61 -62 0
-17 -54 -64 0
-17 -52 -78 0
-17 -37 71 0
-16 -33 40 0
-16 -30 49 0
-16 -25 61 0
-16 67 77 0
-15 24 -77 0
-15 34 44 0
-15 67 -75 0
-14 -45 50 0
-14 -30 -60 0
-14 -25 -66 0
-14 37 -41 0
-13 -46 -53 0
-13 -20 -41 0
-13 -19 60 0
-12 -62 -72 0
-12 -40 42 0
-12 13 57 0
-12 23 71 0
-12 44 -65 0
-12 69 79 0
-11 -49 -70 0
-11 -41 -61 0
-11 -21 -45 0
-11 -21 -35 0
-11 -20 -76 0
-11 20 22 0
-11 22 -76 0
-11 28 -64 0
-10 -49 70 0
-10 -31 34 0
-10 25 -35 0
-10 58 65 0
-9 -36 -68 0
-9 -36 -57 0
-9 -21 54 0
-8 -35 -49 0
-8 -27 44 0
-8 -13 46 0
-8 25 -75 0
-8 58 -65 0
-8 59 69 0
-7 -65 75 0
-7 -27 -52 0
-7 14 -52 0
-7 76 78 0
-6 -44 51 0
-6 -29 67 0
-6 -26 -29 0
-6 -23 41 0
-6 50 79 0
-6 55 -58 0
-6 58 -74 0
-5 -19 31 0
-5 -10 -66 0
-5 24 42 0
-5 33 51 0
-5 36 38 0
-5 54 67 0
-4 -37 -43 0
-4 -37 67 0
-4 -10 -20 0
-4 -6 -36 0
-3 -29 -56 0
-3 -23 77 0
-3 -17 -69 0
-3 5 49 0
-3 56 -63 0
-2 -29 -64 0
-2 -28 72 0
-2 -12 -22 0
-2 -6 -9 0
-2 5 39 0
-2 44 55 0
-2 46 69 0
-1 -29 32 0
-1 -25 -65 0
-1 13 -21 0
-1 19 26 0
-1 49 66 0
-1 55 -64 0
1 -21 -59 0
1 -18 41 0
1 -8 56 0
1 39 -68 0
1 47 -68 0
1 47 53 0
1 59 64 0
2 -48 63 0
2 -33 58 0
2 17 60 0
2 19 78 0
2 31 -80 0
2 34 -52 0
2 43 -56 0
3 -57 -74 0
3 -40 -45 0
3 -34 75 0
3 -29 -46 0
3 8 -36 0
3 71 -74 0
4 -7 -40 0
4 9 32 0
4 44 71 0
4 49 -79 0
5 -48 -59 0
5 -15 52 0
5 13 -43 0
5 36 41 0
6 -37 -61 0
6 -25 -72 0
6 -24 48 0
6 24 -68 0
6 30 -72 0
6 38 55 0
7 -40 -69 0
7 -32 -37 0
7 -25 -41 0
7 -18 -80 0
7 -13 -65 0
7 27 70 0
7 50 -78 0
8 -58 61 0
8 -42 -45 0
8 -41 67 0
8 -12 -54 0
8 -11 -26 0
8 19 -43 0
8 20 54 0
8 37 -41 0
8 41 -74 0
8 48 -54 0
9 -23 53 0
9 42 -76 0
9 46 -57 0
9 54 71 0
10 -60 75 0
10 -28 71 0
10 -24 -46 0
10 -19 -22 0
10 19 -40 0
10 43 73 0
10 54 -71 0
10 71 -78 0
11 -50 -72 0
11 -48 53 0
11 -29 -37 0
11 -27 -28 0
11 12 52 0
11 27 -74 0
11 35 54 0
11 47 -50 0
12 -41 -60 0
12 -28 -63 0
12 -27 39 0
12 13 35 0
12 25 -50 0
12 28 -54 0
13 15 77 0
13 30 39 0
14 -43 52 0
14 31 -32 0
14 32 64 0
14 43 64 0
15 -69 72 0
15 17 20 0
15 18 -59 0
15 18 27 0
15 36 -64 0
16 -34 -37 0
17 50 -57 0
18 -27 71 0
18 -23 25 0
18 37 -50 0
18 49 72 0
18 50 -74 0
19 -46 78 0
19 -42 74 0
19 22 -60 0
19 29 -65 0
19 34 -41 0
20 -39 -48 0
20 -38 -59 0
20 30 -68 0
21 -35 -39 0
21 -25 -57 0
21 -24 43 0
22 -63 74 0
22 -31 71 0
22 -29 -45 0
22 -28 63 0
23 -34 -64 0
24 34 78 0
24 42 51 0
24 51 -56 0
25 33 -41 0
25 44 -74 0
26 -47 61 0
26 51 61 0
27 -60 80 0
27 -49 56 0
27 -48 -60 0
27 -34 45 0
27 -34 67 0
27 52 -73 0
28 -48 51 0
28 -34 -78 0
28 31 -70 0
28 59 -79 0
28 78 80 0
29 -75 76 0
29 32 -56 0
29 33 38 0
29 46 -62 0
30 -36 -58 0
30 33 42 0
30 42 -65 0
30 55 -58 0
32 -70 73 0
32 45 51 0
32 51 -58 0
32 52 -61 0
32 59 80 0
33 -36 -50 0
33 53 -61 0
34 40 79 0
34 53 66 0
35 -42 -79 0
35 -41 -65 0
37 -76 77 0
37 -62 77 0
37 54 71 0
38 -45 -48 0
38 57 -70 0
39 -53 -80 0
39 43 -53 0
41 -59 61 0
42 -69 74 0
43 62 -74 0
44 -62 -63 0
45 -71 77 0
45 46 49 0
45 49 -69 0
49 69 -76 0
50 -65 -79 0
50 -62 72 0
50 62 71 0
55 -69 -72 0
55 58 67 0
56 -65 -79 0
56 -63 77 0
58 -59 -75 0
61 62 -66 0
63 -67 68 0
65 -70 -78 0
65 -68 70 0
