p cnf 28 119
-25 27 28 0
-20 -21 26 0
-18 20 -27 0
-17 -21 28 0
-16 -21 -22 0
-16 17 28 0
-16 21 -22 0
-16 23 -26 0
-15 -18 20 0
-13 -19 -24 0
-13 -17 27 0
-13 15 -20 0
-11 -16 20 0
-10 16 -19 0
-9 -11 -21 0
-9 14 -15 0
-8 -24 27 0
-8 -21 26 0
-8 13 -16 0
-8 18 24 0
-7 -18 -21 0
-7 -17 27 0
-7 -14 -19 0
-7 -12 26 0
-7 -10 27 0
-7 8 -26 0
-7 22 -28 0
-6 -21 -23 0
-6 -16 26 0
-6 -7 26 0
-5 -24 -26 0
-5 -21 27 0
-5 -16 -25 0
-5 12 -15 0
-4 -10 -14 0
-4 -6 18 0
-4 18 27 0
-4 20 24 0
-3 -19 -26 0
-3 -19 27 0
-3 -13 -21 0
-3 -9 11 0
-3 -8 10 0
-3 -8 20 0
-3 13 -16 0
-3 13 20 0
-3 15 -22 0
-3 16 -28 0
-3 24 25 0
-2 -23 -25 0
-2 -21 23 0
-2 -9 23 0
-2 14 25 0
-2 17 -27 0
-1 -14 19 0
-1 -13 -17 0
-1 -5 -12 0
-1 -4 9 0
-1 3 8 0
1 -13 -28 0
1 -10 22 0
1 -3 -16 0
1 7 -22 0
1 23 27 0
2 -16 18 0
2 -10 18 0
2 -5 23 0
2 -3 19 0
2 6 10 0
2 9 -14 0
2 10 -17 0
2 19 20 0
2 24 28 0
3 16 -26 0
4 -24 -27 0
4 -8 -23 0
5 -25 -27 0
5 -11 14 0
5 -9 11 0
5 -9 12 0
5 -9 21 0
5 6 26 0
5 7 25 0
5 11 14 0
5 21 27 0
6 -19 27 0
6 -11 20 0
6 -10 -14 0
6 -9 -24 0
7 -17 -23 0
7 14 -26 0
7 25 -28 0
8 -24 27 0
9 -19 27 0
9 -13 -14 0
9 -11 14 0
10 -24 -25 0
10 -20 25 0
10 -16 21 0
10 -16 22 0
10 13 -16 0
10 16 28 0
11 -21 22 0
11 -13 -17 0
11 13 14 0
12 14 -21 0
12 14 20 0
12 14 26 0
12 17 -25 0
12 18 -27 0
12 20 -25 0
14 -22 24 0
14 -19 22 0
17 18 24 0
18 -22 27 0
18 21 26 0
18 22 -25 0
19 23 -26 0
20 21 -28 0
