p cnf 70 298
-56 62 70 0
-54 -63 68 0
-54 -59 -64 0
-43 -50 -52 0
-43 -49 62 0
-43 52 -56 0
-42 51 -69 0
-42 66 68 0
-41 47 52 0
-41 65 -69 0
-40 -55 61 0
-40 -46 -62 0
-39 -45 -67 0
-38 -64 -67 0
-37 -46 -54 0
-36 38 64 0
-35 -48 70 0
-34 -50 -53 0
-33 43 -53 0
-32 -58 -67 0
-32 48 60 0
-32 55 -67 0
-32 66 -68 0
-31 -37 -67 0
-29 -63 -67 0
-29 -35 51 0
-29 35 49 0
-29 36 63 0
-28 -52 58 0
-28 -39 -52 0
-28 -36 43 0
-28 44 48 0
-27 -52 68 0
-27 -29 -40 0
-27 60 -66 0
-27 62 -66 0
-26 -37 -69 0
-25 -41 48 0
-25 -37 -56 0
-25 32 62 0
-25 37 52 0
-24 27 -49 0
-24 34 59 0
-23 -49 -57 0
-22 -37 -53 0
-22 -35 -42 0
-22 -23 48 0
-22 38 68 0
-22 43 47 0
-22 45 -48 0
-20 -33 37 0
-20 30 -54 0
-20 54 64 0
-19 -21 53 0
-19 23 31 0
-19 30 -50 0
-18 -51 61 0
-18 -50 68 0
-18 49 51 0
-18 54 -69 0
-17 -29 -47 0
-17 -26 -56 0
-17 -25 64 0
-16 17 69 0
-16 44 -65 0
-15 -48 66 0
-15 -17 -63 0
-15 21 23 0
-15 31 34 0
-15 45 -67 0
-14 -32 41 0
-14 30 -42 0
-14 43 61 0
-13 -55 59 0
-13 -51 -64 0
-13 -37 -57 0
-13 17 -61 0
-13 26 -35 0
-13 28 -46 0
-13 36 64 0
-13 38 -70 0
-12 -59 -69 0
-12 -23 -51 0
-12 -13 -19 0
-12 21 40 0
-12 42 -59 0
-12 42 -58 0
-11 -26 29 0
-11 -21 25 0
-11 18 19 0
-11 33 -62 0
-11 51 -70 0
-10 -43 -56 0
-10 -32 -37 0
-10 -22 34 0
-10 18 61 0
-10 28 36 0
-9 -13 38 0
-9 31 34 0
-9 48 51 0
-9 54 -69 0
-8 -19 -48 0
-8 -9 30 0
-8 26 -44 0
-8 38 -44 0
-8 45 -64 0
-7 20 -67 0
-7 29 47 0
-6 10 31 0
-6 32 42 0
-6 57 -70 0
-6 65 -70 0
-5 -52 61 0
-5 22 48 0
-5 28 -61 0
-5 34 49 0
-5 42 59 0
-5 67 -69 0
-4 -44 -48 0
-4 -39 -48 0
-4 -32 -34 0
-4 -8 32 0
-4 17 40 0
-4 24 35 0
-3 -54 62 0
-3 -18 -62 0
-3 17 -56 0
-3 17 -28 0
-3 42 54 0
-2 -42 -63 0
-2 -29 -52 0
-2 -7 -53 0
-2 4 54 0
-2 9 -23 0
-2 13 -51 0
-2 16 58 0
-2 20 -36 0
-2 20 58 0
-2 28 -42 0
-2 38 58 0
-1 -45 47 0
-1 -31 54 0
-1 -24 35 0
-1 -5 -23 0
-1 -3 53 0
-1 62 64 0
1 -38 -69 0
1 -16 70 0
1 -10 -13 0
1 5 17 0
1 7 36 0
1 15 -60 0
1 34 53 0
1 41 -44 0
2 -23 -47 0
2 -9 61 0
2 10 58 0
2 40 -55 0
2 55 66 0
3 -35 63 0
3 -31 48 0
3 -27 -34 0
3 -4 -36 0
3 8 20 0
3 11 46 0
3 32 -56 0
4 31 42 0
5 -52 60 0
5 -14 65 0
5 6 -44 0
5 12 29 0
5 39 55 0
5 40 -58 0
5 58 -62 0
6 -56 68 0
6 -14 34 0
6 11 65 0
6 18 -45 0
7 10 -62 0
7 14 -36 0
8 -27 66 0
8 14 -41 0
8 17 35 0
9 -61 69 0
9 -39 66 0
9 -21 -55 0
9 -15 58 0
9 -13 -56 0
9 14 -57 0
10 -42 46 0
10 -23 -70 0
10 18 33 0
10 22 68 0
10 23 -52 0
10 25 30 0
11 -37 -51 0
11 -34 38 0
11 13 37 0
11 32 -36 0
12 -41 62 0
12 -38 -40 0
12 -34 -36 0
12 -34 58 0
12 -31 52 0
12 -19 -41 0
12 18 36 0
12 49 -68 0
13 -48 58 0
13 33 -65 0
14 -47 58 0
14 -32 -44 0
14 -15 40 0
14 18 -19 0
15 -37 -64 0
15 -33 69 0
15 60 69 0
16 -40 -47 0
16 -26 -63 0
16 -18 -53 0
16 17 -39 0
16 24 63 0
17 -62 -63 0
17 18 41 0
17 26 28 0
18 -46 -59 0
19 -41 -50 0
19 36 -50 0
19 41 -67 0
20 -65 -67 0
20 -29 57 0
20 23 -62 0
20 27 49 0
21 -57 -67 0
21 24 34 0
21 34 43 0
21 46 -64 0
21 49 66 0
22 -42 -65 0
22 -42 -48 0
22 -31 -46 0
22 -24 61 0
22 25 53 0
22 48 -49 0
23 34 -47 0
24 -49 50 0
24 -33 37 0
24 -25 47 0
24 26 66 0
24 39 -58 0
25 -34 -47 0
25 36 60 0
25 67 69 0
26 -48 -59 0
26 -29 59 0
26 -27 -33 0
26 30 36 0
26 49 -57 0
27 28 68 0
27 40 70 0
28 -33 -44 0
31 -59 63 0
31 -43 63 0
31 41 50 0
31 61 70 0
32 39 49 0
34 -50 52 0
34 -45 59 0
34 -36 -70 0
34 35 -43 0
34 43 58 0
35 -40 -45 0
35 42 63 0
36 59 60 0
37 -46 50 0
37 -44 64 0
37 39 -52 0
37 65 -69 0
38 -47 50 0
38 47 -61 0
38 59 -70 0
40 -61 -64 0
41 -64 -70 0
41 -61 67 0
41 -52 -54 0
41 43 49 0
42 -50 -54 0
42 -45 52 0
43 -61 -65 0
45 -46 -51 0
45 59 -69 0
45 61 64 0
46 51 -59 0
47 -52 64 0
47 52 65 0
53 -60 -63 0
55 63 -69 0
56 57 -69 0
59 -66 -68 0
