p cnf 60 180
-50 58 59 0
-49 -50 53 0
-48 -51 56 0
-46 -49 -60 0
-41 50 -56 0
-37 -43 -45 0
-37 45 49 0
-36 -47 54 0
-33 -43 49 0
-28 -52 59 0
-26 36 -42 0
-26 41 49 0
-25 -33 44 0
-25 35 -49 0
-24 39 44 0
-23 -40 44 0
-23 25 37 0
-23 25 58 0
-23 31 35 0
-22 -31 -44 0
-22 29 35 0
-22 30 -41 0
-21 -30 42 0
-19 -43 58 0
-19 -37 -45 0
-19 -23 25 0
-18 -30 43 0
-18 19 -31 0
-17 -54 -55 0
-17 -36 -45 0
-16 -29 -55 0
-16 -26 29 0
-16 18 -39 0
-16 20 45 0
-15 -26 -40 0
-15 -21 29 0
-15 23 41 0
-14 34 -40 0
-13 -35 58 0
-13 -22 -31 0
-13 -14 18 0
-13 19 51 0
-12 -26 39 0
-12 -13 54 0
-12 37 -44 0
-11 -19 48 0
-11 19 59 0
-11 24 33 0
-11 35 -52 0
-10 -22 55 0
-10 -21 -50 0
-10 -19 -24 0
-9 -38 -46 0
-9 -27 36 0
-8 -27 41 0
-7 -36 56 0
-7 -9 31 0
-7 18 -47 0
-6 -19 -45 0
-6 14 26 0
-6 28 55 0
-5 -15 -56 0
-5 17 -18 0
-5 27 -31 0
-4 -37 -43 0
-4 -15 47 0
-4 -14 -43 0
-4 -14 50 0
-4 -6 -41 0
-4 10 41 0
-4 47 55 0
-3 -24 60 0
-3 5 23 0
-3 16 24 0
-2 -45 48 0
-2 -37 -54 0
-2 14 -52 0
-2 47 55 0
-1 -38 58 0
-1 4 -51 0
-1 11 -33 0
-1 20 50 0
-1 22 -59 0
-1 30 40 0
1 -9 50 0
1 33 -53 0
2 -39 -46 0
2 -39 40 0
2 -26 -49 0
2 -25 -35 0
2 -23 -29 0
2 22 -38 0
2 34 38 0
3 -25 -47 0
3 -18 38 0
3 -17 43 0
3 22 -48 0
4 -40 -48 0
4 -12 22 0
4 8 60 0
4 14 39 0
4 21 -50 0
4 25 -54 0
5 -16 27 0
5 -15 -58 0
5 -12 -42 0
5 6 54 0
5 43 -50 0
6 -47 -48 0
6 -9 -30 0
6 33 -38 0
7 -25 -33 0
7 19 -34 0
8 -38 56 0
8 -27 -44 0
8 -10 -34 0
8 12 17 0
9 -26 55 0
9 29 -51 0
9 30 -59 0
10 -24 -36 0
10 18 46 0
10 27 28 0
10 32 -53 0
10 38 -59 0
11 -31 47 0
11 19 28 0
12 18 -36 0
12 22 26 0
12 37 51 0
13 18 51 0
13 45 54 0
14 -40 -45 0
14 -39 -59 0
14 -39 -41 0
14 -23 29 0
14 -15 -50 0
14 41 -45 0
15 -41 -52 0
15 -18 -21 0
15 -16 28 0
15 33 -60 0
15 42 58 0
16 18 28 0
16 21 -36 0
16 33 50 0
16 34 -38 0
17 -26 57 0
17 39 44 0
18 23 -49 0
19 -38 56 0
19 -33 -35 0
19 -24 -37 0
20 -54 57 0
20 -36 -44 0
21 -24 -26 0
21 23 -30 0
22 -55 -59 0
24 -26 58 0
25 -29 44 0
26 -42 -54 0
27 -48 58 0
27 -32 -40 0
29 40 44 0
29 51 56 0
30 -40 41 0
30 35 47 0
33 -41 60 0
33 40 -54 0
33 41 59 0
34 -47 60 0
35 -48 49 0
35 41 46 0
35 47 59 0
39 -53 59 0
40 -42 -50 0
40 -42 -49 0
41 -51 -53 0
46 -49 -60 0
50 56 -60 0
