p cnf 28 119
-17 -22 25 0
-16 23 24 0
-16 24 25 0
-15 -17 19 0
-14 -23 -28 0
-14 -23 26 0
-14 18 -25 0
-14 22 -23 0
-13 -24 -28 0
-13 -18 24 0
-13 -16 -17 0
-12 -20 -21 0
-12 15 -21 0
-12 27 -28 0
-11 -14 28 0
-9 14 -17 0
-8 -9 20 0
-7 -19 -27 0
-7 -17 28 0
-7 -11 17 0
-7 -10 18 0
-7 -9 21 0
-7 -9 25 0
-7 14 -17 0
-7 14 25 0
-7 26 -27 0
-6 -18 25 0
-6 25 -26 0
-5 -16 21 0
-5 -14 -27 0
-5 -13 -19 0
-5 -9 26 0
-5 9 26 0
-5 20 -26 0
-4 -7 22 0
-4 -5 15 0
-4 12 -18 0
-4 13 22 0
-4 13 24 0
-3 -23 26 0
-3 -21 26 0
-3 -15 19 0
-3 -12 -27 0
-3 9 -19 0
-3 10 -11 0
-3 19 -24 0
-2 -13 26 0
-2 -10 -17 0
-2 -9 19 0
-2 -8 -15 0
-2 -7 -14 0
-2 -4 -22 0
-2 -3 -6 0
-2 10 22 0
-2 11 -23 0
-2 12 24 0
-2 19 -25 0
-1 -8 -16 0
-1 -4 8 0
-1 -2 8 0
-1 12 16 0
-1 23 -26 0
1 -7 27 0
1 4 -12 0
1 5 11 0
1 6 -21 0
1 6 -17 0
1 8 -13 0
1 15 21 0
1 21 -23 0
1 25 27 0
2 -17 21 0
2 -11 25 0
2 -10 -17 0
2 -4 13 0
2 6 19 0
2 13 26 0
3 -11 16 0
3 -10 28 0
3 -8 -23 0
3 12 -19 0
3 13 16 0
4 -20 -28 0
4 -12 -14 0
4 12 -22 0
4 26 -27 0
5 -20 25 0
5 -10 12 0
5 -7 16 0
5 6 -9 0
5 6 23 0
6 -20 26 0
6 -15 -20 0
6 -10 26 0
6 10 -16 0
6 24 -26 0
7 9 -28 0
7 17 -19 0
8 -19 27 0
8 -17 -19 0
8 26 28 0
10 -21 28 0
10 -17 21 0
10 12 -27 0
11 -17 23 0
11 -16 26 0
11 17 21 0
12 13 -22 0
12 13 22 0
12 14 22 0
12 19 24 0
12 24 25 0
13 -16 -26 0
13 15 19 0
14 -17 21 0
15 -22 25 0
15 26 -27 0
16 21 -25 0
17 -21 -27 0
