p cnf 45 191
-34 36 42 0
-29 30 -33 0
-27 -31 34 0
-26 33 45 0
-24 -28 37 0
-23 -40 41 0
-23 43 44 0
-22 -28 29 0
-22 23 -41 0
-22 27 36 0
-22 32 36 0
-21 -32 38 0
-21 23 35 0
-21 25 32 0
-20 -34 -41 0
-20 -22 -27 0
-20 -22 33 0
-20 33 -40 0
-19 -39 43 0
-19 37 43 0
-18 22 42 0
-18 29 33 0
-17 26 27 0
-16 -27 -43 0
-16 -19 -31 0
-16 -18 29 0
-16 20 -23 0
-16 31 34 0
-15 -40 -43 0
-15 -30 -41 0
-15 -19 -22 0
-15 27 -42 0
-14 -33 39 0
-14 -15 -31 0
-14 27 -34 0
-13 -16 -33 0
-12 -34 40 0
-12 15 -19 0
-12 27 -43 0
-11 -31 44 0
-11 -15 -35 0
-11 -15 32 0
-11 -14 15 0
-11 12 -31 0
-11 18 36 0
-11 22 -23 0
-10 -21 38 0
-10 -20 -36 0
-10 -13 -21 0
-10 17 44 0
-10 20 38 0
-10 26 43 0
-8 -25 27 0
-8 -10 -40 0
-8 18 25 0
-8 24 28 0
-6 -42 -45 0
-6 -31 -42 0
-6 -24 37 0
-6 13 -33 0
-6 18 -36 0
-6 28 34 0
-5 -31 -45 0
-5 -28 29 0
-5 -24 -34 0
-5 -15 16 0
-5 13 -27 0
-5 16 -40 0
-4 -29 32 0
-4 -10 30 0
-4 7 36 0
-4 7 40 0
-4 8 -38 0
-3 -36 38 0
-3 -25 28 0
-3 -19 -32 0
-3 -7 41 0
-3 4 -30 0
-3 4 26 0
-3 6 22 0
-3 9 -16 0
-3 12 -18 0
-3 21 40 0
-2 -37 -43 0
-2 -19 -21 0
-2 -17 25 0
-2 -12 -36 0
-2 3 11 0
-2 11 -23 0
-2 17 -38 0
-2 26 -34 0
-1 -9 -36 0
-1 3 -21 0
-1 4 -11 0
-1 13 37 0
-1 26 -45 0
-1 40 -43 0
1 -18 26 0
1 -12 -34 0
1 -11 -37 0
1 -6 -34 0
1 7 32 0
1 8 19 0
1 9 -43 0
1 23 -25 0
1 32 -40 0
2 -30 33 0
2 -29 -43 0
2 11 -22 0
2 11 34 0
3 -28 38 0
3 -25 43 0
3 20 34 0
3 22 -40 0
3 24 43 0
4 -37 40 0
4 -19 -30 0
4 -17 25 0
4 -7 24 0
4 6 38 0
4 11 -35 0
4 28 -31 0
4 28 44 0
4 33 -41 0
5 -25 42 0
5 -13 17 0
5 -9 -24 0
5 -7 18 0
5 7 15 0
6 -35 -43 0
6 -16 26 0
6 -14 20 0
6 -10 -31 0
7 -14 -32 0
7 -14 25 0
7 10 -24 0
8 -39 -45 0
8 -33 -35 0
8 -19 -23 0
8 12 -20 0
8 13 36 0
8 16 -38 0
9 -10 -13 0
9 21 -43 0
9 23 -31 0
9 34 -41 0
10 -37 -38 0
10 -27 -45 0
10 -21 -22 0
10 -18 -21 0
10 21 -37 0
10 22 25 0
10 28 40 0
12 -36 -42 0
12 -20 36 0
12 23 -29 0
12 25 34 0
13 19 26 0
14 -20 -41 0
14 -17 -33 0
14 -17 38 0
14 -15 33 0
14 24 -33 0
15 -43 -45 0
15 -42 -45 0
15 25 26 0
16 -17 -40 0
17 -22 -39 0
17 -20 -45 0
17 -18 41 0
19 -33 44 0
19 -24 29 0
19 -24 38 0
20 30 38 0
21 -34 -43 0
21 -24 39 0
22 24 39 0
23 -32 -35 0
23 34 42 0
23 40 43 0
24 25 38 0
25 -29 -38 0
25 -26 -36 0
27 -38 39 0
27 34 43 0
28 -30 -42 0
30 -35 -41 0
30 33 40 0
35 -37 40 0
36 -40 41 0
37 -39 40 0
