p cnf 100 425
-79 -80 -84 0
-79 82 -93 0
-76 91 -92 0
-75 -82 -96 0
-70 -82 95 0
-66 -78 86 0
-65 -67 87 0
-61 67 -84 0
-59 -62 80 0
-58 -70 -79 0
-57 -72 -90 0
-57 -66 87 0
-56 -73 81 0
-54 -57 -81 0
-53 58 63 0
-52 -55 61 0
-51 -81 -95 0
-51 -71 100 0
-51 -65 100 0
-50 -68 -72 0
-50 -67 96 0
-50 51 -88 0
-50 52 -91 0
-50 77 83 0
-49 62 70 0
-48 77 84 0
-47 -81 100 0
-47 -66 -77 0
-47 -50 -94 0
-46 -64 -97 0
-45 -61 -85 0
-45 53 -58 0
-45 54 55 0
-45 79 88 0
-44 -75 -81 0
-44 -54 -72 0
-44 45 -46 0
-44 50 -75 0
-43 48 60 0
-43 50 -61 0
-42 47 85 0
-42 54 73 0
-42 59 80 0
-42 60 -77 0
-41 89 90 0
-40 -92 95 0
-39 43 -84 0
-39 75 89 0
-38 40 68 0
-38 82 93 0
-37 -70 77 0
-37 65 70 0
-36 -37 -83 0
-35 -71 -98 0
-34 41 -54 0
-34 67 71 0
-33 -38 -60 0
-33 -35 36 0
-32 -60 -99 0
-32 -37 -42 0
-31 -57 -84 0
-31 -42 46 0
-31 -38 52 0
-31 91 98 0
-30 -56 -95 0
-30 -50 -63 0
-30 67 -68 0
-30 76 93 0
-29 70 74 0
-29 75 -89 0
-29 79 86 0
-28 -29 -45 0
-27 -55 -80 0
-27 36 -50 0
-26 -71 -79 0
-26 -59 99 0
-26 -48 69 0
-26 92 -96 0
-25 33 84 0
-25 49 -100 0
-25 49 -93 0
-24 -47 -100 0
-24 -31 92 0
-24 27 34 0
-24 34 60 0
-24 45 -75 0
-23 -73 100 0
-23 -66 -98 0
-23 -27 -96 0
-23 -25 49 0
-23 37 -56 0
-23 42 64 0
-23 49 -89 0
-22 -63 93 0
-22 25 60 0
-21 -55 77 0
-21 -26 55 0
-21 49 -98 0
-20 -40 93 0
-20 -26 -95 0
-20 24 -56 0
-20 44 81 0
-20 47 -73 0
-19 -84 94 0
-19 -73 88 0
-19 -72 92 0
-19 -46 -96 0
-19 54 83 0
-19 67 -79 0
-18 -47 56 0
-18 -41 -48 0
-18 -27 89 0
-18 -25 -43 0
-17 -21 45 0
-17 35 -42 0
-16 -72 -99 0
-16 -47 -75 0
-16 -37 83 0
-16 -31 -86 0
-16 -20 30 0
-16 44 -98 0
-16 62 69 0
-15 -56 -60 0
-15 -24 -41 0
-15 22 32 0
-15 38 -99 0
-15 53 78 0
-15 86 -89 0
-14 -51 -89 0
-14 -35 84 0
-14 -22 93 0
-14 39 -65 0
-14 49 69 0
-14 72 84 0
-13 -54 71 0
-13 -54 95 0
-13 -16 -41 0
-13 37 -54 0
-13 40 58 0
-13 64 -98 0
-12 -78 -95 0
-12 -42 -95 0
-12 24 88 0
-12 33 -43 0
-12 39 -73 0
-12 70 80 0
-12 72 80 0
-11 -44 -65 0
-11 -18 78 0
-11 14 -97 0
-11 54 -83 0
-10 -25 42 0
-10 -13 -18 0
-10 13 -73 0
-10 22 57 0
-9 -12 -24 0
-9 16 -70 0
-9 35 -68 0
-8 -34 48 0
-8 -33 42 0
-8 -31 -85 0
-8 -30 46 0
-8 26 48 0
-8 40 -70 0
-8 55 -79 0
-8 71 88 0
-7 -64 65 0
-7 -27 51 0
-7 -8 -48 0
-7 42 44 0
-6 54 74 0
-6 74 89 0
-5 -32 72 0
-5 -8 63 0
-5 20 -81 0
-5 34 59 0
-4 -59 -98 0
-4 -49 -96 0
-4 -47 -81 0
-4 14 81 0
-4 31 -48 0
-4 34 91 0
-4 38 76 0
-4 49 -55 0
-3 -84 98 0
-3 -12 80 0
-3 7 52 0
-3 9 -53 0
-3 12 -83 0
-3 30 -92 0
-2 -23 91 0
-2 33 -78 0
-2 56 64 0
-2 57 66 0
-2 58 -87 0
-2 78 98 0
-2 89 90 0
-1 -83 -95 0
-1 -21 75 0
-1 11 61 0
-1 52 78 0
-1 65 -80 0
-1 94 100 0
1 -80 -99 0
1 -45 98 0
1 -28 -79 0
1 -28 58 0
1 -21 -88 0
1 -19 -72 0
1 -19 -24 0
1 5 71 0
1 29 -90 0
1 31 58 0
1 32 52 0
1 63 -100 0
2 -66 95 0
2 -26 -98 0
2 -23 76 0
2 21 -70 0
2 32 -40 0
2 85 86 0
4 -61 84 0
4 -60 84 0
4 8 -21 0
4 9 88 0
4 21 84 0
5 -50 -66 0
5 -46 -72 0
5 -40 95 0
5 -35 52 0
5 -29 -71 0
5 -27 49 0
5 6 22 0
5 11 78 0
5 19 -60 0
5 28 -54 0
5 53 90 0
6 -47 -68 0
6 -42 -57 0
6 -25 -72 0
6 -17 -19 0
6 32 -51 0
6 38 -47 0
6 49 -55 0
7 -60 -86 0
7 -58 88 0
7 -40 -91 0
7 -10 -18 0
7 20 -57 0
7 36 -94 0
8 17 25 0
8 24 83 0
8 55 61 0
8 65 70 0
8 77 -80 0
8 82 -94 0
9 -16 -17 0
9 -10 19 0
9 65 96 0
10 -30 96 0
10 -27 -70 0
10 27 -45 0
10 50 71 0
10 66 -90 0
10 78 -100 0
11 -95 97 0
11 -31 36 0
11 -24 -65 0
11 19 -48 0
11 24 -79 0
11 54 -93 0
12 -59 -94 0
12 -37 77 0
12 -22 -57 0
12 -22 50 0
12 19 84 0
13 18 -51 0
13 25 88 0
13 33 46 0
13 48 -59 0
14 -32 92 0
14 18 -30 0
14 41 50 0
14 42 -48 0
14 54 -99 0
14 95 98 0
15 -75 95 0
15 -58 -97 0
15 -53 -61 0
15 -29 88 0
15 -23 25 0
15 -19 81 0
15 27 -32 0
15 29 -96 0
15 64 -95 0
15 65 -76 0
16 -57 -64 0
16 -47 98 0
16 -19 -35 0
16 23 -41 0
18 -61 -76 0
18 26 70 0
18 33 45 0
18 65 73 0
19 -59 -82 0
19 -22 41 0
19 44 94 0
20 23 29 0
20 44 93 0
21 -67 69 0
21 -63 82 0
21 -50 -80 0
21 23 -78 0
22 -90 100 0
22 -51 -77 0
22 52 54 0
24 32 94 0
24 55 65 0
24 59 98 0
24 63 -80 0
25 -76 -84 0
25 -68 -95 0
25 26 -36 0
25 35 90 0
25 49 72 0
25 49 94 0
25 77 -96 0
26 -81 82 0
26 -38 -52 0
26 33 56 0
26 77 83 0
27 -64 -82 0
27 -38 87 0
27 -31 -77 0
27 29 31 0
28 -33 83 0
28 -29 79 0
28 37 83 0
28 53 72 0
29 -83 95 0
29 -55 -91 0
29 -37 40 0
29 68 -74 0
30 -90 -94 0
30 -71 91 0
30 -62 90 0
30 -59 76 0
30 -51 66 0
30 -41 60 0
30 40 -79 0
30 73 87 0
31 -71 -93 0
31 -62 84 0
31 -48 -88 0
31 52 54 0
32 -48 -55 0
33 -47 -54 0
33 74 -84 0
34 -64 74 0
34 49 -55 0
34 56 81 0
35 -54 78 0
35 -52 71 0
35 41 -43 0
35 48 -79 0
35 50 -64 0
35 80 -95 0
36 44 81 0
36 59 -93 0
38 -89 93 0
38 -73 -84 0
38 -40 -71 0
39 -64 -97 0
39 -58 62 0
39 72 73 0
40 -64 -88 0
40 50 63 0
40 61 72 0
40 62 98 0
40 68 -73 0
41 -56 93 0
41 53 -57 0
41 71 92 0
41 79 94 0
42 43 73 0
43 -78 100 0
43 -76 -78 0
43 45 -76 0
43 56 -87 0
44 -68 -90 0
44 -56 -83 0
44 -48 -79 0
44 66 -80 0
46 -70 -74 0
46 -53 71 0
46 67 78 0
47 -53 64 0
47 74 81 0
47 77 97 0
48 64 -99 0
48 64 99 0
49 -82 -87 0
49 -72 99 0
49 -58 80 0
52 56 63 0
52 63 -94 0
53 -63 77 0
54 -67 99 0
54 68 -96 0
56 75 86 0
57 62 71 0
59 -83 -86 0
61 -68 81 0
62 64 68 0
63 77 100 0
64 -67 -74 0
66 -86 -95 0
67 68 -86 0
67 73 -83 0
68 72 98 0
69 76 -97 0
75 -86 91 0
75 -80 -98 0
80 -81 82 0
85 -88 -95 0
