p cnf 28 119
-24 -26 -28 0
-22 23 -26 0
-22 25 28 0
-20 23 -24 0
-16 17 -26 0
-15 16 23 0
-15 23 27 0
-14 -17 -20 0
-14 16 -27 0
-13 -24 -27 0
-12 -16 17 0
-12 22 24 0
-12 25 28 0
-11 -19 27 0
-11 -16 28 0
-11 23 28 0
-10 -15 -17 0
-10 -15 23 0
-10 -12 19 0
-10 12 -18 0
-10 13 -27 0
-10 15 25 0
-9 -14 22 0
-9 -12 -20 0
-9 18 23 0
-9 20 -23 0
-8 -15 -26 0
-8 -11 -22 0
-8 15 -19 0
-8 16 -22 0
-8 25 27 0
-7 -16 -24 0
-7 -9 -25 0
-6 -7 26 0
-6 18 -24 0
-6 22 25 0
-6 23 -26 0
-5 -14 23 0
-5 -10 22 0
-5 -7 11 0
-5 14 28 0
-5 17 -24 0
-4 9 22 0
-4 17 -24 0
-3 -19 -20 0
-3 17 -26 0
-2 -12 -24 0
-2 -12 24 0
-2 -10 21 0
-2 8 14 0
-2 19 26 0
-2 23 28 0
-1 -18 19 0
-1 -14 -15 0
-1 -10 -24 0
-1 -8 27 0
-1 -6 -19 0
-1 -6 13 0
-1 -6 23 0
-1 -4 21 0
1 -12 22 0
1 -10 -12 0
1 -5 -12 0
1 4 -10 0
1 8 13 0
2 -18 -26 0
2 -12 22 0
2 -9 28 0
2 8 -15 0
2 13 -24 0
2 19 -22 0
3 -23 28 0
3 -20 -21 0
3 4 -9 0
3 4 8 0
3 6 -9 0
3 8 -24 0
3 8 17 0
3 20 -27 0
4 -23 -28 0
4 -21 -28 0
4 -18 24 0
4 -13 16 0
4 -12 -13 0
4 -11 14 0
4 -5 -10 0
4 15 25 0
5 -17 -26 0
5 -14 23 0
5 10 -19 0
6 -23 -25 0
6 -12 18 0
6 14 28 0
7 -25 -27 0
7 -24 -25 0
7 -20 25 0
7 -12 -17 0
7 15 -17 0
7 19 23 0
8 -21 -27 0
8 -17 26 0
8 -13 20 0
8 -13 27 0
8 9 -25 0
8 13 20 0
9 -18 26 0
9 -10 14 0
9 20 26 0
10 12 -17 0
11 -14 -23 0
12 -15 -22 0
12 18 22 0
13 20 -27 0
14 18 25 0
16 17 20 0
16 22 25 0
17 24 28 0
20 23 24 0
20 24 -27 0
