p cnf 220 942
-187 -197 202 0
-180 -188 210 0
-176 -199 213 0
-165 178 210 0
-155 -185 186 0
-153 157 160 0
-152 185 211 0
-151 163 204 0
-150 202 208 0
-146 -171 -196 0
-146 170 -179 0
-144 203 -213 0
-137 -168 218 0
-137 176 -184 0
-136 -141 209 0
-135 -168 -203 0
-132 185 204 0
-131 152 -200 0
-130 -173 194 0
-127 -144 190 0
-125 -150 -165 0
-124 -168 211 0
-123 -189 -202 0
-122 148 191 0
-121 -209 -220 0
-121 -168 216 0
-121 -149 184 0
-121 132 -211 0
-120 -182 -191 0
-120 -146 -203 0
-120 -145 -202 0
-119 -131 -176 0
-119 209 213 0
-118 -183 195 0
-118 -148 166 0
-118 130 176 0
-117 143 -150 0
-114 -196 200 0
-114 -117 191 0
-113 136 -198 0
-112 165 184 0
-111 -156 199 0
-110 -150 -153 0
-110 -119 -137 0
-109 -112 -186 0
-109 111 -188 0
-109 142 -218 0
-108 148 -153 0
-107 -162 -182 0
-106 109 -188 0
-106 126 -154 0
-106 129 -196 0
-105 -175 -178 0
-105 169 -213 0
-105 186 -196 0
-104 -133 -193 0
-104 117 -139 0
-104 168 181 0
-103 -118 -201 0
-103 104 -167 0
-103 128 -186 0
-103 135 181 0
-103 172 -198 0
-102 -137 214 0
-102 -133 -142 0
-102 147 -178 0
-101 -181 -192 0
-101 -139 -182 0
-100 191 194 0
-99 -128 199 0
-98 -203 -219 0
-98 -154 155 0
-98 -116 -142 0
-98 109 -195 0
-98 137 -199 0
-98 171 -198 0
-95 -132 -165 0
-95 134 -187 0
-94 -150 163 0
-94 -143 -164 0
-94 109 -145 0
-93 99 153 0
-92 -219 220 0
-92 -115 216 0
-92 103 210 0
-92 109 -152 0
-92 115 -220 0
-91 -183 216 0
-90 -161 212 0
-90 -115 -180 0
-90 157 -159 0
-90 171 -177 0
-89 -93 -197 0
-89 114 176 0
-89 126 -204 0
-89 182 -183 0
-88 -173 -190 0
-88 -106 -168 0
-88 -100 -150 0
-88 89 -218 0
-88 119 -173 0
-87 -197 211 0
-86 97 -125 0
-86 141 158 0
-85 -148 -209 0
-85 -140 178 0
-85 148 -176 0
-84 -156 -174 0
-83 136 175 0
-82 -153 -173 0
-82 -112 -170 0
-82 -110 -208 0
-82 -88 -165 0
-82 87 -113 0
-82 172 176 0
-81 -140 156 0
-81 -128 195 0
-81 -86 -120 0
-81 -84 -122 0
-79 -130 138 0
-79 135 -161 0
-78 -191 -213 0
-78 155 168 0
-78 159 214 0
-77 -88 -178 0
-77 188 -208 0
-76 -182 201 0
-76 -106 210 0
-76 -101 -214 0
-75 -128 193 0
-75 -97 149 0
-75 -87 105 0
-75 171 -209 0
-74 -161 163 0
-74 137 -166 0
-74 161 -170 0
-74 163 218 0
-73 -165 -209 0
-73 -117 195 0
-73 -90 136 0
-73 75 -196 0
-73 204 216 0
-72 -94 214 0
-71 158 200 0
-71 163 178 0
-71 175 -187 0
-70 -139 142 0
-70 -99 -202 0
-70 79 166 0
-69 107 -148 0
-69 129 205 0
-68 -141 -176 0
-68 115 -157 0
-68 134 -186 0
-67 -138 152 0
-66 -159 179 0
-66 -122 -137 0
-66 -115 -165 0
-66 -92 140 0
-66 70 -81 0
-66 71 -163 0
-65 -92 -208 0
-65 -72 -193 0
-65 97 -196 0
-65 144 203 0
-64 -80 -205 0
-64 93 -193 0
-63 -187 -202 0
-63 -145 183 0
-62 -174 -186 0
-62 -162 -196 0
-62 86 150 0
-62 91 -112 0
-62 152 180 0
-61 81 134 0
-61 119 -191 0
-60 -158 161 0
-60 -82 200 0
-60 -70 -140 0
-60 -67 -130 0
-60 111 -210 0
-59 -167 -183 0
-59 -78 141 0
-59 -60 -95 0
-59 75 -171 0
-59 164 174 0
-58 -125 212 0
-58 -120 139 0
-58 -79 94 0
-58 128 -202 0
-58 168 173 0
-57 -166 184 0
-57 -95 192 0
-57 88 -215 0
-57 98 198 0
-57 108 123 0
-56 112 137 0
-56 162 170 0
-55 -110 -163 0
-55 140 -205 0
-54 -125 -149 0
-54 -113 187 0
-54 -97 -201 0
-53 -185 -204 0
-53 -92 106 0
-53 -89 -98 0
-53 -76 168 0
-53 -54 -184 0
-53 68 -162 0
-53 76 -184 0
-53 119 162 0
-53 121 -206 0
-52 97 108 0
-52 137 -188 0
-52 182 195 0
-51 -76 78 0
-51 -74 -147 0
-51 87 206 0
-51 125 151 0
-50 -71 -158 0
-50 -55 149 0
-50 70 -135 0
-50 111 210 0
-49 -84 -146 0
-49 83 116 0
-48 87 -163 0
-48 147 -212 0
-47 -149 -184 0
-47 77 -101 0
-47 101 119 0
-46 -186 215 0
-46 -99 -173 0
-46 -91 100 0
-46 53 -101 0
-46 53 85 0
-46 89 -134 0
-46 159 189 0
-45 -131 -189 0
-45 -78 -208 0
-45 -75 156 0
-45 -64 208 0
-45 95 136 0
-43 -79 -87 0
-43 113 -136 0
-42 -120 -219 0
-42 -72 -89 0
-41 -178 183 0
-41 -54 -176 0
-41 55 151 0
-41 78 -193 0
-41 80 135 0
-41 152 -213 0
-40 -136 138 0
-40 -129 -134 0
-40 -60 -96 0
-40 48 64 0
-40 57 -181 0
-40 68 107 0
-39 -116 -150 0
-39 -100 -117 0
-39 141 -201 0
-38 -75 94 0
-38 -51 -104 0
-37 -191 -215 0
-37 54 -174 0
-37 111 -183 0
-36 -119 126 0
-36 -45 -116 0
-36 60 141 0
-36 109 198 0
-36 136 163 0
-35 -113 -132 0
-35 -75 -117 0
-35 -67 -120 0
-35 39 207 0
-34 -76 95 0
-34 -71 192 0
-34 -54 185 0
-34 74 108 0
-33 -63 -186 0
-33 -61 117 0
-33 -40 183 0
-33 90 -203 0
-33 118 -132 0
-33 207 212 0
-32 105 -188 0
-31 -107 -121 0
-31 92 134 0
-30 -132 -166 0
-30 -65 159 0
-30 -56 -177 0
-30 31 -34 0
-30 31 195 0
-30 37 127 0
-30 39 -208 0
-30 43 -76 0
-30 113 174 0
-30 117 -138 0
-29 73 -189 0
-29 87 -146 0
-29 93 120 0
-29 118 -178 0
-28 -182 186 0
-28 -126 -220 0
-28 -57 118 0
-28 -56 70 0
-28 -47 -204 0
-28 31 -135 0
-28 33 66 0
-28 82 137 0
-28 104 -186 0
-27 -144 180 0
-26 -168 -200 0
-26 -49 -209 0
-26 33 -135 0
-26 76 -79 0
-25 -148 -211 0
-25 -54 -96 0
-25 -45 -144 0
-25 125 -187 0
-25 134 -200 0
-24 -99 214 0
-24 -87 -90 0
-24 -40 116 0
-24 -32 -187 0
-24 26 169 0
-24 178 212 0
-23 -175 213 0
-23 -148 -160 0
-23 -104 -139 0
-23 -93 -149 0
-23 -35 216 0
-23 25 211 0
-23 41 78 0
-23 44 69 0
-23 47 -215 0
-23 124 189 0
-23 128 203 0
-23 138 -157 0
-22 -141 -146 0
-22 -65 102 0
-22 -40 97 0
-22 -27 -205 0
-22 158 -193 0
-21 -188 -203 0
-21 -48 70 0
-21 -40 121 0
-21 -29 -212 0
-21 26 -40 0
-21 76 -131 0
-21 96 106 0
-21 105 -161 0
-21 114 134 0
-21 130 -183 0
-21 200 214 0
-20 -67 -208 0
-20 -42 -123 0
-20 23 -190 0
-19 -138 209 0
-19 -123 220 0
-19 -73 -91 0
-19 -35 144 0
-19 30 -118 0
-19 36 139 0
-19 74 -83 0
-19 178 -201 0
-18 -140 -209 0
-18 54 -196 0
-17 -58 -79 0
-17 -27 -75 0
-17 43 89 0
-17 68 -154 0
-17 74 137 0
-17 165 -220 0
-16 -30 -85 0
-16 46 94 0
-16 83 -92 0
-16 175 177 0
-15 -83 108 0
-15 23 -152 0
-15 27 -193 0
-15 76 -146 0
-15 83 -190 0
-14 -104 -130 0
-14 -100 157 0
-14 -33 -153 0
-14 -21 185 0
-14 42 73 0
-14 46 179 0
-14 62 194 0
-14 71 209 0
-13 -136 -156 0
-13 -130 144 0
-13 -105 181 0
-13 -64 -93 0
-13 -38 -68 0
-13 69 -93 0
-13 122 -164 0
-13 124 157 0
-13 166 -171 0
-12 -143 182 0
-12 -78 172 0
-12 32 83 0
-12 208 -214 0
-11 -209 -211 0
-11 -126 -153 0
-11 -125 170 0
-11 -102 -184 0
-11 -87 120 0
-11 -82 165 0
-11 -60 -207 0
-11 -41 -137 0
-11 -17 206 0
-11 15 162 0
-11 78 -204 0
-11 133 141 0
-11 146 197 0
-11 203 -213 0
-10 -143 -209 0
-10 -122 -164 0
-10 17 109 0
-10 40 102 0
-10 50 -94 0
-10 57 150 0
-10 96 -212 0
-10 188 208 0
-9 -167 -175 0
-9 -97 -126 0
-9 -56 172 0
-9 -39 41 0
-9 21 -55 0
-9 77 -101 0
-9 121 -209 0
-9 142 -170 0
-8 -69 163 0
-8 -30 176 0
-8 -24 118 0
-8 33 147 0
-7 -94 175 0
-7 -14 142 0
-7 57 69 0
-7 130 168 0
-7 132 152 0
-6 -173 194 0
-6 -106 153 0
-6 -66 -176 0
-6 -62 -176 0
-6 48 -201 0
-6 50 210 0
-6 59 140 0
-6 71 91 0
-5 -136 -205 0
-5 -102 -203 0
-5 -55 -115 0
-5 -31 47 0
-5 18 -77 0
-5 39 -177 0
-5 147 152 0
-5 175 -199 0
-4 -118 213 0
-4 -100 -199 0
-4 -97 197 0
-4 -9 66 0
-4 98 125 0
-3 -105 126 0
-3 -98 -125 0
-3 -95 98 0
-3 -66 -193 0
-3 -65 -107 0
-3 129 -130 0
-2 -114 202 0
-2 -107 -134 0
-2 -48 -98 0
-2 66 -122 0
-2 118 -150 0
-2 142 189 0
-1 -103 185 0
-1 -55 218 0
-1 -6 -105 0
-1 -5 -65 0
-1 52 77 0
-1 108 153 0
1 -53 -185 0
1 -33 -60 0
1 18 35 0
1 68 181 0
1 135 144 0
2 -110 176 0
2 -99 203 0
2 -60 -70 0
2 22 117 0
2 65 123 0
2 150 -161 0
3 -73 -85 0
3 -5 116 0
3 8 101 0
3 78 -179 0
3 79 -201 0
4 -154 -209 0
4 -79 -196 0
4 -7 45 0
4 16 -104 0
4 35 -93 0
4 68 -81 0
4 103 -153 0
4 105 -107 0
5 -45 157 0
5 -42 126 0
5 -6 -203 0
5 6 -95 0
5 10 -115 0
5 19 -80 0
5 26 -49 0
5 88 -196 0
5 93 -99 0
5 95 -176 0
5 168 219 0
6 -68 -153 0
6 -39 -78 0
6 -25 48 0
6 8 143 0
6 9 -196 0
6 79 -160 0
7 -192 -209 0
7 -126 202 0
8 -199 -213 0
8 -140 -158 0
8 -78 -95 0
8 -73 103 0
8 -28 -54 0
8 13 -130 0
8 49 -215 0
8 50 119 0
8 74 -217 0
8 157 187 0
8 178 -194 0
9 -67 131 0
9 -37 -157 0
9 -33 -214 0
9 -18 -212 0
9 -18 -170 0
9 -14 -87 0
9 121 -143 0
10 -59 203 0
10 -53 -156 0
10 -39 -55 0
10 -15 165 0
11 -192 209 0
11 -144 206 0
11 -133 174 0
11 -92 143 0
11 -75 -207 0
11 -69 -161 0
11 -58 67 0
11 -22 39 0
11 -17 145 0
11 19 53 0
11 42 -61 0
11 115 -167 0
11 118 167 0
11 133 188 0
12 152 215 0
12 179 -200 0
13 -95 216 0
13 91 -137 0
14 43 -200 0
14 66 -152 0
14 110 148 0
14 129 -148 0
14 150 178 0
15 -79 184 0
15 22 -36 0
15 25 -34 0
15 142 -209 0
16 -19 216 0
16 22 -171 0
16 31 106 0
17 -176 -178 0
17 -131 -196 0
17 -54 220 0
17 27 -116 0
17 47 -161 0
17 53 168 0
17 125 -128 0
17 173 194 0
18 -181 -202 0
18 -69 -102 0
18 22 -35 0
18 35 -187 0
18 49 124 0
18 59 -138 0
19 -166 211 0
19 -66 78 0
19 -27 114 0
19 71 185 0
19 83 142 0
19 108 159 0
19 117 162 0
19 165 -209 0
19 176 -190 0
20 -81 138 0
20 -46 152 0
20 170 203 0
21 -203 -208 0
21 -119 -206 0
21 37 177 0
21 66 -171 0
21 110 216 0
22 -82 142 0
22 -81 -146 0
22 -75 126 0
22 -41 84 0
22 64 106 0
22 70 -91 0
22 197 -215 0
23 -127 196 0
23 -88 -173 0
23 -49 84 0
23 32 90 0
23 53 -159 0
23 98 -189 0
23 157 180 0
24 -112 184 0
24 101 102 0
25 -47 159 0
25 -34 -105 0
25 -30 199 0
25 55 109 0
25 102 -175 0
25 137 195 0
26 -144 -159 0
26 -139 -143 0
27 -111 -131 0
27 -109 135 0
27 -84 -135 0
27 -46 115 0
27 -44 116 0
27 39 -201 0
28 -150 -203 0
28 -91 -142 0
28 40 -186 0
28 61 176 0
28 64 67 0
28 88 -101 0
28 126 -147 0
28 179 -218 0
28 204 219 0
29 -35 155 0
29 113 144 0
29 139 -184 0
30 -65 162 0
30 -43 -129 0
30 35 98 0
30 90 -129 0
31 -201 -202 0
31 -130 -145 0
31 -56 -72 0
31 -37 -55 0
32 -165 -173 0
32 -130 -163 0
32 -108 -167 0
32 -56 79 0
32 50 188 0
32 164 168 0
33 -174 214 0
33 -91 150 0
33 -86 211 0
33 65 -112 0
33 92 136 0
34 -204 216 0
34 -130 -156 0
34 -39 201 0
34 55 197 0
34 64 96 0
34 71 141 0
34 76 78 0
35 -172 -199 0
35 -146 -189 0
35 -99 -120 0
35 -65 216 0
35 -59 -220 0
35 -50 -58 0
35 49 61 0
35 58 154 0
35 159 216 0
35 165 -205 0
36 75 118 0
36 124 214 0
37 -83 -128 0
37 -61 -168 0
37 -50 -206 0
37 48 163 0
38 -44 -160 0
38 39 209 0
38 44 75 0
38 46 -55 0
38 181 -194 0
39 -63 -99 0
39 45 218 0
39 104 156 0
39 114 120 0
39 200 -205 0
40 -134 -172 0
40 120 169 0
40 160 -173 0
41 -45 79 0
41 62 174 0
42 -120 180 0
42 170 -179 0
43 -173 -198 0
43 -106 215 0
43 169 186 0
44 -203 -215 0
44 -108 195 0
44 -61 90 0
44 55 143 0
44 158 -193 0
45 -181 -189 0
45 -101 -124 0
45 132 -169 0
46 -91 -125 0
46 -68 -195 0
46 68 -120 0
46 98 -133 0
47 71 -168 0
47 115 -132 0
47 139 147 0
48 -121 -147 0
48 53 -76 0
48 57 -215 0
48 115 -169 0
49 -68 84 0
49 55 199 0
50 -95 191 0
50 113 -137 0
51 -126 -202 0
51 65 -168 0
52 57 101 0
52 77 148 0
53 -143 216 0
53 -104 -146 0
53 -81 133 0
53 -72 -173 0
53 114 138 0
53 182 -205 0
54 -191 -212 0
54 -57 -123 0
54 -57 172 0
54 84 -182 0
54 174 180 0
55 -143 145 0
55 -112 -123 0
55 -88 164 0
55 -82 -167 0
55 -66 116 0
55 104 -217 0
55 110 172 0
55 114 124 0
56 -148 -199 0
56 -76 133 0
56 86 -211 0
56 135 -140 0
57 -75 -140 0
57 113 -211 0
57 178 -216 0
58 -100 200 0
58 163 168 0
58 171 -212 0
59 -65 152 0
59 76 -180 0
60 89 186 0
60 90 -102 0
61 -66 -112 0
61 115 147 0
61 131 215 0
62 -160 -189 0
62 100 -133 0
63 -162 -193 0
64 -82 93 0
64 -80 197 0
64 93 -99 0
65 -110 167 0
65 -78 -118 0
65 95 110 0
66 -162 209 0
66 -83 161 0
66 -78 180 0
66 115 -141 0
66 132 -191 0
66 156 166 0
67 79 152 0
68 71 159 0
68 190 204 0
69 124 178 0
69 143 -199 0
70 -91 -113 0
71 -148 154 0
71 -148 161 0
71 -86 -124 0
71 -76 149 0
71 -74 -176 0
71 115 127 0
72 110 154 0
72 141 220 0
73 -82 -192 0
73 105 164 0
74 -140 207 0
74 -120 173 0
74 98 -163 0
74 109 143 0
75 -119 -122 0
75 112 -142 0
75 129 181 0
76 122 193 0
76 124 193 0
77 -102 -121 0
77 157 -196 0
78 -171 -174 0
78 -108 172 0
79 82 -144 0
80 -200 204 0
80 -117 140 0
80 84 -134 0
80 182 196 0
81 137 -147 0
82 173 -175 0
84 -140 -217 0
84 132 -192 0
84 132 208 0
84 151 -215 0
85 -196 203 0
85 -121 155 0
85 -87 94 0
85 117 -160 0
85 148 204 0
86 -210 215 0
86 -157 189 0
86 144 -163 0
87 -158 -195 0
87 -91 -161 0
87 96 211 0
88 -97 145 0
88 91 193 0
88 140 -195 0
89 -121 -171 0
89 -103 144 0
90 -117 -141 0
90 -105 -129 0
90 136 200 0
90 160 -198 0
91 -98 215 0
91 96 -181 0
92 -145 154 0
92 94 -161 0
92 97 -198 0
93 -170 -193 0
93 -95 107 0
94 -154 -168 0
95 130 149 0
96 100 -123 0
97 -121 -130 0
97 175 217 0
98 -114 165 0
98 120 209 0
99 -140 -205 0
99 155 197 0
99 160 -173 0
100 -126 -195 0
100 -119 -143 0
100 150 177 0
100 162 173 0
102 117 123 0
102 152 -188 0
103 -135 140 0
104 126 -172 0
104 183 -189 0
104 188 189 0
104 203 -218 0
105 -150 161 0
107 -177 -218 0
107 121 -124 0
107 122 135 0
107 152 193 0
108 -119 195 0
108 141 190 0
110 -136 -168 0
110 111 -114 0
111 -123 145 0
112 -141 214 0
112 144 196 0
113 -130 -138 0
113 134 -155 0
114 169 -195 0
114 173 174 0
115 -158 -207 0
116 -153 -216 0
116 136 167 0
118 -184 198 0
118 -140 -205 0
118 175 -177 0
120 -171 188 0
120 193 -220 0
121 181 187 0
123 -159 162 0
123 157 -209 0
125 -217 220 0
125 150 160 0
126 146 -161 0
127 190 -195 0
128 -191 -210 0
128 165 -183 0
129 141 -191 0
130 -174 -177 0
130 208 -219 0
132 156 -183 0
134 150 -171 0
136 -157 -204 0
139 -171 -207 0
141 -186 -214 0
141 147 154 0
143 -168 185 0
143 185 -200 0
144 -164 207 0
144 162 -209 0
147 155 -193 0
148 171 194 0
150 157 -186 0
151 -167 -185 0
151 192 198 0
152 167 -219 0
153 -172 218 0
155 183 206 0
156 -164 203 0
161 170 -211 0
161 177 -190 0
162 173 199 0
163 210 -219 0
164 -180 -211 0
173 -207 -214 0
177 196 -198 0
179 -181 219 0
185 199 205 0
