p cnf 100 360
-76 -77 95 0
-76 89 -97 0
-74 76 -100 0
-70 -87 96 0
-69 -70 -97 0
-66 -75 88 0
-65 90 -94 0
-64 78 84 0
-63 91 95 0
-62 63 96 0
-59 -64 -87 0
-56 -64 -75 0
-54 -56 83 0
-50 -59 86 0
-49 -77 85 0
-49 -63 -97 0
-49 61 77 0
-48 78 94 0
-48 95 100 0
-47 -56 -95 0
-46 62 -87 0
-45 -58 -99 0
-45 47 -81 0
-44 -49 89 0
-44 53 -86 0
-43 62 -87 0
-42 -86 -99 0
-41 45 -74 0
-41 91 -97 0
-40 -84 -92 0
-40 -57 -90 0
-40 65 69 0
-39 -56 -82 0
-38 -65 -79 0
-38 -42 -45 0
-38 -39 -80 0
-38 41 64 0
-37 -53 63 0
-36 -64 66 0
-36 60 94 0
-35 -36 -40 0
-34 -59 -83 0
-34 -48 -87 0
-34 56 89 0
-34 86 96 0
-33 -55 -81 0
-33 -55 -64 0
-32 -41 57 0
-32 -40 93 0
-31 -49 -59 0
-31 -40 -83 0
-31 77 92 0
-30 -41 -86 0
-30 37 77 0
-30 38 59 0
-29 -35 -76 0
-29 54 -78 0
-28 -61 -91 0
-28 -46 -64 0
-28 -34 46 0
-28 30 -38 0
-27 -59 94 0
-27 -44 -91 0
-27 -32 -49 0
-27 30 52 0
-26 -34 87 0
-26 53 82 0
-26 63 97 0
-25 -55 -97 0
-25 30 -37 0
-24 53 63 0
-24 55 56 0
-23 -26 -61 0
-23 50 95 0
-23 52 72 0
-22 -27 72 0
-22 38 50 0
-22 72 -94 0
-21 -44 76 0
-21 60 92 0
-20 -31 100 0
-20 48 -74 0
-19 -47 -50 0
-19 -38 84 0
-19 35 71 0
-19 68 -82 0
-18 -50 -93 0
-17 -45 47 0
-17 -39 -86 0
-17 -36 -85 0
-17 -30 -94 0
-17 -26 97 0
-17 49 99 0
-16 -51 83 0
-16 36 -79 0
-16 38 -74 0
-16 57 85 0
-16 82 -86 0
-15 -36 -47 0
-15 17 -62 0
-14 -58 -81 0
-14 -16 -93 0
-13 -30 76 0
-13 -16 -52 0
-12 -80 -87 0
-12 -21 -93 0
-12 -21 71 0
-12 -13 -55 0
-12 14 26 0
-12 45 -89 0
-12 53 -68 0
-12 59 71 0
-11 -54 62 0
-11 -42 -52 0
-11 -34 99 0
-11 -21 50 0
-10 -42 -82 0
-10 -20 -96 0
-10 -17 46 0
-10 16 -49 0
-10 70 -89 0
-10 95 -97 0
-9 -25 -98 0
-9 14 -53 0
-9 16 22 0
-9 39 -97 0
-9 42 89 0
-8 -36 52 0
-8 -16 27 0
-8 10 22 0
-8 20 -80 0
-8 27 -95 0
-8 30 98 0
-8 51 -54 0
-7 -71 -77 0
-7 -29 -66 0
-7 -10 -68 0
-7 14 -68 0
-7 16 83 0
-7 57 -70 0
-6 -18 53 0
-6 -9 37 0
-6 -8 -21 0
-6 7 -75 0
-6 13 56 0
-5 -58 62 0
-5 -34 -62 0
-5 43 98 0
-5 87 -94 0
-4 -68 92 0
-4 -61 99 0
-4 -34 -56 0
-4 -14 -43 0
-4 -11 -98 0
-4 10 -25 0
-4 12 -44 0
-4 13 -94 0
-3 -20 -21 0
-3 -13 43 0
-2 -79 -85 0
-2 -41 46 0
-2 -37 -87 0
-2 -17 45 0
-2 -4 92 0
-2 55 -63 0
-1 -65 -66 0
-1 -60 83 0
-1 -22 76 0
-1 -18 60 0
-1 -14 18 0
-1 5 -94 0
-1 31 -94 0
-1 47 -84 0
-1 59 77 0
1 -48 -63 0
1 -39 -76 0
1 -32 82 0
1 -16 25 0
2 -37 -86 0
2 -35 -50 0
2 -34 -45 0
2 -34 57 0
2 -31 73 0
2 -23 -61 0
2 16 -23 0
2 25 -81 0
2 58 -71 0
3 -66 97 0
3 -32 94 0
3 -30 -71 0
3 9 18 0
3 21 -78 0
3 32 -81 0
3 69 -89 0
3 69 70 0
4 -69 -74 0
4 -22 -34 0
4 19 -36 0
4 25 59 0
4 46 -57 0
5 -41 97 0
5 -13 88 0
5 18 -81 0
6 -53 86 0
6 11 97 0
6 12 82 0
6 23 -82 0
7 -71 -76 0
7 -52 -80 0
7 20 98 0
7 38 -79 0
7 59 80 0
8 -58 -68 0
8 -43 68 0
8 -39 -62 0
8 -9 -30 0
8 18 -79 0
8 29 -57 0
9 -51 -74 0
9 -39 81 0
9 15 -46 0
9 36 50 0
9 42 -70 0
9 58 75 0
9 62 -64 0
11 -21 22 0
11 58 77 0
11 61 86 0
12 -34 77 0
12 -15 96 0
12 -13 -38 0
12 31 -66 0
12 39 79 0
13 -84 99 0
13 -20 -67 0
13 38 -51 0
13 46 -88 0
14 -40 -49 0
14 15 -43 0
14 19 -23 0
15 -85 -92 0
15 -35 49 0
15 20 54 0
15 50 74 0
15 65 -98 0
16 -18 -60 0
16 -18 27 0
16 22 73 0
16 49 73 0
17 -28 82 0
17 -27 -99 0
17 -20 -42 0
17 -19 21 0
17 37 97 0
17 73 -91 0
18 26 -66 0
19 52 -68 0
20 -66 72 0
20 -45 -48 0
20 -41 68 0
20 31 -93 0
20 47 -58 0
21 -42 -93 0
22 -91 97 0
22 -36 78 0
23 -83 -100 0
23 43 77 0
24 -56 71 0
24 -48 -99 0
24 -42 97 0
24 28 -61 0
25 -42 62 0
25 32 36 0
25 50 96 0
25 60 61 0
26 -85 87 0
26 -46 79 0
26 -42 70 0
26 32 96 0
26 56 71 0
26 58 68 0
27 -93 -95 0
27 -49 -99 0
27 -46 63 0
27 -43 50 0
27 78 85 0
28 -65 66 0
28 29 56 0
28 40 61 0
29 30 48 0
29 41 97 0
30 -82 -93 0
30 -74 -96 0
30 46 77 0
30 49 -99 0
31 -74 88 0
31 -67 91 0
32 -63 96 0
32 -50 -90 0
32 50 -51 0
32 86 -88 0
33 -79 94 0
34 -56 63 0
34 -44 -52 0
34 73 79 0
36 -74 -79 0
36 45 94 0
36 64 86 0
38 95 100 0
39 43 75 0
39 57 62 0
40 -45 99 0
40 41 99 0
40 68 -81 0
41 -58 -78 0
42 -75 -77 0
43 -62 92 0
44 -54 -75 0
44 50 -70 0
45 -62 92 0
45 -55 -56 0
45 52 58 0
45 70 -79 0
46 -72 -91 0
46 -66 72 0
47 -94 100 0
47 -55 -70 0
47 48 -63 0
47 62 -77 0
48 -73 84 0
50 -84 -98 0
50 -76 -88 0
50 77 -97 0
51 -67 90 0
51 56 -66 0
52 -85 -88 0
53 -94 -100 0
53 -61 76 0
55 -64 -87 0
57 -75 -83 0
58 -69 -92 0
58 -64 -86 0
59 -65 86 0
61 -78 89 0
61 -70 -87 0
61 68 -77 0
62 79 -100 0
65 -79 -95 0
65 -69 -86 0
65 67 89 0
67 -79 -85 0
68 71 -89 0
68 71 85 0
68 72 89 0
71 83 87 0
72 -75 98 0
72 78 -91 0
74 -87 95 0
80 -90 91 0
81 -82 -98 0
