p cnf 80 260
-60 71 77 0
-56 59 60 0
-53 -69 -74 0
-53 58 -65 0
-53 58 63 0
-53 64 -70 0
-51 -57 70 0
-50 59 -73 0
-48 -65 80 0
-48 -60 -70 0
-48 -50 62 0
-48 58 65 0
-47 -68 -74 0
-47 70 76 0
-45 -46 -75 0
-45 48 52 0
-44 68 78 0
-43 48 -74 0
-42 -53 -62 0
-42 -48 76 0
-42 48 -63 0
-41 -54 66 0
-41 -52 54 0
-41 51 -71 0
-40 -56 72 0
-40 70 71 0
-35 49 78 0
-34 -35 42 0
-34 66 -73 0
-33 -51 -80 0
-33 37 73 0
-33 44 53 0
-32 -64 68 0
-32 -55 -60 0
-31 -68 -72 0
-31 41 66 0
-30 -49 -72 0
-30 52 55 0
-29 -54 80 0
-29 -35 -65 0
-28 -42 51 0
-28 -40 64 0
-28 32 34 0
-27 49 -53 0
-27 53 77 0
-25 33 -50 0
-23 -73 80 0
-23 -36 -62 0
-23 37 -57 0
-22 38 63 0
-22 44 65 0
-22 54 57 0
-21 -27 -61 0
-21 42 75 0
-21 44 68 0
-21 52 -74 0
-20 -44 -55 0
-20 -37 -70 0
-20 38 64 0
-19 25 56 0
-19 54 -57 0
-18 27 59 0
-18 48 58 0
-18 50 -54 0
-17 -36 80 0
-17 -21 -68 0
-17 30 -66 0
-16 -65 -74 0
-16 -48 69 0
-16 -31 42 0
-16 -23 25 0
-16 -18 38 0
-16 55 60 0
-15 55 -58 0
-14 22 72 0
-14 66 70 0
-13 31 58 0
-12 57 72 0
-11 -24 -66 0
-11 27 -38 0
-11 40 -58 0
-11 47 -61 0
-10 12 -36 0
-10 12 39 0
-10 59 -67 0
-9 -50 53 0
-9 -27 65 0
-9 24 -66 0
-9 39 -61 0
-8 -25 58 0
-8 15 64 0
-8 16 49 0
-8 24 53 0
-8 40 50 0
-8 70 -76 0
-7 -53 -64 0
-7 -51 -76 0
-7 -48 78 0
-7 -23 -57 0
-7 -10 72 0
-7 19 -61 0
-7 26 69 0
-7 42 62 0
-6 10 21 0
-6 42 -71 0
-5 -59 -73 0
-5 -26 -61 0
-5 -11 30 0
-5 6 62 0
-5 10 -34 0
-5 27 40 0
-5 65 -71 0
-4 -50 64 0
-4 -48 -49 0
-4 -14 76 0
-4 7 -64 0
-4 47 -63 0
-3 -34 76 0
-3 25 -32 0
-2 8 -31 0
-2 23 39 0
-2 37 60 0
-1 -21 75 0
-1 -12 -17 0
-1 25 -48 0
1 6 17 0
1 53 -66 0
2 -29 41 0
2 -21 69 0
2 -4 12 0
2 -3 -61 0
2 9 15 0
3 -62 65 0
3 18 -46 0
3 64 -74 0
4 -41 -72 0
4 -24 45 0
4 -21 -25 0
4 9 -66 0
4 12 39 0
5 -28 39 0
5 -27 -65 0
5 30 -66 0
5 45 73 0
6 -53 69 0
6 -40 -56 0
6 -24 -72 0
6 -21 -43 0
6 11 -74 0
7 -61 -62 0
7 -57 -78 0
7 -35 -70 0
7 -34 -43 0
7 11 -76 0
7 17 -43 0
7 63 -77 0
8 -38 45 0
8 -21 66 0
8 44 80 0
9 -46 58 0
10 -35 -49 0
10 -19 50 0
10 18 30 0
10 19 74 0
10 22 -67 0
10 48 -66 0
11 14 -23 0
11 20 -31 0
11 41 75 0
11 46 69 0
12 -67 75 0
12 -30 43 0
12 33 -59 0
13 -74 -79 0
13 31 56 0
14 -56 62 0
14 -35 -67 0
14 -33 -39 0
14 -22 53 0
14 21 38 0
14 47 -70 0
14 47 -51 0
15 33 62 0
15 48 50 0
15 49 60 0
15 55 -77 0
15 63 74 0
16 -23 -27 0
16 21 38 0
16 38 -65 0
16 48 -54 0
17 -18 -28 0
17 39 -45 0
18 -63 74 0
18 -60 70 0
18 19 55 0
18 28 78 0
18 44 58 0
18 51 61 0
19 -32 -33 0
19 58 75 0
19 66 -75 0
21 -68 70 0
21 -54 -74 0
22 62 -66 0
23 -78 -80 0
23 46 -54 0
25 -41 79 0
25 -29 38 0
26 -52 -78 0
26 28 31 0
26 53 -79 0
27 -59 68 0
27 36 -41 0
27 38 39 0
28 -38 73 0
28 -33 -35 0
28 29 35 0
28 34 -57 0
28 44 -74 0
29 -47 -60 0
29 -45 74 0
29 31 43 0
29 52 -75 0
30 -43 80 0
30 -31 -39 0
31 -74 79 0
31 -70 -73 0
31 -34 -44 0
32 -56 -80 0
32 -36 54 0
32 53 65 0
33 -55 69 0
35 -37 51 0
36 -66 80 0
36 -52 66 0
37 -44 -49 0
38 -43 70 0
39 -63 -67 0
40 48 78 0
40 50 -56 0
42 -60 -72 0
42 -51 76 0
44 -71 -73 0
45 -50 76 0
45 46 47 0
46 55 57 0
46 63 65 0
49 -58 -59 0
50 -56 -68 0
51 -76 78 0
52 -62 -65 0
52 55 68 0
53 -58 68 0
53 58 -80 0
54 -55 -56 0
57 64 80 0
58 -70 79 0
64 79 -80 0
73 -78 80 0
