p cnf 40 170
-32 -37 -39 0
-29 34 -39 0
-25 -28 36 0
-25 28 34 0
-25 34 -40 0
-22 31 -33 0
-21 -39 40 0
-20 -31 -33 0
-20 22 32 0
-19 -31 -34 0
-19 -21 -37 0
-19 24 27 0
-19 26 -35 0
-18 -31 33 0
-18 34 39 0
-16 -21 -35 0
-16 -21 -25 0
-16 -21 33 0
-16 -21 39 0
-16 23 -39 0
-15 -31 -32 0
-15 -20 35 0
-14 -34 38 0
-14 -29 39 0
-14 -23 -26 0
-14 -18 31 0
-14 -17 -18 0
-14 18 -27 0
-13 -27 -32 0
-13 20 32 0
-12 -19 -32 0
-12 -16 36 0
-12 14 -15 0
-12 18 20 0
-12 24 32 0
-11 -17 31 0
-11 -13 28 0
-11 15 40 0
-11 18 -20 0
-11 22 33 0
-11 33 -36 0
-10 -17 -24 0
-10 -16 -19 0
-10 14 28 0
-9 -19 28 0
-9 16 -22 0
-8 -25 -36 0
-8 11 -21 0
-8 18 -39 0
-7 -21 -27 0
-7 -21 38 0
-7 9 18 0
-7 22 39 0
-7 32 37 0
-7 38 -40 0
-6 -8 23 0
-6 10 31 0
-5 -24 40 0
-5 -6 -12 0
-5 20 40 0
-4 -27 -32 0
-4 -22 -37 0
-4 -14 38 0
-4 11 30 0
-4 16 -26 0
-4 18 -23 0
-3 -10 20 0
-3 -9 -21 0
-3 -8 -34 0
-3 6 30 0
-3 12 -36 0
-3 18 34 0
-2 -27 -28 0
-2 -25 -29 0
-2 -19 -23 0
-2 -8 38 0
-2 9 -29 0
-1 -21 -28 0
-1 -12 19 0
-1 -10 -25 0
-1 11 13 0
-1 12 -13 0
-1 22 -39 0
1 -33 34 0
1 -21 40 0
1 -11 -18 0
1 -5 28 0
1 2 -12 0
2 -23 40 0
2 -22 32 0
2 15 -22 0
3 -10 -19 0
3 -4 -26 0
3 6 -33 0
3 7 -15 0
3 8 -39 0
3 8 35 0
3 9 24 0
3 14 24 0
3 25 -37 0
4 -24 38 0
4 -13 -39 0
4 -8 27 0
4 -5 36 0
4 5 37 0
4 12 35 0
5 -15 32 0
5 -14 -31 0
5 -11 -39 0
5 -8 -11 0
5 22 -31 0
5 25 -34 0
6 -27 -33 0
6 -26 -29 0
6 -19 -20 0
6 -17 -36 0
6 -17 37 0
6 14 38 0
6 17 29 0
7 -15 30 0
7 -11 -26 0
7 14 24 0
7 17 40 0
7 25 26 0
8 -11 23 0
8 14 19 0
9 -26 -31 0
9 -25 -26 0
9 18 29 0
9 34 37 0
10 -12 -21 0
10 -12 32 0
10 16 36 0
10 21 33 0
11 23 40 0
11 29 40 0
12 -26 -33 0
12 -13 20 0
12 13 -32 0
12 15 24 0
12 16 38 0
13 20 39 0
13 21 -22 0
13 26 28 0
14 -21 40 0
14 27 39 0
15 -21 37 0
15 16 -22 0
15 26 -27 0
15 28 29 0
16 -26 29 0
16 -17 -36 0
16 23 33 0
17 23 31 0
18 21 27 0
18 34 -40 0
19 -32 40 0
19 -22 -24 0
19 24 -30 0
19 26 -27 0
20 -31 -35 0
21 -34 -40 0
22 25 -32 0
23 -32 -34 0
23 -28 -32 0
26 -36 40 0
29 30 -39 0
30 -33 -37 0
30 37 -39 0
31 34 39 0
