p cnf 120 420
-97 -104 120 0
-89 -99 -111 0
-86 -112 -115 0
-85 92 93 0
-84 103 116 0
-83 -97 -106 0
-83 97 -118 0
-78 98 -115 0
-76 88 98 0
-74 -84 114 0
-74 -78 -84 0
-73 -89 -99 0
-73 -79 90 0
-70 73 115 0
-70 78 83 0
-70 90 -104 0
-69 -76 95 0
-69 71 80 0
-69 87 92 0
-68 80 118 0
-66 -76 79 0
-66 76 -96 0
-63 110 111 0
-61 -78 88 0
-61 -75 -104 0
-61 -63 70 0
-60 -80 -99 0
-60 108 111 0
-59 -69 110 0
-58 -59 -89 0
-58 86 -100 0
-57 -77 99 0
-55 -91 -95 0
-55 -76 101 0
-55 -69 74 0
-54 -92 -99 0
-54 74 -119 0
-53 -80 -98 0
-53 61 87 0
-53 65 -74 0
-52 -69 -75 0
-51 52 69 0
-51 78 -109 0
-49 -68 85 0
-48 58 98 0
-47 -94 108 0
-47 -64 96 0
-46 92 -117 0
-45 78 80 0
-43 -50 107 0
-42 -51 -76 0
-42 45 -62 0
-42 62 -114 0
-41 -80 113 0
-41 86 -117 0
-41 94 119 0
-40 -92 -111 0
-40 -64 82 0
-40 -58 -92 0
-39 -60 -71 0
-39 -53 115 0
-39 41 86 0
-39 65 115 0
-38 56 -100 0
-37 74 103 0
-36 -110 -120 0
-36 -71 80 0
-36 74 87 0
-36 77 -117 0
-35 -68 -119 0
-35 -65 82 0
-35 51 -74 0
-35 61 -107 0
-35 74 -79 0
-35 80 107 0
-35 80 115 0
-34 -41 43 0
-33 -76 103 0
-33 -47 -75 0
-33 -42 -96 0
-33 -42 96 0
-32 -113 115 0
-32 -47 93 0
-32 51 -103 0
-31 32 83 0
-31 39 -43 0
-31 64 66 0
-30 -77 -103 0
-30 -55 -81 0
-30 -53 80 0
-30 -33 69 0
-29 -41 76 0
-29 -34 -54 0
-29 -30 76 0
-29 -30 116 0
-29 73 97 0
-29 86 105 0
-28 -80 -96 0
-28 -53 -98 0
-28 -53 -62 0
-28 -36 -75 0
-27 -108 -111 0
-27 -76 -115 0
-27 -58 101 0
-27 -54 -110 0
-27 31 -84 0
-27 56 73 0
-26 -51 62 0
-26 38 -44 0
-26 53 -63 0
-25 -61 -107 0
-25 -45 48 0
-25 75 99 0
-24 -41 -88 0
-24 -31 40 0
-24 41 113 0
-24 48 -79 0
-23 -65 102 0
-23 54 116 0
-23 75 96 0
-22 -48 -57 0
-22 -42 72 0
-22 44 46 0
-21 -24 -59 0
-21 47 52 0
-20 38 50 0
-19 -110 -116 0
-19 -28 115 0
-19 23 74 0
-19 26 -34 0
-19 38 -51 0
-19 54 -119 0
-19 86 -119 0
-18 -57 79 0
-18 23 118 0
-18 72 -90 0
-17 -73 -101 0
-17 -31 -119 0
-17 26 -103 0
-17 35 86 0
-17 52 111 0
-17 56 -66 0
-17 70 89 0
-17 86 -87 0
-16 -85 113 0
-16 -76 -91 0
-16 -27 -101 0
-16 37 -56 0
-16 91 105 0
-15 -92 -104 0
-15 -30 -109 0
-15 23 -98 0
-15 24 56 0
-15 32 82 0
-14 -16 -119 0
-14 36 -88 0
-14 46 -63 0
-14 49 -117 0
-14 92 120 0
-13 -55 72 0
-13 22 96 0
-12 -73 -92 0
-12 -62 78 0
-12 -31 46 0
-12 20 43 0
-12 61 -78 0
-11 -74 95 0
-11 26 -119 0
-11 57 115 0
-10 -73 -80 0
-10 -56 58 0
-10 -42 -93 0
-10 -31 115 0
-10 22 41 0
-10 23 -87 0
-10 53 -108 0
-9 -47 -77 0
-9 -20 -84 0
-9 29 -61 0
-9 48 103 0
-9 49 64 0
-9 97 102 0
-9 105 -112 0
-8 -79 -88 0
-8 -51 -52 0
-8 45 98 0
-7 -62 -71 0
-7 -59 -114 0
-7 -45 76 0
-7 -14 -42 0
-7 44 -59 0
-6 -69 -77 0
-6 -40 -45 0
-6 -38 42 0
-5 -15 60 0
-5 -9 -96 0
-5 55 -103 0
-5 63 78 0
-4 -54 -116 0
-4 -30 54 0
-4 17 90 0
-4 44 68 0
-4 60 -77 0
-4 105 116 0
-3 -66 91 0
-3 -6 98 0
-3 20 -61 0
-3 28 39 0
-2 -44 -70 0
-2 -14 25 0
-2 -11 66 0
-2 -7 -105 0
-2 -4 29 0
-2 7 -110 0
-2 24 89 0
-1 -62 -66 0
-1 -48 94 0
-1 -23 97 0
-1 -8 99 0
-1 13 105 0
-1 32 -114 0
-1 39 -73 0
-1 60 -96 0
1 -79 112 0
1 -36 -82 0
1 -3 -43 0
1 16 -85 0
2 -101 -115 0
3 -89 -114 0
3 -50 -90 0
3 -41 47 0
3 -25 57 0
3 6 17 0
3 19 -89 0
4 -33 77 0
4 84 107 0
4 88 91 0
4 106 -120 0
5 -77 116 0
5 -39 -99 0
5 -38 -92 0
5 -25 -112 0
5 64 72 0
6 -83 87 0
6 -62 79 0
6 -23 -47 0
6 -9 -102 0
6 17 74 0
7 -93 111 0
7 -14 -110 0
7 19 40 0
7 20 118 0
7 28 -105 0
7 47 103 0
8 -85 -108 0
8 -67 105 0
8 -45 -46 0
8 -24 -114 0
8 -15 -70 0
8 47 -104 0
8 48 62 0
9 -66 110 0
9 -59 97 0
9 -27 -104 0
9 -27 41 0
9 32 -70 0
9 36 -45 0
9 44 53 0
10 -45 106 0
10 38 104 0
10 49 -74 0
11 -64 66 0
11 -51 61 0
11 -19 52 0
11 30 91 0
11 46 114 0
11 82 -94 0
12 -77 112 0
12 -76 -102 0
12 -46 105 0
12 -28 65 0
12 -16 79 0
12 34 -53 0
12 37 -95 0
13 -98 -117 0
13 -64 -93 0
13 32 109 0
14 -67 96 0
14 -55 -70 0
14 20 -90 0
14 104 -112 0
15 -39 51 0
15 -30 -93 0
15 -21 -111 0
15 -20 55 0
16 -76 -78 0
16 -19 -93 0
16 27 120 0
17 29 -30 0
17 70 109 0
18 -84 92 0
18 -70 -80 0
18 -63 89 0
18 -27 -68 0
18 19 -37 0
18 31 94 0
18 41 88 0
19 91 95 0
20 -49 118 0
20 45 46 0
21 -47 82 0
21 28 55 0
21 54 -65 0
21 60 118 0
22 -82 94 0
22 -59 -112 0
22 -50 -108 0
23 -26 94 0
23 39 75 0
24 -89 -110 0
24 30 -103 0
24 73 100 0
25 -78 97 0
25 -74 -79 0
25 -70 88 0
25 -36 39 0
25 38 55 0
25 50 85 0
25 51 -103 0
25 85 110 0
26 -46 -68 0
26 80 -104 0
27 -69 -74 0
27 57 -64 0
27 106 -118 0
28 -45 88 0
28 -43 -58 0
28 51 59 0
29 -60 -79 0
29 -34 -111 0
30 -95 -104 0
30 -78 -95 0
32 -70 -82 0
32 -47 99 0
32 -36 -119 0
32 -33 109 0
33 -49 -81 0
33 37 -77 0
33 40 90 0
33 50 -98 0
33 92 109 0
35 -68 112 0
35 -56 -77 0
35 -54 -116 0
35 -53 -63 0
35 -53 83 0
35 60 88 0
36 -39 116 0
37 -80 81 0
37 -66 -111 0
37 95 -110 0
38 -106 119 0
38 -87 104 0
38 68 115 0
39 64 -83 0
39 108 -120 0
40 -85 100 0
40 -41 101 0
41 -54 81 0
41 -43 99 0
41 86 -113 0
42 47 -51 0
42 54 -58 0
42 65 105 0
43 -87 110 0
43 52 -64 0
43 73 91 0
44 -78 84 0
44 -53 -107 0
44 58 -83 0
44 102 107 0
45 47 95 0
47 -94 117 0
48 50 -80 0
48 64 -84 0
50 54 91 0
50 55 96 0
50 80 -93 0
53 -76 -117 0
53 -58 120 0
53 63 78 0
53 64 117 0
53 89 -95 0
55 -65 -80 0
57 -97 117 0
57 60 -117 0
59 -64 82 0
60 67 -97 0
63 -83 -102 0
63 -72 -92 0
63 95 101 0
65 -88 105 0
66 95 -100 0
67 -79 86 0
67 68 -86 0
69 88 105 0
71 -108 114 0
72 -74 -120 0
72 77 -119 0
73 -75 97 0
73 74 -89 0
74 84 -90 0
75 91 -104 0
77 -99 -118 0
81 88 -114 0
86 -90 -120 0
89 -107 118 0
89 115 -120 0
92 105 -118 0
100 103 -114 0
