p cnf 40 170
-36 -37 -38 0
-29 30 40 0
-27 -37 39 0
-22 28 -37 0
-22 33 -35 0
-20 -30 -37 0
-20 26 -27 0
-19 22 30 0
-18 -22 -27 0
-17 -21 28 0
-17 -19 -25 0
-17 -18 -30 0
-17 26 -32 0
-16 29 -38 0
-15 -37 38 0
-15 -27 37 0
-14 -30 -33 0
-14 25 27 0
-13 22 -30 0
-13 36 -37 0
-12 -20 -32 0
-12 -14 36 0
-12 15 20 0
-11 -24 -32 0
-11 -22 28 0
-11 -17 -21 0
-11 -14 -34 0
-11 20 25 0
-11 24 -25 0
-10 -33 38 0
-10 -25 -34 0
-10 -23 26 0
-10 -19 -23 0
-10 -16 -30 0
-10 -13 -33 0
-10 -12 -28 0
-10 -11 -33 0
-9 -10 14 0
-9 15 36 0
-9 17 34 0
-9 24 -33 0
-9 30 -34 0
-8 -31 35 0
-8 12 32 0
-8 15 -32 0
-8 16 29 0
-8 18 -33 0
-8 20 -21 0
-8 21 29 0
-7 -9 -39 0
-7 14 37 0
-7 18 -32 0
-6 -19 -35 0
-6 -19 -31 0
-6 -9 -30 0
-6 -8 -16 0
-6 9 31 0
-6 18 -25 0
-6 18 -20 0
-5 -32 39 0
-5 -24 38 0
-5 -22 23 0
-5 -15 34 0
-5 -8 39 0
-5 15 -36 0
-5 18 32 0
-5 25 -31 0
-4 -23 26 0
-4 -11 20 0
-4 10 -20 0
-4 15 20 0
-3 -28 33 0
-3 -16 -35 0
-3 6 17 0
-3 10 31 0
-3 30 -40 0
-3 37 -38 0
-2 -9 27 0
-2 -6 -37 0
-2 6 39 0
-2 12 23 0
-2 13 -36 0
-2 23 29 0
-1 -24 33 0
-1 -15 -27 0
-1 -14 -40 0
-1 -5 37 0
-1 7 -24 0
-1 7 16 0
1 4 23 0
1 7 21 0
1 18 37 0
2 -19 22 0
2 -10 16 0
2 -3 17 0
2 -3 33 0
2 4 -5 0
2 9 40 0
2 21 25 0
3 -37 39 0
3 -8 -34 0
3 -6 11 0
3 -5 38 0
3 6 -36 0
3 8 -23 0
4 -39 -40 0
4 -10 27 0
4 -10 34 0
4 -8 -10 0
4 -6 30 0
4 5 18 0
4 5 21 0
4 17 -18 0
4 22 -24 0
4 36 -39 0
5 -10 -32 0
5 29 -35 0
5 31 -34 0
6 -31 36 0
6 -9 14 0
6 -9 40 0
6 16 -23 0
7 -30 -36 0
7 -21 -22 0
7 -19 -38 0
7 -12 29 0
7 12 -38 0
7 26 27 0
8 -21 -27 0
8 -15 20 0
8 -10 -33 0
8 19 27 0
8 20 37 0
8 31 36 0
9 -31 -34 0
9 -31 36 0
9 -22 -38 0
9 -12 -24 0
9 13 35 0
9 26 33 0
10 14 38 0
10 15 19 0
11 -20 39 0
11 12 -16 0
11 22 23 0
12 -22 -35 0
12 -14 -30 0
12 13 32 0
12 27 40 0
12 28 40 0
14 24 33 0
15 -23 28 0
15 -19 -27 0
15 -18 -35 0
15 21 28 0
16 20 28 0
16 35 39 0
18 33 38 0
19 -32 35 0
19 -30 40 0
20 34 -38 0
21 -22 33 0
22 25 31 0
23 27 40 0
24 35 -39 0
25 -28 -30 0
25 34 -39 0
26 -27 -35 0
26 35 -40 0
27 30 32 0
