p cnf 100 360
-90 92 100 0
-78 82 88 0
-78 83 -97 0
-73 86 -88 0
-71 -75 -83 0
-70 89 96 0
-69 93 98 0
-65 -77 -86 0
-64 72 -100 0
-62 -64 68 0
-61 -71 -88 0
-60 -94 98 0
-59 -68 -77 0
-59 -61 -87 0
-58 59 84 0
-58 66 -96 0
-57 -68 99 0
-56 61 81 0
-55 81 -82 0
-55 82 93 0
-54 -73 -89 0
-51 -60 82 0
-51 74 86 0
-51 82 -98 0
-50 -56 -89 0
-49 85 -93 0
-48 -68 74 0
-48 -53 69 0
-47 -69 79 0
-47 60 -62 0
-46 -59 -70 0
-46 90 -93 0
-45 -94 -99 0
-45 -84 91 0
-45 -69 -91 0
-45 -51 61 0
-45 47 -71 0
-45 58 97 0
-44 51 68 0
-44 59 -66 0
-44 80 83 0
-43 51 64 0
-43 57 -85 0
-43 60 -72 0
-43 60 -68 0
-42 -65 66 0
-40 -43 75 0
-40 51 93 0
-39 66 -98 0
-38 -70 -95 0
-37 44 70 0
-36 47 -61 0
-35 -48 61 0
-35 46 -54 0
-34 -64 -96 0
-34 -41 -97 0
-34 59 -96 0
-34 68 99 0
-32 -53 -64 0
-31 -74 -83 0
-31 -46 -47 0
-31 47 89 0
-31 53 -69 0
-30 -36 -84 0
-30 72 86 0
-30 75 82 0
-29 -65 68 0
-28 -95 -100 0
-28 -61 64 0
-28 -44 -88 0
-27 -40 -52 0
-26 -33 75 0
-26 52 -54 0
-26 84 91 0
-25 -60 -62 0
-25 56 -90 0
-25 63 98 0
-25 77 -89 0
-24 -35 -100 0
-24 -34 56 0
-24 27 -95 0
-24 32 -91 0
-24 36 -91 0
-24 44 83 0
-23 -85 99 0
-23 -45 -61 0
-23 -27 -72 0
-23 31 -95 0
-23 41 79 0
-22 -71 86 0
-22 -58 -77 0
-22 -53 -63 0
-22 -42 -43 0
-22 29 54 0
-22 41 -58 0
-22 51 71 0
-21 -89 -99 0
-21 -62 -94 0
-21 39 -53 0
-21 54 97 0
-20 -45 -92 0
-20 -37 43 0
-20 31 54 0
-20 54 87 0
-19 -34 -49 0
-19 21 58 0
-19 23 57 0
-19 33 -78 0
-19 53 82 0
-19 63 100 0
-19 65 84 0
-19 81 82 0
-18 -68 -75 0
-18 -63 87 0
-18 -58 -95 0
-18 33 92 0
-18 58 -74 0
-17 -27 -86 0
-17 73 -74 0
-16 -64 -83 0
-16 -23 -37 0
-16 -17 96 0
-16 30 42 0
-16 70 -88 0
-15 -59 65 0
-15 -29 99 0
-15 -19 -67 0
-15 21 -98 0
-15 27 -73 0
-15 29 -65 0
-15 92 -98 0
-15 94 97 0
-14 -41 63 0
-14 43 -44 0
-14 74 94 0
-13 -67 -74 0
-13 24 31 0
-13 34 74 0
-13 38 98 0
-13 40 -68 0
-13 40 -48 0
-13 43 65 0
-13 67 -72 0
-12 -62 80 0
-12 -55 -60 0
-12 45 -75 0
-12 58 -61 0
-11 -58 -91 0
-11 -43 53 0
-11 -37 -74 0
-11 34 -75 0
-10 -84 100 0
-10 -64 81 0
-10 -26 -40 0
-10 -14 -98 0
-10 27 -31 0
-10 47 62 0
-9 18 -53 0
-9 21 55 0
-9 50 57 0
-8 -45 81 0
-8 -36 -55 0
-8 10 16 0
-8 14 -74 0
-7 -13 -26 0
-7 -10 31 0
-7 54 -61 0
-7 81 -90 0
-6 -47 -83 0
-6 -35 67 0
-6 -14 -90 0
-6 -12 66 0
-6 -10 -37 0
-6 16 -68 0
-5 -33 86 0
-5 15 -37 0
-5 34 -41 0
-5 72 -97 0
-5 80 -100 0
-4 -7 -91 0
-4 -6 7 0
-4 14 -28 0
-3 -91 -94 0
-3 -91 95 0
-3 -38 -95 0
-3 -23 -78 0
-3 -8 -81 0
-3 -6 46 0
-3 19 -40 0
-3 20 44 0
-3 73 93 0
-2 -40 -89 0
-2 -5 -49 0
-2 7 -86 0
-2 52 62 0
-1 -62 -100 0
-1 -7 95 0
-1 15 -69 0
-1 25 32 0
-1 27 69 0
-1 55 72 0
1 -84 100 0
1 -23 45 0
1 -20 32 0
1 -4 -66 0
1 60 -81 0
1 66 -79 0
2 -17 41 0
3 -74 90 0
3 6 40 0
4 -42 -44 0
4 -14 97 0
4 10 100 0
5 -39 -48 0
5 -36 66 0
5 -15 -51 0
5 -14 -18 0
5 -12 -22 0
6 -86 -94 0
6 -67 94 0
6 25 -33 0
6 32 -45 0
6 36 71 0
6 42 -66 0
7 -45 56 0
7 -41 46 0
7 -31 -45 0
7 -30 -36 0
7 -30 68 0
7 -21 76 0
7 28 -70 0
8 -36 79 0
8 19 -67 0
8 23 49 0
8 36 89 0
9 -13 -26 0
9 67 80 0
10 -55 76 0
10 -53 -83 0
10 -47 -60 0
10 -20 -52 0
10 -17 22 0
11 -50 55 0
11 34 94 0
12 -78 -85 0
12 -24 86 0
13 -81 84 0
13 20 -39 0
13 37 58 0
13 45 76 0
14 -60 75 0
14 -47 62 0
14 -43 88 0
14 -32 -48 0
14 -16 -77 0
14 49 69 0
14 81 97 0
15 16 -25 0
15 28 -68 0
16 42 58 0
16 66 -84 0
17 -40 61 0
17 -30 59 0
17 75 -96 0
18 -61 -98 0
18 -57 74 0
18 -33 81 0
18 23 -42 0
18 47 -73 0
20 -87 -91 0
20 -81 -91 0
20 -71 -85 0
20 -46 -92 0
20 27 -97 0
20 28 -83 0
20 37 56 0
21 33 -48 0
21 53 -77 0
22 -77 -83 0
22 63 -93 0
23 -79 95 0
23 -45 80 0
23 41 84 0
24 -83 84 0
24 -64 -80 0
24 35 63 0
25 -57 86 0
25 -50 -86 0
25 28 40 0
25 32 84 0
25 63 -70 0
26 -62 -97 0
26 41 96 0
26 56 -68 0
26 60 93 0
27 -46 53 0
27 -31 -70 0
27 39 -98 0
28 29 36 0
28 32 86 0
28 61 94 0
29 -40 98 0
30 -39 -99 0
30 87 97 0
31 -58 -80 0
31 -48 -90 0
31 40 98 0
31 46 75 0
32 -52 58 0
34 -42 -78 0
34 53 88 0
35 63 -80 0
35 67 -89 0
36 -62 97 0
36 80 -93 0
36 96 -97 0
37 -44 -100 0
37 78 87 0
39 -69 72 0
39 72 74 0
40 44 86 0
41 -80 96 0
41 -58 94 0
41 91 99 0
42 71 100 0
43 -87 96 0
43 -46 -96 0
43 49 -56 0
44 -48 -57 0
44 46 78 0
44 52 -81 0
44 63 65 0
46 71 97 0
46 84 96 0
47 89 90 0
48 52 86 0
48 72 -91 0
49 90 100 0
50 -67 -98 0
51 -55 100 0
51 68 76 0
52 53 85 0
52 59 -87 0
52 67 -88 0
53 -90 96 0
54 -61 -96 0
55 -90 -100 0
56 -78 -99 0
59 -62 -89 0
60 -72 -77 0
60 -65 68 0
60 86 -87 0
62 68 76 0
65 -70 92 0
69 73 -76 0
79 -83 100 0
80 82 96 0
86 97 -100 0
87 88 -92 0
91 -92 -98 0
