p cnf 50 213
-37 -38 49 0
-36 -46 -47 0
-31 38 -47 0
-31 39 -42 0
-30 36 37 0
-29 -41 -48 0
-28 -31 49 0
-26 -39 -49 0
-26 40 48 0
-26 42 43 0
-25 32 -40 0
-24 33 -35 0
-23 34 50 0
-22 -34 -50 0
-22 -25 34 0
-22 -24 -40 0
-22 38 -44 0
-21 29 -50 0
-21 37 -44 0
-20 -43 48 0
-20 -23 46 0
-20 22 23 0
-20 28 -48 0
-19 22 50 0
-19 45 49 0
-18 29 36 0
-17 -23 25 0
-17 19 -25 0
-17 28 -45 0
-16 -40 -45 0
-16 -28 40 0
-16 -21 -48 0
-15 20 -24 0
-15 21 28 0
-15 30 -35 0
-14 -30 49 0
-13 18 -31 0
-13 22 30 0
-13 24 -43 0
-13 29 -31 0
-13 31 -46 0
-13 34 -47 0
-13 38 45 0
-12 -27 -40 0
-12 -19 -21 0
-12 -16 -28 0
-12 34 37 0
-11 -39 41 0
-11 -36 50 0
-11 -35 -43 0
-11 -32 -35 0
-10 -29 -38 0
-10 -14 -44 0
-10 -11 -27 0
-10 33 -46 0
-10 40 43 0
-9 -19 -22 0
-9 -13 15 0
-9 -11 15 0
-9 13 -18 0
-9 17 -37 0
-9 18 47 0
-8 -31 -33 0
-8 -22 -44 0
-8 -22 -25 0
-8 -16 -36 0
-8 -11 37 0
-8 11 -32 0
-8 14 41 0
-7 -30 -39 0
-7 -26 -36 0
-7 -24 49 0
-7 -23 -36 0
-7 -18 -24 0
-7 -17 49 0
-7 -15 48 0
-7 44 -49 0
-6 -30 45 0
-6 -24 29 0
-6 -16 21 0
-6 -16 42 0
-6 12 -44 0
-6 19 -42 0
-5 -15 20 0
-5 16 29 0
-4 -13 -50 0
-4 -10 -37 0
-4 -5 -30 0
-4 11 35 0
-4 44 -46 0
-3 10 -28 0
-3 14 23 0
-3 20 27 0
-3 29 49 0
-2 -36 -49 0
-2 -33 41 0
-2 -17 42 0
-2 -14 38 0
-2 -5 41 0
-2 11 37 0
-2 14 -43 0
-2 28 -41 0
-2 31 42 0
-2 32 36 0
-1 -5 -39 0
-1 9 40 0
-1 10 -46 0
-1 17 -22 0
-1 26 -43 0
1 9 -29 0
1 9 -12 0
1 15 26 0
2 -40 -48 0
2 -21 -46 0
2 -12 -18 0
2 8 48 0
2 12 -37 0
2 22 -28 0
3 -13 -46 0
3 16 41 0
3 18 26 0
4 -21 -35 0
4 -19 -47 0
4 -18 41 0
4 -13 -21 0
5 -45 -48 0
5 -33 36 0
5 -20 50 0
5 -17 41 0
5 -8 39 0
5 9 -14 0
6 -28 31 0
6 -12 -22 0
7 -14 -20 0
7 10 -44 0
8 -21 -43 0
8 -21 39 0
8 -9 11 0
8 17 40 0
9 -46 48 0
9 -36 42 0
9 -29 44 0
9 -27 -34 0
9 -19 -26 0
9 -11 -33 0
9 35 44 0
10 -30 -34 0
10 -29 -40 0
10 -28 -34 0
10 -18 34 0
10 -14 18 0
10 -12 -13 0
10 11 -35 0
10 14 44 0
10 27 -33 0
10 36 -44 0
11 -30 33 0
11 25 -42 0
12 -37 -50 0
12 -31 -46 0
12 -25 -49 0
12 -20 33 0
12 -16 39 0
12 -15 28 0
12 21 37 0
12 22 -36 0
12 26 28 0
13 -39 49 0
13 -16 20 0
13 15 -32 0
13 17 36 0
13 31 -46 0
14 -15 -19 0
14 22 -32 0
14 29 30 0
15 -16 -31 0
15 39 47 0
16 36 45 0
17 -31 36 0
17 -30 -46 0
17 -18 45 0
17 19 40 0
17 38 42 0
18 -26 35 0
18 -19 -48 0
18 21 -41 0
18 31 -37 0
19 -40 -42 0
19 -20 -40 0
19 26 37 0
20 -25 46 0
20 24 46 0
21 -27 -43 0
21 23 25 0
21 25 45 0
21 38 -47 0
22 -29 31 0
22 24 49 0
23 -46 -49 0
23 -32 -44 0
23 27 -29 0
24 -40 -47 0
26 -28 -48 0
28 -42 -50 0
28 -30 33 0
28 41 48 0
30 -38 -48 0
30 -31 -43 0
31 42 43 0
31 48 -50 0
38 -46 48 0
39 -40 47 0
45 47 50 0
