p cnf 90 383
-73 -79 -81 0
-73 84 89 0
-69 83 89 0
-65 -73 84 0
-62 87 90 0
-61 -72 75 0
-61 -66 88 0
-60 64 82 0
-58 -71 77 0
-58 -67 68 0
-56 -70 -78 0
-55 -66 72 0
-55 -65 77 0
-55 -58 88 0
-55 69 -78 0
-54 -60 -61 0
-54 82 -85 0
-53 -72 86 0
-51 71 -77 0
-51 72 73 0
-50 70 -75 0
-49 -63 -73 0
-49 57 84 0
-48 -55 86 0
-48 -52 75 0
-47 -58 71 0
-47 69 89 0
-46 50 -78 0
-46 55 57 0
-45 -47 -84 0
-45 48 -75 0
-44 -48 -65 0
-44 66 78 0
-43 -48 -66 0
-42 51 -84 0
-41 -43 87 0
-40 -80 -87 0
-40 -49 66 0
-40 45 -82 0
-40 68 -74 0
-38 77 -78 0
-37 -38 51 0
-36 -69 84 0
-36 -58 69 0
-36 -55 60 0
-36 42 -80 0
-36 57 -69 0
-36 73 86 0
-36 86 -90 0
-35 -70 -78 0
-35 -39 -64 0
-35 46 -71 0
-35 51 -64 0
-34 -86 90 0
-34 -71 -82 0
-34 52 67 0
-34 71 82 0
-32 -72 89 0
-31 34 90 0
-31 61 72 0
-30 -38 -55 0
-29 -46 -82 0
-29 35 -89 0
-28 -77 -87 0
-28 -45 69 0
-28 34 -43 0
-28 38 87 0
-27 -58 -71 0
-27 -52 72 0
-27 -43 74 0
-27 -40 -89 0
-27 33 59 0
-27 34 54 0
-27 64 -70 0
-26 -59 82 0
-26 -49 66 0
-26 -37 38 0
-26 -29 -76 0
-26 71 90 0
-26 81 90 0
-25 46 51 0
-24 -44 81 0
-24 28 56 0
-24 38 -79 0
-24 45 -47 0
-24 67 77 0
-23 -63 -84 0
-22 -43 70 0
-22 -33 46 0
-21 -33 -40 0
-21 -25 -74 0
-20 53 81 0
-19 -36 56 0
-19 39 -88 0
-18 -61 78 0
-18 -44 -83 0
-18 -38 -44 0
-18 -24 -69 0
-18 25 61 0
-18 49 -54 0
-17 -56 85 0
-17 -33 -46 0
-17 -23 63 0
-17 -19 -79 0
-17 18 -73 0
-17 32 48 0
-17 36 -74 0
-17 40 59 0
-17 66 -68 0
-16 -54 -72 0
-15 27 88 0
-14 -86 -88 0
-14 -60 72 0
-14 -38 -54 0
-14 -27 -72 0
-14 -23 88 0
-14 -17 89 0
-14 42 68 0
-13 -21 45 0
-13 -15 63 0
-13 20 77 0
-13 49 75 0
-12 -56 86 0
-12 -38 -83 0
-12 -27 29 0
-12 43 59 0
-11 -61 65 0
-11 -38 -71 0
-11 14 -35 0
-11 26 60 0
-11 36 -68 0
-11 44 80 0
-10 -68 -85 0
-10 -17 -63 0
-10 17 -64 0
-10 20 -24 0
-10 70 -84 0
-9 -65 -70 0
-9 -57 -80 0
-9 -42 64 0
-9 -22 -32 0
-9 51 82 0
-8 -81 -82 0
-8 -50 -88 0
-8 -28 -54 0
-8 -25 76 0
-8 -24 -79 0
-8 16 88 0
-8 67 -72 0
-7 17 61 0
-6 -60 65 0
-6 -27 -79 0
-6 -15 -84 0
-6 -11 -62 0
-6 14 15 0
-6 16 -26 0
-6 19 -54 0
-5 -58 -64 0
-5 -29 55 0
-5 -27 -74 0
-5 34 83 0
-5 41 73 0
-5 68 80 0
-4 -26 -80 0
-4 -26 57 0
-4 -23 -58 0
-4 21 30 0
-4 32 82 0
-4 36 -89 0
-4 40 67 0
-4 46 51 0
-4 55 -63 0
-3 -51 -87 0
-3 8 47 0
-3 15 69 0
-2 -82 87 0
-2 -70 81 0
-2 -35 -87 0
-2 -23 61 0
-2 -18 -78 0
-2 -7 14 0
-2 -3 -29 0
-2 3 20 0
-2 20 87 0
-2 40 -78 0
-2 43 61 0
-2 45 62 0
-1 -42 -46 0
-1 -42 74 0
-1 -23 -73 0
-1 -21 -49 0
-1 -18 60 0
-1 46 84 0
-1 48 -52 0
1 -54 -77 0
1 -13 -63 0
1 2 29 0
1 2 73 0
2 -88 -90 0
2 -80 82 0
2 -65 87 0
2 -49 -50 0
2 11 51 0
3 -47 -86 0
3 -40 69 0
3 -38 61 0
3 -26 47 0
4 -39 -70 0
4 -13 42 0
4 -12 -44 0
4 22 -29 0
5 -8 24 0
5 9 61 0
5 33 -82 0
5 45 -53 0
6 -41 -66 0
6 -20 -68 0
6 46 56 0
6 57 -64 0
7 -43 46 0
7 -32 43 0
7 -31 -67 0
7 9 18 0
7 10 82 0
7 33 -65 0
7 37 69 0
7 45 71 0
7 59 -85 0
7 79 -89 0
8 -30 77 0
8 -21 47 0
8 -20 78 0
8 32 72 0
8 37 65 0
8 42 77 0
8 53 -58 0
8 55 -56 0
9 -57 82 0
9 -28 -61 0
9 -20 28 0
9 -18 62 0
9 -10 52 0
9 28 -67 0
9 28 47 0
9 28 75 0
9 81 86 0
10 -34 62 0
10 -32 44 0
10 25 -73 0
11 -56 66 0
11 -43 63 0
11 -37 -62 0
11 -34 -44 0
11 -32 87 0
11 -16 44 0
11 -15 70 0
11 45 52 0
12 -64 66 0
12 -19 -37 0
12 13 -67 0
12 35 -79 0
12 70 87 0
13 -81 -88 0
13 -68 89 0
13 -55 83 0
13 -43 -51 0
13 -37 76 0
13 -33 35 0
13 35 69 0
14 -52 74 0
14 -42 61 0
14 -35 -52 0
14 -16 82 0
14 17 -79 0
14 27 -70 0
14 77 81 0
15 -65 74 0
15 -43 47 0
15 56 -89 0
16 -75 90 0
16 -51 -71 0
16 -50 -73 0
16 -46 69 0
16 70 83 0
17 -45 46 0
17 24 68 0
17 62 79 0
18 -43 70 0
18 39 75 0
18 70 79 0
19 31 80 0
19 33 -40 0
20 -62 72 0
20 -47 -53 0
20 24 71 0
20 25 29 0
20 35 39 0
20 35 64 0
20 43 -49 0
21 -42 58 0
21 27 58 0
21 35 62 0
22 -82 -83 0
22 76 -79 0
23 -60 -61 0
23 -33 -39 0
23 -31 67 0
23 30 34 0
23 53 61 0
23 59 82 0
23 74 -86 0
24 -41 -42 0
24 -34 -49 0
25 -34 -86 0
25 -28 -83 0
25 39 70 0
25 42 67 0
26 -82 86 0
26 -29 -49 0
27 -40 69 0
27 41 -64 0
27 44 80 0
28 34 -85 0
28 47 76 0
29 -33 39 0
29 -31 -36 0
29 32 -63 0
30 -64 -88 0
30 -32 73 0
30 36 -48 0
31 35 -72 0
31 43 -68 0
32 42 66 0
32 52 -88 0
33 -44 49 0
33 -43 63 0
33 -41 86 0
34 -47 75 0
34 -38 -79 0
34 -36 62 0
34 48 -61 0
34 53 -55 0
36 -57 -90 0
36 44 -66 0
37 -69 -87 0
37 -40 -47 0
37 51 -55 0
38 -74 90 0
38 -72 -76 0
38 -42 -58 0
38 48 74 0
39 85 -87 0
40 -49 -75 0
40 -44 49 0
41 43 -50 0
41 48 -87 0
41 62 69 0
41 72 83 0
42 -52 -74 0
42 -45 47 0
43 44 72 0
43 54 -87 0
43 61 65 0
44 -74 -77 0
44 -52 64 0
44 71 -75 0
45 57 -69 0
45 72 -75 0
47 -81 90 0
50 -61 -90 0
50 64 -76 0
51 -52 90 0
52 -75 -77 0
52 57 77 0
54 -70 -74 0
55 -61 64 0
55 64 -81 0
56 -59 60 0
56 -58 60 0
60 -68 79 0
71 -76 -84 0
75 76 -80 0
80 82 84 0
