p cnf 60 255
-50 51 54 0
-42 -58 60 0
-41 -46 60 0
-41 50 -59 0
-39 -41 -51 0
-39 40 41 0
-39 51 -56 0
-38 46 57 0
-36 -40 -56 0
-36 55 58 0
-34 -40 -46 0
-34 -37 45 0
-33 -44 -58 0
-33 -36 -46 0
-31 39 -53 0
-29 -50 -55 0
-29 -49 54 0
-29 -41 -49 0
-29 30 -38 0
-29 32 -55 0
-27 37 -53 0
-26 -39 -54 0
-26 -29 34 0
-26 28 -35 0
-26 53 54 0
-25 28 -34 0
-24 -29 35 0
-24 31 -42 0
-23 45 -48 0
-22 28 43 0
-21 -38 55 0
-21 -31 -51 0
-21 33 35 0
-20 -46 53 0
-19 -24 41 0
-19 21 -37 0
-19 26 -43 0
-18 -45 51 0
-18 -31 43 0
-18 19 -46 0
-18 29 39 0
-18 31 -55 0
-18 42 -47 0
-18 45 59 0
-17 -29 -56 0
-17 41 52 0
-16 -39 40 0
-16 -30 32 0
-16 -20 -28 0
-15 -47 60 0
-15 -32 -51 0
-15 -32 52 0
-15 -20 -53 0
-15 17 49 0
-15 48 -54 0
-13 -35 38 0
-13 -23 -56 0
-13 -18 19 0
-13 32 59 0
-13 34 -54 0
-12 -34 -56 0
-12 -14 -15 0
-12 16 -52 0
-12 19 -23 0
-12 20 -42 0
-11 -38 52 0
-11 14 -22 0
-11 17 42 0
-11 21 30 0
-11 45 56 0
-10 -19 32 0
-10 25 29 0
-9 -54 -58 0
-9 -14 -16 0
-9 48 -51 0
-8 -54 -55 0
-8 19 33 0
-8 24 -57 0
-7 -49 -50 0
-7 -13 -47 0
-7 55 -56 0
-6 -20 50 0
-6 11 -39 0
-6 11 54 0
-6 13 27 0
-6 23 -48 0
-5 -32 55 0
-5 -22 -46 0
-5 -13 -43 0
-5 19 49 0
-5 47 -55 0
-4 -20 -35 0
-4 -6 -52 0
-4 -6 9 0
-4 -5 -25 0
-4 9 -52 0
-4 22 60 0
-4 30 -35 0
-3 -22 45 0
-3 -6 22 0
-3 11 -30 0
-3 12 41 0
-3 17 -43 0
-3 29 -57 0
-2 -40 -60 0
-2 -36 -37 0
-2 -14 25 0
-2 10 -32 0
-2 30 -55 0
-2 32 -54 0
-1 -22 -55 0
-1 8 10 0
-1 36 38 0
1 -28 -38 0
1 4 -37 0
1 6 -48 0
1 37 -46 0
2 -56 57 0
2 -14 27 0
2 -8 -16 0
2 24 -36 0
3 -32 58 0
3 -27 -46 0
3 -25 57 0
3 4 -7 0
3 7 45 0
3 10 12 0
3 15 -37 0
3 15 36 0
3 32 -40 0
3 36 44 0
4 -28 33 0
4 -27 34 0
4 -14 60 0
4 -5 50 0
4 11 40 0
4 17 20 0
4 37 -46 0
4 43 50 0
5 -52 57 0
5 -23 -41 0
5 27 57 0
6 -37 -46 0
6 -34 53 0
6 -23 26 0
6 -22 25 0
6 -19 39 0
6 15 28 0
6 20 -30 0
6 32 38 0
7 10 30 0
7 12 16 0
7 25 45 0
7 27 43 0
7 31 -39 0
8 -18 24 0
8 -17 -51 0
8 -15 -37 0
8 -13 60 0
8 31 -53 0
8 37 -56 0
9 -20 -60 0
9 -13 -33 0
9 -11 -21 0
10 -14 28 0
10 11 29 0
10 23 46 0
10 29 42 0
10 32 -37 0
10 48 -54 0
11 -20 -60 0
11 51 54 0
12 -35 -60 0
12 -31 -37 0
12 -25 -39 0
12 -20 -51 0
12 -20 47 0
12 -19 44 0
12 16 -40 0
13 -34 50 0
13 -27 55 0
13 -20 -60 0
13 -17 25 0
13 -14 -28 0
13 24 42 0
14 15 -44 0
14 18 57 0
14 25 31 0
14 34 -58 0
15 18 -46 0
15 19 -39 0
15 23 54 0
16 23 -25 0
16 33 60 0
16 34 -54 0
17 -33 46 0
17 -20 -30 0
17 20 30 0
17 33 57 0
18 -22 -34 0
18 21 -59 0
18 29 60 0
18 42 59 0
18 45 -57 0
19 -28 -36 0
19 -23 -24 0
19 29 -57 0
20 -40 41 0
20 45 60 0
20 49 -51 0
21 -35 47 0
21 -25 58 0
21 32 55 0
21 35 -40 0
22 -41 45 0
22 40 -58 0
23 -36 60 0
23 -31 -59 0
23 -27 -47 0
23 31 -60 0
24 -41 51 0
24 -40 53 0
24 -38 45 0
24 29 58 0
25 -35 -55 0
25 -29 52 0
25 -28 -29 0
25 35 57 0
26 28 51 0
26 31 -46 0
26 49 -57 0
27 29 49 0
27 31 -57 0
27 35 53 0
28 -37 41 0
28 -36 -56 0
29 -42 -53 0
30 -58 60 0
30 -49 51 0
30 32 -42 0
30 45 -46 0
32 -40 52 0
32 38 -59 0
32 41 43 0
33 -46 -53 0
33 -43 59 0
33 36 -50 0
37 -47 48 0
37 -43 59 0
37 -41 -42 0
39 51 59 0
40 -48 -52 0
41 48 -51 0
43 57 59 0
46 -47 -48 0
