p cnf 50 213
-38 -40 -46 0
-37 42 -49 0
-36 -39 43 0
-35 36 -40 0
-31 -33 -41 0
-31 -32 -48 0
-31 45 -49 0
-29 37 -44 0
-29 41 -46 0
-29 42 -50 0
-28 -35 45 0
-28 48 50 0
-27 28 -48 0
-27 29 32 0
-27 30 43 0
-26 39 -48 0
-25 -44 48 0
-25 32 47 0
-24 27 -31 0
-23 -28 -40 0
-23 29 41 0
-22 32 38 0
-21 -40 -42 0
-21 27 44 0
-21 34 -47 0
-20 -32 -36 0
-20 -29 -45 0
-20 -26 -32 0
-19 -35 43 0
-19 -33 36 0
-18 -22 40 0
-18 31 -48 0
-17 21 38 0
-17 22 -48 0
-17 32 43 0
-17 35 -43 0
-16 -44 -48 0
-15 -25 28 0
-15 17 30 0
-15 19 27 0
-14 41 49 0
-13 -32 -38 0
-13 -25 28 0
-13 28 -42 0
-12 -33 -43 0
-12 -20 -44 0
-12 -19 -47 0
-12 -18 -35 0
-12 -14 -33 0
-11 -27 -34 0
-11 -22 41 0
-11 -17 25 0
-11 -16 21 0
-11 14 -25 0
-11 47 -48 0
-10 -33 -42 0
-10 -14 -19 0
-10 19 46 0
-9 -16 25 0
-9 19 -33 0
-9 21 34 0
-9 22 -26 0
-9 26 -43 0
-8 -49 -50 0
-8 -39 -49 0
-8 -28 -30 0
-8 -20 23 0
-8 -12 38 0
-8 -10 34 0
-7 -35 47 0
-7 -11 -44 0
-7 10 20 0
-7 20 -50 0
-7 23 -36 0
-7 27 -38 0
-7 40 -49 0
-7 40 -46 0
-6 -27 -28 0
-6 -11 42 0
-6 19 -23 0
-5 -28 -36 0
-5 -17 33 0
-5 6 -47 0
-5 19 -42 0
-5 28 41 0
-4 -41 47 0
-4 -30 -48 0
-4 -25 -44 0
-4 -7 -22 0
-4 13 23 0
-4 24 -32 0
-4 28 -46 0
-3 -10 -21 0
-3 9 -32 0
-3 14 -50 0
-3 28 -35 0
-2 -41 46 0
-2 -22 -32 0
-2 -8 37 0
-2 8 20 0
-2 9 -23 0
-2 18 41 0
-2 37 -46 0
-1 8 26 0
-1 10 -29 0
-1 22 -48 0
-1 22 -24 0
-1 25 -38 0
1 -24 -44 0
1 -14 50 0
1 -9 -47 0
1 2 -12 0
1 6 9 0
1 29 -47 0
1 29 50 0
2 -27 36 0
2 -14 -22 0
2 -13 -30 0
2 -8 -45 0
2 -5 21 0
2 -3 48 0
2 3 -27 0
2 3 -4 0
2 11 -35 0
2 36 49 0
3 14 37 0
4 -29 -35 0
4 -24 -36 0
4 -23 -38 0
4 -23 47 0
4 -19 -26 0
4 -17 45 0
4 -12 32 0
4 7 23 0
4 10 -44 0
4 14 25 0
4 25 -37 0
5 -47 -50 0
5 -22 -37 0
5 -20 34 0
5 -15 43 0
5 27 42 0
5 28 36 0
5 32 -39 0
6 -32 -36 0
6 -18 -29 0
6 7 -18 0
6 11 -35 0
6 16 -46 0
7 -34 41 0
7 -30 -50 0
7 -24 -44 0
7 16 26 0
7 25 -37 0
7 26 43 0
8 -42 45 0
8 -40 49 0
8 -20 -39 0
8 23 -47 0
8 28 -49 0
9 -35 -42 0
9 12 -29 0
9 12 46 0
9 16 -41 0
9 20 48 0
9 22 48 0
10 -20 21 0
10 18 -48 0
10 18 37 0
11 -33 -37 0
11 -17 -50 0
11 -14 48 0
11 20 47 0
11 25 34 0
11 29 -38 0
12 16 44 0
12 21 -45 0
12 23 -42 0
12 27 -41 0
12 28 -36 0
12 39 -47 0
13 -26 -32 0
13 -18 -46 0
13 28 -41 0
13 38 -43 0
14 15 41 0
14 22 23 0
15 -35 -46 0
15 34 44 0
16 -24 -42 0
16 18 38 0
16 19 -22 0
17 -44 46 0
17 -31 -37 0
17 -26 35 0
17 -21 -37 0
17 31 35 0
19 -31 -33 0
19 -25 -29 0
19 31 32 0
24 -25 29 0
25 -42 45 0
25 -34 -47 0
27 -29 -46 0
28 30 -45 0
28 33 -36 0
29 -35 -46 0
29 -35 46 0
31 -46 -50 0
32 42 -46 0
34 -45 -47 0
34 40 -41 0
37 -39 46 0
