p cnf 140 595
-129 133 138 0
-120 -137 140 0
-115 -120 -128 0
-110 -122 -139 0
-108 -113 115 0
-104 114 -123 0
-104 117 -125 0
-100 -116 -118 0
-99 107 131 0
-96 -103 124 0
-96 97 -118 0
-95 110 -130 0
-92 116 -127 0
-85 -94 -108 0
-85 109 -136 0
-83 -124 131 0
-82 -120 -123 0
-81 -97 103 0
-81 -86 -106 0
-78 -125 -130 0
-77 -118 125 0
-77 -118 134 0
-77 -102 -124 0
-76 -123 132 0
-76 -112 135 0
-76 -84 -89 0
-75 -85 120 0
-75 82 -122 0
-74 94 109 0
-74 95 -137 0
-73 -85 -96 0
-73 -77 -78 0
-69 -84 -116 0
-66 86 111 0
-65 126 -135 0
-64 -71 109 0
-64 82 -89 0
-63 -74 127 0
-61 -76 133 0
-61 -67 -78 0
-61 88 -126 0
-60 94 -109 0
-59 69 -114 0
-58 77 133 0
-58 79 113 0
-58 108 128 0
-57 -67 101 0
-57 -59 -89 0
-56 -107 -122 0
-56 91 139 0
-54 90 -103 0
-54 104 134 0
-53 67 -69 0
-53 83 -129 0
-53 88 130 0
-52 64 119 0
-52 73 -107 0
-51 -122 123 0
-51 74 76 0
-50 -100 104 0
-50 -78 129 0
-50 93 -133 0
-50 111 -130 0
-49 64 67 0
-49 91 -120 0
-48 -125 -137 0
-48 -108 138 0
-48 -80 122 0
-48 -75 140 0
-48 -74 -101 0
-48 50 118 0
-48 52 -116 0
-48 74 79 0
-47 -127 -136 0
-47 -55 86 0
-47 -54 92 0
-47 66 -97 0
-47 75 140 0
-47 95 -128 0
-46 78 -105 0
-46 88 103 0
-46 119 -137 0
-45 -73 -117 0
-45 -65 -90 0
-45 50 -100 0
-45 90 -106 0
-45 137 140 0
-44 -111 128 0
-44 -59 121 0
-44 51 75 0
-44 84 -138 0
-43 61 -122 0
-43 88 -104 0
-43 102 -116 0
-42 48 -138 0
-42 68 72 0
-41 -66 -128 0
-41 42 -129 0
-41 45 -74 0
-41 81 -83 0
-40 -63 123 0
-40 -56 92 0
-40 53 71 0
-40 64 100 0
-39 -87 88 0
-39 -80 -132 0
-39 -76 140 0
-39 -46 98 0
-39 71 137 0
-39 102 112 0
-39 106 137 0
-39 113 -130 0
-38 -73 -77 0
-37 -109 129 0
-37 -95 96 0
-37 -62 -79 0
-37 75 -121 0
-37 121 124 0
-36 -40 56 0
-36 46 136 0
-35 -94 117 0
-35 56 126 0
-35 92 96 0
-34 -113 -125 0
-34 -70 75 0
-34 52 85 0
-33 -111 -123 0
-33 -96 114 0
-33 -80 88 0
-33 -57 124 0
-33 54 -108 0
-33 94 119 0
-32 -55 -61 0
-32 -47 -73 0
-32 -33 -128 0
-32 71 -94 0
-31 -121 -123 0
-31 -37 129 0
-31 126 132 0
-30 -53 -98 0
-30 41 94 0
-30 42 -94 0
-30 54 -67 0
-30 69 70 0
-30 83 -89 0
-29 -65 -109 0
-29 50 -64 0
-29 68 -118 0
-29 87 -117 0
-28 -90 103 0
-28 90 -104 0
-28 94 107 0
-28 118 138 0
-27 -135 -140 0
-27 -41 66 0
-27 43 -58 0
-27 49 -66 0
-27 102 116 0
-26 -89 -109 0
-26 50 129 0
-26 51 140 0
-26 113 -126 0
-25 -125 -133 0
-25 -81 112 0
-25 124 -133 0
-24 -119 -130 0
-24 -68 -140 0
-24 -64 -97 0
-24 29 -80 0
-24 29 -65 0
-24 54 -128 0
-23 28 -39 0
-23 32 -82 0
-23 32 89 0
-23 115 -131 0
-23 136 139 0
-22 -25 -76 0
-22 23 31 0
-22 30 -88 0
-22 52 86 0
-22 60 99 0
-22 92 -117 0
-22 97 105 0
-22 102 139 0
-22 124 140 0
-21 -87 -108 0
-21 -26 -84 0
-21 23 -35 0
-21 36 -43 0
-20 -60 -94 0
-20 -42 -113 0
-20 33 -74 0
-20 60 -87 0
-20 96 132 0
-20 110 113 0
-19 -36 118 0
-19 29 -78 0
-19 60 -103 0
-18 33 -116 0
-17 -57 -65 0
-17 -35 -121 0
-17 -23 -132 0
-17 -18 -30 0
-17 32 -130 0
-17 44 92 0
-17 54 -108 0
-17 77 103 0
-16 -69 -133 0
-16 -40 57 0
-16 -35 106 0
-16 -17 97 0
-16 35 -140 0
-16 35 77 0
-16 50 -81 0
-16 71 106 0
-15 -61 111 0
-15 58 88 0
-14 -118 126 0
-14 -88 -104 0
-14 -79 -119 0
-14 27 -78 0
-14 96 -137 0
-14 99 138 0
-13 -70 -140 0
-13 -45 -60 0
-13 -37 -111 0
-13 -36 44 0
-13 -26 85 0
-13 -17 -32 0
-13 -14 30 0
-13 34 -84 0
-13 68 -108 0
-12 -83 132 0
-12 -38 114 0
-12 15 -43 0
-12 47 73 0
-12 68 -119 0
-11 -69 121 0
-11 -52 -77 0
-11 -23 -78 0
-11 -16 -46 0
-11 31 -107 0
-11 32 97 0
-10 -19 -50 0
-10 -12 -19 0
-10 11 115 0
-10 16 -95 0
-10 29 91 0
-10 30 114 0
-10 39 48 0
-9 -101 102 0
-9 -34 -139 0
-9 -23 110 0
-9 12 -45 0
-9 26 62 0
-9 27 -113 0
-9 62 101 0
-9 99 130 0
-8 -48 51 0
-8 72 85 0
-7 -56 -126 0
-7 -54 85 0
-7 -17 -92 0
-7 11 -111 0
-7 16 122 0
-7 34 130 0
-7 45 122 0
-7 71 -86 0
-5 -27 131 0
-5 -13 -95 0
-5 49 -60 0
-5 122 131 0
-4 -117 -124 0
-4 25 113 0
-4 27 -82 0
-4 47 -101 0
-4 61 125 0
-4 64 -109 0
-4 65 102 0
-3 -77 106 0
-3 -29 86 0
-3 -14 -92 0
-3 -12 94 0
-3 51 103 0
-3 101 103 0
-2 -49 -96 0
-2 13 -82 0
-2 39 -133 0
-2 58 -126 0
-2 83 114 0
-1 -52 132 0
-1 -44 -125 0
-1 -29 -62 0
-1 -10 -80 0
-1 77 -127 0
1 -110 -137 0
1 -66 -81 0
1 -59 -83 0
1 8 -73 0
1 17 -58 0
1 134 140 0
2 -30 -97 0
2 -16 -33 0
2 -14 -139 0
2 -12 -138 0
2 -9 -104 0
2 19 80 0
3 -32 64 0
3 -18 -64 0
3 -17 -126 0
3 29 -74 0
3 60 130 0
3 75 -87 0
4 -79 -138 0
4 -13 95 0
4 47 -80 0
5 -127 -131 0
5 -97 -138 0
5 -84 -131 0
5 -84 110 0
5 -69 -102 0
5 -49 103 0
5 -37 110 0
5 22 -107 0
5 38 -77 0
5 73 -114 0
5 99 -136 0
5 118 -129 0
5 124 -129 0
6 -16 -110 0
6 -16 57 0
6 -16 135 0
6 77 114 0
7 -29 -46 0
7 46 -65 0
8 108 120 0
9 -113 126 0
9 -13 -39 0
9 33 -54 0
9 73 89 0
9 115 -134 0
10 -65 -119 0
10 -16 -60 0
10 13 -19 0
10 25 -107 0
10 28 -136 0
10 42 -74 0
10 42 133 0
10 70 83 0
11 -55 65 0
11 -43 87 0
11 -34 -102 0
11 15 25 0
11 27 67 0
11 36 -139 0
11 46 139 0
11 79 94 0
12 -75 -121 0
12 -75 -84 0
12 -71 -79 0
12 -18 -135 0
12 -15 93 0
12 45 -90 0
12 74 -95 0
13 -88 -103 0
13 -74 77 0
13 -68 -78 0
13 -68 107 0
13 -28 74 0
13 -25 -83 0
13 14 -116 0
14 -95 -110 0
14 -69 -76 0
14 -34 50 0
14 18 34 0
14 48 -127 0
14 55 -64 0
14 62 -104 0
14 82 95 0
14 100 -132 0
14 106 123 0
14 124 133 0
15 -123 -127 0
15 -46 85 0
15 -24 74 0
15 32 -127 0
15 79 -96 0
16 -83 94 0
16 -57 -120 0
16 -29 -99 0
17 -47 -108 0
17 28 122 0
17 100 -138 0
18 -71 -78 0
18 25 73 0
18 52 -91 0
18 61 73 0
19 78 -128 0
20 -62 89 0
20 -40 -107 0
20 -31 80 0
20 -31 104 0
21 -38 -84 0
21 27 52 0
21 30 -91 0
21 43 -129 0
21 57 -139 0
21 77 -96 0
22 -104 -112 0
22 -69 119 0
22 39 -95 0
22 54 96 0
22 54 136 0
22 59 -68 0
22 63 83 0
23 -108 -127 0
23 -43 -82 0
23 -40 -92 0
23 -26 96 0
23 -25 -34 0
23 62 -119 0
24 -62 -99 0
24 -26 43 0
24 51 -60 0
25 -129 -132 0
25 38 121 0
25 109 134 0
26 -107 -129 0
26 35 66 0
26 100 -129 0
27 -64 -132 0
27 -51 131 0
27 37 97 0
27 61 107 0
27 98 -135 0
28 -105 -116 0
28 -93 126 0
28 -51 59 0
28 -47 -78 0
28 38 -113 0
29 -127 131 0
29 -79 -93 0
29 -48 -88 0
29 62 139 0
30 -69 -115 0
30 -65 70 0
30 -59 -123 0
30 -56 69 0
30 52 60 0
31 -76 -122 0
31 -74 -111 0
31 -53 73 0
31 -46 99 0
31 54 -111 0
31 78 -88 0
31 81 -120 0
32 -111 140 0
32 -51 135 0
32 -43 131 0
32 33 76 0
33 -75 -135 0
33 -62 113 0
33 34 84 0
33 59 -120 0
33 60 85 0
34 -65 113 0
34 -62 -109 0
34 -46 122 0
34 50 68 0
34 107 128 0
35 36 -81 0
35 43 -84 0
35 51 -118 0
36 -94 136 0
36 -87 130 0
36 -44 104 0
36 43 46 0
36 46 -111 0
37 46 118 0
37 56 -77 0
38 40 -79 0
39 -119 135 0
39 -53 -85 0
39 -52 -112 0
40 -62 131 0
40 -42 -47 0
40 49 -114 0
41 -137 -140 0
41 -126 -133 0
41 -87 134 0
41 61 -115 0
41 82 99 0
41 102 -117 0
42 -60 88 0
42 43 107 0
42 57 126 0
43 -97 137 0
43 55 -70 0
44 -117 -120 0
44 69 111 0
45 -111 139 0
45 64 -95 0
45 74 104 0
45 74 116 0
45 93 119 0
45 121 124 0
45 130 139 0
46 -57 -82 0
47 -97 105 0
47 -80 -105 0
47 -52 95 0
48 -78 -102 0
49 81 134 0
51 -101 -128 0
51 -77 -86 0
51 -66 92 0
53 55 -127 0
53 57 -95 0
53 78 -82 0
53 82 85 0
53 101 -137 0
54 -65 127 0
54 86 104 0
54 120 126 0
55 -87 122 0
55 -66 -120 0
55 77 -109 0
55 78 132 0
55 79 87 0
55 105 -108 0
58 99 105 0
58 125 -130 0
59 -89 -131 0
59 61 -90 0
59 62 -71 0
59 111 113 0
61 -114 129 0
61 -98 129 0
61 -72 104 0
61 91 -92 0
62 -77 -85 0
63 -77 88 0
63 80 82 0
63 88 -109 0
64 -87 92 0
64 81 -129 0
65 -114 136 0
65 -106 124 0
65 -75 -105 0
65 68 105 0
65 87 112 0
66 69 -128 0
66 112 130 0
67 79 83 0
68 -85 -132 0
69 84 120 0
70 -113 -127 0
70 118 -138 0
71 -104 129 0
71 86 114 0
72 -120 -123 0
72 -119 133 0
72 -81 106 0
75 -132 -137 0
76 -91 -136 0
76 86 -121 0
77 -88 128 0
78 -84 -126 0
78 97 114 0
80 -134 -136 0
80 114 -131 0
82 -91 -135 0
82 92 127 0
84 98 -134 0
84 107 135 0
88 122 125 0
89 -97 127 0
89 -93 114 0
90 117 128 0
91 -107 134 0
91 99 129 0
91 118 -130 0
94 128 -140 0
95 -110 135 0
97 -114 120 0
98 -122 129 0
98 110 114 0
100 -129 -130 0
101 -102 -139 0
106 135 140 0
109 -113 140 0
116 -130 -138 0
116 -121 -128 0
117 -132 -139 0
122 128 -136 0
