p cnf 30 128
-19 -21 25 0
-19 21 -27 0
-18 -24 -26 0
-18 21 30 0
-18 24 -26 0
-17 21 24 0
-17 29 -30 0
-14 -24 -27 0
-14 -23 26 0
-14 18 22 0
-14 21 -22 0
-14 24 -30 0
-13 -15 18 0
-13 -14 24 0
-12 -22 24 0
-12 -19 -30 0
-12 -18 -19 0
-12 15 21 0
-12 17 25 0
-12 18 -27 0
-12 26 -29 0
-11 -16 -23 0
-10 -22 29 0
-10 -18 19 0
-10 16 17 0
-10 17 21 0
-9 -12 27 0
-8 -21 26 0
-7 28 30 0
-6 11 26 0
-6 14 27 0
-6 15 17 0
-5 -19 -25 0
-5 -14 -28 0
-5 9 30 0
-5 12 -19 0
-4 8 13 0
-4 11 21 0
-4 12 18 0
-4 20 23 0
-3 -28 29 0
-3 -25 -29 0
-3 -25 -28 0
-3 -13 -25 0
-3 -6 14 0
-3 4 -16 0
-3 5 -15 0
-3 16 25 0
-2 -15 -18 0
-2 -3 -13 0
-2 4 -24 0
-2 16 27 0
-1 -5 -20 0
-1 2 -8 0
-1 5 16 0
-1 11 17 0
-1 14 -24 0
-1 18 -27 0
-1 19 24 0
1 -11 -20 0
1 12 -15 0
1 12 28 0
1 19 -24 0
2 -22 25 0
2 -19 28 0
2 -17 24 0
2 -11 13 0
2 -6 19 0
2 4 -21 0
2 5 24 0
2 10 13 0
2 19 -26 0
3 -16 -28 0
3 -13 22 0
3 -11 -28 0
3 16 22 0
3 25 -28 0
4 -15 -21 0
4 -12 24 0
4 -7 8 0
4 -5 -6 0
4 10 -23 0
4 11 23 0
4 12 21 0
5 -29 -30 0
5 -6 25 0
5 10 -29 0
5 16 -26 0
5 24 30 0
5 27 30 0
6 -8 11 0
6 7 -19 0
6 15 18 0
6 17 -23 0
6 18 -28 0
7 -24 30 0
7 -23 29 0
7 -8 11 0
7 10 -24 0
7 12 -29 0
7 15 27 0
8 -10 -20 0
8 -10 11 0
9 -15 -25 0
10 -25 30 0
10 -18 -26 0
10 11 19 0
10 22 28 0
11 -12 -21 0
11 17 -28 0
11 19 -20 0
12 -22 26 0
12 -14 -22 0
12 -14 -15 0
13 -17 18 0
13 15 19 0
13 27 28 0
13 27 30 0
14 -23 25 0
14 -21 -25 0
14 15 -28 0
15 19 22 0
15 19 23 0
16 -25 -27 0
16 -24 27 0
17 20 -23 0
18 19 22 0
19 22 -30 0
