p cnf 100 600
-75 79 98 0
-73 75 84 0
-69 -73 91 0
-67 79 -82 0
-66 74 77 0
-65 -72 -80 0
-63 65 97 0
-61 71 -100 0
-60 -72 75 0
-56 -83 90 0
-56 -59 85 0
-55 -85 89 0
-55 -68 71 0
-55 -66 81 0
-55 -62 -94 0
-55 57 -58 0
-54 -58 84 0
-54 61 64 0
-53 69 96 0
-52 -91 99 0
-52 -84 -90 0
-52 81 -82 0
-51 -75 -78 0
-51 -64 -84 0
-51 -57 -96 0
-51 61 -65 0
-51 65 71 0
-50 -52 -85 0
-49 -75 79 0
-49 -67 -81 0
-49 -65 81 0
-48 -63 95 0
-48 -55 66 0
-47 -75 -77 0
-47 76 -77 0
-46 -55 70 0
-46 49 71 0
-46 57 60 0
-46 58 90 0
-45 -70 -95 0
-45 -50 69 0
-45 53 -68 0
-45 85 -91 0
-44 -63 -73 0
-43 -50 87 0
-43 82 97 0
-42 -83 94 0
-42 -68 -70 0
-41 -66 76 0
-41 49 -82 0
-41 69 90 0
-40 -47 93 0
-40 -43 -61 0
-39 -59 -81 0
-39 87 89 0
-38 -63 -97 0
-38 -48 -75 0
-38 -48 95 0
-38 42 -92 0
-38 57 -78 0
-38 70 89 0
-37 -80 -100 0
-37 58 -68 0
-37 64 69 0
-37 73 -75 0
-36 -92 -100 0
-36 -52 -66 0
-36 71 78 0
-35 -62 -86 0
-35 68 96 0
-35 81 -91 0
-34 -43 -53 0
-33 -60 -90 0
-33 49 74 0
-33 50 62 0
-33 61 85 0
-32 -59 -85 0
-32 -37 -88 0
-32 -34 89 0
-32 40 77 0
-32 81 -99 0
-31 -83 93 0
-31 -45 89 0
-31 39 -60 0
-30 -60 -78 0
-30 -48 -58 0
-30 -47 48 0
-30 -37 -94 0
-30 -32 72 0
-29 -71 -98 0
-29 -34 35 0
-29 -33 83 0
-29 49 -54 0
-28 -77 -97 0
-28 31 -64 0
-28 39 46 0
-28 45 -63 0
-27 -37 -82 0
-27 45 84 0
-27 61 -75 0
-26 -39 79 0
-26 45 58 0
-26 73 89 0
-25 -76 99 0
-25 -67 -89 0
-25 -51 65 0
-25 -40 61 0
-25 -37 73 0
-25 26 75 0
-25 28 -54 0
-25 38 58 0
-25 41 49 0
-24 -77 -78 0
-24 -52 56 0
-24 -34 58 0
-24 31 -60 0
-24 43 74 0
-24 72 -90 0
-23 -81 87 0
-23 -74 -76 0
-23 -39 79 0
-23 -37 61 0
-23 -33 63 0
-23 -26 75 0
-23 66 -90 0
-22 -77 -95 0
-22 -71 82 0
-22 -43 92 0
-22 29 45 0
-22 35 -46 0
-22 43 -80 0
-22 55 85 0
-22 61 83 0
-21 -70 87 0
-21 -43 82 0
-21 -37 78 0
-21 28 94 0
-21 51 -94 0
-20 -72 91 0
-20 -66 94 0
-20 -63 100 0
-20 -26 -75 0
-20 24 74 0
-20 41 61 0
-20 47 -90 0
-19 -33 -49 0
-19 -23 -65 0
-19 30 -94 0
-19 44 83 0
-19 55 -100 0
-18 -61 -97 0
-18 -58 -63 0
-18 -48 84 0
-18 -23 -85 0
-18 23 -29 0
-18 34 39 0
-18 88 -89 0
-17 -52 -94 0
-17 -35 -40 0
-17 -33 -86 0
-17 18 74 0
-17 27 78 0
-17 89 99 0
-16 -23 -92 0
-16 22 48 0
-16 26 61 0
-16 39 50 0
-16 43 98 0
-16 52 -100 0
-16 69 74 0
-15 -87 -95 0
-15 -80 89 0
-15 -69 -76 0
-15 -68 -79 0
-15 -34 85 0
-15 -30 74 0
-15 -30 82 0
-15 -23 -28 0
-15 -22 83 0
-15 -22 88 0
-15 25 -75 0
-15 36 -71 0
-15 62 -100 0
-15 84 97 0
-14 -51 -66 0
-14 -33 70 0
-14 -20 89 0
-14 23 48 0
-14 43 82 0
-14 91 -100 0
-13 -55 -81 0
-13 15 -24 0
-13 29 -93 0
-13 36 74 0
-13 41 50 0
-13 51 -86 0
-13 78 86 0
-12 -68 75 0
-12 -41 80 0
-12 -31 62 0
-12 -29 -60 0
-12 -24 26 0
-12 -23 90 0
-12 16 17 0
-12 25 -77 0
-12 35 -68 0
-12 63 97 0
-12 69 71 0
-11 -49 58 0
-11 -14 -24 0
-11 14 94 0
-11 46 -71 0
-10 -83 -98 0
-10 -49 82 0
-10 -38 -89 0
-10 -38 -82 0
-10 11 25 0
-10 17 -97 0
-10 29 67 0
-9 -67 -79 0
-9 -40 -93 0
-9 -28 -89 0
-9 19 -26 0
-8 -50 99 0
-8 -45 84 0
-8 -30 -44 0
-8 18 -43 0
-8 22 45 0
-7 -35 72 0
-7 23 -28 0
-7 26 -65 0
-7 27 -91 0
-7 31 92 0
-7 41 -54 0
-7 54 -60 0
-7 61 -90 0
-7 88 89 0
-6 -58 94 0
-6 -31 -81 0
-6 -11 -99 0
-6 7 -93 0
-6 14 -15 0
-6 18 -68 0
-6 28 89 0
-5 -17 -71 0
-5 -17 31 0
-5 -6 24 0
-5 10 54 0
-5 12 -25 0
-5 18 47 0
-5 46 -74 0
-4 -75 -98 0
-4 -68 -70 0
-4 -30 31 0
-4 -14 -61 0
-4 11 -14 0
-4 59 68 0
-3 21 80 0
-3 65 94 0
-3 72 100 0
-2 -53 -83 0
-2 -48 -56 0
-2 -43 -49 0
-2 -32 55 0
-2 -29 -31 0
-2 -25 81 0
-2 -20 -63 0
-2 -18 -82 0
-2 -18 41 0
-2 -17 -99 0
-2 -6 -75 0
-2 -5 65 0
-2 -4 -10 0
-2 5 44 0
-2 9 -58 0
-2 11 -29 0
-2 17 -44 0
-2 17 68 0
-2 26 52 0
-2 29 -74 0
-2 58 -78 0
-1 -69 77 0
-1 -14 -73 0
-1 -14 16 0
-1 -14 90 0
-1 23 41 0
1 -63 82 0
1 -50 69 0
1 -47 -81 0
1 -47 53 0
1 -9 -40 0
1 8 -76 0
1 25 92 0
1 27 33 0
1 46 -49 0
1 63 68 0
2 -86 99 0
2 -57 58 0
2 -14 73 0
2 -12 87 0
2 13 -15 0
2 17 -52 0
2 18 82 0
2 39 -98 0
2 42 -48 0
2 50 -59 0
3 -71 100 0
3 -42 -98 0
3 -27 -75 0
3 -21 72 0
3 -18 51 0
3 -12 89 0
3 -10 -70 0
3 6 41 0
3 18 -96 0
3 39 48 0
3 51 -78 0
4 -80 82 0
4 -55 76 0
4 -44 79 0
4 -26 -84 0
4 8 -88 0
4 11 83 0
4 25 -78 0
4 25 49 0
4 70 75 0
5 -55 -81 0
5 -41 54 0
5 6 -79 0
5 10 -24 0
5 22 95 0
5 24 -85 0
5 26 66 0
5 45 -88 0
6 -85 96 0
6 -67 87 0
6 -36 74 0
6 -25 -54 0
6 -23 -87 0
6 -23 -73 0
6 -22 -30 0
6 -10 -32 0
6 14 -60 0
6 28 78 0
6 29 -32 0
6 39 80 0
6 44 97 0
6 58 83 0
6 72 -74 0
7 -79 82 0
7 -24 -70 0
7 -22 -44 0
7 64 -88 0
7 80 -82 0
7 83 -97 0
8 -47 -86 0
8 -9 65 0
8 18 -71 0
8 24 100 0
8 55 65 0
8 81 84 0
9 -69 -73 0
9 -68 -71 0
9 -22 -44 0
9 -12 -43 0
9 -10 -54 0
9 32 -63 0
10 -59 -60 0
10 -56 95 0
10 -51 93 0
10 -43 -83 0
10 -33 44 0
10 -12 100 0
10 23 -70 0
10 38 -60 0
10 71 -95 0
11 -96 97 0
11 -24 61 0
11 46 -49 0
12 -94 100 0
12 -62 84 0
12 -45 95 0
12 -42 -46 0
12 -20 59 0
12 21 -30 0
12 36 61 0
12 39 95 0
12 61 85 0
13 -63 -95 0
13 -49 -70 0
13 -43 -64 0
13 -36 59 0
13 -19 66 0
13 -16 -27 0
13 16 27 0
13 24 75 0
13 30 33 0
13 45 58 0
13 65 -74 0
14 -85 91 0
14 -60 -82 0
14 -32 -62 0
14 18 -74 0
14 24 -28 0
15 -35 -41 0
15 -26 -66 0
15 -26 63 0
15 -18 90 0
15 45 -72 0
16 -21 -64 0
16 60 -86 0
16 62 96 0
17 -81 -99 0
17 -35 -84 0
17 -26 -36 0
17 -21 36 0
17 19 -56 0
17 21 89 0
17 51 -63 0
17 71 76 0
17 79 -82 0
18 -76 -98 0
18 -60 61 0
18 -41 64 0
18 -31 41 0
18 26 -98 0
18 41 -75 0
19 -82 -88 0
19 -30 -64 0
19 22 90 0
19 26 31 0
19 45 -69 0
19 89 98 0
20 -57 -65 0
20 -45 73 0
20 -40 -73 0
20 -31 -84 0
20 44 -87 0
20 61 -77 0
20 70 -89 0
21 -63 89 0
21 -43 69 0
21 24 -57 0
22 -65 100 0
22 -53 86 0
22 -30 -85 0
23 -59 93 0
23 -40 60 0
23 -38 -83 0
23 -31 80 0
23 36 -72 0
23 38 -73 0
23 60 -76 0
24 -29 33 0
24 55 82 0
25 -70 80 0
25 -44 -93 0
25 -35 62 0
25 33 79 0
25 45 -96 0
25 47 56 0
26 -60 71 0
26 -34 57 0
27 -62 86 0
27 -52 81 0
27 -50 66 0
27 45 -86 0
28 -96 100 0
28 -87 -88 0
28 -31 87 0
28 30 -65 0
28 31 88 0
28 44 -97 0
29 -70 -90 0
29 48 -92 0
29 51 -79 0
30 32 -65 0
30 47 -57 0
30 55 58 0
30 88 -100 0
31 -64 -99 0
31 -50 63 0
32 -67 97 0
32 -51 79 0
32 -50 -61 0
32 -38 70 0
32 48 52 0
32 56 -85 0
33 -54 66 0
33 -47 -69 0
33 56 91 0
34 -76 -79 0
34 -76 95 0
34 -52 -77 0
34 -49 88 0
34 -47 -81 0
34 -44 -93 0
34 51 75 0
34 81 -83 0
35 -59 -93 0
35 -49 -64 0
36 -86 -89 0
36 -72 -81 0
36 37 -95 0
36 71 81 0
37 -51 -60 0
37 -46 -50 0
37 70 94 0
38 -70 -91 0
38 69 86 0
39 65 71 0
40 52 65 0
40 58 -93 0
40 67 -83 0
41 -65 73 0
41 -60 71 0
41 47 -91 0
41 68 99 0
42 -50 61 0
43 -58 -67 0
43 80 -87 0
43 84 91 0
44 -52 -87 0
44 -46 -98 0
44 49 83 0
44 63 92 0
44 71 -96 0
44 74 -90 0
44 74 -80 0
45 -71 96 0
45 73 87 0
46 -95 100 0
46 -76 -84 0
46 53 -94 0
46 80 -95 0
47 -72 -91 0
47 -57 84 0
47 65 -100 0
48 -79 -94 0
48 -69 -98 0
48 -66 73 0
48 -53 63 0
48 69 70 0
48 70 -80 0
49 -60 99 0
49 52 -96 0
49 83 100 0
50 -72 77 0
50 -56 72 0
50 60 -91 0
51 79 -93 0
52 -74 94 0
52 -66 85 0
53 65 66 0
53 75 -81 0
54 -83 -96 0
54 -82 89 0
54 -73 74 0
55 -92 100 0
55 -59 60 0
55 66 68 0
55 84 93 0
57 -73 96 0
58 -59 -89 0
58 87 93 0
58 90 99 0
60 -61 -84 0
60 64 89 0
61 -71 95 0
61 -66 -68 0
62 -81 98 0
62 -78 -89 0
62 -69 85 0
63 -92 100 0
63 91 -99 0
64 85 86 0
64 86 -88 0
65 -71 91 0
65 77 79 0
66 -75 83 0
66 -69 -92 0
66 -67 -100 0
67 74 -76 0
67 79 -100 0
67 87 -90 0
68 -69 -91 0
68 76 88 0
69 76 80 0
70 81 -86 0
71 -76 91 0
71 87 98 0
71 91 95 0
74 -82 85 0
74 87 94 0
75 85 -93 0
76 -89 -99 0
79 -82 90 0
82 -89 -96 0
83 86 -88 0
89 91 -98 0
