p cnf 28 119
-22 24 25 0
-21 23 -25 0
-20 21 25 0
-16 -18 23 0
-16 17 18 0
-15 -19 -20 0
-15 16 -19 0
-14 17 19 0
-14 17 23 0
-14 18 28 0
-13 -24 -28 0
-13 -21 22 0
-13 -15 -25 0
-13 22 -23 0
-12 -18 23 0
-11 -21 26 0
-11 -13 -27 0
-10 -16 26 0
-10 16 -21 0
-10 16 21 0
-9 -17 22 0
-9 -13 -18 0
-9 16 -19 0
-9 21 -22 0
-9 22 -27 0
-8 23 -24 0
-8 23 27 0
-6 -16 19 0
-6 -11 -14 0
-6 7 14 0
-6 11 -13 0
-5 -22 -25 0
-5 -10 -15 0
-5 -7 -9 0
-5 7 28 0
-5 16 -25 0
-5 16 27 0
-4 -15 20 0
-4 -9 28 0
-4 9 14 0
-4 13 23 0
-4 24 -25 0
-3 -10 27 0
-3 -8 -13 0
-3 -6 11 0
-3 7 -12 0
-3 8 -25 0
-2 -17 -20 0
-2 -14 -24 0
-2 -13 16 0
-2 -12 17 0
-2 -10 -22 0
-2 6 11 0
-1 -9 16 0
-1 -7 -26 0
-1 -7 27 0
-1 -5 24 0
-1 6 18 0
-1 20 28 0
1 -24 28 0
1 -21 -25 0
1 -10 -14 0
1 4 24 0
1 6 -19 0
1 6 27 0
1 13 -24 0
1 14 -23 0
1 15 -24 0
2 -14 -16 0
2 -3 8 0
2 -3 13 0
2 -3 17 0
2 7 -8 0
2 7 8 0
2 9 14 0
2 13 16 0
2 22 27 0
3 -20 -26 0
3 -7 -15 0
3 -5 16 0
3 6 -7 0
3 7 -8 0
4 -14 16 0
4 -13 -19 0
4 6 10 0
4 19 -24 0
5 -7 -20 0
5 6 -25 0
5 6 23 0
5 11 -22 0
6 18 -24 0
7 -13 17 0
7 8 15 0
7 9 -22 0
7 10 -28 0
7 17 22 0
7 17 23 0
8 -15 -19 0
8 -13 28 0
9 -11 -19 0
9 20 -28 0
10 14 -25 0
10 18 -21 0
10 18 19 0
10 23 -26 0
11 -22 -24 0
11 16 20 0
12 -25 -28 0
12 -15 -23 0
13 -24 -28 0
13 18 22 0
15 -24 -25 0
15 -21 -24 0
15 23 -25 0
16 18 -28 0
16 18 -26 0
18 -26 -27 0
20 -24 -25 0
22 -24 -27 0
