p cnf 80 260
-63 -77 -79 0
-60 -64 80 0
-59 -65 74 0
-58 63 -71 0
-57 75 -77 0
-56 -70 73 0
-55 -71 79 0
-51 -68 -74 0
-51 -63 67 0
-50 -53 72 0
-50 66 -77 0
-48 -51 -56 0
-47 -51 59 0
-47 51 -70 0
-45 -48 -80 0
-43 49 67 0
-43 51 60 0
-43 56 58 0
-42 64 70 0
-41 50 -77 0
-41 51 79 0
-40 -41 67 0
-38 -41 43 0
-38 41 -66 0
-38 49 71 0
-38 56 -80 0
-37 -63 66 0
-37 -49 -55 0
-37 -47 -61 0
-37 52 63 0
-36 -48 60 0
-36 -40 -63 0
-36 44 -78 0
-36 64 -74 0
-35 -46 48 0
-34 -39 45 0
-34 38 43 0
-34 47 -79 0
-34 65 -76 0
-33 -53 64 0
-33 -52 59 0
-33 -36 47 0
-32 46 68 0
-30 -54 73 0
-30 -52 76 0
-30 -50 -71 0
-30 -37 64 0
-30 39 -58 0
-28 29 -78 0
-26 -32 72 0
-26 -32 80 0
-25 -73 -77 0
-25 -34 -80 0
-25 50 74 0
-24 -43 -54 0
-24 56 69 0
-24 72 -80 0
-23 -55 67 0
-23 -33 43 0
-23 34 -74 0
-22 -55 -64 0
-22 -29 41 0
-22 31 -55 0
-22 33 44 0
-20 -61 -77 0
-19 -58 61 0
-19 -23 46 0
-19 37 -51 0
-19 59 69 0
-18 -32 41 0
-18 -28 -68 0
-18 20 78 0
-17 22 80 0
-16 -22 64 0
-16 23 67 0
-16 55 -67 0
-15 -56 59 0
-15 43 74 0
-15 62 80 0
-14 -33 60 0
-14 -23 -46 0
-14 26 71 0
-14 37 72 0
-14 45 -54 0
-13 -67 -78 0
-13 -59 -64 0
-13 -22 74 0
-13 15 73 0
-13 47 59 0
-12 -31 -74 0
-11 -14 -30 0
-10 -49 67 0
-10 -43 45 0
-10 -25 -50 0
-10 -17 -21 0
-9 15 -36 0
-9 39 -70 0
-9 46 -60 0
-9 60 62 0
-8 -61 -64 0
-8 -56 64 0
-8 25 -28 0
-7 -33 34 0
-7 -12 -18 0
-7 16 25 0
-7 31 -48 0
-6 -50 56 0
-6 -19 78 0
-6 35 -65 0
-5 -14 63 0
-5 7 -23 0
-5 13 -38 0
-5 47 -72 0
-4 10 -44 0
-4 19 -41 0
-4 35 51 0
-4 46 71 0
-3 4 52 0
-3 35 58 0
-2 -54 71 0
-2 23 44 0
-2 65 69 0
-1 -3 -69 0
-1 29 43 0
-1 40 66 0
1 -21 -50 0
1 -9 17 0
1 29 35 0
1 38 54 0
1 47 -50 0
2 -63 79 0
2 -62 70 0
2 -53 74 0
2 -4 -79 0
2 6 -40 0
2 8 -12 0
2 15 50 0
2 39 71 0
2 50 79 0
3 -41 55 0
3 18 22 0
3 20 54 0
3 63 70 0
3 69 73 0
4 -70 77 0
4 -68 74 0
4 7 35 0
4 13 30 0
4 16 44 0
4 18 29 0
4 45 60 0
5 -26 74 0
5 42 -68 0
6 -55 -79 0
6 -38 57 0
6 -29 32 0
6 -28 -52 0
6 -21 -51 0
7 -62 63 0
7 25 -50 0
7 44 -77 0
7 61 -78 0
7 65 67 0
8 -61 -74 0
8 -26 -44 0
8 -19 -56 0
8 22 67 0
8 27 -65 0
8 52 -77 0
8 57 -67 0
10 -53 64 0
10 21 72 0
10 39 -69 0
11 -57 61 0
11 -16 -66 0
11 20 -64 0
11 34 44 0
12 -34 54 0
13 -44 -47 0
13 -31 36 0
13 16 -59 0
14 -63 -71 0
14 -43 45 0
14 23 69 0
14 39 -44 0
15 -39 -78 0
15 -32 37 0
15 54 -55 0
15 61 -62 0
15 73 -74 0
16 -51 -64 0
16 -36 48 0
16 26 51 0
17 -56 76 0
17 -49 -60 0
17 -46 78 0
17 -45 53 0
17 39 -60 0
17 39 56 0
18 -45 66 0
18 -27 -35 0
18 25 66 0
18 27 -42 0
18 68 -79 0
19 -29 60 0
19 -25 -32 0
19 26 -65 0
19 26 -32 0
19 27 51 0
20 -61 72 0
20 -51 -79 0
20 -50 76 0
21 -43 61 0
22 41 -62 0
23 31 -78 0
24 -43 -58 0
24 61 -65 0
25 -46 71 0
25 -35 61 0
26 -35 -54 0
27 37 78 0
27 48 68 0
27 58 76 0
27 70 77 0
28 -32 -67 0
28 33 -44 0
28 41 -49 0
28 61 63 0
29 -30 -64 0
29 60 77 0
31 68 -76 0
32 34 75 0
34 35 -75 0
34 40 53 0
34 57 -77 0
35 -61 -63 0
35 -61 70 0
35 -51 63 0
35 57 -74 0
35 61 -67 0
36 40 44 0
37 -43 62 0
37 47 -64 0
38 -40 76 0
39 55 -76 0
40 -69 77 0
40 -68 -73 0
42 61 -71 0
43 -50 65 0
43 49 -66 0
45 -53 67 0
47 -68 -80 0
48 -65 79 0
48 -61 -71 0
50 60 -72 0
51 -53 -77 0
51 66 -69 0
54 -59 64 0
54 72 -77 0
59 -73 74 0
