p cnf 24 102
-20 -22 24 0
-17 19 20 0
-17 20 24 0
-14 15 22 0
-13 17 -22 0
-12 -15 22 0
-11 -13 -22 0
-11 17 -19 0
-10 13 16 0
-10 14 -20 0
-10 14 16 0
-9 -12 13 0
-9 11 12 0
-9 16 17 0
-9 18 -20 0
-8 -10 -19 0
-8 -9 24 0
-8 17 -24 0
-7 10 16 0
-7 13 14 0
-7 14 -15 0
-7 17 20 0
-6 -13 -14 0
-6 -7 -14 0
-5 -12 -23 0
-5 6 9 0
-5 7 23 0
-5 9 -20 0
-5 12 -18 0
-5 16 23 0
-5 19 23 0
-4 -12 21 0
-4 -11 18 0
-4 -10 -13 0
-4 -7 24 0
-4 -6 -10 0
-4 -6 9 0
-4 -5 15 0
-4 9 -24 0
-4 13 17 0
-4 21 22 0
-4 23 24 0
-3 -4 -22 0
-3 5 19 0
-2 -7 -19 0
-2 9 -20 0
-2 10 12 0
-1 -23 -24 0
-1 -10 -13 0
-1 -6 -9 0
-1 -5 9 0
-1 2 -7 0
-1 2 18 0
-1 3 19 0
-1 5 6 0
-1 8 -11 0
1 -17 23 0
1 -14 -24 0
2 -8 -18 0
2 -3 -15 0
2 -3 10 0
3 -20 24 0
3 -14 18 0
3 -11 -17 0
3 -8 23 0
3 4 -14 0
3 6 21 0
3 7 23 0
3 16 18 0
4 -15 23 0
4 -11 16 0
4 -8 14 0
4 -6 -13 0
4 6 16 0
4 14 24 0
5 -18 -24 0
5 -16 -19 0
5 -9 17 0
5 9 -24 0
5 10 -18 0
5 12 -15 0
6 -11 15 0
6 7 -9 0
6 12 -13 0
7 8 -12 0
7 9 20 0
7 10 -11 0
8 -18 -22 0
8 -14 -16 0
8 -14 15 0
9 -10 22 0
9 11 22 0
9 15 -22 0
9 20 -22 0
10 14 -21 0
11 20 21 0
11 21 -24 0
12 20 -23 0
12 21 -23 0
13 22 -24 0
14 20 24 0
21 -22 23 0
