p cnf 80 340
-62 -69 -70 0
-60 64 -66 0
-59 -61 74 0
-58 -64 -70 0
-56 -61 -77 0
-55 -64 74 0
-55 -63 -79 0
-55 66 76 0
-54 59 -63 0
-53 58 72 0
-52 -61 -78 0
-52 -56 -57 0
-52 -53 -56 0
-51 -64 -77 0
-51 -61 -66 0
-51 -55 73 0
-51 62 -75 0
-50 69 -75 0
-48 -71 72 0
-48 65 -75 0
-47 52 65 0
-47 62 -76 0
-45 59 -61 0
-45 67 72 0
-43 -66 -79 0
-41 -50 68 0
-41 43 -71 0
-41 43 54 0
-41 76 80 0
-40 51 73 0
-39 62 77 0
-38 41 -61 0
-38 67 79 0
-37 -48 54 0
-37 -45 59 0
-37 45 76 0
-36 46 -54 0
-36 50 -76 0
-35 40 69 0
-34 -56 70 0
-34 -52 -75 0
-34 36 -55 0
-34 55 -60 0
-33 59 77 0
-32 42 -63 0
-31 -44 57 0
-31 32 43 0
-31 46 51 0
-31 64 -80 0
-30 32 43 0
-30 37 56 0
-29 -34 -48 0
-29 54 -66 0
-28 -43 61 0
-28 -38 -70 0
-28 -35 -72 0
-28 -30 -42 0
-28 -29 -41 0
-27 35 48 0
-27 37 45 0
-26 -54 79 0
-26 -51 -72 0
-26 -28 -63 0
-26 -28 -32 0
-26 30 51 0
-26 59 -60 0
-25 -36 -46 0
-24 -63 72 0
-24 -59 -67 0
-24 35 78 0
-24 40 -63 0
-23 26 -63 0
-22 -71 -79 0
-22 28 31 0
-21 -37 74 0
-21 -34 -80 0
-21 -28 30 0
-21 28 66 0
-20 -23 78 0
-20 23 -27 0
-20 37 -68 0
-19 -32 64 0
-19 20 35 0
-19 24 -62 0
-18 42 -75 0
-18 44 57 0
-17 -33 35 0
-17 61 75 0
-16 -66 -79 0
-16 -38 64 0
-16 -31 -68 0
-16 -27 74 0
-16 29 -72 0
-16 61 -79 0
-15 -51 74 0
-15 -35 -54 0
-15 -29 -34 0
-15 -19 34 0
-14 23 72 0
-13 -43 -78 0
-13 36 47 0
-13 54 76 0
-12 -44 68 0
-12 -35 74 0
-12 -27 -73 0
-12 16 -77 0
-12 29 -69 0
-12 74 80 0
-11 -62 80 0
-11 -22 -47 0
-11 -15 79 0
-11 59 63 0
-10 -23 -69 0
-10 -23 71 0
-10 -14 -58 0
-10 53 -63 0
-10 77 80 0
-9 16 48 0
-9 21 48 0
-9 49 -61 0
-8 -36 -41 0
-8 -29 -30 0
-8 -11 -78 0
-8 17 -46 0
-7 -42 -62 0
-7 -19 49 0
-7 11 70 0
-7 14 -57 0
-7 32 48 0
-7 70 -80 0
-6 -40 -51 0
-6 -27 -58 0
-6 32 -38 0
-6 35 47 0
-6 40 -44 0
-5 -68 -77 0
-5 -53 -79 0
-5 -43 48 0
-5 -37 62 0
-5 -32 64 0
-5 11 -76 0
-5 12 20 0
-4 18 32 0
-4 20 -33 0
-4 28 -79 0
-3 -34 -42 0
-3 -33 64 0
-3 -29 -35 0
-3 -21 -72 0
-3 -14 63 0
-3 12 62 0
-3 26 -80 0
-3 42 73 0
-3 53 65 0
-2 -50 -71 0
-2 -24 -38 0
-2 -4 35 0
-2 52 65 0
-1 9 80 0
-1 10 47 0
-1 17 -32 0
-1 18 -26 0
1 -60 67 0
1 8 58 0
1 16 -27 0
1 32 36 0
1 52 -64 0
1 67 69 0
2 -59 74 0
2 -52 -59 0
2 -16 61 0
2 8 -57 0
2 19 36 0
2 33 37 0
2 37 -63 0
3 -57 63 0
3 -50 -69 0
3 -44 -65 0
3 -38 -42 0
3 -11 -35 0
3 18 -35 0
3 23 69 0
4 -43 -80 0
5 -50 76 0
5 -48 -51 0
5 -44 45 0
5 -33 -34 0
5 -29 -30 0
5 -12 44 0
5 7 -62 0
5 8 -29 0
6 -52 54 0
6 -46 -51 0
6 -45 -53 0
6 -20 -48 0
6 7 -45 0
6 26 -80 0
7 -43 -58 0
7 9 78 0
7 11 -14 0
7 11 -12 0
7 27 -37 0
7 31 72 0
7 38 -68 0
7 43 70 0
7 56 70 0
7 67 -69 0
8 -60 -65 0
8 -19 -75 0
8 54 70 0
9 -63 -68 0
9 -54 -69 0
9 -45 79 0
9 -31 -44 0
9 -20 -51 0
9 -19 49 0
9 -17 -30 0
9 -15 -74 0
9 74 -77 0
10 -57 -79 0
10 -42 69 0
10 -28 73 0
10 -13 71 0
10 29 68 0
10 53 -76 0
11 -20 76 0
11 -17 -46 0
11 13 42 0
11 26 -50 0
12 -29 -64 0
12 -24 60 0
12 -14 -80 0
12 14 39 0
12 39 -66 0
12 49 -75 0
12 68 -70 0
13 -40 77 0
13 -28 -34 0
13 -19 41 0
13 -17 34 0
13 19 -25 0
13 31 -45 0
13 64 71 0
14 -46 76 0
14 -23 30 0
14 17 -38 0
14 17 80 0
14 76 77 0
15 -41 -63 0
15 -24 -37 0
15 29 70 0
15 36 68 0
16 -31 72 0
16 35 67 0
16 50 -72 0
17 -57 61 0
17 -40 49 0
17 37 -47 0
17 37 49 0
18 -51 -61 0
18 -47 70 0
18 -43 -78 0
18 -41 54 0
18 59 74 0
18 69 -80 0
19 -69 72 0
19 -25 -39 0
19 47 -77 0
19 55 -57 0
19 68 -69 0
20 -49 -80 0
20 24 80 0
21 25 55 0
21 26 -69 0
21 29 -72 0
21 55 -57 0
22 25 80 0
22 35 -55 0
23 -43 -73 0
23 -41 -79 0
23 -39 -67 0
23 -36 -63 0
24 -61 72 0
24 -45 -75 0
24 27 -68 0
25 -38 56 0
25 -33 59 0
25 -28 33 0
25 29 -75 0
25 72 -73 0
26 -69 -72 0
27 -54 60 0
27 -30 35 0
27 46 -77 0
28 -31 -67 0
28 40 -62 0
28 41 -60 0
28 49 66 0
28 54 -59 0
29 -45 69 0
29 -43 -51 0
30 -33 42 0
31 -32 -80 0
32 40 -44 0
33 -52 -72 0
33 -47 49 0
33 -41 79 0
33 51 65 0
34 -53 -79 0
35 -38 -76 0
35 46 48 0
36 53 -68 0
38 -64 -80 0
39 -50 69 0
39 60 73 0
40 -54 55 0
41 -45 54 0
41 42 -79 0
41 45 -80 0
41 47 52 0
41 55 -67 0
43 67 -72 0
44 -75 77 0
46 -53 56 0
47 -60 -75 0
48 49 73 0
48 52 -66 0
48 69 -80 0
49 -59 73 0
50 58 77 0
51 -63 76 0
54 -70 75 0
54 -68 -70 0
55 60 64 0
56 73 78 0
57 -62 -80 0
61 65 74 0
62 71 -73 0
64 71 73 0
68 -72 79 0
