p cnf 120 420
-97 106 -112 0
-94 -95 -109 0
-87 91 110 0
-84 -97 102 0
-83 -116 -117 0
-81 86 -100 0
-80 -105 108 0
-79 86 -108 0
-78 -88 89 0
-77 93 106 0
-76 105 120 0
-75 83 106 0
-75 90 115 0
-75 103 -112 0
-73 82 85 0
-73 101 119 0
-72 -86 117 0
-71 -86 -107 0
-71 -73 -104 0
-71 -73 104 0
-69 -101 -109 0
-67 -89 -94 0
-67 -74 109 0
-67 93 118 0
-66 -93 -116 0
-66 -93 -105 0
-66 96 -110 0
-65 -71 -81 0
-64 -105 -112 0
-63 69 94 0
-60 -85 -109 0
-60 62 109 0
-60 91 107 0
-60 94 -96 0
-60 107 -119 0
-59 113 117 0
-58 -75 92 0
-58 -74 -75 0
-57 -87 119 0
-57 -76 -103 0
-56 -86 -89 0
-56 -57 -65 0
-56 89 113 0
-53 69 -105 0
-52 67 88 0
-50 61 -78 0
-49 64 110 0
-49 82 99 0
-48 -58 67 0
-47 70 104 0
-46 -76 -116 0
-46 -56 -112 0
-45 -52 55 0
-45 46 -112 0
-45 49 118 0
-44 -72 77 0
-44 -54 -99 0
-44 110 115 0
-43 -65 81 0
-43 -49 -87 0
-43 62 -93 0
-42 -70 -73 0
-42 -47 50 0
-42 51 53 0
-42 66 119 0
-42 104 -115 0
-42 114 -119 0
-41 -81 -92 0
-41 -53 -62 0
-41 -45 -93 0
-40 -91 96 0
-39 -86 -112 0
-39 -40 -55 0
-39 61 -74 0
-38 -83 96 0
-38 -50 71 0
-37 -61 -118 0
-36 77 -83 0
-35 -42 64 0
-35 48 51 0
-34 -58 107 0
-34 -57 -97 0
-34 37 39 0
-34 37 68 0
-33 -68 -91 0
-33 63 -78 0
-32 -47 72 0
-32 -37 94 0
-32 -34 51 0
-31 -83 -105 0
-31 -50 -100 0
-31 -45 -83 0
-31 51 -115 0
-30 55 -76 0
-29 -71 -114 0
-29 -64 118 0
-29 -37 -116 0
-29 -30 47 0
-29 39 -103 0
-28 -49 55 0
-28 36 -106 0
-28 58 75 0
-28 63 65 0
-27 -92 119 0
-27 -47 54 0
-27 35 -90 0
-27 110 -116 0
-26 -43 -98 0
-25 -86 118 0
-25 -65 84 0
-25 -59 83 0
-25 55 -79 0
-25 85 -87 0
-24 -70 -120 0
-24 -58 112 0
-24 -50 -85 0
-24 -41 43 0
-24 30 83 0
-24 58 -94 0
-24 67 -86 0
-23 -70 -87 0
-23 -61 -118 0
-23 -37 -104 0
-23 32 117 0
-23 39 -98 0
-21 -77 118 0
-21 -22 38 0
-21 35 47 0
-20 39 -119 0
-20 55 79 0
-19 36 -94 0
-18 -71 100 0
-18 -27 -88 0
-18 -23 -118 0
-18 74 -117 0
-17 -18 -81 0
-17 37 -87 0
-16 -82 108 0
-16 -81 -113 0
-16 -65 91 0
-16 -48 88 0
-16 -43 81 0
-16 62 93 0
-15 -69 -83 0
-15 -67 109 0
-15 -33 -70 0
-15 21 37 0
-15 49 -54 0
-15 70 89 0
-14 -65 87 0
-14 -62 -79 0
-14 32 113 0
-13 -51 119 0
-13 -37 106 0
-13 -16 -22 0
-13 -15 28 0
-13 14 91 0
-13 39 116 0
-13 44 74 0
-13 65 -94 0
-12 65 104 0
-11 -103 110 0
-11 23 -45 0
-11 27 -78 0
-11 66 79 0
-10 -96 -104 0
-10 -63 -75 0
-10 -42 -85 0
-10 -40 113 0
-10 -33 108 0
-10 50 -72 0
-10 54 72 0
-10 60 90 0
-10 84 115 0
-9 58 60 0
-9 98 106 0
-8 -90 -111 0
-8 22 59 0
-8 36 -71 0
-7 -107 -120 0
-7 -27 66 0
-7 61 100 0
-6 -66 85 0
-6 -44 54 0
-6 83 113 0
-6 99 112 0
-5 -80 -108 0
-5 -66 -83 0
-5 -57 58 0
-5 -43 -112 0
-5 -26 -82 0
-5 -26 34 0
-5 79 95 0
-4 -28 78 0
-4 -11 68 0
-4 8 -64 0
-3 -37 -66 0
-3 -17 -110 0
-3 64 105 0
-2 -29 45 0
-2 9 -56 0
-2 34 -85 0
-1 -62 90 0
-1 -58 91 0
-1 -34 58 0
-1 -7 -14 0
-1 -3 108 0
-1 12 55 0
-1 27 40 0
-1 28 -116 0
1 -106 -111 0
1 -86 -88 0
1 -56 117 0
1 -18 50 0
2 -112 116 0
2 -76 -88 0
2 -38 -52 0
2 62 -69 0
3 -82 -85 0
3 -69 -96 0
3 -27 -104 0
3 -25 111 0
3 6 53 0
3 12 -54 0
3 14 34 0
4 -61 73 0
4 -37 90 0
4 5 89 0
4 37 -114 0
4 38 -63 0
4 91 102 0
4 94 104 0
5 -82 -109 0
5 -57 -98 0
5 -45 71 0
5 -32 53 0
5 26 -47 0
6 -68 93 0
6 37 -97 0
6 47 -106 0
6 63 -84 0
6 63 81 0
7 -64 -102 0
7 -62 -92 0
7 -59 -100 0
7 -15 42 0
7 -13 -69 0
7 -12 113 0
7 18 90 0
8 -40 -41 0
8 -29 79 0
8 -19 104 0
8 35 -51 0
9 -88 -105 0
9 -67 117 0
9 -43 67 0
9 -37 95 0
9 73 -85 0
10 -41 54 0
10 -15 -112 0
10 -13 119 0
10 22 118 0
10 43 -88 0
10 79 -112 0
10 87 -100 0
11 -115 120 0
11 -79 -80 0
11 -30 43 0
11 63 -117 0
11 89 116 0
12 -55 97 0
13 -76 93 0
13 -33 -77 0
13 76 101 0
14 -92 95 0
14 -33 -74 0
14 23 -100 0
14 24 113 0
14 61 -86 0
14 79 106 0
14 82 89 0
15 -40 65 0
15 -30 38 0
15 29 38 0
16 -39 -46 0
17 -64 92 0
17 -24 37 0
18 -71 -92 0
18 -21 -107 0
19 -114 -115 0
19 -27 113 0
19 -25 -61 0
19 101 119 0
20 -62 79 0
20 -56 -102 0
20 -37 -79 0
21 -80 -98 0
21 -60 -76 0
21 -59 -97 0
21 -48 -57 0
22 -82 97 0
22 -74 75 0
22 -68 -118 0
22 -44 45 0
22 -41 -81 0
22 68 72 0
23 -78 110 0
23 41 107 0
23 53 94 0
23 81 -113 0
24 -107 120 0
24 -73 -109 0
25 -54 111 0
25 -35 42 0
25 115 118 0
26 -108 -109 0
26 -85 96 0
26 -82 113 0
26 60 -75 0
26 87 -110 0
27 -51 -87 0
27 56 -102 0
28 31 73 0
28 76 -82 0
29 -58 84 0
29 99 -100 0
30 -44 50 0
30 33 -118 0
30 58 -87 0
31 -62 -103 0
31 46 -79 0
31 52 -102 0
31 81 98 0
32 -58 -118 0
32 39 -110 0
32 71 113 0
33 -74 -117 0
33 -34 -68 0
33 48 -107 0
34 -77 -118 0
34 40 -97 0
34 44 -118 0
34 55 -76 0
35 57 -79 0
35 103 106 0
36 -57 85 0
36 -49 -58 0
36 96 115 0
37 -109 -118 0
37 74 -100 0
38 -98 -107 0
38 39 97 0
38 57 -99 0
38 91 94 0
39 -110 -118 0
39 -49 93 0
39 -48 111 0
40 -85 117 0
41 51 -115 0
42 -53 120 0
42 60 81 0
42 67 100 0
42 71 -107 0
42 78 -79 0
43 -77 105 0
43 91 102 0
44 -103 119 0
45 61 -90 0
46 -86 -94 0
46 67 77 0
47 -61 -69 0
47 58 -98 0
47 70 110 0
48 -98 120 0
48 59 92 0
48 88 -115 0
48 89 109 0
49 -65 83 0
49 56 112 0
50 58 76 0
50 76 78 0
51 -69 119 0
52 60 -92 0
52 62 116 0
54 -108 116 0
54 -74 91 0
54 -70 116 0
55 -108 113 0
55 -57 -98 0
55 79 -110 0
56 -98 -114 0
56 -74 -86 0
58 -93 116 0
59 -103 -117 0
59 -65 -77 0
59 63 100 0
60 -73 -86 0
66 -85 -111 0
66 70 -91 0
67 89 98 0
68 75 82 0
69 -109 -114 0
69 107 -110 0
73 -84 -95 0
73 83 101 0
74 -101 -107 0
74 77 -96 0
74 77 118 0
76 108 -109 0
78 -93 98 0
78 -92 -93 0
78 -91 111 0
80 117 -118 0
81 105 -114 0
83 -102 114 0
86 -108 -109 0
86 -88 -104 0
88 -103 115 0
90 -91 -100 0
111 112 -115 0
