p cnf 150 525
-134 144 -146 0
-132 -135 146 0
-121 -127 136 0
-116 -125 -132 0
-115 -122 -128 0
-112 -139 144 0
-107 -124 -143 0
-104 118 128 0
-103 -143 149 0
-98 119 -140 0
-95 110 147 0
-94 100 -127 0
-93 -104 -121 0
-91 -93 98 0
-91 112 137 0
-90 110 -133 0
-88 -123 -143 0
-88 -93 109 0
-87 100 -149 0
-86 -141 -142 0
-86 91 144 0
-85 -140 144 0
-85 -127 146 0
-85 124 141 0
-81 82 119 0
-81 93 -130 0
-80 -131 -150 0
-79 -95 112 0
-79 128 134 0
-78 -139 149 0
-78 86 113 0
-77 100 127 0
-76 -96 130 0
-76 92 -138 0
-75 -83 101 0
-74 -81 86 0
-74 104 134 0
-72 -135 -143 0
-72 83 107 0
-72 86 131 0
-71 -115 145 0
-70 105 -121 0
-69 -89 114 0
-69 -71 142 0
-69 91 -135 0
-69 94 -145 0
-68 73 -92 0
-68 128 143 0
-67 -109 123 0
-67 96 -119 0
-66 79 119 0
-65 116 -128 0
-64 128 -139 0
-62 -81 100 0
-62 88 106 0
-61 -130 131 0
-61 -72 85 0
-61 119 -137 0
-60 -67 90 0
-60 63 83 0
-60 97 134 0
-60 99 -136 0
-59 -92 -128 0
-59 60 -107 0
-58 -64 132 0
-58 -59 -140 0
-58 81 -98 0
-57 -86 -95 0
-57 95 -106 0
-55 62 -132 0
-55 76 -100 0
-54 -127 130 0
-53 -92 -137 0
-53 65 -110 0
-52 -126 -134 0
-51 -66 -143 0
-51 -59 -131 0
-50 -105 -118 0
-50 -88 115 0
-50 60 116 0
-49 -58 148 0
-49 52 -102 0
-49 67 134 0
-49 118 132 0
-48 -135 -142 0
-48 58 -108 0
-47 52 -68 0
-46 67 -148 0
-46 91 117 0
-45 -92 149 0
-45 -64 -86 0
-45 80 139 0
-44 50 102 0
-43 -126 140 0
-43 -76 136 0
-43 -62 119 0
-43 83 138 0
-43 86 -147 0
-42 -114 -137 0
-42 -106 149 0
-42 72 131 0
-42 78 122 0
-42 93 -127 0
-41 -47 -65 0
-41 47 -62 0
-41 86 -99 0
-41 100 145 0
-41 109 126 0
-40 -78 -145 0
-40 -43 -65 0
-39 -43 -77 0
-37 -108 -136 0
-37 58 80 0
-36 -75 -119 0
-35 -79 120 0
-35 -47 -109 0
-35 90 -131 0
-34 37 -126 0
-33 48 111 0
-32 -37 107 0
-32 45 -77 0
-32 48 113 0
-32 89 -93 0
-31 -91 141 0
-31 -65 -141 0
-31 -37 -108 0
-31 66 -118 0
-31 112 138 0
-30 125 -133 0
-29 82 139 0
-29 126 -141 0
-28 -45 -81 0
-28 32 36 0
-28 36 -117 0
-28 47 95 0
-28 63 -144 0
-28 72 -119 0
-27 46 -116 0
-27 101 -124 0
-26 -80 -114 0
-26 -41 126 0
-26 62 -104 0
-25 -104 -109 0
-25 -90 139 0
-25 -71 -108 0
-25 -71 76 0
-25 41 -94 0
-24 -125 130 0
-24 -81 -116 0
-24 -59 122 0
-24 40 62 0
-24 53 54 0
-24 125 144 0
-23 -81 -132 0
-23 -78 143 0
-23 49 144 0
-23 52 126 0
-22 -67 98 0
-22 70 -81 0
-22 77 128 0
-21 -40 51 0
-21 41 -126 0
-20 -94 -104 0
-20 -63 85 0
-20 -50 -66 0
-20 89 -123 0
-20 109 -143 0
-19 -123 131 0
-19 -119 143 0
-19 -105 -130 0
-19 -101 107 0
-19 -30 -139 0
-19 82 -117 0
-19 97 106 0
-19 101 -143 0
-18 -109 125 0
-18 -80 -150 0
-18 49 54 0
-17 -132 -136 0
-17 -120 -149 0
-17 38 44 0
-17 48 122 0
-17 54 -70 0
-16 -107 117 0
-16 -64 -137 0
-16 -58 129 0
-16 24 26 0
-16 30 39 0
-16 41 -71 0
-15 -93 -121 0
-15 -41 60 0
-15 44 114 0
-15 130 150 0
-14 -100 -111 0
-14 -97 132 0
-14 23 79 0
-14 30 -97 0
-14 34 -90 0
-14 67 107 0
-14 118 142 0
-14 126 150 0
-13 -95 -125 0
-13 -26 -76 0
-12 -44 -66 0
-12 -24 138 0
-12 45 110 0
-12 57 -108 0
-12 57 88 0
-11 -61 -78 0
-11 -61 69 0
-11 -36 -145 0
-11 -23 -150 0
-11 -14 -93 0
-11 -14 102 0
-11 18 126 0
-11 35 81 0
-11 60 -106 0
-11 61 -124 0
-10 -61 -104 0
-10 -40 127 0
-10 29 122 0
-10 83 -129 0
-9 46 70 0
-9 65 146 0
-8 -124 -145 0
-8 -86 -125 0
-8 -49 104 0
-8 18 124 0
-7 -98 -118 0
-7 -27 86 0
-7 -19 94 0
-7 -12 29 0
-7 16 123 0
-7 38 -138 0
-7 84 107 0
-6 -16 -33 0
-6 92 -98 0
-5 -33 66 0
-5 -19 -75 0
-5 -13 -25 0
-5 25 69 0
-5 43 -90 0
-5 96 143 0
-4 -86 -119 0
-4 -66 136 0
-4 -41 48 0
-4 -22 42 0
-4 -18 28 0
-4 13 -145 0
-4 21 -82 0
-4 30 -125 0
-4 30 136 0
-4 60 69 0
-4 84 -145 0
-3 -66 69 0
-3 -65 -99 0
-3 16 128 0
-3 100 136 0
-2 7 -62 0
-2 31 53 0
-2 39 131 0
-2 70 -79 0
-1 72 -147 0
2 -48 123 0
3 -142 150 0
3 -78 -102 0
3 -24 -142 0
3 -19 -107 0
3 17 -89 0
3 86 -143 0
3 106 114 0
4 -81 -136 0
4 -60 95 0
4 -24 -28 0
4 6 -56 0
4 7 -117 0
4 22 -150 0
4 68 -109 0
6 -88 -128 0
6 -18 -56 0
6 44 60 0
6 57 -138 0
6 120 148 0
7 -35 42 0
7 10 -132 0
7 21 108 0
7 35 84 0
7 50 -83 0
8 24 -110 0
8 59 -96 0
8 81 91 0
9 -42 -150 0
9 -40 -61 0
9 -35 -84 0
9 -30 53 0
9 16 135 0
9 59 -87 0
9 72 140 0
9 89 -117 0
10 -73 -78 0
10 -16 -134 0
10 46 -148 0
10 53 -107 0
10 78 -104 0
10 96 105 0
11 -34 96 0
12 -20 42 0
12 -20 64 0
12 27 -99 0
12 34 128 0
13 -62 -115 0
13 -39 149 0
13 -21 53 0
13 19 -97 0
13 25 -79 0
14 -64 -128 0
14 -19 139 0
14 51 -140 0
14 93 140 0
15 -139 -144 0
15 42 140 0
15 106 126 0
16 -46 150 0
16 -36 -145 0
16 33 67 0
17 -130 141 0
17 -111 120 0
17 -80 -108 0
17 -30 -49 0
17 24 58 0
17 27 80 0
17 67 127 0
17 75 -83 0
17 99 -114 0
18 27 -38 0
18 49 -60 0
18 75 84 0
19 -97 -109 0
19 -94 134 0
19 -67 -120 0
19 -32 85 0
20 -45 -123 0
20 -41 55 0
20 45 -79 0
20 64 134 0
20 73 -116 0
20 121 -124 0
21 -78 140 0
21 -68 -79 0
21 26 32 0
21 57 -96 0
21 93 122 0
21 97 -111 0
21 107 144 0
22 -114 138 0
22 -54 -68 0
22 74 81 0
23 -50 -142 0
23 -40 -120 0
23 -38 -110 0
24 -132 -137 0
24 -78 130 0
24 -71 -81 0
24 38 -64 0
24 69 -125 0
24 77 -113 0
24 81 150 0
25 54 -150 0
26 -85 103 0
26 32 -120 0
26 70 125 0
27 -101 148 0
27 -53 -128 0
27 -37 -108 0
27 65 -133 0
28 35 -110 0
28 39 -42 0
29 -34 84 0
29 -32 86 0
29 87 -127 0
29 96 139 0
30 -60 -89 0
30 -53 81 0
30 -43 -82 0
30 33 114 0
31 -37 124 0
31 95 130 0
31 106 148 0
31 110 150 0
32 -100 -112 0
32 41 -139 0
32 43 93 0
32 44 72 0
32 98 141 0
33 -125 135 0
33 -69 -118 0
33 48 -118 0
33 55 134 0
34 -35 -38 0
34 46 -75 0
34 60 69 0
35 -86 -117 0
35 -75 -97 0
35 -53 -93 0
35 -46 -94 0
35 36 142 0
35 38 -132 0
36 -71 148 0
36 -45 99 0
37 -82 -123 0
37 -68 150 0
37 -50 -61 0
37 46 -132 0
37 70 150 0
37 80 145 0
37 97 133 0
38 -123 143 0
38 45 -67 0
38 66 -82 0
38 85 141 0
39 -81 136 0
39 -43 128 0
39 116 -117 0
40 46 85 0
40 117 136 0
41 -69 87 0
41 51 107 0
41 73 79 0
41 110 111 0
42 -127 145 0
42 76 142 0
42 94 -142 0
43 56 59 0
44 -129 -138 0
44 -78 108 0
44 66 -119 0
45 96 105 0
46 148 150 0
47 54 60 0
47 93 -120 0
48 -83 103 0
49 -138 149 0
49 -83 -138 0
49 -76 110 0
49 -74 78 0
49 86 -112 0
50 -119 130 0
51 128 -142 0
52 86 119 0
53 -90 121 0
53 -74 91 0
53 88 -116 0
54 104 -128 0
55 84 -91 0
55 129 -134 0
56 -109 -132 0
56 72 -86 0
57 62 121 0
57 66 -126 0
57 89 -99 0
58 84 -104 0
59 -122 -142 0
59 -118 137 0
60 -108 -123 0
60 -105 132 0
61 -124 -130 0
62 -87 -98 0
63 87 -147 0
63 98 138 0
63 105 -141 0
63 127 134 0
64 104 143 0
65 -115 139 0
65 71 -131 0
66 85 -90 0
67 -79 93 0
67 -78 -116 0
67 -71 -111 0
68 73 -103 0
71 -81 -89 0
71 138 -141 0
72 -103 -146 0
73 80 -126 0
73 89 -115 0
73 89 -106 0
73 121 -133 0
74 -122 -136 0
75 -110 130 0
76 -104 129 0
76 -84 -147 0
76 142 -143 0
78 -94 114 0
78 83 -119 0
78 120 140 0
79 103 -124 0
80 -85 -92 0
80 81 86 0
81 91 127 0
82 112 -138 0
84 93 118 0
84 123 -132 0
85 -131 -147 0
86 125 -150 0
87 -109 111 0
87 -106 -127 0
88 -89 123 0
88 91 -130 0
91 121 124 0
94 101 149 0
95 125 142 0
99 130 -147 0
101 -113 138 0
101 -108 -113 0
101 105 133 0
102 115 141 0
103 131 135 0
105 -113 -140 0
111 125 -127 0
113 147 149 0
116 -131 136 0
117 -137 141 0
118 121 -127 0
118 132 134 0
120 126 132 0
130 147 -150 0
