p cnf 90 383
-74 -76 -79 0
-73 75 76 0
-60 64 74 0
-58 62 -79 0
-56 -74 79 0
-56 -66 -82 0
-54 60 -61 0
-53 -64 -70 0
-53 60 -89 0
-52 -77 -79 0
-52 77 79 0
-52 81 89 0
-51 -66 79 0
-50 70 -90 0
-49 -72 -80 0
-48 61 -71 0
-48 68 -80 0
-47 -53 61 0
-46 -47 -63 0
-45 -50 52 0
-45 48 63 0
-45 53 -76 0
-45 56 73 0
-44 49 -85 0
-44 70 80 0
-44 78 -80 0
-43 -80 87 0
-43 -62 -72 0
-42 -53 -76 0
-42 52 90 0
-42 54 71 0
-41 -56 82 0
-41 50 84 0
-40 45 72 0
-38 40 48 0
-38 45 67 0
-37 42 82 0
-36 49 84 0
-35 -61 65 0
-35 -61 66 0
-35 -41 -44 0
-35 65 82 0
-34 37 88 0
-33 87 -89 0
-31 -40 -58 0
-31 35 73 0
-30 -80 83 0
-30 61 -65 0
-29 -74 75 0
-29 35 -78 0
-29 37 52 0
-29 49 -61 0
-28 48 -55 0
-27 -77 -88 0
-27 -75 -83 0
-27 -50 -72 0
-27 -43 81 0
-27 -41 -57 0
-27 41 42 0
-27 51 -70 0
-27 62 75 0
-26 -78 -84 0
-26 -53 72 0
-25 -61 84 0
-25 -47 -57 0
-24 -48 -79 0
-24 -29 -32 0
-24 -28 58 0
-24 31 80 0
-24 52 -57 0
-23 -57 -88 0
-23 44 -47 0
-23 46 70 0
-23 62 -83 0
-23 66 -68 0
-22 -39 61 0
-22 57 67 0
-22 73 84 0
-21 -33 -45 0
-21 -29 43 0
-21 75 -80 0
-20 -44 -90 0
-20 -41 88 0
-20 -33 -68 0
-20 -24 -44 0
-20 21 78 0
-20 48 -52 0
-19 -26 39 0
-18 -43 -76 0
-18 -24 -72 0
-18 22 -47 0
-18 43 -49 0
-18 60 71 0
-17 -66 -73 0
-17 -57 -76 0
-17 -49 68 0
-17 -48 -55 0
-17 18 73 0
-17 25 -72 0
-16 -64 82 0
-16 -63 85 0
-16 39 60 0
-16 63 -73 0
-15 -64 -85 0
-15 -23 -63 0
-15 34 45 0
-15 41 -52 0
-15 65 66 0
-14 -54 -65 0
-14 -38 -69 0
-14 -26 -68 0
-14 58 77 0
-13 -26 -78 0
-13 18 -89 0
-13 18 -48 0
-12 -78 83 0
-12 -60 -85 0
-12 29 65 0
-12 35 62 0
-11 -46 47 0
-11 -42 -74 0
-11 -13 -19 0
-11 -13 58 0
-11 17 65 0
-11 32 -75 0
-11 59 76 0
-10 -24 -90 0
-10 -20 39 0
-10 36 45 0
-9 -87 89 0
-9 -72 85 0
-9 -58 79 0
-9 -40 -50 0
-9 20 -53 0
-8 -63 -66 0
-8 -47 63 0
-8 -39 -74 0
-8 -23 -85 0
-8 -18 75 0
-7 -72 77 0
-7 -46 -71 0
-7 36 67 0
-7 50 52 0
-6 -39 -54 0
-6 -39 65 0
-6 -36 77 0
-6 -17 62 0
-6 -15 21 0
-6 24 -28 0
-6 30 79 0
-6 30 88 0
-6 31 56 0
-5 -52 70 0
-5 -18 -75 0
-5 8 53 0
-5 30 -52 0
-5 31 -56 0
-4 -44 -78 0
-4 -26 88 0
-4 -13 -40 0
-4 -8 80 0
-4 18 -67 0
-4 31 34 0
-4 34 40 0
-4 40 -77 0
-4 45 80 0
-4 55 82 0
-3 -12 -77 0
-3 -6 -51 0
-3 -4 -31 0
-3 6 -15 0
-3 13 -22 0
-3 29 -42 0
-3 39 69 0
-2 -77 82 0
-2 -53 71 0
-2 -40 -54 0
-2 -22 -76 0
-2 -15 21 0
-2 28 -56 0
-2 31 35 0
-2 35 76 0
-1 -12 -47 0
-1 -2 -64 0
-1 3 19 0
-1 8 -19 0
-1 12 -69 0
-1 13 16 0
1 -45 63 0
1 -2 25 0
1 5 -59 0
1 15 -20 0
1 36 -76 0
1 42 -77 0
1 67 -68 0
2 -39 81 0
2 -15 -87 0
2 -4 -78 0
2 15 -20 0
2 36 -47 0
3 -61 -86 0
3 -10 -76 0
3 4 85 0
3 34 70 0
3 38 -63 0
4 -54 77 0
4 -30 -75 0
4 -15 -83 0
4 23 85 0
4 40 -68 0
4 48 58 0
5 -37 -43 0
5 -30 -61 0
5 -29 -33 0
5 -10 -84 0
5 6 -77 0
5 14 88 0
5 23 -61 0
6 -48 49 0
7 -47 -84 0
7 19 -40 0
8 -49 -80 0
8 32 52 0
8 36 77 0
8 37 80 0
8 81 -86 0
9 -74 -79 0
9 -41 81 0
9 -29 -68 0
9 -24 -78 0
9 -16 34 0
9 18 88 0
9 27 -32 0
9 27 60 0
9 65 89 0
10 -25 -28 0
10 -11 21 0
10 13 -57 0
10 16 -81 0
10 26 40 0
11 -51 83 0
11 -49 77 0
11 -26 -76 0
11 -14 -60 0
11 13 34 0
11 20 -89 0
11 29 -88 0
11 29 -80 0
12 -45 67 0
12 -39 58 0
12 -13 -79 0
12 17 84 0
12 47 -82 0
12 58 -70 0
12 66 -85 0
13 -43 86 0
13 16 35 0
13 19 34 0
13 55 64 0
14 -65 77 0
14 -50 -80 0
14 -46 89 0
14 -44 55 0
14 -34 50 0
14 42 80 0
14 44 67 0
14 50 -81 0
14 50 56 0
14 50 87 0
15 -44 -72 0
15 -16 87 0
16 -75 -88 0
16 -45 -58 0
16 -29 90 0
16 -28 51 0
16 22 -71 0
17 -34 -71 0
17 -21 -59 0
18 -62 77 0
18 -60 80 0
18 -26 76 0
18 47 -57 0
18 53 -89 0
19 -25 -75 0
19 26 70 0
19 44 87 0
20 -48 54 0
20 -38 46 0
20 -21 61 0
20 43 45 0
20 48 -62 0
20 54 76 0
20 79 -87 0
21 -47 -71 0
21 38 60 0
21 48 -84 0
22 -38 -43 0
22 -35 90 0
22 -23 66 0
22 35 -56 0
23 -42 59 0
23 32 -38 0
23 43 -58 0
24 -60 -74 0
24 -43 -51 0
24 -41 -57 0
24 30 -53 0
24 33 53 0
24 40 -50 0
25 54 86 0
26 -83 -87 0
26 -46 -66 0
26 -45 -69 0
26 44 -45 0
26 44 57 0
26 48 -73 0
26 62 90 0
27 -34 78 0
27 -31 56 0
27 28 68 0
27 29 -84 0
27 37 -74 0
27 38 43 0
27 56 -64 0
28 -35 -40 0
28 -29 58 0
28 35 67 0
29 -39 -63 0
30 40 -55 0
30 52 -86 0
30 56 -88 0
30 58 -89 0
30 62 -87 0
32 -39 64 0
32 -33 61 0
33 -85 -89 0
33 -82 -87 0
33 -40 59 0
33 38 -47 0
33 52 -80 0
34 -41 -46 0
34 -37 -56 0
34 41 79 0
34 43 -55 0
35 -61 -74 0
35 -50 -82 0
35 55 59 0
38 -75 89 0
38 -39 77 0
40 -45 -59 0
41 -59 -60 0
41 47 71 0
43 -76 -89 0
43 59 90 0
43 80 -86 0
43 82 -87 0
45 -71 86 0
45 59 -83 0
45 68 80 0
46 -52 55 0
46 67 77 0
47 -67 80 0
47 55 57 0
48 82 89 0
49 -74 84 0
49 57 -71 0
50 51 56 0
51 -57 69 0
51 -54 87 0
52 -56 87 0
52 55 -61 0
52 72 -76 0
53 -68 73 0
53 -60 -85 0
54 66 77 0
56 60 -82 0
58 -60 -66 0
60 70 81 0
64 74 76 0
67 -81 -86 0
67 79 82 0
69 -77 -90 0
71 -74 -81 0
