p cnf 70 298
-59 67 70 0
-57 61 70 0
-51 53 67 0
-48 51 -64 0
-47 -52 -56 0
-46 49 65 0
-46 50 54 0
-42 -56 58 0
-41 49 -62 0
-39 51 -62 0
-38 -39 -43 0
-36 -61 62 0
-36 -50 51 0
-35 -45 52 0
-35 -44 -58 0
-35 53 65 0
-33 -52 54 0
-33 -38 -60 0
-33 49 -62 0
-33 51 69 0
-33 62 66 0
-32 47 -56 0
-32 47 51 0
-31 -49 -55 0
-31 49 -51 0
-30 -58 -61 0
-30 -32 56 0
-30 37 -56 0
-29 -38 -52 0
-29 54 57 0
-28 59 -65 0
-27 -61 -66 0
-26 -50 63 0
-26 47 48 0
-26 50 -66 0
-25 -38 -66 0
-25 -33 -64 0
-24 -27 66 0
-24 34 -59 0
-24 37 -54 0
-23 -35 41 0
-23 -31 -35 0
-23 25 43 0
-23 26 50 0
-23 37 -57 0
-21 -52 63 0
-21 -42 54 0
-20 -43 -51 0
-20 -34 47 0
-20 -22 -36 0
-19 -58 64 0
-19 38 68 0
-19 41 -59 0
-18 -53 -66 0
-18 -38 -40 0
-18 -29 42 0
-18 -22 -31 0
-18 21 -66 0
-18 32 56 0
-17 -28 64 0
-17 18 32 0
-17 41 -67 0
-17 49 -52 0
-16 -47 -63 0
-16 -23 45 0
-16 18 -67 0
-16 21 31 0
-16 28 -32 0
-16 28 38 0
-16 29 33 0
-16 39 -54 0
-15 -22 45 0
-15 31 62 0
-14 -22 -49 0
-14 -20 65 0
-14 30 34 0
-14 53 57 0
-14 60 -61 0
-13 -18 -46 0
-13 15 -20 0
-13 61 63 0
-12 -13 14 0
-12 15 -68 0
-12 39 -40 0
-12 58 -62 0
-11 -31 58 0
-11 12 55 0
-10 -38 -58 0
-10 -25 61 0
-10 -15 -23 0
-10 14 64 0
-10 26 34 0
-9 -45 -52 0
-9 -39 -63 0
-9 -38 55 0
-9 -18 -34 0
-9 -17 20 0
-9 13 -24 0
-9 32 -69 0
-9 42 43 0
-8 -45 -47 0
-8 -35 54 0
-8 -29 -48 0
-8 -14 35 0
-8 -12 -67 0
-8 25 -69 0
-7 -41 64 0
-7 -27 62 0
-7 9 34 0
-7 44 57 0
-7 47 -61 0
-7 61 -69 0
-6 -27 -59 0
-6 -27 -46 0
-6 -24 -56 0
-6 -15 69 0
-6 -10 13 0
-6 10 -23 0
-6 50 -55 0
-6 52 53 0
-5 -58 65 0
-5 -51 -62 0
-5 -16 39 0
-5 17 -45 0
-5 26 -30 0
-5 45 48 0
-4 -42 60 0
-4 5 56 0
-4 19 -51 0
-4 45 -69 0
-3 -33 -49 0
-3 -31 65 0
-3 -16 -38 0
-3 -4 22 0
-2 -41 -46 0
-2 -41 53 0
-2 -30 -64 0
-2 -22 -35 0
-2 8 25 0
-2 9 14 0
-2 11 67 0
-2 17 -67 0
-2 26 -36 0
-2 32 -39 0
-2 38 46 0
-1 -19 38 0
-1 9 39 0
-1 37 -39 0
1 -35 53 0
1 -22 29 0
1 -18 -44 0
1 -18 -28 0
1 -7 -35 0
1 8 -51 0
1 24 62 0
1 36 48 0
2 -40 47 0
2 -33 -64 0
2 -30 61 0
2 -13 23 0
2 14 -32 0
2 14 28 0
2 38 -60 0
3 -29 48 0
3 -24 -59 0
3 -22 63 0
3 -19 -36 0
3 -15 -52 0
3 -6 -63 0
3 7 37 0
3 41 49 0
3 50 68 0
4 -38 -45 0
4 -7 66 0
4 28 70 0
4 34 -61 0
4 38 52 0
4 43 62 0
5 -56 57 0
5 -43 -63 0
5 -13 70 0
5 7 47 0
5 17 -25 0
5 19 25 0
5 32 49 0
6 -41 59 0
6 -40 62 0
6 -32 -60 0
6 -8 -10 0
6 10 -67 0
6 10 -48 0
6 11 -66 0
6 45 -54 0
7 -30 56 0
7 -25 41 0
7 -22 31 0
7 9 -52 0
7 11 60 0
7 11 63 0
7 12 44 0
8 -14 61 0
8 40 -56 0
8 42 -55 0
9 -49 -60 0
9 -12 51 0
9 13 17 0
9 38 -59 0
10 -40 -43 0
10 -23 -28 0
10 17 -68 0
10 25 26 0
10 58 60 0
11 -36 -50 0
11 16 55 0
12 -65 69 0
12 -25 -52 0
12 -16 -34 0
12 32 -59 0
12 49 67 0
12 58 61 0
13 -43 -45 0
13 -18 -55 0
13 -16 63 0
14 -60 68 0
14 -17 34 0
14 22 -44 0
15 -27 68 0
15 -22 48 0
15 23 31 0
15 24 49 0
15 61 -64 0
16 -19 55 0
16 -17 54 0
16 18 60 0
16 49 -65 0
17 -57 64 0
17 -20 -21 0
17 35 -54 0
17 40 69 0
19 -28 52 0
20 -55 57 0
20 -53 67 0
20 -27 49 0
20 -21 35 0
20 36 69 0
20 42 -47 0
21 35 50 0
21 46 67 0
22 47 67 0
23 -47 -63 0
23 -47 -53 0
23 -30 -39 0
23 27 40 0
23 39 -62 0
23 63 -67 0
23 66 -70 0
24 -36 50 0
24 -32 57 0
25 35 53 0
25 37 60 0
25 40 -70 0
25 44 -51 0
26 -33 70 0
26 -31 -39 0
26 36 41 0
27 -35 39 0
28 -69 -70 0
28 -57 67 0
29 -69 -70 0
30 -48 68 0
30 32 40 0
30 38 -43 0
31 40 -64 0
31 40 -63 0
31 65 68 0
32 -57 -66 0
32 48 64 0
34 -52 -69 0
34 -52 -54 0
34 -35 53 0
34 63 -69 0
36 -48 -68 0
40 -55 61 0
40 -54 61 0
41 -43 -52 0
42 48 50 0
42 61 64 0
42 61 68 0
43 45 -63 0
46 -53 68 0
46 48 66 0
47 53 -61 0
48 61 -67 0
51 -60 66 0
53 54 -55 0
53 61 64 0
57 -59 -66 0
61 63 -68 0
