p cnf 24 102
-14 15 22 0
-13 -19 24 0
-13 -18 20 0
-12 -14 19 0
-11 -18 -20 0
-10 -16 -23 0
-10 -15 -22 0
-10 -13 19 0
-10 21 -23 0
-8 -22 -23 0
-8 12 14 0
-8 12 23 0
-7 -17 24 0
-7 -16 19 0
-7 -8 -23 0
-7 13 24 0
-6 -20 23 0
-6 12 21 0
-6 16 20 0
-6 18 21 0
-5 -8 14 0
-5 -6 13 0
-5 6 -24 0
-5 6 -18 0
-4 -14 -23 0
-4 -14 -17 0
-4 -8 -22 0
-4 -6 -7 0
-4 6 -22 0
-4 22 -23 0
-3 -19 21 0
-3 -13 18 0
-3 -7 -11 0
-3 6 -22 0
-3 6 18 0
-3 7 -14 0
-3 9 16 0
-3 10 23 0
-2 -15 24 0
-2 10 -20 0
-2 11 22 0
-2 14 -17 0
-2 18 20 0
-1 -17 -24 0
-1 -16 21 0
-1 -12 18 0
-1 -8 -19 0
1 -15 18 0
1 -7 15 0
1 5 -21 0
1 11 -18 0
2 -18 -22 0
2 -14 19 0
2 4 -16 0
2 6 -10 0
2 10 -14 0
3 -17 -22 0
3 -6 -19 0
3 -5 -10 0
3 -5 15 0
3 5 -21 0
3 5 14 0
3 11 -22 0
3 14 22 0
4 -7 18 0
4 -6 17 0
4 6 -18 0
4 9 15 0
4 12 22 0
4 20 -23 0
5 -17 21 0
5 -11 20 0
5 6 -10 0
5 6 17 0
5 9 16 0
6 -8 10 0
6 -7 -18 0
6 10 16 0
7 11 -21 0
8 -16 17 0
8 -15 24 0
8 -13 18 0
8 -9 14 0
8 12 -17 0
8 20 -24 0
9 -20 -22 0
9 -11 20 0
9 -10 11 0
9 10 -22 0
11 12 -18 0
11 15 -19 0
11 15 17 0
11 17 -18 0
12 -16 22 0
12 13 15 0
13 -16 -22 0
13 -14 15 0
14 -19 22 0
14 -17 23 0
15 -16 -21 0
17 19 -20 0
21 -22 23 0
