p cnf 120 510
-103 -111 119 0
-101 -113 -119 0
-91 101 -120 0
-89 98 -101 0
-89 108 113 0
-85 -108 -116 0
-82 85 94 0
-80 89 -91 0
-78 80 -119 0
-76 -82 -107 0
-75 -87 91 0
-74 75 106 0
-72 -101 -118 0
-72 -98 110 0
-72 -76 -118 0
-69 -77 108 0
-69 94 99 0
-68 76 -84 0
-68 94 109 0
-67 -85 92 0
-67 76 110 0
-63 -66 75 0
-62 63 -115 0
-61 -68 -77 0
-61 -66 115 0
-61 64 74 0
-61 71 105 0
-61 110 117 0
-57 -74 102 0
-57 87 119 0
-56 66 -108 0
-56 94 -117 0
-54 56 110 0
-53 80 -115 0
-53 102 107 0
-52 -79 -98 0
-52 -78 -102 0
-50 -82 108 0
-50 -69 -89 0
-50 54 -104 0
-50 81 -95 0
-50 87 93 0
-48 65 96 0
-48 72 115 0
-47 -66 -118 0
-45 -62 77 0
-45 -52 76 0
-45 61 108 0
-45 78 82 0
-44 -73 -111 0
-44 49 -109 0
-43 -75 82 0
-43 56 82 0
-43 74 120 0
-43 102 -112 0
-42 -91 100 0
-42 -44 -82 0
-42 44 97 0
-42 57 -95 0
-42 59 110 0
-42 61 114 0
-41 -84 -91 0
-41 55 58 0
-41 65 -105 0
-41 76 108 0
-41 92 -119 0
-40 -66 -119 0
-40 -58 -83 0
-40 -55 117 0
-40 49 88 0
-40 57 106 0
-39 40 87 0
-39 51 -84 0
-39 53 -106 0
-39 56 103 0
-38 -68 -99 0
-38 -68 107 0
-38 42 74 0
-38 63 71 0
-38 94 103 0
-37 -95 100 0
-37 -64 108 0
-37 -46 -106 0
-37 41 -74 0
-37 62 -90 0
-36 -69 -97 0
-36 -62 119 0
-36 -55 120 0
-36 -48 -101 0
-36 -46 -74 0
-36 57 92 0
-36 65 -75 0
-36 74 -104 0
-34 -84 -102 0
-34 -50 109 0
-34 80 88 0
-33 -74 116 0
-32 -38 59 0
-32 81 117 0
-31 -108 119 0
-31 -73 -100 0
-31 33 -65 0
-30 -78 81 0
-30 33 -49 0
-30 41 -89 0
-30 46 64 0
-30 58 71 0
-30 91 -120 0
-29 77 120 0
-29 100 -104 0
-28 38 -80 0
-28 47 92 0
-28 102 -106 0
-27 -73 97 0
-27 -71 109 0
-27 -44 -93 0
-27 28 -94 0
-27 29 71 0
-27 38 117 0
-27 39 -114 0
-27 65 -95 0
-26 -82 -107 0
-26 -67 90 0
-26 -52 -53 0
-26 56 -65 0
-25 -106 -110 0
-25 -75 -114 0
-25 50 -53 0
-24 -63 89 0
-24 -38 -46 0
-24 44 103 0
-24 58 -81 0
-23 -38 -113 0
-23 -34 103 0
-23 78 -118 0
-22 -58 -62 0
-22 -45 58 0
-22 49 -112 0
-22 62 71 0
-21 -38 -83 0
-21 -38 52 0
-21 22 -87 0
-21 50 -115 0
-21 55 -75 0
-21 111 112 0
-20 -50 68 0
-20 -44 78 0
-20 -28 95 0
-19 -86 106 0
-19 -84 -117 0
-19 -51 -71 0
-19 -41 -56 0
-19 -38 -64 0
-19 59 -85 0
-19 63 -110 0
-19 75 -115 0
-19 98 -119 0
-18 -45 49 0
-18 -35 69 0
-18 -23 -49 0
-18 28 -52 0
-18 35 -114 0
-18 39 102 0
-17 -69 78 0
-17 -55 105 0
-17 25 -48 0
-17 32 51 0
-17 44 -49 0
-17 49 98 0
-16 -92 103 0
-16 -46 -76 0
-16 -27 -77 0
-16 32 -35 0
-16 66 -81 0
-16 67 91 0
-15 -49 -99 0
-15 -39 93 0
-15 -31 -49 0
-15 28 43 0
-15 36 -67 0
-14 -62 -109 0
-14 -43 99 0
-14 72 -109 0
-14 104 106 0
-13 -68 -92 0
-13 -43 55 0
-13 -27 56 0
-13 21 63 0
-13 32 -73 0
-13 72 94 0
-13 101 118 0
-12 -23 117 0
-12 13 100 0
-12 49 -86 0
-12 50 71 0
-12 50 103 0
-12 91 114 0
-11 -47 -75 0
-11 -42 -77 0
-11 -36 -100 0
-11 19 119 0
-11 94 -96 0
-10 -89 -100 0
-10 -71 104 0
-10 -40 -69 0
-10 -28 95 0
-10 -16 -71 0
-10 11 112 0
-10 39 -83 0
-10 49 104 0
-10 56 -78 0
-9 -68 -86 0
-9 -27 -77 0
-9 29 42 0
-9 30 113 0
-9 81 108 0
-8 -73 -74 0
-8 -59 75 0
-8 11 -114 0
-8 11 -97 0
-8 41 -51 0
-8 43 -69 0
-8 53 -115 0
-8 103 -117 0
-7 -29 -93 0
-7 18 92 0
-7 36 -56 0
-7 71 100 0
-6 -72 73 0
-6 -22 95 0
-6 -18 37 0
-6 13 105 0
-6 26 -49 0
-6 32 -49 0
-5 -52 63 0
-5 34 -55 0
-4 -83 87 0
-4 -20 83 0
-4 6 -64 0
-4 24 93 0
-4 31 99 0
-4 57 117 0
-3 -53 -65 0
-3 7 -48 0
-3 17 -60 0
-3 26 -28 0
-3 60 -61 0
-3 115 116 0
-2 -45 -66 0
-2 -21 -34 0
-2 17 44 0
-2 29 -107 0
-2 33 51 0
-2 60 -75 0
-2 98 99 0
-2 102 113 0
1 -94 -117 0
1 -86 95 0
1 -64 77 0
1 -51 -85 0
1 -26 -49 0
1 -23 59 0
1 -22 -68 0
1 -5 6 0
2 -87 -103 0
2 -24 38 0
2 -13 -62 0
2 5 87 0
2 10 18 0
2 35 77 0
2 48 -103 0
2 65 -116 0
3 -44 -79 0
3 19 98 0
4 -19 -29 0
4 -6 -93 0
4 -5 11 0
4 14 -103 0
4 16 32 0
5 -32 -107 0
6 -77 -78 0
6 -36 -40 0
6 -20 -120 0
6 13 -101 0
6 47 -54 0
6 48 -100 0
6 54 -116 0
6 57 -71 0
7 -49 -119 0
7 37 -87 0
7 40 -101 0
7 40 112 0
7 95 111 0
7 105 118 0
8 -90 -96 0
8 -51 104 0
8 -16 57 0
8 -12 68 0
8 31 -77 0
8 36 39 0
8 50 -105 0
9 -53 73 0
9 -36 -89 0
9 -24 63 0
9 16 31 0
9 34 -68 0
9 65 -117 0
9 88 -112 0
10 -97 105 0
10 -70 115 0
10 -62 -92 0
10 -56 89 0
10 -51 -77 0
10 14 51 0
10 15 25 0
10 21 109 0
10 36 -46 0
11 -71 -113 0
11 -67 -104 0
11 -54 -108 0
11 -32 -97 0
11 12 81 0
11 63 -93 0
12 19 -75 0
12 26 -102 0
12 79 94 0
13 -62 -82 0
13 -60 119 0
13 -18 -83 0
13 24 -32 0
13 38 -75 0
13 38 69 0
13 42 46 0
13 61 -101 0
14 -113 119 0
14 -47 109 0
14 -46 -116 0
14 -28 68 0
14 15 -117 0
14 44 -73 0
14 103 115 0
14 106 -111 0
15 -71 113 0
15 -16 -29 0
15 18 63 0
15 21 32 0
15 53 -64 0
15 70 94 0
16 -19 -71 0
16 34 73 0
16 65 -106 0
17 -73 104 0
17 -68 -100 0
17 -47 -111 0
17 -42 -71 0
17 -28 52 0
17 -28 70 0
17 -19 31 0
17 39 -56 0
17 56 -81 0
18 -56 77 0
18 -48 -62 0
19 -103 111 0
19 -64 97 0
19 92 -119 0
20 -44 116 0
20 -38 66 0
20 -21 68 0
20 38 -42 0
20 85 -105 0
21 -65 103 0
21 -32 107 0
21 22 49 0
21 31 56 0
21 37 -84 0
22 -75 115 0
22 -51 69 0
22 -37 75 0
22 -29 92 0
22 69 -120 0
22 75 103 0
23 -95 117 0
23 -72 -74 0
23 -60 -65 0
24 -71 -82 0
24 -56 66 0
24 50 -86 0
24 58 -93 0
25 50 64 0
25 77 114 0
26 36 -119 0
26 45 -60 0
26 49 -90 0
27 -61 98 0
27 41 77 0
27 55 93 0
28 36 38 0
28 49 -94 0
28 78 97 0
28 81 -105 0
28 91 100 0
28 98 105 0
29 -75 -79 0
29 -58 -91 0
29 -53 104 0
29 -48 117 0
29 55 -88 0
29 59 -107 0
29 82 95 0
30 -101 -117 0
30 -85 -95 0
30 -57 -114 0
30 39 79 0
30 50 98 0
30 50 115 0
30 57 -100 0
31 -104 -112 0
31 -37 58 0
31 37 88 0
31 46 94 0
31 47 102 0
31 65 -89 0
31 76 88 0
32 -37 44 0
32 -36 -66 0
32 35 -80 0
32 49 -87 0
32 74 -111 0
33 -35 -53 0
33 45 57 0
33 54 56 0
33 67 -76 0
34 -86 89 0
34 -60 -81 0
34 36 99 0
34 49 -105 0
34 59 68 0
36 -82 95 0
36 -61 67 0
36 -46 -81 0
36 -40 -73 0
36 50 101 0
36 53 -114 0
38 -108 -112 0
38 -40 85 0
39 -115 -117 0
39 -78 80 0
39 58 -114 0
40 -87 114 0
40 -57 -91 0
40 -48 -91 0
40 52 -62 0
41 47 -87 0
41 62 -66 0
41 62 71 0
41 76 78 0
43 46 -93 0
44 -60 61 0
45 -51 93 0
45 57 -108 0
45 69 -75 0
46 -70 119 0
46 -69 81 0
46 -50 -62 0
46 61 -94 0
47 -91 -101 0
47 93 116 0
48 -77 89 0
48 52 67 0
49 53 -109 0
50 -91 -106 0
50 -53 68 0
51 66 76 0
53 -68 -93 0
54 -99 106 0
54 61 98 0
55 -61 -108 0
57 -100 109 0
57 -77 112 0
58 -104 -113 0
58 -84 94 0
58 -60 64 0
61 -75 -86 0
61 -62 -81 0
62 107 -119 0
64 72 87 0
66 -116 117 0
67 -113 114 0
67 -71 118 0
67 76 84 0
69 -99 -113 0
70 -76 86 0
70 92 105 0
71 -98 -112 0
72 80 -106 0
73 87 98 0
73 99 117 0
74 -95 -116 0
74 -94 -107 0
75 -84 -120 0
75 90 95 0
77 -110 -112 0
77 116 -117 0
82 -102 111 0
85 -91 -94 0
85 93 -104 0
87 89 111 0
89 -98 119 0
90 101 118 0
102 103 107 0
