p cnf 60 255
-50 -53 54 0
-46 -50 -52 0
-45 -49 53 0
-45 46 -47 0
-42 43 57 0
-41 -50 -51 0
-40 46 -55 0
-39 -49 59 0
-38 -48 57 0
-37 -38 47 0
-37 49 -60 0
-36 59 60 0
-34 -52 58 0
-32 -36 41 0
-32 -34 -58 0
-32 -33 39 0
-31 -43 -44 0
-30 -39 -56 0
-30 40 -51 0
-30 42 -44 0
-29 42 50 0
-28 -37 -56 0
-28 37 46 0
-27 58 -60 0
-26 31 -55 0
-25 -52 -57 0
-25 -28 31 0
-25 49 -60 0
-24 -47 50 0
-24 27 60 0
-24 49 50 0
-23 -58 -59 0
-23 -36 57 0
-23 45 -60 0
-22 -25 -48 0
-22 51 -52 0
-21 27 -57 0
-21 37 -48 0
-20 -34 -53 0
-20 -25 54 0
-20 21 29 0
-20 43 54 0
-19 -32 -50 0
-19 -22 -41 0
-19 20 -50 0
-19 40 58 0
-18 -20 -31 0
-18 26 -33 0
-18 26 40 0
-18 44 54 0
-17 -18 -28 0
-16 -52 -56 0
-16 -37 -54 0
-16 -26 -30 0
-16 32 55 0
-15 -21 57 0
-15 25 38 0
-15 41 -55 0
-14 -52 -54 0
-14 -33 55 0
-14 49 -57 0
-13 -20 -51 0
-13 28 49 0
-13 30 -43 0
-12 27 52 0
-12 31 -59 0
-12 33 46 0
-12 40 59 0
-11 -25 -45 0
-11 19 49 0
-11 48 -51 0
-10 -43 -55 0
-10 25 -44 0
-10 42 -50 0
-10 49 -56 0
-9 -20 21 0
-9 -14 -44 0
-9 13 -39 0
-9 19 46 0
-9 26 -48 0
-8 10 -53 0
-8 14 -26 0
-8 42 -51 0
-8 48 59 0
-7 -10 35 0
-7 24 37 0
-7 40 -50 0
-7 51 -59 0
-6 -14 43 0
-6 11 24 0
-6 16 -21 0
-5 8 -50 0
-5 23 -33 0
-5 32 -49 0
-5 49 -57 0
-4 -15 31 0
-4 -11 -42 0
-4 -8 -55 0
-4 -8 40 0
-4 -6 -15 0
-4 -6 31 0
-3 -38 39 0
-3 -33 50 0
-3 -23 34 0
-3 -9 -55 0
-3 13 23 0
-3 28 -37 0
-2 -54 60 0
-2 -35 -51 0
-2 -12 44 0
-2 -11 -37 0
-2 10 45 0
-2 15 42 0
-2 27 -47 0
-1 -11 51 0
-1 -9 -58 0
-1 6 -9 0
-1 18 47 0
-1 29 -30 0
1 -50 -51 0
1 -40 -43 0
1 -33 40 0
1 -29 -49 0
1 -25 36 0
1 -20 -30 0
1 -16 47 0
1 6 -16 0
1 7 -36 0
1 7 15 0
1 29 -39 0
1 32 45 0
1 51 59 0
2 -15 -47 0
2 -4 26 0
2 16 -18 0
2 27 -32 0
3 -37 -55 0
3 5 -16 0
3 8 38 0
3 15 -54 0
3 20 -53 0
4 -38 54 0
4 -37 39 0
4 -22 47 0
4 -11 41 0
4 -10 28 0
4 12 16 0
4 26 -44 0
4 35 -39 0
4 41 45 0
4 46 55 0
5 -32 58 0
5 -13 -24 0
5 -7 27 0
5 13 -60 0
5 18 50 0
5 25 33 0
5 30 -56 0
6 -7 -12 0
6 32 -46 0
6 42 -50 0
7 -35 56 0
7 -8 -25 0
8 -16 59 0
8 24 42 0
8 28 -59 0
9 -39 47 0
9 -37 60 0
9 -34 49 0
9 -17 44 0
9 10 15 0
9 20 57 0
9 47 56 0
10 -52 -56 0
10 -42 -54 0
10 29 -44 0
10 32 -39 0
10 53 58 0
11 -32 -57 0
11 24 38 0
12 -40 -47 0
12 -26 -55 0
12 -15 -34 0
12 -15 20 0
12 20 58 0
12 29 50 0
13 -46 -58 0
13 -25 26 0
13 29 -35 0
13 39 -52 0
14 -55 -58 0
14 -34 -42 0
14 -23 -39 0
14 -16 43 0
14 17 -49 0
14 22 43 0
14 29 47 0
14 32 -47 0
14 48 -55 0
15 -40 55 0
15 -37 -39 0
15 -21 35 0
15 34 -49 0
15 53 -57 0
16 -34 -43 0
16 32 -34 0
17 47 56 0
18 -42 59 0
18 51 -56 0
19 -24 53 0
19 38 50 0
19 55 -58 0
20 -41 58 0
21 -31 -58 0
21 32 -58 0
21 39 -48 0
22 23 -34 0
22 27 42 0
22 27 47 0
22 29 40 0
22 38 45 0
23 -51 -60 0
23 -37 53 0
23 -26 57 0
23 -24 38 0
23 42 44 0
24 -42 47 0
24 28 46 0
24 30 -52 0
24 36 45 0
24 44 60 0
25 -38 51 0
25 -26 -55 0
25 41 -54 0
25 42 -46 0
26 -56 57 0
26 -32 -37 0
26 27 55 0
26 28 43 0
26 50 60 0
27 -39 -54 0
27 -37 40 0
27 36 -60 0
28 -41 56 0
28 36 -45 0
29 33 50 0
29 37 57 0
30 38 -44 0
33 -48 -60 0
33 36 60 0
34 36 58 0
34 50 -60 0
35 -37 39 0
36 39 -45 0
40 46 55 0
