p cnf 20 85
-14 -17 19 0
-13 14 16 0
-11 -15 -16 0
-11 -14 -20 0
-11 13 -16 0
-10 11 13 0
-9 -11 12 0
-9 10 -18 0
-7 11 17 0
-6 8 -17 0
-5 -9 13 0
-4 -15 17 0
-4 -9 -11 0
-4 -9 -10 0
-4 -7 13 0
-4 -6 -19 0
-4 11 -17 0
-4 12 -19 0
-4 17 18 0
-3 -5 8 0
-3 6 -14 0
-2 -15 -18 0
-2 -12 19 0
-2 -5 17 0
-2 9 18 0
-2 10 20 0
-2 16 -18 0
-2 18 -19 0
-1 -19 -20 0
-1 -6 10 0
-1 7 11 0
1 -10 -19 0
1 -6 10 0
1 -3 -4 0
1 -2 16 0
1 3 16 0
1 12 -16 0
2 -11 15 0
2 -11 18 0
2 -10 16 0
2 -9 -18 0
2 3 15 0
2 8 -20 0
2 9 -17 0
2 11 -13 0
3 -13 -14 0
3 -13 16 0
3 8 -17 0
4 -16 19 0
4 -12 17 0
4 6 -16 0
4 11 -18 0
4 13 -14 0
5 -16 19 0
5 -15 17 0
5 -11 -14 0
5 -10 -13 0
5 7 -17 0
5 8 -9 0
5 13 16 0
6 7 -15 0
6 10 14 0
6 13 17 0
7 -14 16 0
7 -12 16 0
7 9 -19 0
7 10 -19 0
7 10 16 0
7 12 -19 0
7 16 17 0
8 -16 -18 0
8 -14 -17 0
8 -14 15 0
8 -11 -19 0
8 -9 -11 0
8 9 -18 0
9 -12 15 0
9 11 14 0
10 -16 20 0
10 -11 -19 0
10 11 12 0
10 12 -16 0
11 -12 -13 0
12 -15 20 0
16 -17 -18 0
