p cnf 50 213
-37 -38 -42 0
-36 -37 44 0
-35 -36 47 0
-34 37 -40 0
-32 -40 41 0
-29 42 -47 0
-27 -29 -45 0
-27 30 35 0
-26 -37 48 0
-26 30 38 0
-26 31 43 0
-25 26 39 0
-23 -33 -48 0
-22 -30 34 0
-22 -28 -40 0
-22 -27 46 0
-22 30 -41 0
-21 -23 -38 0
-21 43 -45 0
-20 21 30 0
-19 -40 42 0
-19 -20 -47 0
-18 -39 49 0
-18 47 -49 0
-17 -35 47 0
-17 -29 32 0
-17 23 29 0
-17 28 -49 0
-16 -30 -47 0
-16 -20 36 0
-16 -17 -32 0
-16 18 -21 0
-15 37 -50 0
-14 -22 -43 0
-14 -17 -20 0
-13 -24 37 0
-13 -22 -40 0
-13 -21 33 0
-13 -14 19 0
-12 -17 43 0
-12 -15 -43 0
-12 14 39 0
-12 16 24 0
-12 21 30 0
-11 -27 -48 0
-11 -18 35 0
-11 -13 26 0
-11 15 -26 0
-11 24 35 0
-11 27 28 0
-10 -42 -43 0
-10 -15 48 0
-10 11 20 0
-10 18 -30 0
-10 20 -46 0
-10 24 31 0
-9 -28 39 0
-9 -26 -43 0
-9 10 -19 0
-9 15 -16 0
-9 20 -36 0
-9 27 43 0
-8 -42 -46 0
-8 -30 34 0
-8 -24 31 0
-8 -20 43 0
-8 -19 42 0
-8 -13 32 0
-8 12 -24 0
-8 15 44 0
-8 16 37 0
-8 24 -45 0
-8 25 -45 0
-7 -39 45 0
-7 -17 47 0
-7 -13 50 0
-7 16 39 0
-7 20 41 0
-7 38 46 0
-6 -24 -41 0
-6 -16 -49 0
-6 -9 -16 0
-6 10 -22 0
-6 22 -28 0
-6 23 38 0
-5 -12 -50 0
-5 19 31 0
-4 -34 50 0
-4 -32 48 0
-4 -31 -32 0
-4 -27 -39 0
-4 -27 -33 0
-4 -23 -37 0
-4 -18 48 0
-4 9 -48 0
-3 -37 43 0
-3 -16 -46 0
-3 -14 30 0
-2 -24 34 0
-2 -19 -50 0
-2 -17 -44 0
-2 -6 -27 0
-2 7 8 0
-2 19 -36 0
-2 20 23 0
-2 35 -36 0
-1 -25 43 0
-1 -24 48 0
-1 -3 43 0
-1 -2 -20 0
-1 -2 17 0
-1 11 16 0
-1 24 36 0
-1 33 -50 0
1 -37 41 0
1 -35 -46 0
1 -18 -44 0
1 -7 -50 0
1 -5 -11 0
1 5 50 0
1 19 -34 0
1 20 -34 0
1 20 33 0
2 5 25 0
2 12 -38 0
2 27 44 0
3 -39 46 0
3 -31 43 0
3 -16 -49 0
3 -8 -29 0
3 10 -20 0
4 -9 43 0
4 -7 -26 0
5 -31 42 0
5 -22 -23 0
5 -18 38 0
5 -11 -41 0
5 -11 -38 0
5 -6 26 0
6 -19 23 0
6 -13 -19 0
6 11 50 0
6 17 18 0
6 22 -30 0
7 -34 -38 0
7 -32 -34 0
7 14 -25 0
7 32 45 0
7 45 -49 0
8 -30 -31 0
8 -28 34 0
8 -23 48 0
8 18 27 0
8 24 -45 0
9 -42 -45 0
9 -12 30 0
9 26 43 0
9 30 40 0
10 -11 22 0
10 19 20 0
10 27 -37 0
10 33 47 0
11 -20 -31 0
11 -19 -45 0
11 -17 -50 0
12 -32 -36 0
12 -25 48 0
12 -19 -46 0
12 26 37 0
12 27 -31 0
13 -33 35 0
13 17 -43 0
13 24 35 0
14 -41 43 0
15 -45 50 0
15 -24 -29 0
15 18 35 0
15 19 -29 0
16 20 -27 0
16 26 -28 0
16 32 48 0
16 46 -47 0
17 -33 50 0
17 -21 30 0
17 18 47 0
18 -37 -45 0
18 -31 44 0
18 -24 27 0
19 39 49 0
19 44 49 0
20 -48 -49 0
20 -24 -45 0
21 33 34 0
22 -40 43 0
22 -37 41 0
22 -35 49 0
22 40 -42 0
23 -24 -35 0
23 29 34 0
24 -46 50 0
25 31 33 0
26 -34 -47 0
27 38 -41 0
29 -30 31 0
29 44 46 0
30 -45 50 0
30 -33 -47 0
31 -47 -50 0
31 -33 40 0
38 -44 -50 0
39 -45 -48 0
41 -43 -45 0
44 -47 48 0
