p cnf 35 149
-27 -31 -33 0
-23 26 35 0
-23 29 31 0
-22 33 -34 0
-21 25 -34 0
-20 24 -31 0
-19 -26 -31 0
-17 -26 32 0
-16 -33 -35 0
-16 -28 30 0
-16 -19 -32 0
-15 -25 -27 0
-15 -18 -35 0
-15 17 -20 0
-15 19 -35 0
-14 -21 -28 0
-14 17 -27 0
-13 -21 35 0
-13 -16 27 0
-11 -32 -34 0
-11 -26 31 0
-11 -15 -28 0
-11 12 -24 0
-11 12 22 0
-11 19 21 0
-10 -34 35 0
-10 -18 32 0
-10 15 26 0
-10 18 -27 0
-10 22 -33 0
-9 -12 19 0
-9 13 16 0
-9 18 23 0
-8 -11 32 0
-8 9 -35 0
-8 10 27 0
-8 14 31 0
-8 15 27 0
-8 20 27 0
-8 24 27 0
-8 25 28 0
-7 34 -35 0
-6 -25 26 0
-6 -15 33 0
-6 7 -30 0
-6 10 20 0
-6 14 -26 0
-6 17 -28 0
-5 -9 -16 0
-5 12 -20 0
-5 12 29 0
-5 20 26 0
-4 -16 30 0
-4 -7 -9 0
-3 -22 -32 0
-3 26 29 0
-2 -26 -34 0
-2 -19 21 0
-2 23 34 0
-1 -23 -24 0
-1 -20 29 0
-1 10 -22 0
-1 16 19 0
-1 19 -31 0
-1 24 -27 0
1 -23 -29 0
1 -18 -28 0
1 -11 21 0
1 -7 9 0
1 -5 29 0
1 3 4 0
1 6 -20 0
1 10 -35 0
1 21 22 0
1 29 -34 0
2 -9 -12 0
2 13 22 0
2 13 31 0
2 15 20 0
2 19 -22 0
3 -21 35 0
3 -14 -25 0
3 -4 -24 0
3 7 -18 0
3 7 9 0
3 10 -11 0
4 -28 -29 0
4 -10 -17 0
4 18 -19 0
4 21 -23 0
5 -12 32 0
5 -6 -12 0
5 6 -35 0
5 20 -22 0
6 -31 33 0
6 -11 20 0
6 8 25 0
6 11 -34 0
6 22 23 0
7 -24 29 0
7 -19 -29 0
7 -17 28 0
7 -14 16 0
7 -11 19 0
7 -9 18 0
7 11 -28 0
8 -29 34 0
8 -28 35 0
8 -16 -30 0
8 -9 12 0
8 11 -27 0
9 -21 -23 0
9 21 -29 0
10 -15 29 0
10 13 20 0
10 17 20 0
11 25 28 0
12 -25 -32 0
12 -24 -35 0
12 -24 29 0
12 13 32 0
12 22 24 0
13 -25 29 0
13 14 -15 0
13 15 -22 0
13 19 29 0
14 -20 23 0
15 -25 -35 0
15 18 -32 0
15 26 31 0
15 28 -31 0
16 32 34 0
17 -21 -35 0
17 -19 -33 0
18 -25 33 0
19 25 30 0
19 32 -34 0
21 -27 29 0
22 -24 -30 0
22 -23 -27 0
22 33 -35 0
23 -27 -33 0
23 -26 28 0
23 27 32 0
24 -27 33 0
24 33 -35 0
28 -31 35 0
29 -31 32 0
30 -33 35 0
