p cnf 150 525
-128 -134 135 0
-127 146 150 0
-124 131 136 0
-122 134 -150 0
-121 133 -135 0
-119 -128 129 0
-115 -123 -135 0
-112 131 132 0
-107 -123 131 0
-106 -110 119 0
-105 -106 135 0
-102 128 -135 0
-99 105 -135 0
-97 -126 -127 0
-95 121 148 0
-94 -134 141 0
-91 -95 120 0
-90 107 117 0
-86 -101 -138 0
-85 -105 -134 0
-83 138 141 0
-81 -117 126 0
-81 104 -150 0
-80 -122 123 0
-80 -110 -150 0
-79 107 -118 0
-77 -106 -134 0
-76 83 115 0
-75 -102 -131 0
-75 -83 -110 0
-73 -74 128 0
-73 74 137 0
-72 76 -100 0
-71 -103 -128 0
-70 -122 -137 0
-70 -95 132 0
-70 81 112 0
-70 90 -107 0
-68 79 133 0
-66 -111 115 0
-66 -87 -138 0
-66 91 95 0
-66 123 -143 0
-65 -93 148 0
-64 -97 123 0
-63 -86 115 0
-61 -71 -103 0
-61 95 148 0
-61 102 -137 0
-60 -90 -127 0
-60 94 -112 0
-60 118 -131 0
-59 -77 -78 0
-59 -64 106 0
-59 70 126 0
-59 98 -118 0
-59 109 132 0
-59 112 146 0
-58 -80 92 0
-58 -73 100 0
-57 -61 -138 0
-57 62 96 0
-57 95 141 0
-56 78 115 0
-56 135 140 0
-55 -65 -115 0
-55 65 -147 0
-54 -109 -118 0
-54 -63 -138 0
-53 -80 96 0
-53 88 106 0
-52 -93 133 0
-52 -54 145 0
-52 56 103 0
-51 -65 -78 0
-50 -127 143 0
-49 -74 96 0
-48 95 140 0
-47 -120 145 0
-45 -89 122 0
-45 -74 -127 0
-45 -74 -116 0
-45 94 -113 0
-44 -96 -107 0
-44 45 -134 0
-44 83 -97 0
-44 97 -125 0
-43 -92 116 0
-43 63 113 0
-43 92 -148 0
-42 -118 -127 0
-42 -71 -141 0
-42 -51 -124 0
-42 63 -90 0
-40 100 138 0
-39 -45 -82 0
-39 47 -82 0
-39 97 -125 0
-39 109 134 0
-38 -66 -88 0
-37 -95 108 0
-37 -66 128 0
-37 -50 -51 0
-37 44 -136 0
-36 -81 -139 0
-36 108 -122 0
-35 -125 -131 0
-35 101 -107 0
-34 -70 115 0
-34 46 -125 0
-33 -135 146 0
-33 51 -135 0
-32 62 91 0
-32 65 135 0
-32 79 117 0
-32 86 -128 0
-32 99 120 0
-31 -107 -124 0
-31 -79 109 0
-31 46 -91 0
-30 -137 139 0
-30 -33 90 0
-30 48 -94 0
-29 -90 109 0
-29 56 81 0
-28 -102 -130 0
-27 -85 -115 0
-27 -64 -81 0
-27 59 -150 0
-27 106 132 0
-26 -52 140 0
-26 44 -73 0
-25 -59 143 0
-24 -108 -110 0
-24 -67 -119 0
-24 -27 82 0
-24 26 127 0
-24 77 -138 0
-23 -48 -64 0
-23 38 105 0
-23 40 -56 0
-23 45 -73 0
-23 76 83 0
-21 -76 -131 0
-21 -59 100 0
-21 -30 89 0
-20 -43 -107 0
-20 78 -142 0
-19 -97 103 0
-19 -96 -137 0
-19 -60 -102 0
-19 32 77 0
-18 -64 -108 0
-18 -45 109 0
-18 -24 34 0
-18 20 134 0
-17 -59 -134 0
-17 -39 -56 0
-17 92 120 0
-16 -57 -115 0
-16 17 -19 0
-16 23 90 0
-16 24 75 0
-16 56 101 0
-16 101 -106 0
-16 110 -119 0
-15 -82 84 0
-15 -42 43 0
-15 18 74 0
-15 58 102 0
-15 66 -124 0
-14 -59 -128 0
-14 -22 -69 0
-14 26 -49 0
-14 28 132 0
-13 -56 -99 0
-13 -56 -83 0
-13 -48 -50 0
-13 14 -71 0
-12 -120 127 0
-12 -78 -115 0
-12 -33 -125 0
-12 99 125 0
-11 -117 -145 0
-11 -84 103 0
-11 -66 80 0
-11 13 41 0
-11 55 102 0
-11 63 -133 0
-10 -18 138 0
-10 12 106 0
-10 17 -132 0
-10 31 44 0
-10 105 109 0
-9 11 -57 0
-9 43 121 0
-8 -47 101 0
-8 -41 126 0
-8 -39 -97 0
-8 -33 -87 0
-8 -17 131 0
-8 22 -43 0
-8 28 71 0
-8 44 106 0
-8 53 115 0
-8 80 133 0
-7 -112 -131 0
-7 -45 118 0
-7 -24 36 0
-7 -19 67 0
-6 -68 -82 0
-6 -25 37 0
-6 113 -148 0
-5 -71 150 0
-5 -16 -21 0
-5 112 149 0
-4 -122 143 0
-4 6 -22 0
-4 40 110 0
-3 -33 -39 0
-3 -33 81 0
-3 -31 -123 0
-2 -107 121 0
-2 3 -105 0
-2 38 77 0
-2 40 94 0
-2 70 135 0
-2 109 -115 0
-1 -123 136 0
-1 -69 107 0
-1 15 -32 0
-1 85 132 0
-1 112 -118 0
-1 122 -140 0
1 -68 -141 0
1 -29 -114 0
1 -8 -77 0
1 14 73 0
1 35 -82 0
1 45 -93 0
1 81 139 0
1 117 -120 0
2 -35 -81 0
2 -29 89 0
2 57 -64 0
2 87 128 0
3 -105 113 0
3 -85 86 0
3 16 109 0
3 114 -141 0
4 -73 -147 0
4 -30 63 0
4 9 -73 0
4 62 -111 0
4 68 -118 0
5 -137 139 0
5 -63 -135 0
5 -14 119 0
5 53 -113 0
5 68 -139 0
5 72 -91 0
6 -134 -143 0
6 -101 128 0
6 -73 -90 0
6 33 -63 0
6 73 -88 0
7 -143 147 0
7 -94 112 0
7 -44 89 0
7 18 -77 0
7 55 -130 0
8 -23 119 0
8 48 -90 0
8 69 80 0
8 91 -123 0
8 120 -129 0
8 126 -127 0
9 -113 115 0
9 -84 146 0
9 -70 -130 0
9 43 136 0
9 119 -126 0
10 -65 111 0
10 -37 120 0
10 -15 -142 0
10 56 61 0
10 63 68 0
10 85 -130 0
11 -63 118 0
11 -50 -63 0
11 -39 99 0
11 -17 145 0
11 56 -82 0
11 59 69 0
11 116 147 0
12 89 134 0
12 110 -136 0
13 -103 150 0
13 -58 -108 0
13 14 34 0
13 33 103 0
13 43 -85 0
13 115 134 0
14 -94 101 0
14 -68 69 0
14 -48 86 0
14 -44 57 0
14 -20 -120 0
14 31 -91 0
14 106 150 0
15 -83 -109 0
16 -82 137 0
16 -30 -141 0
16 23 37 0
16 37 -131 0
16 65 78 0
17 -82 93 0
17 -69 -87 0
18 -35 126 0
18 -20 40 0
18 26 -106 0
18 51 -133 0
18 61 -149 0
18 89 -129 0
19 -28 47 0
19 44 -123 0
19 70 -91 0
20 -79 -82 0
20 -78 -135 0
20 -66 -121 0
20 -32 -94 0
20 38 -81 0
20 48 139 0
20 128 -135 0
21 -78 139 0
21 40 81 0
21 72 83 0
22 -95 120 0
22 -85 -108 0
22 -72 -131 0
22 -38 51 0
22 -23 -147 0
22 46 90 0
22 53 111 0
23 -135 -140 0
23 -60 130 0
23 33 -73 0
23 70 -109 0
23 80 116 0
24 -127 137 0
24 -93 117 0
24 -52 131 0
24 -27 -43 0
24 38 -66 0
24 81 -101 0
24 84 130 0
24 88 -140 0
25 -89 146 0
25 60 -63 0
25 104 -117 0
25 117 139 0
26 -99 120 0
26 32 54 0
26 42 -56 0
27 -60 130 0
27 60 117 0
27 127 131 0
28 -95 -104 0
28 32 36 0
28 48 -116 0
28 76 113 0
28 102 -123 0
29 -114 126 0
29 -59 103 0
29 -40 49 0
29 -34 -77 0
29 -31 84 0
29 56 114 0
29 58 87 0
30 -101 -102 0
30 -78 106 0
30 -39 -97 0
30 32 -135 0
30 32 84 0
30 42 -124 0
31 99 146 0
32 -71 -112 0
32 -63 -116 0
32 -39 -147 0
32 -35 -110 0
32 59 -96 0
33 -67 -141 0
34 -86 130 0
34 -71 -103 0
34 -46 114 0
34 99 -132 0
34 138 -142 0
35 -103 -113 0
35 -76 91 0
35 -70 146 0
35 -46 -107 0
35 63 75 0
35 92 133 0
36 -98 -99 0
36 -98 135 0
36 55 -95 0
36 69 114 0
37 -111 -146 0
37 -42 -141 0
37 104 -127 0
38 83 -149 0
38 128 -134 0
39 -84 136 0
40 -109 -146 0
40 -87 -97 0
40 76 80 0
41 -67 94 0
41 -52 -108 0
41 52 -72 0
41 60 -77 0
41 63 93 0
41 74 -142 0
41 94 -147 0
42 51 -93 0
43 -67 138 0
43 82 -107 0
44 -78 -106 0
44 -56 111 0
44 56 -116 0
44 61 65 0
44 86 -111 0
45 54 -69 0
45 66 113 0
45 80 82 0
45 119 133 0
45 137 146 0
46 -107 -131 0
46 -53 -71 0
46 -53 95 0
46 96 142 0
47 57 67 0
48 101 147 0
49 -134 -140 0
49 -93 -149 0
49 50 78 0
49 56 103 0
50 -81 106 0
50 -69 113 0
50 -58 72 0
50 113 133 0
51 -79 107 0
51 -67 -143 0
52 -118 135 0
54 -63 -143 0
54 65 -105 0
55 -86 94 0
55 -71 -130 0
55 74 143 0
55 133 -136 0
56 106 134 0
57 -61 -89 0
57 -58 125 0
57 58 132 0
57 113 122 0
58 -83 -111 0
58 -76 -97 0
58 -60 -62 0
58 107 -113 0
59 -120 137 0
59 -79 -82 0
59 117 137 0
60 -85 -112 0
60 74 -125 0
60 85 -93 0
61 -103 125 0
61 114 147 0
62 -92 -105 0
62 73 117 0
62 95 122 0
63 -81 -141 0
64 -89 148 0
64 110 -137 0
66 98 110 0
68 -73 78 0
69 -93 -109 0
70 -143 -149 0
70 71 133 0
70 109 146 0
72 93 -125 0
73 -87 -126 0
73 89 134 0
74 89 125 0
75 -87 -133 0
75 -80 82 0
76 -111 -144 0
76 -105 -123 0
76 98 -115 0
77 -83 128 0
78 -99 -118 0
78 92 -106 0
79 -107 147 0
79 103 142 0
83 -107 -112 0
84 -109 -132 0
85 -88 -113 0
85 96 136 0
87 -106 143 0
89 92 -115 0
91 -104 -126 0
92 -100 -117 0
93 -102 123 0
95 -106 -130 0
96 126 136 0
101 115 -131 0
102 -124 -139 0
102 -121 132 0
103 -112 -121 0
106 -134 -141 0
114 -120 -150 0
115 -129 -134 0
115 120 -148 0
115 123 145 0
117 127 -129 0
121 123 -134 0
129 134 140 0
