p cnf 120 510
-94 -113 118 0
-94 114 118 0
-93 102 107 0
-90 -98 -117 0
-83 84 104 0
-80 -106 113 0
-80 -95 -120 0
-80 81 83 0
-78 -84 106 0
-78 82 -96 0
-74 -91 -120 0
-74 81 -101 0
-74 97 111 0
-73 99 115 0
-72 94 111 0
-71 82 -115 0
-69 79 -120 0
-68 -86 87 0
-68 100 119 0
-67 -78 91 0
-66 -83 -94 0
-66 -80 90 0
-66 -67 70 0
-65 103 114 0
-64 -71 -88 0
-64 -65 -84 0
-62 -88 101 0
-62 82 -99 0
-62 89 119 0
-61 -105 -111 0
-59 -101 120 0
-59 74 116 0
-58 96 -112 0
-57 65 -114 0
-56 -66 106 0
-56 -57 79 0
-56 92 119 0
-56 102 -112 0
-54 -118 120 0
-54 91 98 0
-53 58 -61 0
-53 60 119 0
-53 102 -116 0
-50 -55 -58 0
-50 87 104 0
-48 -65 67 0
-48 -52 110 0
-48 70 113 0
-48 84 91 0
-46 -96 113 0
-46 -85 95 0
-46 -71 -111 0
-46 65 116 0
-45 92 -113 0
-45 97 115 0
-44 -67 80 0
-44 61 -115 0
-42 -98 115 0
-42 -84 86 0
-42 46 -107 0
-42 74 -86 0
-42 79 82 0
-41 -67 -113 0
-41 -60 -82 0
-41 -56 -114 0
-41 50 -53 0
-41 59 -79 0
-41 65 -108 0
-40 -51 -54 0
-40 71 75 0
-39 -69 -91 0
-39 -54 -116 0
-38 -65 77 0
-38 -61 -69 0
-38 -61 98 0
-38 -60 -110 0
-38 -48 116 0
-37 -52 94 0
-37 -49 -100 0
-37 40 71 0
-37 47 -70 0
-36 69 -109 0
-36 85 -115 0
-36 107 -108 0
-35 -65 -70 0
-35 94 114 0
-34 -35 112 0
-33 -58 93 0
-33 38 58 0
-33 43 -61 0
-33 56 97 0
-32 -85 96 0
-32 40 -111 0
-32 76 107 0
-32 92 110 0
-31 -53 -101 0
-31 56 88 0
-31 77 -81 0
-30 -68 -98 0
-30 -55 -58 0
-29 -61 -114 0
-29 -46 81 0
-29 68 73 0
-29 101 102 0
-29 107 -109 0
-28 -104 118 0
-28 -85 106 0
-28 -59 102 0
-28 -32 -81 0
-28 43 -114 0
-27 -53 -61 0
-27 71 76 0
-27 74 -83 0
-26 -46 54 0
-25 -91 -94 0
-25 -31 57 0
-25 54 113 0
-24 -54 101 0
-24 -25 -110 0
-24 31 81 0
-24 39 -116 0
-24 50 -98 0
-23 -47 49 0
-23 -30 102 0
-23 -27 -73 0
-23 30 -107 0
-23 33 -107 0
-23 87 -106 0
-22 -95 -100 0
-22 -81 94 0
-22 -23 -73 0
-22 87 -92 0
-21 -54 110 0
-21 -53 -118 0
-21 33 -100 0
-21 77 -99 0
-20 -61 -83 0
-20 -23 -42 0
-20 43 102 0
-20 52 -60 0
-20 56 -103 0
-19 -25 65 0
-19 80 -105 0
-18 -107 109 0
-18 -53 68 0
-18 19 35 0
-18 39 105 0
-18 99 111 0
-17 -96 -111 0
-17 -91 107 0
-17 -80 119 0
-17 -77 108 0
-17 -75 96 0
-17 -65 92 0
-17 -54 94 0
-17 -35 -95 0
-17 -25 33 0
-17 78 118 0
-16 -112 115 0
-16 -101 -119 0
-16 -85 92 0
-16 -18 -49 0
-16 56 61 0
-16 79 -84 0
-15 -53 -119 0
-15 23 -103 0
-15 31 -65 0
-15 60 80 0
-15 71 -114 0
-15 85 102 0
-14 -59 -114 0
-14 -55 105 0
-14 -16 51 0
-14 35 -83 0
-14 73 83 0
-14 75 -120 0
-14 78 107 0
-13 -96 -100 0
-13 -74 99 0
-13 -59 113 0
-13 -57 68 0
-13 -43 65 0
-13 35 -84 0
-13 52 -56 0
-12 -101 107 0
-12 -82 -98 0
-12 44 -94 0
-12 44 79 0
-12 97 -106 0
-11 14 95 0
-11 42 118 0
-10 -25 -70 0
-10 12 -20 0
-9 -68 -92 0
-9 -31 63 0
-9 30 -115 0
-9 32 57 0
-9 47 -63 0
-8 -50 -111 0
-8 -16 -101 0
-8 -14 -120 0
-8 13 78 0
-8 25 -97 0
-8 33 -86 0
-8 52 -118 0
-8 67 104 0
-7 -10 -66 0
-7 -10 -50 0
-7 20 -96 0
-7 88 -90 0
-7 100 -107 0
-6 -33 35 0
-6 -17 -74 0
-6 -13 35 0
-6 45 120 0
-5 -113 -114 0
-5 -56 112 0
-5 -11 17 0
-5 25 -81 0
-5 25 105 0
-5 42 101 0
-5 47 79 0
-5 80 120 0
-4 -85 97 0
-4 -75 76 0
-4 -74 -80 0
-4 -55 81 0
-4 -54 111 0
-4 -36 53 0
-4 18 48 0
-4 51 -60 0
-3 -67 95 0
-3 -49 -55 0
-3 -35 -101 0
-3 -14 47 0
-3 6 49 0
-3 31 84 0
-3 36 61 0
-3 43 88 0
-3 78 -85 0
-2 -75 95 0
-2 -11 -18 0
-2 -8 73 0
-2 101 108 0
-2 109 -114 0
-2 116 118 0
-1 -67 91 0
-1 -47 64 0
-1 -17 -66 0
-1 -9 11 0
-1 2 56 0
-1 7 57 0
-1 34 92 0
-1 42 -54 0
1 -95 107 0
1 -52 110 0
1 80 -101 0
1 98 104 0
2 -68 75 0
2 -65 -117 0
2 -58 -110 0
2 -39 -67 0
2 3 -119 0
2 14 -16 0
2 43 -58 0
2 55 85 0
2 77 -89 0
3 -61 96 0
3 21 111 0
4 -67 -71 0
4 -64 -68 0
4 -38 -57 0
4 -15 105 0
4 13 -45 0
4 14 -103 0
4 17 66 0
4 29 64 0
4 52 -103 0
4 53 -68 0
4 57 106 0
4 90 106 0
5 -76 88 0
5 -30 -92 0
5 -16 -21 0
5 -12 -120 0
5 22 38 0
5 47 -97 0
5 52 -79 0
5 55 -99 0
5 76 87 0
6 -29 114 0
6 -16 -100 0
6 12 115 0
7 -40 -51 0
7 -21 112 0
7 29 48 0
7 44 -71 0
8 -71 92 0
8 -14 -114 0
8 22 119 0
8 33 109 0
8 60 100 0
9 -49 -117 0
9 90 114 0
10 -21 66 0
10 -14 104 0
10 11 45 0
10 26 66 0
11 -66 91 0
11 -23 -94 0
11 37 85 0
11 46 -48 0
11 62 91 0
12 -47 -74 0
12 -36 -49 0
12 -24 55 0
12 50 113 0
13 -59 75 0
13 -26 -34 0
13 17 79 0
13 22 -101 0
13 53 -103 0
14 -62 -90 0
14 -31 45 0
14 19 -61 0
14 39 -106 0
14 54 -116 0
14 54 113 0
15 -50 72 0
16 -31 90 0
16 18 77 0
16 101 113 0
17 -111 120 0
17 -97 -111 0
17 -91 -100 0
17 -73 -104 0
17 -55 85 0
17 -31 104 0
17 27 60 0
17 30 -94 0
17 61 115 0
17 68 -84 0
18 -73 -79 0
18 24 -59 0
18 28 -75 0
18 32 70 0
18 105 -109 0
19 -105 119 0
19 -93 -98 0
19 -88 -114 0
19 -54 -57 0
19 -21 38 0
19 42 73 0
20 -63 -92 0
20 56 -85 0
21 -66 107 0
21 -63 94 0
21 -54 -55 0
21 -42 -69 0
21 -33 105 0
21 31 -66 0
21 45 -107 0
21 61 -65 0
21 61 74 0
21 95 -103 0
22 -80 92 0
22 -62 -75 0
22 27 -109 0
22 39 -46 0
22 46 89 0
22 47 -114 0
22 50 89 0
22 70 82 0
22 111 112 0
23 -112 115 0
23 -62 -116 0
23 -51 68 0
23 -49 -51 0
23 -47 90 0
23 -45 60 0
23 -26 30 0
23 -24 -42 0
23 33 -48 0
23 38 116 0
23 75 -120 0
23 89 -91 0
24 -65 74 0
24 30 -63 0
24 78 -81 0
24 78 87 0
25 -32 56 0
25 36 -61 0
25 50 59 0
26 -30 -104 0
26 65 85 0
27 -74 112 0
27 -40 -99 0
27 56 100 0
27 90 -110 0
28 -67 -112 0
28 -55 112 0
28 36 -45 0
28 61 -91 0
29 -106 111 0
29 -31 96 0
29 39 -63 0
30 -82 103 0
31 -54 -97 0
31 49 -63 0
31 76 90 0
31 111 -112 0
32 -87 -96 0
32 -56 101 0
32 36 -49 0
33 -47 59 0
33 -46 49 0
33 -44 86 0
33 -37 96 0
33 38 73 0
35 -93 109 0
35 -76 -81 0
35 -75 -104 0
35 62 -120 0
35 97 103 0
36 -38 53 0
37 -52 114 0
37 -38 62 0
37 48 80 0
37 55 -82 0
38 -41 46 0
38 51 120 0
38 52 -92 0
39 -97 -105 0
39 -75 -83 0
39 -41 112 0
39 77 -113 0
39 79 -84 0
40 -83 94 0
40 -56 73 0
40 -52 109 0
40 49 -100 0
40 51 -70 0
40 52 57 0
40 53 -115 0
40 59 120 0
41 50 104 0
42 110 120 0
43 53 60 0
44 -60 89 0
44 -57 -68 0
45 -47 -77 0
45 72 118 0
45 90 115 0
47 -53 -95 0
47 49 -110 0
47 72 -115 0
47 75 -100 0
47 98 -115 0
48 -79 91 0
48 -78 94 0
48 -69 -109 0
48 90 100 0
48 93 110 0
49 52 -105 0
50 81 -113 0
50 88 -104 0
51 -53 112 0
51 78 -95 0
52 -61 112 0
52 58 82 0
52 65 116 0
54 58 -94 0
55 -65 -99 0
56 -77 -91 0
56 78 -109 0
57 -72 120 0
57 -65 116 0
58 -68 82 0
59 87 -110 0
60 -77 -93 0
60 -63 -97 0
61 -105 110 0
61 -62 -81 0
62 78 -101 0
63 -65 -110 0
64 73 120 0
64 84 101 0
65 71 -96 0
66 -67 -108 0
67 -106 -108 0
67 84 -103 0
67 95 115 0
68 -71 -79 0
70 -115 118 0
70 -76 107 0
71 78 -91 0
72 73 112 0
74 -108 116 0
78 -95 106 0
79 106 117 0
80 -90 94 0
81 97 -119 0
82 83 -110 0
83 106 -119 0
85 -115 -120 0
85 -107 -116 0
86 101 110 0
90 -94 -114 0
96 -99 108 0
103 112 117 0
