p cnf 260 1113
-234 -241 -245 0
-229 -236 -251 0
-213 220 255 0
-210 221 251 0
-207 -244 255 0
-207 -223 -248 0
-207 -218 253 0
-205 -218 224 0
-199 210 227 0
-197 201 -233 0
-196 245 250 0
-190 -214 233 0
-190 -193 -255 0
-190 194 -214 0
-189 -193 -212 0
-187 197 246 0
-186 -222 -241 0
-183 -195 -207 0
-182 -183 -257 0
-178 -222 260 0
-178 -215 -238 0
-172 -225 -227 0
-172 -183 -218 0
-171 -185 192 0
-170 201 246 0
-165 -178 -186 0
-165 -177 -244 0
-164 -182 252 0
-161 -188 -237 0
-161 188 -256 0
-161 198 230 0
-158 216 251 0
-157 -219 251 0
-157 -160 188 0
-157 179 -185 0
-156 -187 -213 0
-154 -223 -228 0
-154 185 -186 0
-151 -180 244 0
-150 -171 -222 0
-149 211 234 0
-148 -185 -256 0
-148 -182 215 0
-148 159 -220 0
-147 -194 -253 0
-147 -160 -181 0
-146 -239 256 0
-145 -178 -226 0
-145 -158 -169 0
-145 -150 226 0
-145 184 -220 0
-144 -207 221 0
-144 178 -221 0
-143 -234 247 0
-143 -178 -203 0
-142 -175 -205 0
-140 194 -222 0
-140 205 250 0
-138 170 237 0
-138 212 250 0
-137 191 227 0
-136 -183 249 0
-136 153 -154 0
-135 -203 244 0
-135 146 -234 0
-134 -225 234 0
-134 -198 228 0
-133 151 -208 0
-133 210 259 0
-133 231 249 0
-132 139 167 0
-130 -149 165 0
-128 -220 -252 0
-128 -150 -234 0
-127 148 202 0
-127 151 183 0
-127 156 -177 0
-126 -166 243 0
-125 -182 252 0
-122 -194 -195 0
-120 205 -243 0
-120 214 -217 0
-116 -188 254 0
-116 -156 -178 0
-115 141 193 0
-115 146 -239 0
-114 -197 -255 0
-114 -169 231 0
-112 -147 -207 0
-112 -142 236 0
-112 199 234 0
-110 -172 174 0
-110 -130 -183 0
-110 138 -203 0
-109 212 216 0
-108 -138 -159 0
-108 188 236 0
-108 200 -220 0
-107 -154 -206 0
-107 -110 120 0
-107 124 -141 0
-106 -139 -237 0
-106 224 250 0
-105 -111 -248 0
-105 141 -216 0
-105 214 217 0
-103 -137 169 0
-103 110 -128 0
-101 -220 -231 0
-101 146 196 0
-101 191 232 0
-101 198 251 0
-101 225 230 0
-100 -123 148 0
-99 -174 -224 0
-99 -131 -173 0
-97 -178 197 0
-96 -238 -245 0
-96 -202 -208 0
-96 -142 -197 0
-96 -109 -133 0
-95 -152 252 0
-95 132 133 0
-94 -147 -172 0
-93 -180 -258 0
-93 96 -163 0
-92 232 234 0
-91 -109 158 0
-90 -103 243 0
-90 190 211 0
-89 114 -217 0
-88 -136 -147 0
-88 -135 151 0
-88 94 184 0
-87 -228 237 0
-87 192 197 0
-86 175 185 0
-86 200 -250 0
-85 -204 -228 0
-84 143 -223 0
-84 149 153 0
-83 -210 252 0
-83 -202 -233 0
-83 -197 -240 0
-83 -111 243 0
-83 127 -154 0
-83 220 255 0
-82 -100 200 0
-82 -95 184 0
-82 89 -207 0
-82 91 225 0
-82 100 -118 0
-82 112 -197 0
-82 116 172 0
-81 -180 -245 0
-81 -143 -186 0
-81 111 -159 0
-80 -123 -212 0
-80 103 -221 0
-80 103 220 0
-80 116 154 0
-80 165 -211 0
-79 85 -141 0
-79 120 231 0
-78 -185 -245 0
-78 -83 -248 0
-78 111 133 0
-78 136 -154 0
-78 150 -223 0
-78 207 255 0
-76 -80 -85 0
-76 161 219 0
-75 -159 170 0
-75 -99 -134 0
-75 97 -109 0
-75 169 230 0
-74 -160 -229 0
-73 -155 -184 0
-73 -149 -260 0
-73 97 112 0
-73 156 161 0
-73 189 -190 0
-72 -82 -104 0
-72 -82 177 0
-72 119 229 0
-72 138 -186 0
-72 141 171 0
-71 -112 -239 0
-71 156 -224 0
-69 -178 -259 0
-69 -101 -218 0
-69 -72 168 0
-69 92 -98 0
-69 112 184 0
-69 128 243 0
-69 178 -196 0
-67 -171 -249 0
-67 -103 -210 0
-67 -93 164 0
-67 83 236 0
-67 115 163 0
-67 119 153 0
-67 160 -176 0
-67 161 172 0
-67 184 -238 0
-66 -151 209 0
-66 -142 -175 0
-66 134 188 0
-66 146 152 0
-66 205 225 0
-65 -206 245 0
-65 -85 161 0
-65 -81 242 0
-65 69 105 0
-64 -247 -258 0
-64 -161 196 0
-64 -150 235 0
-64 -137 -217 0
-64 -70 -146 0
-63 -159 -190 0
-63 -158 216 0
-63 -70 -96 0
-63 -65 215 0
-63 93 165 0
-63 160 -228 0
-62 163 218 0
-62 171 -188 0
-61 -198 247 0
-61 -189 240 0
-61 -141 -201 0
-61 -125 -205 0
-61 -120 259 0
-61 148 226 0
-61 200 -209 0
-60 103 -142 0
-60 129 -200 0
-59 -118 251 0
-59 68 -220 0
-59 106 -260 0
-58 -160 -228 0
-58 -77 -160 0
-58 -66 150 0
-58 59 -190 0
-58 61 -170 0
-57 -253 -258 0
-57 58 -148 0
-57 189 -243 0
-56 -176 -219 0
-56 -100 -200 0
-56 68 -193 0
-56 81 -185 0
-56 98 -190 0
-56 181 186 0
-55 -127 251 0
-55 -101 -121 0
-55 -74 -204 0
-55 -71 135 0
-55 74 -122 0
-55 104 247 0
-55 121 178 0
-55 123 129 0
-55 134 192 0
-55 147 234 0
-55 176 212 0
-54 -141 209 0
-54 -62 -165 0
-54 60 -183 0
-54 81 -106 0
-54 143 -205 0
-54 167 -183 0
-54 167 242 0
-53 -224 -256 0
-53 -101 -172 0
-53 78 -189 0
-53 110 -130 0
-52 -101 -126 0
-52 -97 -195 0
-52 -57 125 0
-52 247 260 0
-51 -223 237 0
-50 -132 -163 0
-50 -53 -155 0
-50 173 -247 0
-49 -149 152 0
-49 -131 180 0
-49 -112 -126 0
-49 -88 108 0
-49 78 142 0
-49 144 -188 0
-48 -152 154 0
-48 -146 -157 0
-48 -98 106 0
-48 59 118 0
-48 91 -233 0
-47 51 -217 0
-47 56 238 0
-47 57 -219 0
-47 82 -149 0
-46 105 -230 0
-46 137 157 0
-45 -144 232 0
-45 -122 -178 0
-45 -122 -137 0
-45 90 242 0
-45 93 -110 0
-45 105 -204 0
-45 159 -183 0
-45 175 220 0
-44 -203 210 0
-44 -159 -168 0
-44 48 -221 0
-44 131 215 0
-43 -123 185 0
-43 -107 234 0
-43 -97 158 0
-43 147 240 0
-43 167 177 0
-43 259 -260 0
-42 -82 -133 0
-42 -79 126 0
-42 58 -237 0
-42 66 -137 0
-42 166 168 0
-41 -189 241 0
-41 64 195 0
-41 172 -226 0
-40 -137 204 0
-40 -121 158 0
-40 -68 -224 0
-40 56 -216 0
-40 83 -219 0
-39 41 137 0
-39 52 -102 0
-39 61 -114 0
-39 170 -237 0
-38 -180 -193 0
-38 -60 222 0
-38 167 259 0
-38 196 233 0
-37 -171 242 0
-37 -156 180 0
-37 -113 -219 0
-37 -71 -241 0
-37 -61 212 0
-37 47 107 0
-36 -162 -190 0
-36 -107 -238 0
-36 -99 -256 0
-36 -68 -258 0
-36 -55 -183 0
-36 -46 -124 0
-36 136 -197 0
-36 150 -200 0
-36 175 -214 0
-35 -215 -254 0
-35 -45 223 0
-35 157 -243 0
-34 -139 171 0
-34 -68 104 0
-34 86 213 0
-34 102 223 0
-34 170 186 0
-34 180 -237 0
-33 -139 176 0
-33 -93 119 0
-33 -60 -86 0
-33 -58 -173 0
-33 121 160 0
-32 -205 -215 0
-32 -193 -210 0
-32 -122 -153 0
-32 -97 -158 0
-32 -73 125 0
-32 -43 -173 0
-32 139 -238 0
-31 -170 -174 0
-31 -148 -215 0
-31 -102 259 0
-31 -40 182 0
-31 64 -82 0
-31 118 -130 0
-30 -228 -235 0
-30 -52 -145 0
-30 87 -215 0
-30 143 244 0
-30 169 188 0
-29 -115 -251 0
-29 -89 -118 0
-29 -87 -121 0
-29 97 99 0
-29 109 -238 0
-29 184 -248 0
-28 -89 175 0
-28 -89 251 0
-28 -68 -209 0
-28 134 246 0
-27 -59 -258 0
-27 -45 177 0
-27 -42 98 0
-27 -30 58 0
-27 133 201 0
-26 -121 -147 0
-26 -37 147 0
-26 29 -40 0
-26 41 -49 0
-26 159 228 0
-25 -219 220 0
-25 76 136 0
-25 109 -178 0
-25 114 222 0
-25 126 222 0
-25 143 -186 0
-25 178 -193 0
-25 216 233 0
-24 80 228 0
-24 93 170 0
-24 139 -179 0
-24 159 219 0
-23 120 -141 0
-23 156 -213 0
-22 -113 186 0
-22 -101 -183 0
-22 -93 159 0
-22 -59 -174 0
-22 32 -171 0
-22 160 -219 0
-21 -107 142 0
-21 -33 -100 0
-21 34 189 0
-21 47 71 0
-21 113 -210 0
-21 228 244 0
-20 -220 -225 0
-20 -153 -154 0
-20 -59 -135 0
-20 35 56 0
-20 64 -214 0
-20 106 151 0
-20 112 -246 0
-20 217 243 0
-19 -57 -86 0
-19 42 -222 0
-19 49 94 0
-18 -28 54 0
-18 31 174 0
-18 91 202 0
-17 -185 -215 0
-17 -40 -59 0
-17 -25 132 0
-17 110 -120 0
-17 117 195 0
-17 125 182 0
-17 133 172 0
-17 222 231 0
-16 -183 231 0
-16 -145 173 0
-16 -118 218 0
-16 -78 82 0
-16 -70 -200 0
-16 55 74 0
-16 76 129 0
-16 113 215 0
-16 164 224 0
-15 -192 -215 0
-15 -119 202 0
-15 -85 -140 0
-15 -78 -83 0
-15 -40 -140 0
-15 95 -139 0
-15 98 161 0
-14 -176 -186 0
-14 -84 170 0
-14 -74 -105 0
-14 -30 194 0
-14 25 174 0
-14 66 122 0
-14 118 -248 0
-13 -168 248 0
-13 -25 -251 0
-13 18 218 0
-12 -109 151 0
-12 -58 -248 0
-12 63 140 0
-12 112 -176 0
-12 142 230 0
-12 146 193 0
-11 -83 119 0
-11 -64 -176 0
-11 -41 173 0
-11 -26 101 0
-11 97 -132 0
-10 -135 160 0
-10 -27 -45 0
-10 152 -232 0
-9 -199 212 0
-9 -64 202 0
-9 -63 -178 0
-9 -39 -50 0
-9 -29 -185 0
-9 39 -85 0
-9 46 90 0
-9 76 -137 0
-8 -107 -141 0
-8 -98 -124 0
-8 -76 205 0
-8 -13 101 0
-8 46 -83 0
-8 68 107 0
-7 -39 -66 0
-7 -26 -150 0
-7 -19 197 0
-7 44 47 0
-7 50 -168 0
-6 -111 -146 0
-6 -70 -134 0
-6 10 259 0
-6 27 194 0
-6 32 246 0
-6 81 -242 0
-6 135 147 0
-6 149 174 0
-6 154 220 0
-6 161 214 0
-5 -65 -256 0
-5 77 143 0
-4 -226 236 0
-4 -170 230 0
-4 -57 -177 0
-4 -19 -47 0
-4 44 -181 0
-4 138 -241 0
-4 164 -170 0
-4 197 -249 0
-3 -67 94 0
-3 -42 206 0
-3 -39 -223 0
-3 26 -103 0
-3 77 -141 0
-3 177 194 0
-2 -175 -206 0
-2 -60 -124 0
-2 -55 -165 0
-2 -47 -164 0
-2 -3 79 0
-1 -180 236 0
-1 -126 -259 0
-1 -55 -90 0
-1 -30 242 0
-1 -3 -141 0
-1 31 139 0
-1 104 -232 0
1 -224 -253 0
1 -131 255 0
1 -62 144 0
1 11 -36 0
1 17 -193 0
1 46 190 0
1 93 -198 0
1 108 -139 0
1 141 -202 0
1 167 250 0
2 -67 -231 0
2 -45 -259 0
3 -208 242 0
3 -113 151 0
3 -92 249 0
3 -62 68 0
3 -14 -91 0
3 8 -236 0
3 57 257 0
3 70 -83 0
4 -123 195 0
4 -96 -204 0
4 -88 -106 0
4 -71 84 0
4 -68 -241 0
4 -65 -108 0
5 -61 -78 0
5 -58 152 0
5 -27 -153 0
5 11 -83 0
5 17 67 0
6 -158 214 0
6 -114 218 0
6 -53 -209 0
6 58 -68 0
6 74 255 0
7 -233 260 0
7 -107 162 0
7 -30 -149 0
7 28 99 0
7 48 -62 0
7 213 229 0
8 -179 242 0
8 -169 218 0
8 -93 -157 0
8 -19 -102 0
8 -19 218 0
8 -13 -202 0
8 45 104 0
8 50 235 0
8 95 -141 0
8 122 181 0
8 138 236 0
8 175 200 0
8 207 -232 0
9 -161 177 0
9 -84 -148 0
9 -76 -260 0
9 -32 -85 0
9 52 -260 0
9 106 121 0
9 160 -211 0
10 -85 -235 0
10 -59 -247 0
10 -53 -133 0
10 -36 -121 0
10 70 -209 0
10 88 163 0
10 90 198 0
11 -160 259 0
11 -28 224 0
11 62 212 0
11 143 -229 0
11 171 208 0
12 -108 224 0
12 -36 172 0
12 22 137 0
12 23 138 0
12 119 219 0
12 153 -186 0
12 235 252 0
13 -128 215 0
13 -95 250 0
13 -77 171 0
13 -28 -192 0
13 -25 -205 0
13 160 210 0
13 174 -217 0
14 -150 -180 0
14 -146 196 0
14 -138 232 0
14 -100 149 0
14 -79 -184 0
14 24 178 0
14 28 -135 0
14 39 159 0
14 41 209 0
14 124 157 0
15 -71 74 0
15 126 -211 0
15 225 -231 0
16 54 -94 0
16 118 -253 0
16 120 190 0
17 -121 -192 0
17 -48 68 0
17 201 232 0
18 -87 -106 0
18 -33 -235 0
18 -26 146 0
18 24 49 0
18 232 246 0
19 -181 232 0
19 -175 204 0
19 -128 -189 0
19 -30 244 0
19 52 144 0
20 -107 -186 0
20 -64 75 0
20 59 -141 0
20 74 -107 0
20 97 -113 0
21 -104 -131 0
21 -80 -164 0
21 -25 -26 0
21 -22 -199 0
21 192 239 0
22 -163 178 0
22 -144 166 0
22 -91 101 0
22 38 201 0
22 56 -208 0
22 120 157 0
22 194 201 0
23 -160 181 0
23 -58 203 0
23 -44 -190 0
23 130 199 0
23 149 187 0
23 188 242 0
24 -156 -192 0
24 -137 -241 0
24 -107 -154 0
24 -54 168 0
25 -88 -242 0
25 -56 153 0
25 241 246 0
26 -86 -178 0
26 -36 56 0
26 95 -244 0
26 133 -257 0
26 160 -199 0
27 39 200 0
27 54 195 0
27 194 222 0
28 -157 248 0
28 -111 -133 0
28 -61 -176 0
28 81 145 0
28 106 -159 0
29 -198 -225 0
29 -139 192 0
29 33 158 0
29 47 -120 0
29 62 -171 0
29 124 -191 0
29 151 -212 0
29 177 -241 0
30 -148 203 0
30 -111 -199 0
31 35 148 0
32 -121 -196 0
32 -115 -216 0
32 -50 69 0
32 35 -101 0
33 -177 -216 0
33 -57 83 0
33 43 -175 0
33 48 -151 0
33 66 127 0
33 199 242 0
33 231 254 0
34 -92 190 0
34 -50 85 0
34 -39 49 0
34 73 172 0
35 -185 -209 0
35 -54 216 0
35 133 -198 0
35 151 -238 0
35 170 -258 0
36 -199 -240 0
36 -120 160 0
36 -67 -246 0
36 -60 -234 0
36 49 -236 0
36 106 -207 0
36 137 184 0
37 -174 -241 0
37 -119 -138 0
37 -109 151 0
37 -94 189 0
37 83 -165 0
37 214 254 0
38 -177 -212 0
38 -142 -227 0
38 -110 148 0
38 -49 139 0
38 53 117 0
39 -162 203 0
39 -143 248 0
39 -131 -132 0
39 -55 82 0
39 84 -154 0
39 109 -255 0
39 116 -165 0
39 122 -134 0
39 156 184 0
39 205 -213 0
40 -171 175 0
40 -77 -204 0
40 51 -57 0
41 -139 -207 0
41 -59 178 0
41 71 73 0
41 77 -155 0
42 -73 249 0
42 -60 -91 0
42 151 -227 0
42 192 215 0
42 195 235 0
43 -170 -222 0
43 -108 -192 0
43 67 -258 0
43 69 127 0
43 102 203 0
44 -54 -96 0
44 55 232 0
44 152 189 0
45 -54 218 0
45 82 112 0
45 86 -180 0
45 116 203 0
46 -83 174 0
46 -54 -208 0
46 102 -146 0
46 194 243 0
47 -74 96 0
47 -62 174 0
47 -52 -252 0
47 -51 208 0
47 67 239 0
48 -95 -215 0
48 128 -129 0
49 -67 -193 0
49 63 -124 0
49 92 193 0
50 -142 236 0
50 -105 229 0
50 -89 133 0
50 157 -219 0
50 246 -254 0
51 -222 -244 0
51 -130 -228 0
51 124 -235 0
51 132 255 0
51 158 235 0
51 188 -247 0
52 -149 -250 0
52 -101 127 0
52 -80 -156 0
52 125 162 0
53 -75 -241 0
53 58 -90 0
53 80 155 0
53 97 178 0
53 178 214 0
54 -136 -260 0
54 76 -201 0
54 194 222 0
55 -209 210 0
55 -116 -175 0
55 -74 -181 0
55 -68 -207 0
55 67 -75 0
56 -142 221 0
56 -111 -223 0
56 -94 -137 0
56 169 -190 0
56 194 202 0
57 -63 66 0
58 -162 200 0
58 -83 242 0
58 189 190 0
59 -185 -232 0
59 -110 -233 0
59 90 109 0
59 122 -239 0
60 -213 259 0
60 -152 -232 0
60 -76 229 0
60 -62 98 0
61 -134 -165 0
61 -113 -237 0
61 78 -189 0
61 81 -83 0
62 -158 -169 0
62 -86 -115 0
62 109 -200 0
62 111 196 0
62 127 -205 0
62 175 -176 0
62 175 254 0
62 250 260 0
63 -246 249 0
63 -131 185 0
63 -84 -106 0
63 76 -205 0
63 96 158 0
64 -229 -243 0
64 -210 -221 0
64 -95 -112 0
64 67 155 0
65 -137 -162 0
65 -120 -130 0
66 -139 232 0
66 -85 -180 0
67 -153 169 0
67 -123 -203 0
67 69 -185 0
67 98 -246 0
68 -109 -158 0
69 -132 157 0
69 -77 -260 0
69 204 249 0
70 -154 -210 0
70 -96 -209 0
70 -93 -153 0
70 86 124 0
70 145 237 0
70 174 222 0
70 179 220 0
71 -116 -239 0
71 -103 108 0
71 -90 252 0
71 -78 -250 0
71 158 -209 0
72 -116 193 0
73 -112 -124 0
73 115 145 0
73 170 184 0
74 -103 -218 0
74 85 202 0
74 110 -180 0
74 190 193 0
75 -144 199 0
75 105 260 0
76 -165 241 0
76 129 151 0
76 178 186 0
77 -116 142 0
77 -84 207 0
78 -109 -161 0
79 94 100 0
80 -153 231 0
80 108 119 0
80 122 -151 0
80 187 -198 0
81 -108 -191 0
81 -102 252 0
81 132 255 0
81 144 223 0
81 183 239 0
82 -206 -217 0
82 -105 142 0
82 -93 143 0
83 -196 197 0
83 -161 203 0
83 -101 -157 0
83 92 -143 0
83 210 -248 0
84 -233 258 0
84 -210 211 0
84 -180 -232 0
84 157 -241 0
85 165 252 0
86 -256 260 0
86 -106 255 0
86 95 -221 0
86 101 -118 0
86 112 -224 0
86 134 -232 0
86 159 -176 0
86 210 225 0
88 -211 -237 0
88 -160 -256 0
88 -102 -157 0
88 119 198 0
89 108 -119 0
89 118 -232 0
89 141 163 0
91 -201 210 0
91 -95 143 0
91 165 -248 0
91 173 -180 0
92 107 -164 0
93 -247 -257 0
93 178 231 0
94 155 247 0
94 162 -260 0
94 212 259 0
95 -204 254 0
95 156 181 0
96 168 253 0
97 -134 179 0
97 -116 137 0
98 -145 -248 0
99 -226 231 0
99 148 195 0
100 -182 217 0
101 -150 243 0
101 111 260 0
101 125 131 0
101 138 203 0
101 161 185 0
102 -211 255 0
102 -131 234 0
102 -129 -138 0
102 -125 -202 0
102 103 -240 0
102 175 228 0
105 -153 -184 0
105 -144 -191 0
105 118 214 0
105 121 218 0
107 -212 -219 0
107 -129 130 0
107 -123 -237 0
107 117 212 0
107 218 242 0
108 -226 -227 0
108 138 208 0
108 140 -156 0
108 188 -249 0
109 -187 247 0
109 133 -251 0
110 -216 -234 0
110 117 145 0
112 -253 257 0
112 -197 -236 0
113 115 -170 0
113 117 143 0
113 143 203 0
113 158 252 0
114 -141 166 0
114 124 -197 0
114 174 -178 0
114 186 -203 0
115 127 -245 0
115 161 -251 0
116 -196 256 0
116 232 -256 0
117 -202 238 0
117 -197 -240 0
118 140 198 0
119 -235 260 0
119 -187 -194 0
120 191 200 0
120 211 -235 0
120 211 218 0
121 -234 -238 0
121 -156 -214 0
121 149 164 0
121 149 212 0
122 146 157 0
122 229 246 0
123 194 -214 0
123 195 -199 0
125 -195 -211 0
125 164 -204 0
125 176 -245 0
126 161 -254 0
127 -183 233 0
128 -145 -237 0
128 207 256 0
129 147 -247 0
129 206 227 0
131 -200 -247 0
131 -176 246 0
131 -135 167 0
131 165 -198 0
132 -147 -158 0
133 -176 222 0
135 -214 242 0
136 186 -189 0
137 -159 -176 0
137 175 260 0
138 -193 -248 0
138 -150 -187 0
140 166 -171 0
142 -214 -235 0
143 -222 -234 0
143 -182 229 0
144 -156 -164 0
146 -230 -235 0
146 -169 -221 0
146 162 255 0
147 -177 -218 0
147 180 -254 0
147 236 251 0
148 -196 -210 0
148 -160 -221 0
148 163 232 0
150 -162 231 0
150 -161 253 0
152 -238 -248 0
152 180 198 0
153 -188 -252 0
153 -181 239 0
154 167 -246 0
154 202 -245 0
155 -176 244 0
155 199 257 0
156 201 -244 0
158 -217 233 0
158 159 162 0
159 195 211 0
160 -186 217 0
160 204 -216 0
164 -214 221 0
164 165 -215 0
164 197 244 0
165 191 256 0
167 -175 194 0
167 198 206 0
167 206 211 0
169 -186 194 0
172 173 218 0
172 219 -244 0
173 -194 238 0
175 -179 -229 0
176 -248 255 0
176 -193 -232 0
176 232 -234 0
179 -221 -241 0
179 232 -250 0
180 -229 -248 0
182 248 250 0
183 248 259 0
187 219 230 0
187 222 242 0
192 211 -225 0
197 -206 -247 0
197 200 258 0
199 -225 237 0
199 216 227 0
201 202 236 0
202 -209 225 0
206 -211 238 0
217 -234 -258 0
222 224 -250 0
223 -257 258 0
