p cnf 55 234
-48 -50 -54 0
-43 -44 -49 0
-42 45 -53 0
-38 -39 41 0
-37 39 -49 0
-35 36 -42 0
-32 -50 55 0
-32 -39 43 0
-32 37 49 0
-31 -53 -54 0
-31 -39 43 0
-31 -32 53 0
-31 33 45 0
-30 -36 -43 0
-29 -35 43 0
-29 -34 43 0
-29 30 -46 0
-29 30 -42 0
-28 -40 -42 0
-28 -35 45 0
-28 -30 -45 0
-28 41 -45 0
-27 31 -40 0
-26 -42 -43 0
-26 34 -54 0
-26 38 -54 0
-25 -35 -45 0
-25 33 41 0
-24 34 -53 0
-23 25 54 0
-22 38 42 0
-21 25 34 0
-20 -40 -45 0
-20 29 -40 0
-19 24 -28 0
-19 44 52 0
-18 25 36 0
-18 26 -40 0
-18 27 -32 0
-17 21 -50 0
-17 22 51 0
-16 -40 -49 0
-16 31 -46 0
-16 48 54 0
-15 -28 -51 0
-15 -28 47 0
-15 -26 37 0
-15 -16 -29 0
-15 48 -54 0
-14 -39 -47 0
-14 -39 43 0
-14 -38 40 0
-14 23 51 0
-14 31 36 0
-14 33 -41 0
-14 33 46 0
-13 -48 -52 0
-13 -28 43 0
-13 -15 44 0
-13 16 52 0
-13 25 -32 0
-12 -27 28 0
-12 -17 -27 0
-12 17 -19 0
-11 -14 37 0
-11 16 43 0
-11 18 28 0
-10 -34 -36 0
-10 -20 28 0
-10 -14 -47 0
-10 16 52 0
-10 26 35 0
-10 27 -52 0
-10 32 34 0
-10 45 -47 0
-9 -43 51 0
-9 -34 -37 0
-9 -12 -37 0
-9 -10 -38 0
-9 38 47 0
-8 -37 45 0
-8 -15 43 0
-8 11 -37 0
-8 11 -22 0
-8 14 -38 0
-8 24 -46 0
-7 -37 41 0
-7 -27 39 0
-7 -23 46 0
-7 -20 32 0
-7 8 11 0
-7 12 21 0
-7 22 -37 0
-7 32 -44 0
-6 -20 22 0
-6 -9 -33 0
-6 18 43 0
-6 25 -31 0
-6 26 32 0
-5 -34 52 0
-5 20 44 0
-5 44 -49 0
-5 51 -53 0
-4 -23 35 0
-4 -14 22 0
-4 16 26 0
-4 30 46 0
-3 -13 55 0
-3 -9 12 0
-3 18 -54 0
-3 45 -48 0
-2 4 -34 0
-2 5 40 0
-2 10 15 0
-2 17 -40 0
-1 -25 -41 0
-1 -19 36 0
-1 9 -42 0
-1 9 29 0
-1 12 -27 0
-1 18 31 0
-1 29 -34 0
1 -46 50 0
1 11 17 0
1 22 41 0
1 43 53 0
2 -30 36 0
2 17 51 0
2 18 27 0
2 25 -50 0
3 -38 -43 0
3 8 -21 0
3 10 39 0
4 -13 38 0
4 -8 -48 0
4 11 -22 0
4 16 27 0
4 22 -28 0
4 41 -48 0
5 -21 29 0
5 -19 -36 0
5 -10 -28 0
5 12 50 0
5 16 -33 0
5 16 37 0
5 18 28 0
5 22 -50 0
5 51 -55 0
6 -44 -47 0
6 -31 -33 0
6 -31 40 0
6 -25 51 0
6 -24 -53 0
6 -15 -26 0
6 -13 -45 0
6 -7 42 0
7 -46 -49 0
7 37 46 0
8 -41 54 0
8 -13 -48 0
8 10 19 0
9 -19 54 0
9 24 -51 0
9 27 -53 0
9 30 53 0
10 -24 43 0
10 -20 46 0
10 -17 27 0
10 31 -34 0
10 38 52 0
10 40 52 0
11 -24 -39 0
11 -20 27 0
11 14 -43 0
11 16 -27 0
11 17 -39 0
12 28 50 0
13 -24 45 0
13 -15 -42 0
14 -27 -38 0
14 17 40 0
15 -25 -55 0
15 -18 26 0
15 27 53 0
16 -32 54 0
16 19 23 0
16 22 50 0
16 27 45 0
16 29 32 0
16 49 -50 0
17 25 38 0
18 -46 -53 0
18 -39 -53 0
18 26 -35 0
18 32 -40 0
18 34 -52 0
19 -35 41 0
19 28 -39 0
19 36 45 0
20 -44 53 0
20 -35 38 0
20 21 22 0
21 25 -37 0
21 33 49 0
21 39 -40 0
21 46 52 0
22 -38 54 0
22 23 -39 0
23 -26 -53 0
23 31 39 0
23 36 43 0
24 -45 51 0
24 -33 37 0
24 -30 45 0
24 30 -55 0
25 -34 -46 0
25 -34 42 0
25 -29 46 0
27 -43 55 0
27 -35 48 0
27 -29 45 0
27 34 47 0
27 37 52 0
28 -33 -50 0
30 -40 41 0
32 -53 -54 0
32 38 -46 0
36 -47 54 0
36 -46 47 0
37 47 50 0
38 44 -49 0
41 -49 -52 0
46 47 -50 0
46 52 -54 0
