p cnf 32 136
-25 29 31 0
-24 28 29 0
-23 -27 -32 0
-21 -27 28 0
-21 22 -23 0
-20 -30 -31 0
-20 -27 30 0
-20 -21 31 0
-18 20 -27 0
-18 22 23 0
-17 -22 32 0
-17 18 31 0
-17 24 -31 0
-17 25 -30 0
-17 27 32 0
-16 -21 23 0
-16 18 -23 0
-15 27 32 0
-14 -25 -27 0
-14 15 16 0
-14 18 -22 0
-14 20 -32 0
-14 20 -22 0
-13 -19 22 0
-12 17 26 0
-12 17 28 0
-11 -26 28 0
-11 -19 -22 0
-11 -14 28 0
-11 -13 -25 0
-11 16 24 0
-10 -19 -32 0
-10 -12 16 0
-10 -11 18 0
-9 -20 -28 0
-9 -15 -32 0
-9 11 -27 0
-9 13 29 0
-9 22 -26 0
-8 -19 -22 0
-8 -16 20 0
-8 -13 -26 0
-8 12 30 0
-7 -10 -28 0
-6 -16 24 0
-6 -14 15 0
-6 8 -24 0
-6 14 26 0
-6 22 -23 0
-5 -16 -31 0
-5 -9 12 0
-5 -8 21 0
-5 7 27 0
-4 -14 17 0
-4 -12 30 0
-4 -11 -21 0
-4 -10 -18 0
-4 -10 11 0
-4 -7 28 0
-4 -6 9 0
-4 6 11 0
-3 5 -18 0
-2 -17 23 0
-2 -7 13 0
-2 7 13 0
-2 18 22 0
-1 -21 -23 0
-1 -16 -24 0
-1 -12 -17 0
-1 2 -21 0
-1 21 26 0
-1 28 -30 0
1 -23 -24 0
1 -18 28 0
1 -15 -18 0
1 6 25 0
1 8 -29 0
1 14 21 0
1 17 -27 0
1 17 -23 0
2 -9 -25 0
2 -4 21 0
2 3 -26 0
2 5 18 0
2 6 -23 0
3 -4 22 0
3 7 -19 0
3 14 32 0
3 17 -20 0
4 -27 -31 0
4 20 30 0
5 -18 -26 0
5 -12 22 0
5 7 -28 0
5 12 -13 0
5 19 31 0
5 28 30 0
6 -8 18 0
6 8 -19 0
6 10 -28 0
6 21 -29 0
6 26 29 0
7 -13 -22 0
7 -11 -23 0
7 -8 -19 0
7 29 30 0
8 -12 -27 0
8 -11 -23 0
8 22 30 0
8 25 27 0
9 -10 -18 0
10 -24 28 0
10 -19 -24 0
10 -11 -32 0
10 12 19 0
11 -18 -31 0
11 12 -27 0
11 29 32 0
12 20 29 0
12 25 -30 0
13 -15 18 0
13 22 -26 0
13 24 32 0
14 -25 31 0
14 26 31 0
15 -19 20 0
15 28 31 0
16 18 25 0
17 -22 -31 0
18 -28 -32 0
18 -19 21 0
19 -22 27 0
20 -22 -26 0
20 -21 -30 0
20 22 31 0
22 27 -31 0
