p cnf 90 383
-66 70 -81 0
-65 -74 -84 0
-64 -67 -85 0
-64 82 88 0
-63 -74 85 0
-62 73 -77 0
-60 -80 -81 0
-59 -78 87 0
-58 -62 76 0
-57 74 -89 0
-56 -62 63 0
-56 75 90 0
-55 -70 85 0
-54 74 -76 0
-53 -65 -74 0
-53 -63 -78 0
-51 -70 79 0
-51 -57 -79 0
-51 52 59 0
-51 54 66 0
-51 72 -73 0
-50 -72 -78 0
-49 -69 -89 0
-48 -51 87 0
-48 59 72 0
-46 47 -51 0
-46 59 -77 0
-45 -46 69 0
-44 50 -53 0
-44 83 -89 0
-43 -64 -70 0
-43 -56 -76 0
-42 -61 78 0
-42 74 -82 0
-41 62 66 0
-40 -65 76 0
-39 62 78 0
-38 -77 84 0
-38 -64 -83 0
-37 38 -71 0
-36 -48 -78 0
-36 54 88 0
-35 54 81 0
-35 79 -80 0
-34 -48 69 0
-34 71 -74 0
-34 77 -83 0
-33 -63 78 0
-33 -48 79 0
-33 -47 -66 0
-33 -43 -85 0
-33 68 73 0
-32 -56 -73 0
-32 52 -83 0
-31 32 33 0
-30 -69 77 0
-30 -37 -39 0
-30 32 -53 0
-30 36 55 0
-29 -82 -90 0
-29 33 50 0
-28 -43 45 0
-28 -31 -71 0
-28 41 53 0
-28 52 -90 0
-28 54 -58 0
-28 73 -86 0
-27 -43 -71 0
-27 -42 66 0
-27 29 -58 0
-27 59 -79 0
-26 -58 -71 0
-26 28 -32 0
-26 33 44 0
-25 32 -63 0
-25 58 83 0
-24 -61 70 0
-24 -40 -60 0
-24 -29 44 0
-24 32 58 0
-24 34 -60 0
-24 46 80 0
-24 50 -57 0
-23 -68 -88 0
-23 -63 -72 0
-23 -52 53 0
-23 -33 -40 0
-23 68 -81 0
-22 -52 77 0
-22 -36 -68 0
-22 33 90 0
-22 40 50 0
-22 45 48 0
-21 -44 -46 0
-21 36 69 0
-21 61 67 0
-20 -54 75 0
-20 -34 55 0
-20 -27 -78 0
-20 47 -50 0
-20 60 -71 0
-19 26 84 0
-19 33 -68 0
-18 19 42 0
-18 22 -55 0
-18 73 -84 0
-17 -46 56 0
-17 26 -77 0
-17 50 87 0
-17 59 -65 0
-17 66 86 0
-16 -43 88 0
-16 -34 -80 0
-16 40 50 0
-15 -62 77 0
-15 -29 -36 0
-15 29 33 0
-14 -33 82 0
-14 16 -27 0
-13 -37 -57 0
-13 30 74 0
-12 -71 81 0
-12 -63 -65 0
-12 -59 -70 0
-12 -58 65 0
-12 -14 -55 0
-12 16 58 0
-12 26 -60 0
-12 29 39 0
-11 -48 -80 0
-11 -40 -83 0
-11 35 53 0
-11 40 -82 0
-10 -44 -53 0
-10 22 -74 0
-9 -17 73 0
-9 54 -75 0
-8 -60 -67 0
-8 -32 56 0
-8 -22 -46 0
-8 58 -63 0
-7 20 43 0
-6 -64 66 0
-6 -32 -71 0
-6 -30 -47 0
-6 -14 -18 0
-6 -12 -55 0
-6 -7 -17 0
-6 20 -65 0
-6 50 -87 0
-6 58 72 0
-5 -17 28 0
-5 -9 -42 0
-5 37 -61 0
-5 55 77 0
-5 56 -58 0
-4 -29 -74 0
-4 -17 20 0
-4 -9 -55 0
-4 11 25 0
-4 13 34 0
-4 57 -67 0
-4 63 78 0
-3 27 29 0
-3 37 -69 0
-3 43 65 0
-3 85 86 0
-2 -48 -52 0
-2 -46 -47 0
-2 -37 -64 0
-2 -28 -32 0
-2 -21 -34 0
-2 -18 23 0
-2 11 19 0
-2 28 -75 0
-2 34 -42 0
-2 44 -74 0
-2 66 71 0
-1 -83 -89 0
-1 -67 -81 0
-1 -35 60 0
-1 -8 -57 0
-1 17 -22 0
-1 23 90 0
1 -13 -35 0
1 -8 -83 0
1 11 -42 0
1 30 -42 0
2 -48 59 0
2 -44 61 0
2 -13 56 0
2 32 -74 0
2 36 55 0
2 46 80 0
3 -70 -89 0
3 -63 72 0
3 -63 78 0
3 -51 -86 0
3 10 53 0
3 16 23 0
3 20 -35 0
3 28 -39 0
3 42 -81 0
3 44 53 0
3 47 70 0
4 -30 -58 0
4 -26 -37 0
4 42 58 0
4 43 87 0
5 -69 -83 0
5 -68 -81 0
5 -55 65 0
5 -48 -81 0
5 18 -44 0
5 24 90 0
5 30 -84 0
6 -68 -87 0
6 -64 -70 0
6 -34 62 0
6 -28 -88 0
6 -27 78 0
6 -24 -46 0
6 9 34 0
7 -44 -56 0
7 -22 80 0
7 -9 77 0
7 8 66 0
7 67 -90 0
8 -41 45 0
8 -26 -58 0
8 -10 -11 0
8 19 33 0
8 34 -73 0
8 58 86 0
9 -83 90 0
9 -60 -75 0
9 -58 66 0
9 -54 -79 0
9 61 -78 0
10 -38 -56 0
10 -11 23 0
10 12 54 0
10 16 74 0
10 49 -78 0
11 -61 73 0
11 -55 81 0
11 21 -33 0
11 38 -48 0
12 -67 -83 0
12 -42 74 0
12 25 29 0
12 64 74 0
13 -52 84 0
13 -42 51 0
13 32 -37 0
13 59 -72 0
14 -21 66 0
14 -17 35 0
14 28 61 0
14 31 74 0
14 52 -59 0
15 -59 -77 0
15 -59 79 0
15 -22 -68 0
15 17 -40 0
15 20 75 0
15 37 -44 0
15 57 -81 0
16 -67 89 0
16 -66 -73 0
16 24 45 0
17 -21 -23 0
17 43 -84 0
17 44 -85 0
17 44 -58 0
18 -38 -87 0
18 35 -45 0
18 53 -64 0
18 74 78 0
19 25 -49 0
19 48 -83 0
20 -46 -47 0
20 24 43 0
20 32 85 0
20 45 -70 0
21 -43 70 0
21 29 58 0
21 79 -86 0
22 -23 82 0
22 24 -35 0
23 -41 -77 0
23 60 63 0
24 -36 -77 0
24 -34 -75 0
24 -32 69 0
24 51 -79 0
25 -52 64 0
25 -41 -45 0
25 33 89 0
25 40 -42 0
25 42 -90 0
25 47 79 0
25 59 87 0
26 -46 84 0
26 -30 68 0
26 64 -69 0
27 -70 84 0
27 -49 66 0
27 29 -45 0
27 29 51 0
27 29 54 0
27 51 88 0
28 -54 79 0
28 -50 67 0
28 -41 58 0
28 42 55 0
28 43 90 0
29 73 85 0
29 75 -89 0
30 -55 -66 0
30 -39 -87 0
30 -31 55 0
30 50 63 0
30 75 79 0
30 78 -90 0
31 -67 -76 0
31 -54 62 0
31 -47 -50 0
31 -43 56 0
31 -40 59 0
31 -37 -68 0
32 -64 83 0
32 -53 -75 0
32 34 -75 0
33 -49 -71 0
33 -36 63 0
33 36 57 0
33 47 -66 0
35 -87 88 0
35 -56 -85 0
35 -42 -50 0
35 52 -69 0
35 53 59 0
36 38 41 0
37 40 84 0
39 -66 89 0
39 -63 79 0
39 53 80 0
39 59 61 0
39 64 83 0
39 66 -77 0
40 -79 83 0
40 -47 -53 0
40 57 -60 0
41 42 -69 0
42 58 -63 0
42 61 -76 0
42 71 -78 0
43 -46 86 0
43 51 -80 0
43 51 -72 0
44 55 -75 0
44 76 -88 0
45 -66 75 0
47 -57 -88 0
47 -54 55 0
47 62 -68 0
48 -63 -65 0
48 -55 81 0
48 -54 -81 0
49 -83 -84 0
50 62 -75 0
51 -68 72 0
51 62 -85 0
52 57 -67 0
55 89 -90 0
57 -59 -77 0
60 63 67 0
62 -68 85 0
62 -66 -73 0
63 -76 -81 0
67 73 -77 0
69 70 83 0
