p cnf 150 525
-130 131 132 0
-126 -146 149 0
-113 -132 141 0
-112 114 -127 0
-112 142 148 0
-107 118 150 0
-102 -113 -123 0
-101 -125 142 0
-100 -123 143 0
-98 127 144 0
-96 -111 132 0
-95 97 102 0
-94 128 136 0
-93 -95 -102 0
-92 -122 147 0
-92 99 -124 0
-91 -119 -131 0
-90 -106 148 0
-90 -101 -105 0
-90 100 -105 0
-89 -90 -105 0
-87 -108 -111 0
-86 88 91 0
-85 -103 -114 0
-80 -104 119 0
-79 -90 143 0
-78 -81 99 0
-74 -109 -132 0
-73 -140 -146 0
-73 -80 -94 0
-73 75 99 0
-73 94 108 0
-71 76 112 0
-71 102 -108 0
-70 89 124 0
-69 -118 121 0
-68 -129 -135 0
-68 -111 116 0
-68 78 -111 0
-68 89 -142 0
-68 89 121 0
-67 -95 105 0
-67 -68 127 0
-67 97 142 0
-66 -89 -122 0
-66 137 -139 0
-65 88 103 0
-65 111 -115 0
-65 116 -147 0
-65 118 150 0
-64 -140 -146 0
-64 69 -114 0
-64 104 131 0
-62 -106 -142 0
-61 -109 142 0
-60 69 122 0
-59 62 -75 0
-59 67 133 0
-59 74 148 0
-58 63 142 0
-57 -95 118 0
-57 -73 -117 0
-57 63 -134 0
-56 63 -80 0
-56 119 135 0
-54 -100 130 0
-54 57 150 0
-53 75 -132 0
-52 -102 -142 0
-52 -77 -119 0
-51 -58 110 0
-51 100 103 0
-51 140 150 0
-50 -101 -103 0
-50 59 115 0
-50 60 134 0
-50 112 -136 0
-49 -68 121 0
-49 -54 -122 0
-48 -86 -135 0
-48 -53 122 0
-47 -118 120 0
-47 -111 117 0
-47 109 -125 0
-46 -104 146 0
-46 -71 -122 0
-46 55 89 0
-46 67 129 0
-46 68 -89 0
-46 115 -118 0
-46 124 -147 0
-44 -77 128 0
-44 -49 104 0
-44 -46 -54 0
-44 59 -106 0
-44 87 147 0
-43 -135 -148 0
-43 -84 133 0
-43 -49 -116 0
-43 81 110 0
-42 -63 91 0
-42 45 -86 0
-41 -87 -103 0
-41 -81 135 0
-41 -67 121 0
-41 -55 -83 0
-41 89 -99 0
-41 129 -147 0
-40 46 121 0
-40 72 -146 0
-40 103 -110 0
-39 -91 -131 0
-39 74 -145 0
-38 -99 104 0
-38 127 148 0
-37 38 -129 0
-37 58 -69 0
-37 86 97 0
-36 -90 -115 0
-36 -61 -116 0
-36 -58 88 0
-36 99 -115 0
-36 114 -117 0
-35 -46 139 0
-35 -37 149 0
-34 -84 139 0
-34 40 101 0
-34 55 119 0
-33 -117 124 0
-33 -63 82 0
-33 49 98 0
-33 89 -140 0
-33 104 -137 0
-33 125 140 0
-32 -46 -86 0
-32 -44 68 0
-32 43 85 0
-32 56 -129 0
-32 96 -141 0
-31 -114 135 0
-31 -70 -103 0
-31 100 106 0
-31 118 148 0
-30 -46 135 0
-30 40 126 0
-29 78 136 0
-29 105 -112 0
-28 45 -102 0
-28 56 -82 0
-27 34 95 0
-27 53 -90 0
-26 -99 -116 0
-26 -91 -120 0
-26 -73 147 0
-26 112 -114 0
-25 -125 -149 0
-25 -106 136 0
-25 -100 135 0
-25 -59 97 0
-25 78 113 0
-25 95 132 0
-24 -122 145 0
-24 -72 -85 0
-24 -39 49 0
-24 -37 95 0
-24 -36 -73 0
-23 27 28 0
-22 -96 -111 0
-22 -80 -108 0
-22 -71 -131 0
-22 39 112 0
-22 46 72 0
-22 47 -80 0
-22 69 -107 0
-22 80 -123 0
-21 -96 -129 0
-21 -23 143 0
-21 29 130 0
-21 72 -144 0
-20 -98 -124 0
-20 -22 -146 0
-20 29 -58 0
-20 37 113 0
-20 71 84 0
-20 112 131 0
-20 121 -144 0
-20 122 -144 0
-19 -102 143 0
-19 -95 119 0
-19 -88 -121 0
-19 -60 -104 0
-19 -25 117 0
-19 -21 -61 0
-19 20 88 0
-19 67 -141 0
-19 70 -113 0
-19 102 -129 0
-19 107 144 0
-19 113 -143 0
-18 -45 -66 0
-18 19 -37 0
-18 71 -87 0
-18 85 146 0
-17 -111 -123 0
-17 -49 -135 0
-17 39 123 0
-16 -50 -135 0
-16 -44 70 0
-16 70 131 0
-16 77 -128 0
-15 -17 73 0
-15 66 -121 0
-15 122 125 0
-14 -33 146 0
-14 32 55 0
-14 45 -107 0
-14 56 119 0
-14 108 128 0
-13 -105 113 0
-13 -83 86 0
-13 19 63 0
-13 27 79 0
-13 118 -146 0
-13 135 136 0
-12 -80 105 0
-12 -60 -125 0
-12 -57 -142 0
-12 -16 71 0
-12 54 69 0
-12 65 -93 0
-11 -15 76 0
-11 70 -108 0
-10 82 103 0
-10 130 139 0
-9 -45 124 0
-9 10 77 0
-9 147 -149 0
-8 -53 -77 0
-8 20 52 0
-8 60 -79 0
-8 129 -149 0
-7 -32 134 0
-7 64 -88 0
-6 -65 -128 0
-6 -42 -77 0
-6 -40 100 0
-6 20 -48 0
-6 54 -103 0
-6 73 137 0
-6 74 -93 0
-5 -76 -112 0
-5 7 -82 0
-5 75 92 0
-5 94 -132 0
-4 -84 127 0
-4 -42 150 0
-4 6 102 0
-4 35 -137 0
-4 76 -85 0
-4 105 131 0
-3 37 -130 0
-3 94 130 0
-2 -56 -102 0
-2 -47 126 0
-2 -16 -27 0
-2 82 -122 0
-1 -80 129 0
-1 -48 -132 0
-1 -40 -42 0
-1 -14 -120 0
-1 44 -122 0
-1 50 141 0
1 -126 133 0
1 77 -125 0
2 -49 109 0
2 10 132 0
2 28 119 0
3 -15 -53 0
3 18 74 0
3 96 -115 0
3 100 -143 0
3 101 107 0
3 130 131 0
4 -28 150 0
4 -24 68 0
5 -69 144 0
5 -30 73 0
5 -15 37 0
5 6 -84 0
5 19 -117 0
5 33 134 0
5 48 57 0
5 92 109 0
5 122 125 0
6 -73 125 0
6 -70 132 0
6 -48 -88 0
6 -41 55 0
6 -35 83 0
6 -16 52 0
6 29 106 0
7 -88 -133 0
7 -44 49 0
7 -8 -63 0
7 15 -71 0
7 113 127 0
7 126 -135 0
8 -108 127 0
8 -41 -112 0
8 10 56 0
8 14 64 0
8 18 108 0
8 20 146 0
9 -81 134 0
9 -47 114 0
9 -33 -107 0
9 -33 136 0
9 -24 98 0
10 -80 -87 0
10 -72 -78 0
10 -14 -131 0
10 40 -121 0
10 118 -141 0
11 -20 -22 0
11 12 -62 0
11 50 65 0
12 -23 25 0
12 104 -129 0
13 -124 -133 0
13 -88 114 0
13 -32 96 0
13 -18 26 0
13 26 127 0
13 41 146 0
13 50 149 0
13 56 62 0
14 -57 106 0
14 -35 -68 0
14 -33 111 0
14 -16 117 0
14 16 99 0
14 25 -72 0
15 -133 135 0
15 -99 110 0
15 -39 137 0
15 -30 108 0
15 -23 -59 0
15 39 -69 0
15 45 -59 0
16 -47 -115 0
16 -20 125 0
16 43 49 0
16 72 96 0
16 99 -102 0
17 -38 77 0
17 44 -110 0
17 46 126 0
18 -72 -84 0
18 66 -98 0
18 112 122 0
19 -24 -144 0
19 116 -144 0
21 -23 66 0
21 39 78 0
21 104 -110 0
22 -29 38 0
23 -75 -94 0
23 -69 134 0
23 -56 113 0
23 -41 59 0
23 108 -129 0
24 -93 -146 0
24 -57 -102 0
24 112 -114 0
25 -34 -147 0
25 68 -141 0
25 72 78 0
25 90 127 0
25 94 -122 0
26 28 -63 0
26 44 -132 0
26 49 139 0
27 -68 -114 0
27 -66 128 0
27 98 -109 0
27 109 -125 0
28 84 -123 0
29 -72 -97 0
29 47 69 0
30 -89 -128 0
30 35 46 0
31 -86 96 0
31 -81 104 0
31 -69 -89 0
31 66 -120 0
32 -39 -68 0
32 72 -110 0
33 -87 -94 0
33 -83 124 0
33 37 66 0
33 46 126 0
35 59 -120 0
35 68 -131 0
36 -131 137 0
36 -84 116 0
36 47 -61 0
37 -98 -115 0
37 -84 146 0
37 -54 -108 0
37 109 132 0
38 -61 102 0
38 60 86 0
38 60 94 0
38 88 136 0
39 -97 100 0
40 -58 140 0
40 -54 93 0
40 -44 137 0
40 94 -113 0
40 116 -127 0
41 -58 -61 0
41 77 145 0
42 -74 -149 0
42 -59 -99 0
43 -107 -148 0
43 68 -69 0
43 101 104 0
44 -79 83 0
44 -48 97 0
44 -46 -115 0
44 46 131 0
44 47 -49 0
44 53 66 0
44 104 -108 0
45 -88 -108 0
45 -55 116 0
45 79 81 0
45 117 143 0
46 -53 -149 0
46 91 135 0
47 -70 -142 0
47 -68 69 0
48 -57 106 0
48 73 102 0
49 -131 135 0
49 -51 -121 0
50 -101 -126 0
50 -63 123 0
50 63 97 0
50 66 -104 0
51 60 143 0
51 105 144 0
52 -87 -127 0
52 113 114 0
53 -73 78 0
53 91 -105 0
54 55 -141 0
54 89 -119 0
55 121 -132 0
56 -135 145 0
56 -81 -138 0
57 -123 140 0
57 -86 -95 0
57 -84 86 0
57 92 -114 0
58 -72 -119 0
59 -101 133 0
59 -79 143 0
59 134 149 0
60 -139 -140 0
62 -129 142 0
62 -66 97 0
62 -64 120 0
62 69 74 0
62 90 -108 0
63 -81 -119 0
63 87 130 0
64 107 112 0
66 -90 -91 0
66 70 -118 0
66 91 100 0
67 88 -136 0
68 74 -145 0
69 -90 -95 0
69 -77 -113 0
69 85 137 0
70 -102 135 0
70 107 120 0
71 -97 -110 0
72 -135 -141 0
72 -117 -130 0
72 97 -122 0
76 129 135 0
78 92 -126 0
78 95 -122 0
78 125 146 0
79 -108 135 0
80 -104 -123 0
81 104 -131 0
84 114 150 0
84 129 -142 0
85 -114 -147 0
86 -106 110 0
87 89 141 0
91 -112 150 0
91 105 111 0
93 -106 148 0
93 -104 126 0
93 95 -118 0
93 107 -147 0
94 -108 -150 0
98 110 114 0
101 -105 123 0
101 110 131 0
103 115 -119 0
105 -122 130 0
105 131 139 0
108 -117 120 0
109 120 121 0
111 -114 124 0
114 -115 -132 0
123 126 140 0
126 -130 141 0
127 128 146 0
140 147 148 0
