p cnf 60 180
-53 -54 58 0
-51 53 -55 0
-43 48 -54 0
-38 -43 49 0
-38 52 58 0
-35 -38 48 0
-35 39 -40 0
-33 -47 -48 0
-33 -40 -48 0
-31 40 -60 0
-31 41 -58 0
-28 -34 50 0
-27 28 -36 0
-27 36 -57 0
-25 -28 59 0
-25 30 -52 0
-25 34 60 0
-24 28 -32 0
-23 -53 58 0
-22 -24 -29 0
-21 -35 -36 0
-21 31 56 0
-20 -29 -30 0
-20 -27 35 0
-20 29 -30 0
-20 37 56 0
-20 42 -45 0
-19 -31 -48 0
-19 23 55 0
-19 36 40 0
-18 -21 46 0
-18 21 -37 0
-18 27 -41 0
-17 -47 -57 0
-17 40 -51 0
-16 -27 35 0
-16 -21 40 0
-16 -18 -59 0
-16 18 48 0
-15 -28 49 0
-14 32 -35 0
-13 -36 60 0
-13 -34 47 0
-13 48 58 0
-12 -25 -59 0
-12 38 -44 0
-12 45 -56 0
-11 12 -42 0
-11 15 -45 0
-11 20 -33 0
-11 34 -45 0
-11 44 -54 0
-10 -21 -49 0
-9 -34 -58 0
-9 -10 32 0
-9 12 -37 0
-8 -45 52 0
-8 -28 57 0
-8 -15 37 0
-8 19 -38 0
-8 30 39 0
-7 -23 -57 0
-7 33 52 0
-6 -36 46 0
-6 -23 -46 0
-6 10 32 0
-6 21 55 0
-6 37 -60 0
-5 10 -21 0
-4 11 54 0
-4 14 59 0
-4 31 -43 0
-4 53 60 0
-3 -13 57 0
-3 -9 -58 0
-3 5 -42 0
-3 12 43 0
-3 37 -40 0
-2 31 -32 0
-1 -35 40 0
-1 -33 -47 0
-1 -17 38 0
-1 -12 -47 0
-1 -12 -19 0
-1 -7 -28 0
-1 31 40 0
1 -6 50 0
1 3 57 0
1 20 -47 0
2 -39 -59 0
2 -32 -34 0
2 -22 49 0
2 7 13 0
2 30 48 0
3 37 43 0
4 -16 -20 0
5 -22 -54 0
5 -16 53 0
5 -12 -33 0
5 21 27 0
5 25 -36 0
5 32 -38 0
5 45 -56 0
6 -22 39 0
6 11 16 0
6 18 -28 0
6 25 -52 0
6 37 55 0
7 -10 -37 0
7 26 -36 0
7 34 60 0
8 -21 -48 0
8 -17 23 0
8 -9 44 0
8 23 -48 0
8 41 42 0
8 42 53 0
9 -15 -24 0
9 42 -56 0
10 -52 56 0
10 -16 33 0
10 -13 -27 0
10 19 57 0
11 19 -22 0
11 21 -30 0
11 25 -44 0
11 30 -31 0
11 31 53 0
11 35 -57 0
12 -44 53 0
12 -25 -47 0
12 -22 49 0
12 15 -39 0
12 44 55 0
13 -28 37 0
13 36 58 0
13 43 47 0
16 -40 -48 0
16 -31 -49 0
16 -30 49 0
16 -24 54 0
16 50 -54 0
17 -46 -56 0
17 -42 -45 0
17 -29 -60 0
17 -22 58 0
17 -20 -36 0
17 22 39 0
17 35 -60 0
18 -41 56 0
18 -25 -36 0
19 -24 -41 0
20 -38 42 0
20 31 -36 0
21 -31 -51 0
22 -53 59 0
22 -37 52 0
23 -58 -59 0
23 24 -36 0
24 -43 46 0
24 41 -53 0
26 50 -57 0
29 31 42 0
29 37 59 0
31 -48 59 0
31 -35 41 0
32 55 59 0
33 -37 -41 0
34 -35 -56 0
34 35 46 0
34 45 -46 0
35 41 -54 0
40 -53 -60 0
40 46 -56 0
40 48 60 0
42 -44 -51 0
42 46 -58 0
43 46 49 0
45 47 -56 0
45 48 -57 0
