p cnf 100 425
-86 95 96 0
-78 -84 -88 0
-76 78 98 0
-72 81 100 0
-71 -79 97 0
-70 80 -98 0
-68 -73 -97 0
-68 90 -96 0
-67 -72 -77 0
-64 86 -99 0
-64 87 -91 0
-63 74 -92 0
-62 86 -100 0
-61 65 -96 0
-61 70 -96 0
-61 78 -96 0
-59 88 100 0
-56 65 -77 0
-55 -75 -94 0
-55 -56 -70 0
-54 -70 100 0
-54 -68 86 0
-54 -62 -94 0
-53 59 -90 0
-53 73 -99 0
-52 -85 86 0
-52 -57 -65 0
-52 53 -64 0
-52 68 80 0
-52 69 -81 0
-51 -93 100 0
-51 90 95 0
-50 -91 97 0
-50 58 82 0
-49 -61 -73 0
-49 55 69 0
-49 73 77 0
-48 57 86 0
-47 58 -94 0
-46 -82 90 0
-46 47 -77 0
-46 56 92 0
-45 68 92 0
-45 75 89 0
-44 -62 -96 0
-44 94 -97 0
-43 -68 -94 0
-43 58 75 0
-43 59 63 0
-42 55 93 0
-41 -84 -89 0
-41 -65 81 0
-41 46 91 0
-40 -57 62 0
-40 42 83 0
-40 75 -76 0
-39 60 91 0
-39 72 -94 0
-39 92 -95 0
-38 -72 -99 0
-38 -44 87 0
-38 40 -62 0
-37 -76 -80 0
-37 -51 -85 0
-37 38 -52 0
-37 67 -81 0
-36 -72 -97 0
-36 -42 99 0
-36 -41 70 0
-36 67 -92 0
-35 -70 -82 0
-35 -66 90 0
-35 -52 -70 0
-34 -63 -76 0
-34 37 -98 0
-34 44 -84 0
-34 51 81 0
-34 60 -88 0
-33 47 -93 0
-32 -44 -74 0
-31 52 -100 0
-30 -62 -85 0
-30 -43 55 0
-30 44 -54 0
-30 50 71 0
-29 -51 66 0
-29 79 97 0
-28 -59 -65 0
-28 -50 -70 0
-28 -32 96 0
-28 44 -56 0
-28 70 71 0
-27 35 -85 0
-27 35 94 0
-27 49 99 0
-27 69 100 0
-26 -41 73 0
-26 53 -54 0
-25 -69 -90 0
-25 -58 88 0
-25 -37 58 0
-24 30 55 0
-24 37 51 0
-23 -68 -81 0
-23 40 -94 0
-23 46 70 0
-22 -33 55 0
-22 -28 35 0
-22 26 -45 0
-22 58 63 0
-21 31 82 0
-21 50 75 0
-20 -70 -88 0
-20 55 -73 0
-19 -47 63 0
-19 -33 70 0
-19 25 -78 0
-19 40 70 0
-19 46 57 0
-18 -67 79 0
-18 -66 -100 0
-18 -34 -49 0
-18 -32 82 0
-18 -31 -61 0
-18 -31 63 0
-18 56 -68 0
-17 -37 -73 0
-17 -28 42 0
-17 23 -70 0
-17 39 54 0
-17 47 97 0
-17 63 -69 0
-16 -34 37 0
-16 25 93 0
-16 47 83 0
-15 -26 -35 0
-15 -21 -68 0
-15 32 -74 0
-15 33 -37 0
-15 50 -99 0
-15 67 83 0
-15 69 83 0
-15 87 -97 0
-14 -47 71 0
-14 -34 57 0
-14 81 -91 0
-13 -56 -69 0
-13 -15 -49 0
-13 17 -79 0
-13 27 57 0
-13 45 82 0
-12 32 96 0
-12 36 -84 0
-12 37 -78 0
-12 42 59 0
-11 -46 89 0
-11 56 66 0
-10 -80 -87 0
-10 -66 94 0
-10 13 -45 0
-10 16 51 0
-10 18 -93 0
-10 39 -51 0
-9 -48 -79 0
-9 12 -27 0
-9 29 -74 0
-9 51 -53 0
-9 51 62 0
-8 -31 61 0
-8 -20 68 0
-8 19 54 0
-8 21 -77 0
-8 25 -51 0
-8 29 -35 0
-8 98 -99 0
-7 -61 92 0
-7 -53 -78 0
-7 -23 -77 0
-7 -16 -42 0
-7 44 -73 0
-7 46 -88 0
-6 -16 -72 0
-6 24 41 0
-5 -85 -96 0
-5 -48 -70 0
-5 -44 -97 0
-5 -16 -68 0
-5 20 -40 0
-5 21 -68 0
-5 36 88 0
-4 -51 -84 0
-4 -50 74 0
-4 -14 -67 0
-4 -7 97 0
-4 15 75 0
-4 23 44 0
-4 76 81 0
-4 91 -94 0
-3 -71 -87 0
-3 50 -84 0
-3 50 89 0
-2 -38 -92 0
-2 9 -32 0
-2 13 -89 0
-2 29 -92 0
-2 60 93 0
-1 -62 -73 0
-1 -57 -69 0
-1 -13 25 0
-1 -4 50 0
-1 9 96 0
-1 34 92 0
1 -42 -88 0
1 -39 96 0
1 6 -62 0
1 34 92 0
2 32 -70 0
2 68 81 0
3 -71 84 0
3 28 -90 0
3 28 65 0
3 40 -96 0
3 45 62 0
4 -35 41 0
4 -35 62 0
4 -24 -42 0
4 -22 -35 0
4 -5 36 0
4 6 -89 0
4 42 -52 0
4 53 -70 0
5 -20 44 0
5 -8 -56 0
5 9 -16 0
5 10 -54 0
5 13 -99 0
5 44 59 0
5 56 83 0
5 68 95 0
6 -77 -100 0
6 -77 -79 0
6 -21 -100 0
6 -14 -16 0
6 -14 83 0
6 -14 86 0
6 -12 -100 0
6 -11 -36 0
6 -9 60 0
6 -7 -91 0
6 40 -67 0
6 43 100 0
6 62 100 0
7 -68 73 0
7 -46 82 0
7 -37 47 0
7 -22 -51 0
7 9 70 0
7 15 42 0
7 19 24 0
7 50 -87 0
7 54 62 0
8 -52 96 0
8 -28 39 0
8 11 55 0
8 18 74 0
8 29 62 0
8 52 66 0
9 -34 52 0
9 18 -55 0
9 33 -57 0
9 49 94 0
10 -14 -58 0
10 14 76 0
10 19 62 0
10 32 -50 0
11 -39 -74 0
11 -25 67 0
11 -23 -85 0
12 -55 93 0
12 -27 -75 0
12 -25 36 0
12 -19 -20 0
12 20 44 0
12 25 -79 0
12 49 -56 0
13 -77 100 0
13 -71 98 0
13 -70 92 0
13 -57 67 0
13 70 -97 0
13 71 -72 0
13 74 -93 0
14 -88 -91 0
14 -87 96 0
14 -76 -84 0
14 15 74 0
15 -35 98 0
15 -20 -56 0
15 28 76 0
15 32 -84 0
15 43 57 0
16 26 98 0
16 51 -69 0
16 51 91 0
16 76 -91 0
17 -71 84 0
17 -23 -82 0
17 46 80 0
17 56 97 0
18 -48 61 0
18 41 88 0
18 87 90 0
19 -92 -98 0
19 -65 71 0
19 -61 89 0
19 -41 -76 0
19 -25 54 0
19 55 -84 0
19 75 94 0
20 63 -85 0
20 71 77 0
21 -48 -78 0
21 -48 -74 0
21 27 -30 0
21 43 -50 0
21 66 -82 0
21 75 81 0
23 -48 55 0
23 -46 85 0
23 -30 31 0
24 29 -89 0
24 54 92 0
24 60 -73 0
24 78 85 0
25 -68 86 0
26 -64 -73 0
26 -31 99 0
26 72 74 0
27 -48 -81 0
27 -31 85 0
27 40 86 0
27 58 96 0
28 -65 -73 0
28 81 -94 0
28 81 88 0
28 96 -99 0
30 -49 79 0
30 -46 79 0
30 40 45 0
30 53 100 0
31 -55 72 0
31 -41 -67 0
31 67 -87 0
31 78 94 0
32 -37 59 0
32 -34 99 0
32 40 82 0
33 -72 -88 0
33 -62 -99 0
33 49 78 0
34 -76 -83 0
34 -76 88 0
34 -66 69 0
34 -42 61 0
34 53 -84 0
35 -65 81 0
35 -42 -43 0
35 51 99 0
36 -75 91 0
36 -43 76 0
37 50 89 0
37 58 96 0
37 67 71 0
38 -55 -76 0
38 -45 78 0
38 -41 -95 0
38 39 82 0
38 61 90 0
39 -84 -99 0
39 -54 -55 0
39 78 -83 0
40 -71 -78 0
40 -69 99 0
40 -53 58 0
40 50 78 0
41 -71 95 0
41 -65 74 0
41 74 76 0
43 -51 -99 0
43 44 99 0
43 49 84 0
44 52 -63 0
45 -87 -89 0
45 -75 81 0
45 49 -85 0
46 -77 93 0
47 55 -78 0
48 -94 -98 0
48 -63 -67 0
49 -83 -96 0
49 53 -66 0
50 -91 -98 0
50 -62 -99 0
50 57 58 0
51 90 -100 0
52 -77 92 0
52 -76 -90 0
53 -92 94 0
53 -58 78 0
53 82 -96 0
54 -72 96 0
54 71 -95 0
56 58 75 0
56 88 90 0
59 -67 -94 0
61 98 100 0
63 -89 98 0
64 76 100 0
66 -82 -93 0
66 87 -93 0
73 -85 -92 0
77 -82 91 0
79 -86 95 0
83 -92 95 0
84 -87 98 0
