p cnf 55 234
-52 53 -55 0
-47 -48 55 0
-45 49 55 0
-36 -37 -46 0
-35 36 -49 0
-34 -37 -53 0
-32 35 -40 0
-32 41 -52 0
-28 -29 37 0
-27 -42 -45 0
-27 47 51 0
-26 -29 31 0
-26 30 40 0
-25 33 38 0
-24 31 33 0
-24 37 48 0
-23 -27 36 0
-23 32 -41 0
-22 -24 25 0
-22 37 -45 0
-22 40 -51 0
-21 22 -32 0
-20 -41 51 0
-20 -35 51 0
-20 -33 38 0
-19 28 44 0
-19 31 -55 0
-19 38 52 0
-17 -44 -47 0
-17 -27 40 0
-17 22 47 0
-16 28 -41 0
-15 -34 36 0
-15 -17 33 0
-15 31 55 0
-15 34 -53 0
-14 -26 -34 0
-14 -26 39 0
-14 -16 -23 0
-14 22 51 0
-14 28 -40 0
-14 35 43 0
-13 -32 36 0
-13 -23 35 0
-13 31 -32 0
-13 37 43 0
-12 -20 29 0
-12 -20 47 0
-12 30 -35 0
-12 34 45 0
-11 -15 -34 0
-11 12 34 0
-11 44 48 0
-10 -24 43 0
-10 -18 -40 0
-10 17 40 0
-10 31 38 0
-9 -16 -39 0
-9 -15 -38 0
-9 21 -45 0
-8 -42 55 0
-8 -13 30 0
-8 -13 34 0
-8 12 -41 0
-8 19 -49 0
-8 30 -31 0
-7 -21 29 0
-7 -19 -35 0
-7 -17 -19 0
-7 -17 34 0
-6 -49 54 0
-6 -21 -23 0
-6 -11 -44 0
-6 19 30 0
-6 25 40 0
-5 -17 -49 0
-5 -13 -47 0
-5 -13 -18 0
-5 -6 38 0
-5 7 49 0
-5 18 -54 0
-4 -28 29 0
-4 -5 -29 0
-4 12 13 0
-4 15 -24 0
-4 16 33 0
-3 -20 34 0
-3 -14 -15 0
-3 -9 45 0
-3 5 -46 0
-3 11 -39 0
-3 44 -53 0
-2 -20 52 0
-2 -9 13 0
-2 -9 29 0
-2 -3 -6 0
-1 -24 -42 0
-1 -20 -28 0
-1 -20 22 0
-1 -9 42 0
-1 -2 47 0
-1 -2 49 0
-1 27 41 0
-1 51 -54 0
1 -16 42 0
1 -7 44 0
1 5 -50 0
1 8 -36 0
1 16 -22 0
1 31 -49 0
1 37 -52 0
2 -17 53 0
2 -14 -51 0
2 9 -51 0
2 16 -55 0
2 22 -29 0
2 51 -53 0
3 -31 49 0
3 29 -32 0
3 37 -47 0
4 -28 34 0
4 -19 -36 0
4 -19 41 0
4 23 43 0
4 36 -37 0
5 -20 40 0
5 11 20 0
5 12 -38 0
5 39 -46 0
6 -39 -53 0
6 -39 -47 0
6 -29 51 0
6 -28 -35 0
6 -22 -35 0
6 -19 -35 0
6 -15 -45 0
6 -12 17 0
6 -8 -9 0
6 16 -30 0
6 20 46 0
6 44 52 0
7 -41 44 0
7 -24 41 0
7 -9 -15 0
7 13 24 0
7 40 47 0
8 -43 54 0
8 -42 -45 0
8 17 50 0
8 30 -32 0
9 -25 -37 0
9 17 -48 0
9 20 40 0
10 -18 -50 0
10 -14 -48 0
10 14 19 0
10 30 -35 0
10 30 46 0
10 37 49 0
10 38 48 0
11 -39 -41 0
11 -14 36 0
11 12 -25 0
11 41 -55 0
12 -34 38 0
12 -15 -50 0
13 -22 23 0
13 -19 -30 0
13 16 33 0
13 27 40 0
13 32 41 0
14 -28 29 0
14 -19 -49 0
14 17 27 0
14 33 -48 0
15 -35 50 0
15 -30 51 0
15 -18 -40 0
15 -17 -26 0
15 18 24 0
15 33 51 0
16 -17 27 0
16 22 39 0
16 23 -24 0
16 24 31 0
16 27 -45 0
16 30 -40 0
16 34 40 0
16 40 55 0
16 50 52 0
17 -26 41 0
17 27 49 0
17 28 -47 0
17 35 54 0
18 -40 -46 0
18 -32 43 0
18 24 33 0
19 -40 -49 0
20 -22 -28 0
20 -21 26 0
21 -23 -33 0
21 -23 49 0
21 26 -33 0
21 27 -50 0
22 -41 49 0
22 -26 -32 0
24 -41 46 0
25 -45 -54 0
26 31 43 0
26 49 -53 0
27 -33 -47 0
27 41 43 0
28 -46 51 0
28 35 52 0
29 -37 38 0
29 -34 -45 0
30 -31 55 0
31 -35 52 0
31 36 46 0
33 -44 -50 0
33 39 -43 0
34 -42 -54 0
34 -39 40 0
34 44 50 0
36 -42 55 0
36 50 -53 0
37 -43 47 0
37 -41 -47 0
37 -39 41 0
37 44 -51 0
39 -46 -47 0
40 42 -53 0
40 48 51 0
44 -46 -50 0
