p cnf 150 638
-116 -132 -137 0
-114 -126 -129 0
-113 -121 127 0
-112 115 120 0
-111 -126 -131 0
-109 114 140 0
-108 -138 -150 0
-107 -123 141 0
-107 112 -130 0
-106 -109 147 0
-104 -115 -138 0
-103 -128 -143 0
-101 108 -126 0
-99 -132 137 0
-99 112 138 0
-97 -99 106 0
-95 -118 149 0
-95 -100 136 0
-94 -114 -146 0
-92 97 -140 0
-91 110 140 0
-90 97 98 0
-88 93 106 0
-87 95 -129 0
-86 -95 -135 0
-86 101 134 0
-86 116 127 0
-85 -121 -137 0
-81 -116 -134 0
-81 117 -120 0
-80 114 116 0
-79 -81 149 0
-79 89 -99 0
-78 -120 -122 0
-78 -80 -135 0
-78 80 -122 0
-77 -110 150 0
-77 -88 147 0
-77 83 -84 0
-76 95 138 0
-75 -102 115 0
-75 78 87 0
-73 -85 101 0
-72 -80 -82 0
-72 -73 83 0
-71 -101 -113 0
-71 113 135 0
-70 -91 131 0
-70 -80 -142 0
-70 101 127 0
-69 -104 142 0
-69 -72 141 0
-69 -70 109 0
-68 -84 -142 0
-68 91 -147 0
-66 -80 117 0
-65 -142 -144 0
-65 -97 136 0
-65 -70 122 0
-65 71 75 0
-65 84 -113 0
-65 102 133 0
-64 -125 145 0
-64 74 -94 0
-64 139 142 0
-63 -136 -148 0
-62 -71 120 0
-61 -124 -146 0
-61 -114 144 0
-61 -103 -120 0
-61 -78 109 0
-60 -125 -130 0
-60 -123 145 0
-60 -107 -135 0
-60 -104 -128 0
-59 -117 -121 0
-58 -113 142 0
-58 89 -132 0
-58 95 103 0
-58 118 -144 0
-57 -134 137 0
-56 -104 -150 0
-56 -77 124 0
-56 -73 -137 0
-56 80 -83 0
-56 85 -137 0
-55 -81 89 0
-54 -82 -117 0
-54 108 122 0
-53 -106 135 0
-53 61 -66 0
-52 -101 -114 0
-52 -85 112 0
-52 -60 -70 0
-51 -113 -127 0
-51 95 145 0
-51 125 126 0
-50 -63 78 0
-50 -63 132 0
-50 -59 -124 0
-49 70 116 0
-49 79 98 0
-49 86 109 0
-49 109 138 0
-48 113 137 0
-47 79 -122 0
-46 -129 -150 0
-46 54 -93 0
-46 128 -139 0
-44 -106 126 0
-44 -63 108 0
-44 -55 -103 0
-44 -54 109 0
-43 -85 95 0
-43 -79 135 0
-43 65 90 0
-43 84 -102 0
-42 51 -57 0
-42 51 149 0
-42 64 148 0
-42 76 140 0
-41 -109 -146 0
-41 74 82 0
-40 -95 135 0
-40 -51 92 0
-40 65 -110 0
-40 115 -125 0
-40 123 142 0
-39 -127 133 0
-39 -80 148 0
-39 57 -79 0
-39 113 -149 0
-38 -75 129 0
-38 41 -105 0
-38 43 87 0
-37 -73 -113 0
-36 -115 -125 0
-36 -67 -76 0
-36 -56 -122 0
-36 57 -127 0
-35 -94 124 0
-35 -74 99 0
-35 -50 97 0
-35 92 -147 0
-34 -103 134 0
-34 -70 139 0
-34 54 114 0
-33 -113 118 0
-33 -80 95 0
-33 -60 134 0
-33 -38 95 0
-32 -92 115 0
-32 33 -52 0
-32 58 78 0
-32 69 77 0
-32 125 132 0
-31 -134 150 0
-31 -121 136 0
-31 -65 82 0
-31 71 127 0
-30 -55 -141 0
-30 106 131 0
-29 -100 116 0
-29 38 138 0
-29 47 140 0
-29 65 85 0
-29 71 142 0
-29 79 143 0
-29 87 -124 0
-29 137 -138 0
-28 -52 -125 0
-28 -42 138 0
-28 76 138 0
-27 -75 84 0
-27 -30 123 0
-27 36 -142 0
-27 68 -101 0
-27 99 -122 0
-26 -59 125 0
-26 -47 84 0
-26 -36 142 0
-26 35 81 0
-26 41 128 0
-26 47 97 0
-25 -57 80 0
-25 -54 -76 0
-25 69 -140 0
-25 121 -133 0
-24 -98 145 0
-24 -80 -103 0
-24 -37 -52 0
-24 -26 28 0
-24 35 98 0
-24 36 -54 0
-24 39 139 0
-24 78 145 0
-23 -89 133 0
-23 -76 146 0
-23 -45 -78 0
-23 33 -51 0
-23 34 132 0
-23 124 128 0
-22 -67 -129 0
-22 70 137 0
-22 119 147 0
-21 -119 -131 0
-21 -90 98 0
-21 -74 -100 0
-21 -65 -117 0
-21 47 71 0
-20 -112 -128 0
-20 -36 -135 0
-20 28 42 0
-19 -78 -87 0
-19 -68 102 0
-19 -60 116 0
-19 50 56 0
-19 110 146 0
-18 -130 -132 0
-18 47 95 0
-17 -106 -139 0
-17 -58 -107 0
-17 -54 93 0
-17 -23 33 0
-16 -53 116 0
-16 -49 -82 0
-16 22 32 0
-16 30 -39 0
-16 33 44 0
-16 54 -71 0
-16 66 -149 0
-16 84 -103 0
-15 -78 -91 0
-15 -58 110 0
-15 -26 -62 0
-15 -24 63 0
-15 -16 -85 0
-15 63 -123 0
-15 73 -124 0
-14 23 58 0
-14 87 116 0
-14 115 125 0
-13 -84 -85 0
-13 -52 -138 0
-13 -27 127 0
-13 -20 26 0
-13 -17 70 0
-13 16 -124 0
-13 24 43 0
-13 34 114 0
-13 36 -46 0
-13 62 79 0
-13 68 -88 0
-13 76 -77 0
-12 -115 117 0
-12 -77 81 0
-12 62 -122 0
-12 120 -136 0
-11 -50 100 0
-11 -28 -109 0
-11 -22 99 0
-11 19 120 0
-11 27 -117 0
-10 -101 -123 0
-10 -67 95 0
-10 -63 -138 0
-10 -29 59 0
-10 -17 -81 0
-10 29 139 0
-10 39 -45 0
-10 79 89 0
-9 -56 75 0
-9 -44 -79 0
-9 -38 81 0
-9 -35 40 0
-8 -50 142 0
-8 -28 42 0
-8 10 98 0
-8 42 146 0
-8 145 -148 0
-7 -91 136 0
-7 -49 87 0
-7 -17 122 0
-7 17 -96 0
-7 24 -111 0
-7 72 -109 0
-7 88 -118 0
-7 88 -94 0
-7 109 -125 0
-6 -93 -112 0
-6 -45 -47 0
-6 13 70 0
-6 20 107 0
-6 24 52 0
-6 64 -113 0
-6 125 128 0
-6 136 149 0
-5 -117 -146 0
-5 -105 -131 0
-5 -56 79 0
-5 -39 89 0
-5 -16 127 0
-5 89 -117 0
-4 9 -59 0
-4 13 -37 0
-4 38 148 0
-4 44 -129 0
-4 66 -77 0
-3 -57 -83 0
-3 -53 99 0
-3 -39 150 0
-3 19 105 0
-3 28 -135 0
-3 111 -142 0
-3 112 122 0
-3 124 127 0
-2 21 -102 0
-1 -51 -88 0
-1 -41 141 0
-1 -35 -142 0
-1 -12 110 0
-1 -8 -94 0
-1 6 -27 0
-1 10 130 0
-1 16 -79 0
-1 38 86 0
-1 43 -73 0
-1 84 -110 0
-1 89 -140 0
1 -59 -88 0
1 -49 -91 0
1 -46 117 0
1 94 -140 0
2 -61 134 0
2 -52 100 0
2 -32 54 0
2 -23 -78 0
2 -16 29 0
2 12 81 0
3 -90 -149 0
3 -65 80 0
3 -58 -116 0
3 -12 46 0
3 74 -103 0
3 75 132 0
3 76 91 0
4 -7 72 0
4 38 -102 0
4 44 -67 0
5 -104 123 0
5 -40 -148 0
5 98 -142 0
6 33 98 0
6 52 110 0
6 66 76 0
6 78 -109 0
7 -100 -150 0
7 -60 -146 0
7 -60 71 0
7 -32 125 0
7 -14 56 0
7 98 -137 0
7 129 -133 0
8 -35 -114 0
8 13 61 0
8 14 148 0
8 31 -86 0
8 101 -145 0
9 -78 136 0
9 -75 110 0
9 -73 -145 0
9 -32 110 0
9 -31 98 0
9 27 -28 0
10 -92 -139 0
10 -89 138 0
10 -42 94 0
10 -35 135 0
10 19 123 0
10 87 105 0
10 94 149 0
11 -15 144 0
11 32 -146 0
11 57 104 0
11 80 -84 0
11 111 -138 0
12 -25 133 0
12 -23 -137 0
12 57 112 0
12 83 -108 0
13 -60 -130 0
13 137 -141 0
14 -56 -82 0
14 -25 107 0
14 23 125 0
15 -77 -78 0
15 -74 125 0
15 -57 -94 0
15 -49 51 0
15 39 -84 0
15 40 109 0
15 46 141 0
16 -131 132 0
16 -41 110 0
16 -24 -133 0
16 58 130 0
17 -81 -142 0
17 -54 -137 0
17 24 -117 0
17 42 43 0
18 -96 -121 0
18 -95 147 0
18 -70 -108 0
18 50 -127 0
18 54 -83 0
18 56 91 0
18 73 114 0
19 37 -55 0
19 52 117 0
19 84 -143 0
19 89 107 0
19 100 150 0
20 -80 -132 0
20 32 -95 0
20 63 -138 0
21 -82 90 0
21 34 93 0
22 -101 -127 0
22 -41 84 0
22 -25 122 0
22 34 -108 0
22 48 52 0
22 85 -86 0
23 -69 -109 0
23 -64 100 0
23 76 130 0
23 109 -139 0
24 -96 -117 0
24 -79 131 0
24 -53 -77 0
24 43 -52 0
24 102 -148 0
25 -59 109 0
25 -35 -92 0
25 51 -131 0
25 66 -135 0
25 122 141 0
26 -58 -122 0
26 52 -84 0
26 63 -125 0
27 -96 -129 0
27 -58 113 0
27 35 53 0
27 42 134 0
27 97 125 0
28 -122 -148 0
28 -96 -97 0
28 -93 -116 0
28 38 -120 0
28 55 131 0
28 58 107 0
29 -34 -149 0
29 45 -65 0
29 49 56 0
29 55 59 0
29 59 131 0
30 -130 -136 0
30 -81 119 0
30 -80 -145 0
30 -64 122 0
30 -59 -93 0
30 -41 -105 0
30 46 70 0
30 61 62 0
30 64 111 0
31 38 109 0
31 123 144 0
32 -97 -106 0
32 -60 140 0
33 -98 147 0
33 -64 -131 0
33 -57 150 0
33 -46 142 0
33 135 147 0
34 -140 144 0
34 -96 120 0
34 -76 78 0
34 -37 121 0
34 43 -124 0
35 -57 -61 0
35 66 128 0
35 82 -126 0
36 -89 118 0
37 -119 125 0
37 58 -140 0
37 93 120 0
37 106 142 0
37 120 130 0
38 -145 147 0
38 -63 -92 0
38 53 -107 0
39 -123 -128 0
39 86 98 0
39 107 143 0
40 -103 132 0
40 -80 -107 0
40 -45 -53 0
40 51 -135 0
40 51 -119 0
40 51 125 0
40 76 -83 0
42 -117 147 0
42 -60 123 0
42 -55 58 0
42 95 132 0
42 138 -140 0
43 -75 78 0
43 -58 -104 0
43 47 140 0
43 51 -90 0
43 53 -125 0
44 -86 125 0
44 79 115 0
45 -84 -104 0
45 58 66 0
45 79 -89 0
45 116 -124 0
46 -123 144 0
46 -75 126 0
46 89 126 0
47 -57 118 0
47 117 139 0
48 50 87 0
48 98 143 0
49 -108 -140 0
49 75 88 0
50 -101 -104 0
50 -70 -150 0
51 -76 90 0
51 -52 134 0
51 99 121 0
52 85 137 0
53 -67 -96 0
53 -59 -98 0
53 82 99 0
54 -142 147 0
54 -73 148 0
55 -115 147 0
55 -76 108 0
56 -120 -134 0
56 72 -129 0
57 -71 -113 0
57 -58 110 0
57 77 -116 0
57 102 -141 0
58 -120 -136 0
58 -112 -123 0
58 -95 -102 0
58 -74 -104 0
58 -60 90 0
58 90 -106 0
59 -77 99 0
59 -63 -149 0
59 110 -126 0
60 -97 -114 0
60 97 -116 0
61 65 142 0
62 -102 -127 0
62 -91 -94 0
62 72 -116 0
62 77 150 0
63 -119 147 0
64 -99 -124 0
64 -78 -134 0
65 -117 123 0
65 -108 -130 0
66 -91 130 0
66 -80 -116 0
66 76 -137 0
68 -137 140 0
68 -70 71 0
68 82 -123 0
69 71 -131 0
69 73 -99 0
69 96 -124 0
70 -111 -143 0
70 88 -142 0
71 -91 126 0
71 -86 -125 0
72 121 -133 0
73 -95 -127 0
74 103 122 0
75 -125 149 0
75 -123 -137 0
75 92 -93 0
76 -124 144 0
76 91 -118 0
78 80 -120 0
79 89 -124 0
80 -91 98 0
81 -102 -136 0
81 141 142 0
82 -95 -127 0
83 123 135 0
84 -102 125 0
85 95 149 0
87 138 149 0
88 -122 -136 0
88 134 -137 0
89 -106 -136 0
90 -107 -143 0
90 -92 107 0
91 -99 141 0
93 104 -109 0
96 -147 -148 0
98 -143 -146 0
98 -99 146 0
99 105 109 0
99 112 124 0
99 137 140 0
100 -104 132 0
103 -134 140 0
104 -114 142 0
104 -106 135 0
104 108 114 0
105 -121 -122 0
107 -109 -140 0
108 112 123 0
111 145 -150 0
114 -129 -146 0
116 -125 -133 0
116 126 -131 0
117 120 124 0
117 125 127 0
121 -133 135 0
126 -128 -130 0
127 -138 145 0
134 137 143 0
