p cnf 150 638
-138 139 -147 0
-119 -127 136 0
-119 -120 -134 0
-117 -134 148 0
-117 128 -149 0
-114 137 -143 0
-111 127 -130 0
-110 -111 114 0
-109 -118 148 0
-107 -129 -149 0
-107 -125 -136 0
-99 -112 -135 0
-98 -138 146 0
-98 111 -150 0
-98 143 150 0
-96 116 117 0
-94 -133 -147 0
-93 99 -143 0
-93 104 124 0
-92 -108 144 0
-92 121 -144 0
-90 108 -117 0
-90 134 -144 0
-88 101 -145 0
-88 111 126 0
-87 95 130 0
-85 -96 -124 0
-84 -118 -137 0
-84 -107 -134 0
-84 107 -118 0
-83 -130 149 0
-83 -113 117 0
-83 96 119 0
-82 -96 -107 0
-81 -102 147 0
-79 -127 150 0
-79 -117 133 0
-79 -107 109 0
-77 101 -106 0
-77 113 -132 0
-77 121 138 0
-76 108 -116 0
-75 -76 98 0
-75 92 -138 0
-75 93 -121 0
-74 -91 115 0
-74 -77 -134 0
-73 -82 148 0
-73 -80 -89 0
-73 123 140 0
-71 -92 148 0
-71 78 -111 0
-71 82 -99 0
-71 126 137 0
-68 132 137 0
-66 -128 129 0
-66 -96 -140 0
-65 -96 -137 0
-63 -70 123 0
-62 -100 105 0
-62 70 145 0
-62 83 -119 0
-62 89 -127 0
-61 -110 133 0
-61 96 138 0
-60 -107 119 0
-60 -70 119 0
-60 61 -77 0
-59 -65 -112 0
-59 71 146 0
-59 113 131 0
-59 126 142 0
-58 -94 -101 0
-58 -82 -88 0
-58 -77 -129 0
-58 60 -121 0
-58 82 142 0
-57 -88 -130 0
-57 69 -125 0
-56 -77 -106 0
-56 -58 -148 0
-56 90 142 0
-56 113 -150 0
-55 -94 95 0
-55 66 141 0
-55 70 94 0
-54 -101 129 0
-54 -74 -83 0
-54 -72 -144 0
-53 -99 -136 0
-53 54 -95 0
-53 118 147 0
-52 -97 -112 0
-52 -81 -122 0
-52 -65 103 0
-52 -58 -102 0
-52 77 -92 0
-51 83 -91 0
-51 93 137 0
-50 60 104 0
-49 58 73 0
-49 68 107 0
-49 79 80 0
-48 50 -105 0
-48 50 92 0
-47 -118 141 0
-47 49 -73 0
-46 -127 -130 0
-46 56 81 0
-45 -97 116 0
-45 72 149 0
-44 -47 -131 0
-44 45 -130 0
-44 56 140 0
-44 58 82 0
-44 101 129 0
-43 70 104 0
-42 -91 -102 0
-42 55 72 0
-42 79 -131 0
-41 -119 134 0
-41 -109 135 0
-41 -56 93 0
-41 -46 75 0
-41 91 149 0
-40 -136 -139 0
-40 -90 113 0
-40 49 -96 0
-40 55 100 0
-40 60 85 0
-40 127 -135 0
-38 -84 -132 0
-38 119 -122 0
-37 -105 -116 0
-37 -55 113 0
-37 114 -119 0
-36 -49 -149 0
-36 62 -132 0
-35 -51 -140 0
-35 73 -101 0
-34 -146 149 0
-34 -93 -94 0
-34 -83 142 0
-34 -77 -140 0
-34 -49 131 0
-34 83 -116 0
-34 91 135 0
-33 -95 -113 0
-33 -78 -106 0
-33 35 -107 0
-33 95 -108 0
-32 -53 -98 0
-32 46 48 0
-32 84 126 0
-32 94 119 0
-32 124 147 0
-31 -67 133 0
-31 -49 69 0
-31 -39 104 0
-31 32 -101 0
-31 80 -84 0
-31 82 -90 0
-30 -110 136 0
-30 -103 -149 0
-30 -99 -105 0
-30 -92 114 0
-30 49 -130 0
-30 55 131 0
-30 62 150 0
-30 107 117 0
-30 118 -129 0
-29 32 138 0
-29 42 97 0
-29 45 109 0
-29 94 -148 0
-28 -76 -149 0
-28 -57 142 0
-28 -39 -46 0
-28 40 -141 0
-28 42 106 0
-28 49 -67 0
-28 67 -143 0
-28 70 120 0
-28 115 -123 0
-27 -115 -124 0
-26 -99 -111 0
-26 -50 90 0
-26 28 -39 0
-26 56 -73 0
-25 -98 107 0
-25 -69 -117 0
-25 -65 76 0
-25 -61 95 0
-25 -29 46 0
-25 60 133 0
-25 80 -97 0
-24 -76 92 0
-24 -26 -59 0
-24 37 -68 0
-23 -95 143 0
-23 -84 -131 0
-23 -84 100 0
-23 -54 60 0
-23 -46 60 0
-23 -32 112 0
-23 33 126 0
-23 59 140 0
-22 65 -90 0
-22 99 -107 0
-21 -95 -111 0
-21 -57 102 0
-21 -49 -101 0
-21 -40 -80 0
-21 51 -58 0
-21 119 -142 0
-20 -122 -133 0
-20 -72 140 0
-20 28 99 0
-20 60 149 0
-19 -73 149 0
-19 -56 -93 0
-19 -35 -134 0
-19 25 -127 0
-18 -68 108 0
-18 86 104 0
-18 95 129 0
-17 -86 -105 0
-17 -81 -128 0
-17 -63 -135 0
-17 -45 60 0
-17 33 40 0
-17 46 98 0
-17 81 113 0
-16 -54 118 0
-16 38 -139 0
-16 39 -97 0
-16 54 -71 0
-16 82 -128 0
-16 125 145 0
-15 -16 39 0
-14 -79 130 0
-14 -48 117 0
-14 22 -40 0
-14 55 -126 0
-13 -80 -84 0
-13 -16 114 0
-13 17 -129 0
-13 22 106 0
-13 28 -139 0
-13 50 107 0
-13 67 138 0
-13 89 -97 0
-12 -109 -114 0
-12 -85 147 0
-12 -42 -94 0
-12 -24 33 0
-12 -24 84 0
-12 -14 26 0
-12 70 -75 0
-11 -28 -97 0
-11 -24 149 0
-11 29 -148 0
-11 29 112 0
-11 42 50 0
-11 43 -109 0
-10 -23 150 0
-10 15 19 0
-10 42 94 0
-10 131 141 0
-9 -112 -123 0
-9 -68 -148 0
-9 -16 125 0
-9 23 -146 0
-9 44 84 0
-9 52 138 0
-9 74 -138 0
-9 104 -144 0
-8 -85 -141 0
-8 41 -76 0
-7 -61 -113 0
-7 -42 -54 0
-7 10 -124 0
-7 14 -141 0
-7 27 86 0
-7 54 -149 0
-7 99 -137 0
-6 -71 90 0
-6 -42 119 0
-6 -19 -32 0
-6 -18 -122 0
-6 85 145 0
-5 -135 141 0
-5 -69 107 0
-5 -57 -95 0
-5 -34 -133 0
-5 -31 59 0
-5 -19 -118 0
-5 21 -95 0
-5 64 -136 0
-4 -102 -130 0
-4 -89 137 0
-4 -40 53 0
-4 25 -130 0
-4 130 134 0
-3 -70 122 0
-3 -62 93 0
-3 8 67 0
-3 20 81 0
-3 38 84 0
-3 84 142 0
-2 -101 127 0
-2 -28 44 0
-2 -27 91 0
-2 -3 49 0
-2 19 -149 0
-2 36 -102 0
-2 108 -118 0
-1 -113 148 0
-1 -44 -51 0
-1 -26 27 0
-1 -20 53 0
-1 3 75 0
1 -53 -54 0
1 -39 144 0
1 -9 34 0
1 88 137 0
1 105 126 0
2 -83 130 0
2 -71 -122 0
2 -68 -99 0
2 8 -148 0
2 29 61 0
2 56 92 0
2 76 90 0
3 -91 -95 0
3 -5 -8 0
3 4 -30 0
3 14 -56 0
3 33 117 0
3 39 139 0
4 -110 127 0
4 -56 -120 0
4 -55 149 0
4 -17 146 0
4 -13 81 0
4 16 -77 0
4 36 -129 0
4 47 -105 0
5 -122 125 0
5 -61 -137 0
5 13 78 0
5 16 -64 0
5 24 -132 0
5 55 139 0
7 -73 76 0
7 -62 -114 0
7 -31 -143 0
7 -8 -70 0
7 100 143 0
7 115 149 0
8 -84 114 0
8 -43 -57 0
8 -26 -145 0
8 50 -110 0
8 67 -121 0
9 -129 -146 0
9 -65 -84 0
9 -53 -85 0
9 -26 98 0
9 -16 -56 0
9 23 -72 0
9 41 80 0
9 63 108 0
9 70 110 0
9 94 -139 0
9 120 -139 0
10 -114 -144 0
10 -108 -141 0
10 -99 -135 0
10 -79 -135 0
10 -59 141 0
10 -42 141 0
10 -33 -83 0
10 -28 -138 0
10 20 81 0
10 74 132 0
11 -52 -76 0
11 -43 102 0
11 64 109 0
11 65 101 0
11 110 -120 0
12 -86 104 0
12 -80 -91 0
12 -80 -82 0
12 -56 73 0
12 35 -94 0
13 -108 115 0
13 -36 -104 0
13 -15 32 0
13 32 117 0
14 -44 114 0
14 -29 46 0
14 -15 -119 0
14 21 119 0
14 38 94 0
14 42 97 0
15 -83 -103 0
15 -60 -130 0
15 -25 47 0
16 -77 -112 0
16 -37 -133 0
16 50 -95 0
16 56 -121 0
16 122 -150 0
17 -27 144 0
17 26 55 0
17 82 -141 0
17 124 148 0
18 -102 -127 0
18 -98 118 0
18 -40 121 0
18 21 -120 0
18 49 -123 0
18 58 87 0
18 126 -147 0
19 -53 -82 0
19 -20 -101 0
20 -91 103 0
20 27 129 0
20 80 115 0
20 117 -143 0
21 30 -55 0
21 58 95 0
22 -107 -113 0
22 -31 -145 0
22 32 -95 0
22 32 44 0
22 76 140 0
22 83 131 0
22 98 -134 0
23 -64 83 0
23 32 106 0
23 37 -45 0
23 56 64 0
24 -129 -133 0
24 -34 -102 0
24 38 87 0
24 78 -127 0
25 -79 -141 0
25 31 -113 0
25 34 68 0
25 51 143 0
25 62 -115 0
25 67 -83 0
26 -42 -55 0
26 -31 108 0
26 55 124 0
26 67 -81 0
27 -106 -114 0
27 -63 -123 0
27 -45 118 0
27 -43 -107 0
27 -40 -79 0
27 45 128 0
27 65 89 0
28 97 -138 0
29 -99 104 0
29 -77 91 0
29 -35 148 0
29 33 119 0
29 54 142 0
29 83 -124 0
29 94 -138 0
30 -106 -147 0
30 -41 -67 0
30 48 -142 0
30 65 149 0
30 91 -99 0
31 -121 146 0
31 89 133 0
32 -59 103 0
32 41 -69 0
32 94 -148 0
33 -34 37 0
33 41 -96 0
33 56 -121 0
34 -52 149 0
34 52 147 0
34 134 -144 0
35 -119 121 0
35 -44 74 0
36 -95 138 0
36 -91 136 0
36 -39 -101 0
37 -58 100 0
37 132 133 0
38 -70 142 0
38 -64 113 0
38 -55 -59 0
38 42 63 0
39 -114 -118 0
39 61 -95 0
39 129 -149 0
40 -82 -150 0
40 -59 -101 0
40 67 -123 0
40 83 106 0
41 -90 -131 0
41 -74 -107 0
41 46 -134 0
41 46 -86 0
41 46 56 0
42 -76 134 0
42 -72 -75 0
42 91 132 0
43 -94 127 0
43 -82 84 0
43 -77 -91 0
43 -50 -82 0
43 -46 119 0
43 -45 -56 0
43 128 -133 0
44 50 60 0
44 58 67 0
45 -61 -84 0
45 -59 -108 0
46 -58 61 0
46 -48 142 0
46 80 -139 0
46 108 111 0
47 -78 119 0
47 -73 92 0
47 -55 138 0
47 72 99 0
47 138 142 0
48 -77 83 0
48 -66 -74 0
48 74 -75 0
48 83 -144 0
48 105 -136 0
49 -66 132 0
49 -62 -142 0
49 56 -62 0
50 -139 141 0
50 -108 112 0
50 -66 -112 0
50 66 87 0
50 76 -82 0
50 79 120 0
50 135 -149 0
51 -117 118 0
51 -74 -106 0
51 59 108 0
51 91 147 0
51 94 -108 0
52 -112 -122 0
52 -107 113 0
52 -101 126 0
52 53 -126 0
52 57 78 0
53 -69 78 0
53 -57 109 0
53 100 -121 0
53 104 -149 0
54 82 -99 0
56 -86 88 0
56 -64 93 0
56 80 -116 0
56 85 -120 0
56 99 127 0
57 -119 -127 0
57 -108 146 0
57 -59 -80 0
58 99 132 0
59 -117 127 0
59 -76 -97 0
59 99 137 0
60 104 134 0
61 -96 -126 0
61 -65 100 0
61 66 95 0
61 102 -120 0
62 82 -109 0
63 -117 132 0
63 -111 -118 0
64 74 -98 0
66 74 79 0
67 -80 -83 0
67 112 -132 0
68 -112 121 0
68 -94 128 0
68 -80 103 0
69 91 134 0
69 143 -147 0
70 -137 148 0
70 -74 90 0
70 109 -145 0
71 -104 -109 0
72 -126 -129 0
72 79 -82 0
73 -83 -118 0
74 83 148 0
75 -76 -104 0
76 -81 136 0
77 92 -113 0
78 -129 -147 0
78 104 -119 0
79 -91 -140 0
81 -106 -140 0
81 -85 -144 0
82 -101 142 0
83 -114 -137 0
83 84 -121 0
83 88 -138 0
84 107 -137 0
85 -122 -145 0
85 93 141 0
88 -124 132 0
88 106 137 0
88 144 149 0
89 -118 -143 0
89 -113 125 0
89 -101 141 0
90 108 136 0
91 103 110 0
95 101 -115 0
95 108 138 0
96 116 118 0
98 115 118 0
102 127 -129 0
103 126 -138 0
111 125 -150 0
111 134 -150 0
113 -120 127 0
113 129 -139 0
115 -125 -146 0
116 -123 136 0
134 -141 -142 0
