p cnf 55 234
-47 51 54 0
-39 49 51 0
-38 48 51 0
-37 -38 40 0
-36 38 -48 0
-36 42 -46 0
-34 -40 -46 0
-32 44 -52 0
-31 42 -43 0
-30 -40 -54 0
-29 -51 -54 0
-29 44 -45 0
-28 34 38 0
-27 -42 -53 0
-27 28 35 0
-27 39 50 0
-26 27 48 0
-26 53 -55 0
-25 -37 40 0
-25 -36 -48 0
-25 27 -28 0
-25 28 -39 0
-25 28 29 0
-25 36 -38 0
-25 39 42 0
-23 -47 -48 0
-23 50 55 0
-22 -23 -33 0
-22 50 -54 0
-20 -43 49 0
-20 -42 50 0
-20 -33 40 0
-20 -29 -46 0
-20 24 55 0
-20 41 -52 0
-20 42 -53 0
-19 -23 55 0
-18 -45 55 0
-18 22 -49 0
-18 25 43 0
-18 27 46 0
-17 -37 50 0
-17 24 48 0
-16 -19 41 0
-16 -18 27 0
-16 17 38 0
-16 25 -51 0
-15 -27 -50 0
-14 -20 -35 0
-14 -20 31 0
-14 -19 40 0
-14 23 -48 0
-14 28 -34 0
-14 30 -33 0
-14 33 -46 0
-13 -20 -42 0
-13 41 42 0
-12 -29 -42 0
-12 16 43 0
-12 20 -43 0
-12 24 -28 0
-11 -29 34 0
-11 14 34 0
-10 11 20 0
-10 40 51 0
-9 -30 38 0
-9 -12 38 0
-9 10 19 0
-9 16 -26 0
-9 21 32 0
-9 28 46 0
-8 -23 42 0
-8 11 -48 0
-7 -28 -39 0
-7 -17 -43 0
-7 -8 32 0
-7 17 31 0
-7 35 -40 0
-6 -18 40 0
-6 -14 -51 0
-6 13 -46 0
-6 13 -16 0
-6 16 27 0
-6 40 -53 0
-5 -32 -44 0
-5 -15 32 0
-5 -9 37 0
-5 10 51 0
-5 20 -32 0
-5 25 -29 0
-4 -18 -43 0
-4 -13 -40 0
-4 49 -52 0
-3 13 41 0
-3 14 -27 0
-3 35 49 0
-2 -37 40 0
-2 -31 -43 0
-2 -31 -37 0
-2 -17 29 0
-2 4 25 0
-2 16 39 0
-2 24 -55 0
-2 26 35 0
-2 39 -50 0
-1 -19 42 0
-1 -9 24 0
-1 -9 50 0
-1 -7 -32 0
-1 -7 -18 0
-1 10 -19 0
-1 21 27 0
-1 37 -54 0
1 -39 41 0
1 -38 54 0
1 -14 -34 0
1 -2 -10 0
1 5 22 0
1 9 16 0
1 31 47 0
1 49 51 0
2 -17 -19 0
2 -5 -17 0
2 10 -40 0
2 29 44 0
3 -38 -47 0
3 -8 -33 0
3 5 -40 0
4 -46 -53 0
4 -31 48 0
4 -16 31 0
4 -15 -52 0
4 -13 45 0
4 -11 27 0
4 26 40 0
4 42 52 0
5 -22 -43 0
5 -11 -38 0
5 -6 42 0
5 7 -36 0
5 10 -12 0
5 11 45 0
5 14 36 0
5 18 31 0
5 23 -53 0
5 42 51 0
5 43 -44 0
5 51 55 0
6 -21 49 0
6 -15 -18 0
6 -12 -29 0
6 7 -15 0
6 38 51 0
7 -35 41 0
7 -15 -46 0
7 13 36 0
7 48 -52 0
8 -17 -40 0
8 19 -21 0
8 37 43 0
9 -16 -54 0
10 -37 -41 0
10 -37 44 0
10 -24 55 0
10 -19 -24 0
10 15 44 0
11 -36 -37 0
11 -29 38 0
11 -28 40 0
11 -16 -36 0
11 -15 25 0
11 18 -22 0
11 20 49 0
11 34 -53 0
12 -30 36 0
12 17 -53 0
12 21 24 0
12 30 -49 0
13 -29 50 0
13 16 -55 0
14 43 -45 0
15 -16 47 0
15 24 50 0
15 36 40 0
16 21 22 0
16 22 -48 0
16 31 -47 0
17 -34 -48 0
17 -33 55 0
17 -24 46 0
17 22 43 0
17 27 44 0
17 30 -54 0
18 -36 -41 0
18 -34 -48 0
18 -21 27 0
18 38 -43 0
19 -23 -33 0
19 43 52 0
19 48 -50 0
20 -39 -47 0
20 -37 52 0
20 32 47 0
21 -44 -47 0
21 -29 37 0
21 39 54 0
22 -43 51 0
22 -33 51 0
22 29 43 0
22 30 -52 0
23 48 -51 0
24 -47 49 0
24 26 -37 0
24 35 -44 0
24 47 51 0
25 26 37 0
26 -34 -36 0
26 51 52 0
27 -33 -38 0
27 45 -47 0
28 -36 -41 0
28 -33 -42 0
28 -30 -31 0
29 -45 49 0
30 -49 -54 0
32 47 49 0
33 -41 42 0
34 -43 53 0
34 51 -55 0
35 -36 -49 0
35 41 -42 0
35 44 45 0
40 -41 43 0
50 52 -53 0
