p cnf 180 760
-155 157 164 0
-144 -161 180 0
-143 -158 174 0
-143 145 154 0
-135 -146 -150 0
-134 -151 -161 0
-133 137 -164 0
-132 -148 172 0
-131 -133 151 0
-128 155 -161 0
-121 -131 156 0
-119 -169 -170 0
-119 -142 177 0
-118 -126 159 0
-118 137 180 0
-114 137 -168 0
-112 144 -154 0
-112 153 -169 0
-107 -152 -161 0
-106 107 168 0
-105 -144 -176 0
-103 -164 170 0
-103 -133 143 0
-103 -111 173 0
-102 105 -144 0
-101 -114 155 0
-99 -119 150 0
-98 -127 -162 0
-98 -99 -163 0
-97 -136 -157 0
-97 -118 -152 0
-97 98 170 0
-97 125 -170 0
-96 120 -135 0
-95 -141 -149 0
-95 102 152 0
-93 -140 -180 0
-93 -115 -160 0
-93 144 170 0
-92 -102 -118 0
-88 -144 -179 0
-88 -128 -131 0
-88 89 123 0
-87 160 176 0
-86 -96 -135 0
-86 141 151 0
-85 -97 121 0
-85 123 164 0
-84 92 154 0
-83 -134 -147 0
-83 -129 -175 0
-83 -97 131 0
-83 -90 -170 0
-83 115 149 0
-83 141 144 0
-83 153 173 0
-82 -134 160 0
-82 -125 -141 0
-82 -95 147 0
-80 -131 167 0
-80 -82 123 0
-80 84 -98 0
-80 92 133 0
-79 -117 -154 0
-79 86 -115 0
-79 125 -162 0
-78 88 -137 0
-77 82 161 0
-77 108 179 0
-76 -97 100 0
-75 -106 173 0
-74 -106 -153 0
-74 -84 -88 0
-74 148 -175 0
-73 77 -131 0
-73 102 -163 0
-72 -144 -174 0
-72 143 166 0
-72 146 -148 0
-71 114 147 0
-69 -134 152 0
-69 -116 -157 0
-69 -86 132 0
-69 -84 -144 0
-68 -168 176 0
-68 -137 172 0
-67 -149 -168 0
-67 -77 129 0
-66 -93 151 0
-66 133 -135 0
-65 -84 128 0
-65 -71 137 0
-65 -70 164 0
-65 88 -154 0
-65 97 -105 0
-64 -119 121 0
-64 75 172 0
-64 117 -153 0
-63 117 177 0
-63 167 176 0
-62 -120 -131 0
-62 -76 -154 0
-62 64 142 0
-62 78 -92 0
-62 86 -132 0
-62 100 154 0
-62 104 162 0
-62 118 -176 0
-61 -62 -112 0
-61 -62 161 0
-61 65 -75 0
-60 -117 153 0
-59 70 -96 0
-59 75 -162 0
-58 62 135 0
-57 -141 -154 0
-57 -135 -174 0
-57 -110 -114 0
-57 68 71 0
-57 69 116 0
-56 -153 -174 0
-56 -91 156 0
-56 -66 118 0
-55 134 -172 0
-54 -76 91 0
-54 69 -131 0
-53 -104 107 0
-52 -132 -133 0
-52 -85 -146 0
-52 -61 -179 0
-51 -82 -153 0
-51 -61 76 0
-51 -56 -111 0
-51 94 -164 0
-50 -108 -154 0
-50 -108 -147 0
-50 99 110 0
-50 101 121 0
-49 -80 -116 0
-49 -57 -155 0
-49 56 122 0
-49 70 171 0
-49 88 -131 0
-48 -74 158 0
-48 -54 -86 0
-48 -54 -59 0
-48 54 -125 0
-48 97 -178 0
-47 50 156 0
-47 57 123 0
-46 -95 -100 0
-46 -64 -168 0
-45 -157 -176 0
-45 48 81 0
-44 -89 97 0
-44 101 -146 0
-44 102 111 0
-43 -113 -156 0
-43 -77 -79 0
-43 51 -97 0
-43 69 110 0
-43 71 -96 0
-43 133 -165 0
-42 59 64 0
-42 63 -119 0
-42 81 -156 0
-42 140 165 0
-41 -135 -165 0
-41 -72 -138 0
-41 -65 91 0
-41 71 -84 0
-41 143 152 0
-40 -77 -141 0
-40 -77 94 0
-40 -58 -113 0
-40 -52 111 0
-40 133 161 0
-39 65 -79 0
-39 69 137 0
-39 73 -180 0
-39 97 134 0
-39 145 -155 0
-38 -128 130 0
-38 -97 150 0
-38 79 -162 0
-38 127 179 0
-37 -117 -176 0
-37 -78 143 0
-37 89 149 0
-36 40 90 0
-36 48 59 0
-36 145 -174 0
-35 -97 180 0
-35 -65 -138 0
-35 -62 -108 0
-35 59 147 0
-34 -79 -174 0
-34 -62 145 0
-34 -56 143 0
-33 -94 148 0
-33 34 -116 0
-33 40 -168 0
-33 67 112 0
-33 120 176 0
-32 40 174 0
-32 56 -174 0
-32 114 -159 0
-31 -69 108 0
-31 45 63 0
-31 63 -166 0
-31 88 152 0
-31 96 148 0
-30 -113 141 0
-30 -93 -176 0
-30 63 68 0
-30 103 117 0
-29 -30 171 0
-29 37 -45 0
-29 64 -141 0
-29 68 152 0
-29 81 99 0
-29 85 118 0
-28 -67 -149 0
-28 -52 142 0
-28 -51 69 0
-28 -46 154 0
-28 -36 -135 0
-28 49 -66 0
-27 -146 151 0
-27 -113 -164 0
-27 28 116 0
-27 42 147 0
-26 -148 -154 0
-26 -89 136 0
-26 -48 -55 0
-26 36 -113 0
-26 37 -106 0
-26 45 82 0
-26 70 -150 0
-26 79 -98 0
-26 88 116 0
-25 -41 -73 0
-25 37 54 0
-25 52 156 0
-25 69 -143 0
-25 74 -156 0
-25 124 -137 0
-24 85 165 0
-23 -120 -167 0
-23 -56 -155 0
-23 -31 -54 0
-23 44 -122 0
-23 64 133 0
-23 73 -129 0
-23 106 -146 0
-22 -54 101 0
-22 -52 -157 0
-22 123 161 0
-21 -135 -153 0
-21 -125 -147 0
-21 -124 162 0
-21 101 -149 0
-20 -54 -167 0
-20 -47 -130 0
-20 23 82 0
-20 71 80 0
-19 -96 -160 0
-19 -64 156 0
-19 -22 -171 0
-19 -22 -143 0
-19 26 83 0
-19 28 104 0
-19 45 105 0
-19 109 -146 0
-18 -141 -148 0
-18 -66 -124 0
-18 -38 -66 0
-18 -32 111 0
-18 80 88 0
-18 85 166 0
-17 -32 64 0
-17 54 171 0
-17 57 116 0
-17 74 -86 0
-16 -96 159 0
-16 39 121 0
-16 51 115 0
-16 117 178 0
-16 151 -155 0
-15 -98 -173 0
-15 -63 -85 0
-15 -46 -60 0
-15 -25 46 0
-15 -21 -127 0
-15 17 -27 0
-15 53 131 0
-15 87 -144 0
-14 -109 -154 0
-14 -100 138 0
-14 -93 111 0
-14 -63 67 0
-14 -51 131 0
-14 -27 -82 0
-14 24 161 0
-14 33 81 0
-14 68 -84 0
-14 115 169 0
-13 -82 118 0
-13 -43 -162 0
-13 33 -94 0
-13 105 124 0
-13 132 142 0
-12 -17 -163 0
-12 53 -163 0
-11 -87 -177 0
-11 -36 48 0
-11 76 180 0
-10 -133 154 0
-10 -61 -102 0
-10 -61 109 0
-10 -36 109 0
-10 -14 -16 0
-10 14 67 0
-10 54 174 0
-10 109 179 0
-9 -68 -175 0
-9 -54 -167 0
-9 -13 -45 0
-9 69 137 0
-9 117 -140 0
-9 151 -172 0
-8 20 69 0
-8 57 159 0
-8 78 -151 0
-8 101 136 0
-8 145 -167 0
-7 -94 -140 0
-7 -34 -72 0
-7 -33 83 0
-7 -30 88 0
-7 -21 122 0
-7 17 -113 0
-7 35 48 0
-7 106 145 0
-7 119 147 0
-6 -145 -180 0
-6 -34 104 0
-6 97 158 0
-5 -125 161 0
-5 -50 -149 0
-5 -47 -93 0
-5 -33 136 0
-5 126 -174 0
-4 -72 -175 0
-4 -54 -75 0
-4 -22 50 0
-4 9 37 0
-4 60 90 0
-4 82 -100 0
-3 -138 -161 0
-3 -47 67 0
-3 15 38 0
-3 54 154 0
-3 124 135 0
-3 131 -132 0
-2 -156 -167 0
-2 -144 168 0
-2 -128 174 0
-2 -81 86 0
-2 91 -119 0
-2 144 -171 0
-1 -90 114 0
-1 -72 -114 0
-1 -66 113 0
-1 -49 -91 0
-1 -45 -163 0
-1 -41 -101 0
-1 -33 59 0
-1 -4 38 0
-1 10 -172 0
-1 79 -84 0
1 -43 -142 0
1 -18 -117 0
1 20 37 0
1 134 166 0
1 136 -174 0
2 -141 151 0
2 -86 102 0
2 15 89 0
2 59 94 0
2 70 -144 0
2 135 -160 0
3 -81 -178 0
3 5 30 0
3 57 -178 0
3 74 -167 0
3 112 146 0
3 114 139 0
4 -114 -153 0
4 -61 -132 0
4 -36 -107 0
4 -23 41 0
4 -6 -127 0
4 46 55 0
4 72 -78 0
4 91 -136 0
4 146 163 0
5 -124 -137 0
5 -102 173 0
5 -52 159 0
5 -50 -94 0
5 10 -151 0
6 -33 40 0
6 -30 96 0
6 76 -150 0
7 -126 -141 0
7 -93 122 0
7 -78 105 0
7 -49 -149 0
7 -19 -48 0
7 -18 -179 0
7 68 -126 0
7 129 134 0
7 168 173 0
8 154 -178 0
9 -146 156 0
9 -140 149 0
9 -102 -148 0
9 -36 -53 0
9 -12 -66 0
9 34 143 0
9 42 -89 0
9 86 161 0
10 -72 90 0
10 -68 146 0
10 -58 -166 0
10 -57 -172 0
10 -14 -43 0
10 -11 -155 0
10 16 -109 0
10 115 -162 0
11 -98 -117 0
11 -72 -161 0
11 -52 106 0
11 55 -104 0
11 74 148 0
11 135 163 0
12 -30 60 0
12 -25 27 0
12 -22 -26 0
12 32 -103 0
12 83 -87 0
12 156 -171 0
13 -50 74 0
13 -41 65 0
13 36 144 0
13 43 -107 0
13 63 -107 0
13 112 174 0
14 -75 155 0
14 -35 93 0
14 -34 47 0
14 -19 -31 0
14 87 -172 0
15 -112 127 0
15 -39 -163 0
15 17 89 0
15 26 124 0
15 28 -89 0
16 -119 132 0
16 -97 -102 0
16 -88 -143 0
16 -24 -175 0
16 19 -63 0
17 37 46 0
17 104 141 0
18 -144 -173 0
18 -122 -146 0
18 -40 -127 0
18 75 169 0
18 110 -127 0
18 112 -122 0
19 -76 179 0
19 -25 178 0
19 31 -45 0
19 80 127 0
20 -151 -158 0
20 -97 -173 0
20 -72 -165 0
20 -30 -88 0
20 28 -33 0
20 54 -78 0
20 145 -169 0
20 161 -176 0
20 175 -179 0
21 -82 145 0
21 -65 160 0
21 75 -177 0
22 -146 161 0
22 23 139 0
22 30 129 0
23 -34 -131 0
23 -32 166 0
23 42 -82 0
23 43 -122 0
23 120 136 0
23 137 -166 0
24 -152 154 0
24 -115 165 0
24 -78 173 0
24 -52 -103 0
24 34 -68 0
24 99 125 0
24 108 -126 0
24 118 -136 0
25 -29 -112 0
25 28 -31 0
25 50 -148 0
25 104 -106 0
25 130 -138 0
25 130 157 0
25 174 179 0
26 -67 -88 0
26 -63 129 0
26 -39 149 0
26 69 177 0
26 75 132 0
26 140 155 0
26 145 177 0
27 -77 -91 0
27 70 -78 0
28 -42 102 0
28 60 -112 0
28 69 86 0
28 82 -86 0
28 83 156 0
29 -76 139 0
29 -38 -104 0
29 42 93 0
29 47 -96 0
29 77 97 0
29 84 -165 0
30 -46 165 0
30 97 -173 0
30 97 165 0
31 -91 -98 0
31 -39 -83 0
31 72 -106 0
31 81 -91 0
32 -113 -121 0
32 -51 117 0
32 44 -107 0
32 45 95 0
32 59 122 0
33 -73 -131 0
33 50 -140 0
33 69 115 0
33 70 164 0
33 106 142 0
33 125 -132 0
33 130 -148 0
34 -76 124 0
34 -47 -167 0
34 43 119 0
34 78 -118 0
35 -155 157 0
35 41 153 0
35 55 -77 0
35 124 146 0
36 -122 179 0
36 60 61 0
37 -130 162 0
37 -88 -110 0
37 -69 147 0
37 -43 -146 0
37 46 -73 0
37 110 -132 0
37 114 -137 0
38 -100 -144 0
38 42 151 0
38 51 -55 0
38 55 172 0
38 145 148 0
39 -71 -123 0
39 59 78 0
39 103 160 0
40 -103 148 0
40 52 180 0
40 147 -167 0
41 -59 114 0
41 108 151 0
42 -163 168 0
42 -47 113 0
42 52 -160 0
42 84 -130 0
43 -66 178 0
43 -54 57 0
43 55 -166 0
43 104 148 0
43 111 -170 0
43 111 121 0
44 61 -89 0
45 -128 -163 0
45 -125 127 0
45 -102 -144 0
45 -92 159 0
45 50 54 0
45 62 -74 0
46 -89 126 0
46 -80 155 0
46 -60 -83 0
46 -47 -61 0
46 53 71 0
47 -76 -101 0
47 -71 116 0
47 89 -100 0
47 119 -160 0
48 -77 105 0
48 130 -141 0
49 -64 133 0
49 149 170 0
50 -139 164 0
50 -82 -146 0
51 74 162 0
52 -78 -148 0
53 70 -168 0
53 89 90 0
53 102 -174 0
54 -93 124 0
55 -71 136 0
55 -56 -131 0
55 62 -135 0
55 71 -134 0
55 75 115 0
55 89 -154 0
55 159 171 0
56 -67 -159 0
56 97 145 0
57 100 -152 0
57 174 175 0
58 -146 -147 0
58 -110 118 0
58 65 -122 0
58 92 124 0
58 105 -160 0
58 107 169 0
59 -144 -178 0
59 -75 157 0
59 64 -70 0
59 90 -165 0
59 95 -111 0
60 -93 -167 0
60 97 -112 0
61 -96 124 0
61 114 -153 0
62 -145 151 0
63 64 -112 0
63 132 -144 0
63 163 -178 0
64 -88 -108 0
64 -74 -160 0
64 90 -120 0
64 93 105 0
64 113 175 0
66 -88 -172 0
66 -77 153 0
66 102 -173 0
66 113 140 0
67 -81 -90 0
67 82 143 0
67 116 -160 0
67 159 -163 0
68 -124 -141 0
68 -97 148 0
68 69 -101 0
69 -108 -169 0
69 120 -156 0
70 -77 113 0
71 -172 -173 0
71 93 -180 0
72 -131 171 0
72 -113 -125 0
72 81 -95 0
73 -145 -156 0
73 -127 128 0
73 -109 170 0
74 89 125 0
74 125 -134 0
74 143 171 0
75 -96 152 0
75 -84 -94 0
75 -81 110 0
75 143 179 0
76 -120 -171 0
76 -114 -158 0
76 116 -132 0
77 167 -179 0
78 -137 -139 0
78 129 -147 0
79 -89 -136 0
79 80 -176 0
79 109 116 0
79 145 -150 0
80 -83 -157 0
80 86 98 0
81 -84 -149 0
81 102 -104 0
82 -85 87 0
82 83 133 0
83 99 -173 0
84 -101 151 0
84 111 116 0
84 152 -177 0
85 96 -117 0
85 119 135 0
86 113 165 0
86 127 -164 0
87 -101 -106 0
87 -88 104 0
89 91 131 0
89 125 162 0
91 -132 -138 0
91 -123 -155 0
92 -119 -150 0
92 -109 147 0
92 104 -140 0
93 162 171 0
95 -143 171 0
95 108 -147 0
96 -135 -149 0
96 -130 168 0
96 101 -150 0
96 131 -136 0
97 133 159 0
99 -122 -139 0
102 -103 -135 0
103 128 -141 0
108 -118 166 0
109 -149 -158 0
109 -112 172 0
110 -171 -178 0
110 -148 -155 0
110 -116 170 0
110 141 -152 0
114 139 -156 0
115 -137 167 0
117 152 -176 0
118 119 148 0
123 143 161 0
126 -156 169 0
130 -147 164 0
131 -136 -140 0
131 135 -165 0
135 142 -175 0
137 -142 -143 0
137 140 -158 0
138 -158 167 0
145 153 159 0
149 -174 -175 0
156 169 -180 0
