p cnf 30 128
-22 -29 -30 0
-22 -23 30 0
-22 23 28 0
-22 29 30 0
-21 24 28 0
-19 22 26 0
-18 28 29 0
-16 -29 -30 0
-16 18 19 0
-15 16 19 0
-15 20 28 0
-15 21 28 0
-14 -17 27 0
-14 19 26 0
-12 -29 -30 0
-12 -17 -30 0
-12 25 30 0
-11 -17 -24 0
-11 -13 -14 0
-11 -13 14 0
-10 19 23 0
-10 21 23 0
-9 -24 27 0
-9 -18 23 0
-9 -10 13 0
-9 17 27 0
-7 -21 27 0
-7 8 26 0
-6 -10 17 0
-6 -7 -20 0
-6 23 28 0
-5 -6 11 0
-5 11 -18 0
-4 -18 -26 0
-4 -11 -18 0
-4 -9 29 0
-4 -7 -29 0
-4 -7 18 0
-4 -5 9 0
-4 17 22 0
-4 19 21 0
-3 4 -11 0
-3 9 28 0
-3 10 -20 0
-3 10 23 0
-3 16 -25 0
-2 -22 30 0
-2 -15 -23 0
-2 27 -30 0
-1 -12 14 0
-1 -7 -22 0
-1 -5 -14 0
-1 9 -25 0
-1 11 25 0
-1 13 -15 0
-1 14 -26 0
-1 18 -25 0
-1 18 -24 0
1 -22 24 0
1 -21 -30 0
1 -15 29 0
1 -9 -29 0
1 -6 -14 0
1 5 -21 0
2 -6 7 0
2 -5 -29 0
2 -3 28 0
2 5 -17 0
2 5 -14 0
2 7 -13 0
2 25 30 0
2 29 -30 0
3 -15 27 0
3 -14 19 0
3 -11 -13 0
3 4 23 0
3 7 -16 0
3 12 17 0
3 22 25 0
3 26 -29 0
4 -20 23 0
4 -13 17 0
4 -6 14 0
4 6 -14 0
4 11 25 0
4 12 24 0
4 15 24 0
4 17 -21 0
4 24 25 0
4 25 -26 0
5 -8 -18 0
5 7 26 0
5 12 22 0
5 12 26 0
5 19 24 0
6 -20 -23 0
6 18 -24 0
6 18 22 0
7 -24 -30 0
7 -21 29 0
7 -16 -26 0
7 14 17 0
7 14 26 0
8 -24 -29 0
9 -18 24 0
9 -11 26 0
9 14 -28 0
9 18 27 0
9 23 -27 0
10 -19 27 0
10 12 -27 0
11 -12 -24 0
11 12 -28 0
11 18 -27 0
11 21 -22 0
11 21 24 0
12 17 -23 0
13 -21 23 0
13 -16 -18 0
13 18 -25 0
14 -18 -25 0
14 -18 27 0
14 17 -28 0
15 20 -27 0
15 23 27 0
16 -26 -28 0
16 -22 -30 0
17 -25 29 0
