p cnf 32 136
-28 31 -32 0
-27 -28 -30 0
-22 -24 -26 0
-22 30 -31 0
-19 -24 26 0
-19 20 30 0
-19 24 -31 0
-18 23 -30 0
-18 24 -28 0
-17 -21 23 0
-17 -20 26 0
-16 -25 29 0
-14 29 -31 0
-13 -30 31 0
-13 -21 -23 0
-13 -17 -31 0
-13 -17 30 0
-12 -25 31 0
-12 -16 -29 0
-11 -27 -28 0
-11 -12 24 0
-11 20 26 0
-11 21 -27 0
-10 -12 -22 0
-10 19 21 0
-9 -25 28 0
-9 -12 16 0
-9 11 -16 0
-9 14 -32 0
-9 18 32 0
-8 28 31 0
-7 -20 -29 0
-7 -8 25 0
-7 16 -22 0
-7 22 31 0
-6 -23 31 0
-6 -19 -25 0
-6 -13 -27 0
-6 13 -30 0
-6 24 -32 0
-5 -19 -32 0
-5 15 22 0
-5 22 32 0
-4 10 -31 0
-3 -23 -24 0
-3 -19 30 0
-3 -18 28 0
-3 -10 20 0
-3 -6 -14 0
-3 -5 8 0
-2 -27 28 0
-2 -11 -18 0
-2 -5 -30 0
-2 10 20 0
-2 21 -28 0
-1 -25 -29 0
-1 -25 28 0
-1 -19 23 0
-1 -17 -30 0
-1 -12 25 0
-1 8 -29 0
-1 22 -24 0
-1 24 -26 0
1 -27 31 0
1 -10 -11 0
1 8 -17 0
1 9 -15 0
1 18 -29 0
1 29 32 0
2 -18 28 0
2 -14 31 0
2 -8 -21 0
2 -8 21 0
2 -3 15 0
2 6 16 0
3 -13 -31 0
3 -9 -17 0
4 -17 28 0
4 6 32 0
4 7 -24 0
4 8 -18 0
4 21 -27 0
5 -7 -26 0
5 9 29 0
5 11 19 0
5 12 31 0
5 20 -26 0
6 -14 19 0
6 -7 -28 0
6 -7 19 0
6 15 30 0
7 -25 29 0
7 -22 -28 0
7 -20 23 0
7 -19 29 0
7 -17 -32 0
7 18 -20 0
8 9 -25 0
8 10 31 0
9 -17 30 0
9 -11 31 0
9 11 -27 0
9 13 -23 0
9 15 18 0
10 -20 28 0
10 -18 -31 0
10 21 -23 0
10 22 27 0
10 23 26 0
11 -25 -30 0
11 -19 -20 0
11 -15 29 0
11 26 28 0
12 -13 -20 0
12 14 -32 0
12 16 -30 0
13 -16 -27 0
13 -16 23 0
13 20 27 0
14 22 23 0
14 24 -27 0
15 -16 23 0
15 20 24 0
15 21 26 0
17 -19 -22 0
17 24 26 0
18 22 32 0
19 -22 28 0
19 27 -28 0
21 -25 -30 0
22 24 28 0
23 -30 -32 0
23 -26 -29 0
23 29 -31 0
24 -28 -32 0
25 28 -31 0
