p cnf 90 383
-72 -81 83 0
-66 75 -85 0
-63 72 89 0
-60 -78 82 0
-60 67 83 0
-59 -60 78 0
-54 -81 83 0
-54 62 -66 0
-54 66 83 0
-53 55 -77 0
-52 -73 76 0
-50 85 -88 0
-48 82 87 0
-46 -85 -89 0
-46 -57 -79 0
-46 47 50 0
-45 55 84 0
-45 66 74 0
-43 -67 -84 0
-42 43 -84 0
-41 -61 73 0
-40 -71 72 0
-40 78 -79 0
-38 -51 -52 0
-38 -50 87 0
-38 43 67 0
-38 52 62 0
-37 -41 -78 0
-36 55 60 0
-36 61 74 0
-35 -80 89 0
-35 -49 -87 0
-35 39 72 0
-35 39 84 0
-35 43 55 0
-35 52 74 0
-34 -47 -79 0
-34 -36 81 0
-34 42 57 0
-34 79 -88 0
-33 -62 66 0
-33 -54 87 0
-33 -43 -62 0
-33 43 51 0
-32 -76 -89 0
-31 33 -39 0
-31 39 -74 0
-31 50 88 0
-31 57 62 0
-30 -81 -86 0
-30 -61 -86 0
-30 57 -65 0
-29 -59 90 0
-29 -45 -87 0
-29 -41 57 0
-29 49 86 0
-29 72 -82 0
-29 84 88 0
-29 85 88 0
-28 -46 62 0
-28 34 -77 0
-28 51 -69 0
-28 56 -69 0
-28 71 82 0
-27 -64 -66 0
-27 -36 -85 0
-27 -35 66 0
-27 34 -41 0
-26 -65 -81 0
-26 27 80 0
-26 32 -81 0
-26 41 49 0
-25 -70 -78 0
-25 -28 44 0
-25 31 37 0
-25 32 40 0
-25 69 -86 0
-25 73 -87 0
-24 -38 69 0
-24 -37 68 0
-24 -35 82 0
-24 78 89 0
-23 -37 42 0
-23 -34 -43 0
-23 38 -85 0
-23 64 84 0
-23 73 79 0
-22 -48 50 0
-22 -47 78 0
-22 -27 -83 0
-22 36 -63 0
-22 77 81 0
-21 23 83 0
-21 29 72 0
-20 -84 -85 0
-20 -66 -68 0
-20 -33 -88 0
-20 -31 38 0
-19 -28 73 0
-19 28 -56 0
-18 -46 -56 0
-18 -42 -63 0
-18 -30 -45 0
-18 23 32 0
-18 26 -62 0
-17 18 24 0
-16 -39 -51 0
-16 39 -67 0
-15 -72 -78 0
-15 -23 -82 0
-15 21 -32 0
-15 43 -81 0
-14 -60 -90 0
-14 -45 51 0
-14 -39 -88 0
-14 -16 -33 0
-14 36 51 0
-13 -71 -72 0
-13 -51 -74 0
-13 -44 45 0
-13 -27 -60 0
-13 21 -79 0
-13 74 83 0
-12 -73 -83 0
-12 -26 70 0
-12 31 -90 0
-12 54 63 0
-11 -78 -83 0
-11 -44 -48 0
-11 -21 -22 0
-11 23 -58 0
-10 23 -79 0
-10 44 61 0
-9 -59 -60 0
-9 -23 -90 0
-9 -22 53 0
-9 -11 -24 0
-9 12 21 0
-9 47 -68 0
-9 59 64 0
-8 -81 -89 0
-8 -55 83 0
-8 -34 -76 0
-8 -30 90 0
-8 -23 89 0
-8 -16 48 0
-8 17 76 0
-8 17 89 0
-8 35 48 0
-8 38 71 0
-8 85 -86 0
-7 -60 -67 0
-7 -40 41 0
-7 -28 61 0
-7 -12 65 0
-6 -50 54 0
-6 -24 -89 0
-6 -11 33 0
-6 15 -32 0
-6 29 -66 0
-5 -22 73 0
-5 17 -52 0
-5 38 64 0
-4 -58 -75 0
-4 -39 -67 0
-4 -26 67 0
-4 17 -59 0
-4 18 54 0
-4 30 -51 0
-3 -62 78 0
-3 -53 75 0
-3 -28 69 0
-3 -26 -64 0
-3 -16 -57 0
-3 -15 -27 0
-3 5 9 0
-3 6 -15 0
-3 12 -25 0
-3 15 -52 0
-3 44 61 0
-2 -59 -69 0
-2 -48 86 0
-2 -33 44 0
-2 -29 -78 0
-2 -29 -37 0
-2 -11 88 0
-2 -8 -86 0
-2 18 71 0
-2 48 68 0
-1 -14 21 0
-1 -9 -12 0
-1 8 -88 0
-1 30 -50 0
-1 35 80 0
1 -43 -86 0
1 -19 -48 0
1 26 -47 0
2 -14 -67 0
2 18 55 0
2 30 -35 0
2 30 60 0
2 50 65 0
3 20 -62 0
3 20 27 0
4 -14 68 0
4 23 55 0
4 29 -63 0
4 71 -82 0
5 -25 82 0
5 -17 90 0
5 16 48 0
6 -78 -86 0
6 -25 -45 0
6 9 -70 0
6 9 62 0
6 17 -31 0
6 53 -59 0
6 54 56 0
6 83 90 0
7 -11 -13 0
7 46 77 0
7 84 -85 0
8 -45 89 0
8 -12 -19 0
8 14 33 0
8 23 -46 0
8 32 72 0
8 33 34 0
9 -20 52 0
9 -17 86 0
9 22 63 0
9 25 -61 0
9 40 45 0
9 52 -76 0
10 -67 85 0
10 -27 84 0
10 16 23 0
10 35 -41 0
10 55 -58 0
11 -30 -66 0
11 -27 82 0
11 35 -89 0
12 -48 -49 0
12 -16 -83 0
12 27 -74 0
13 -49 -80 0
13 -26 56 0
13 -17 -75 0
13 43 61 0
14 -64 80 0
14 -63 70 0
14 -28 73 0
14 22 -32 0
15 -47 -51 0
15 17 59 0
15 19 -79 0
15 23 -82 0
15 29 -50 0
15 38 55 0
16 -65 -84 0
16 -44 -48 0
16 53 -77 0
16 66 -73 0
16 70 82 0
17 22 -71 0
17 26 81 0
17 34 68 0
17 35 -88 0
17 65 81 0
18 -24 -48 0
18 23 -56 0
18 24 -53 0
18 24 50 0
18 24 52 0
18 48 64 0
18 73 90 0
19 -79 90 0
19 -77 82 0
19 -73 -82 0
19 -71 89 0
19 -66 78 0
19 21 -50 0
19 32 -54 0
19 52 -90 0
20 -57 70 0
20 71 81 0
21 -43 69 0
21 30 37 0
22 -44 -83 0
22 -27 -54 0
22 -25 -49 0
22 29 35 0
22 37 80 0
22 38 -50 0
22 48 -77 0
23 -57 63 0
23 26 -44 0
23 46 51 0
24 -59 61 0
24 -58 82 0
24 47 52 0
25 -43 56 0
25 -39 -57 0
25 -34 -64 0
25 26 -90 0
25 26 -48 0
26 -27 -30 0
26 29 -54 0
27 -30 83 0
27 29 46 0
27 69 -85 0
28 -72 -75 0
28 -66 -67 0
28 -36 -57 0
28 29 -49 0
28 70 -87 0
29 46 -72 0
30 -35 -42 0
30 41 89 0
30 65 68 0
30 72 -74 0
31 -40 47 0
31 -32 -35 0
31 36 -75 0
31 41 -53 0
31 69 81 0
31 81 -84 0
32 -51 -62 0
32 -40 -78 0
32 43 -68 0
32 43 -57 0
34 -39 63 0
34 65 -84 0
35 -75 77 0
35 45 48 0
35 55 -63 0
36 -67 -83 0
36 -52 69 0
36 37 -69 0
37 -64 82 0
38 -52 -59 0
38 54 72 0
38 56 -69 0
40 -69 -89 0
40 -52 -85 0
40 55 69 0
41 -60 81 0
42 47 -60 0
44 -72 79 0
44 60 -75 0
45 -48 -72 0
46 -64 75 0
48 -62 83 0
48 -55 67 0
48 76 -78 0
49 -85 -88 0
49 -79 -88 0
49 -67 -75 0
49 -61 72 0
49 62 63 0
50 -54 -87 0
50 -52 82 0
51 56 -88 0
52 76 -79 0
53 -57 85 0
53 54 -82 0
53 62 68 0
56 -57 -79 0
58 -61 -67 0
58 65 -89 0
59 -82 -88 0
59 -62 -80 0
59 67 75 0
60 67 71 0
62 75 -83 0
63 -67 87 0
66 78 87 0
68 -73 -82 0
69 71 80 0
69 74 -76 0
69 76 -85 0
73 -80 84 0
80 87 -89 0
