p cnf 100 600
-86 -89 -92 0
-86 94 -96 0
-86 94 97 0
-84 96 100 0
-77 80 100 0
-74 -79 -100 0
-73 -87 -89 0
-73 90 -99 0
-72 74 90 0
-72 77 85 0
-71 82 93 0
-70 -75 91 0
-70 -74 100 0
-69 -79 99 0
-67 -87 89 0
-67 -78 -94 0
-67 -72 -83 0
-66 69 -93 0
-65 67 84 0
-65 68 -69 0
-64 -85 -100 0
-63 -80 -83 0
-63 -70 -74 0
-62 70 -87 0
-62 73 -91 0
-61 -94 -99 0
-61 65 81 0
-59 -74 -86 0
-58 69 -74 0
-57 60 -68 0
-57 76 -96 0
-57 85 -96 0
-56 -75 -81 0
-56 -57 62 0
-55 -65 -70 0
-55 -59 63 0
-55 83 -85 0
-53 55 -90 0
-52 -88 96 0
-52 -54 -75 0
-51 -79 91 0
-51 -75 -92 0
-51 60 64 0
-51 63 83 0
-51 74 85 0
-51 87 97 0
-51 89 -99 0
-50 -79 87 0
-50 -67 69 0
-50 -55 89 0
-50 -55 98 0
-50 -51 -68 0
-50 53 97 0
-49 -84 85 0
-49 -75 99 0
-49 68 85 0
-48 84 97 0
-47 -74 90 0
-47 -63 97 0
-47 71 75 0
-46 56 69 0
-46 60 97 0
-45 -76 91 0
-45 -75 78 0
-45 -64 91 0
-45 -62 -86 0
-45 -60 98 0
-44 -71 76 0
-44 -67 85 0
-44 52 73 0
-43 -54 64 0
-43 49 -63 0
-43 53 58 0
-42 50 -96 0
-42 57 84 0
-42 79 -85 0
-41 -42 -97 0
-41 -42 91 0
-40 -55 -65 0
-40 -46 50 0
-39 -62 -69 0
-39 -59 -95 0
-39 -44 52 0
-39 -43 -72 0
-39 64 -90 0
-39 66 -79 0
-38 47 99 0
-37 -56 -83 0
-37 41 86 0
-37 47 -73 0
-37 48 -81 0
-37 80 94 0
-36 -71 78 0
-36 -51 74 0
-35 54 94 0
-35 78 -87 0
-34 -55 56 0
-34 -49 -71 0
-34 -47 -61 0
-34 45 53 0
-34 63 -67 0
-33 -82 -98 0
-33 -49 74 0
-33 50 62 0
-32 -82 86 0
-32 68 -88 0
-32 82 92 0
-30 -50 61 0
-30 -36 60 0
-30 42 57 0
-30 45 83 0
-30 53 69 0
-29 -77 -86 0
-29 73 -94 0
-28 37 81 0
-28 53 77 0
-27 -54 62 0
-27 -48 -65 0
-27 -43 53 0
-27 28 -55 0
-27 48 50 0
-27 72 -90 0
-26 -54 83 0
-26 -43 44 0
-26 32 -45 0
-26 35 -50 0
-26 36 80 0
-26 84 -93 0
-25 -34 92 0
-25 -26 36 0
-25 38 99 0
-25 41 95 0
-25 44 -65 0
-24 -88 98 0
-24 -66 72 0
-24 -51 84 0
-24 -49 -72 0
-24 67 88 0
-23 -75 85 0
-23 -46 98 0
-23 26 -61 0
-23 27 68 0
-23 35 -52 0
-23 36 -97 0
-23 63 93 0
-22 -42 46 0
-22 32 94 0
-22 74 83 0
-22 85 99 0
-21 -89 96 0
-21 -67 -76 0
-21 -44 -48 0
-21 -23 71 0
-21 -23 93 0
-21 22 -75 0
-21 33 -47 0
-21 36 -75 0
-21 62 80 0
-21 74 -85 0
-21 95 -97 0
-20 -67 85 0
-20 -58 -74 0
-20 -53 90 0
-20 -37 -52 0
-20 22 57 0
-20 29 77 0
-20 35 -53 0
-20 62 89 0
-19 -79 -92 0
-19 -76 -80 0
-19 -50 96 0
-19 -23 -48 0
-19 63 73 0
-18 -39 -41 0
-18 -34 -75 0
-18 -25 86 0
-18 28 46 0
-18 47 50 0
-18 75 -78 0
-17 -82 95 0
-17 -35 -76 0
-17 -24 56 0
-17 33 -92 0
-17 36 -77 0
-17 65 73 0
-17 71 -83 0
-16 -47 59 0
-16 -17 -96 0
-16 26 -56 0
-16 44 85 0
-16 49 80 0
-15 -84 -93 0
-15 -70 -89 0
-15 -68 -97 0
-15 -53 81 0
-15 -46 52 0
-15 17 90 0
-15 38 -40 0
-15 83 87 0
-14 -85 -91 0
-14 -24 -31 0
-14 -16 -60 0
-14 15 33 0
-14 28 89 0
-14 41 -64 0
-14 44 -67 0
-14 95 -99 0
-13 -34 -36 0
-13 27 62 0
-13 38 -89 0
-13 63 -89 0
-12 -53 59 0
-12 -47 -95 0
-12 37 47 0
-12 68 81 0
-11 -75 81 0
-11 -19 -89 0
-11 -14 58 0
-11 28 58 0
-11 54 -82 0
-10 -68 98 0
-10 -26 -28 0
-10 -21 72 0
-10 17 -49 0
-10 29 87 0
-10 56 -79 0
-9 -81 -89 0
-9 -37 -80 0
-9 -36 -84 0
-9 -17 -84 0
-9 -12 40 0
-9 17 65 0
-9 29 -92 0
-9 48 -81 0
-9 49 65 0
-9 67 -93 0
-8 -22 -67 0
-8 -21 -53 0
-8 -15 83 0
-8 10 48 0
-8 16 22 0
-8 46 -62 0
-8 51 67 0
-8 54 58 0
-8 64 -96 0
-8 90 97 0
-7 -55 97 0
-7 -46 65 0
-7 -18 -33 0
-7 -14 -32 0
-7 -14 42 0
-7 8 70 0
-7 14 -59 0
-7 17 -72 0
-7 29 -56 0
-7 59 -81 0
-6 -68 93 0
-6 -60 -78 0
-6 -51 -69 0
-6 -41 -82 0
-6 22 60 0
-6 33 43 0
-6 37 -67 0
-6 52 84 0
-6 63 72 0
-6 65 -74 0
-5 -41 -98 0
-5 -35 -88 0
-5 -35 58 0
-5 -26 -63 0
-5 -20 73 0
-5 -11 88 0
-5 51 67 0
-5 63 -96 0
-4 -98 99 0
-4 -51 57 0
-4 12 91 0
-4 13 -90 0
-4 17 71 0
-4 30 -57 0
-4 63 -69 0
-4 67 -76 0
-4 87 -94 0
-3 -21 -55 0
-3 -18 81 0
-3 -16 -35 0
-3 -8 10 0
-3 4 36 0
-3 42 85 0
-3 68 86 0
-2 -13 32 0
-2 -12 -67 0
-2 15 26 0
-2 22 53 0
-2 23 81 0
-2 31 43 0
-2 39 -47 0
-2 63 87 0
-1 -85 -89 0
-1 -70 -84 0
-1 -68 -91 0
-1 -68 100 0
-1 -66 -81 0
-1 -42 94 0
-1 -41 -64 0
-1 -37 -73 0
-1 -36 -83 0
-1 -28 -93 0
-1 -26 -60 0
-1 -22 68 0
-1 7 -49 0
-1 14 -96 0
-1 30 -83 0
-1 35 -56 0
-1 39 87 0
-1 41 -52 0
-1 41 55 0
-1 42 52 0
-1 56 -92 0
1 -39 41 0
1 -29 56 0
1 -24 43 0
1 -21 32 0
1 -15 31 0
1 20 -74 0
1 36 83 0
1 40 -81 0
1 44 -50 0
1 64 -82 0
2 -58 -74 0
2 -25 -45 0
2 13 32 0
2 33 77 0
2 41 -50 0
2 51 -82 0
3 -60 -89 0
3 -52 70 0
3 -36 41 0
3 -36 69 0
3 -31 -87 0
3 -31 -67 0
3 -16 -36 0
3 6 96 0
3 15 -89 0
3 16 -47 0
3 19 94 0
3 49 -86 0
3 86 -88 0
4 -85 -88 0
4 -80 93 0
4 -65 -79 0
4 -36 61 0
4 -23 -52 0
4 45 -71 0
5 16 -93 0
5 19 -49 0
5 39 94 0
5 56 -88 0
6 -68 79 0
6 -57 59 0
6 -11 -53 0
6 13 58 0
6 32 75 0
6 66 90 0
7 -47 -78 0
7 -24 51 0
7 -23 72 0
7 -12 47 0
7 36 79 0
7 54 94 0
7 55 59 0
7 56 75 0
7 62 88 0
8 -30 -59 0
8 -17 -64 0
8 -11 -19 0
8 41 97 0
8 53 61 0
8 55 71 0
9 -65 -90 0
9 -51 84 0
9 -20 67 0
9 53 82 0
9 56 -96 0
10 -60 71 0
10 -52 -88 0
10 -19 -39 0
10 -11 -14 0
10 14 -93 0
10 31 -83 0
10 86 89 0
11 -90 -99 0
11 -69 -73 0
11 -47 94 0
11 -42 83 0
11 -29 62 0
11 -29 75 0
11 30 -90 0
11 66 96 0
12 -23 -26 0
12 37 52 0
12 58 96 0
13 -43 59 0
13 -41 92 0
13 -33 82 0
13 14 -39 0
13 27 -82 0
14 -90 -98 0
14 -60 -94 0
14 -49 -64 0
14 -36 -39 0
14 54 62 0
14 65 -82 0
14 95 97 0
15 17 78 0
15 44 97 0
16 44 -69 0
16 68 -84 0
17 -73 -74 0
17 -41 64 0
17 -36 57 0
17 -31 44 0
17 -27 -91 0
17 -21 -61 0
17 20 -87 0
17 25 -37 0
17 25 41 0
17 38 -50 0
17 45 51 0
17 76 -85 0
18 -59 -73 0
18 -56 -85 0
18 -40 -93 0
18 -38 94 0
18 -25 76 0
18 -22 39 0
18 22 44 0
18 34 65 0
18 74 -100 0
19 -53 -58 0
19 22 -59 0
19 43 -99 0
20 -59 81 0
20 -34 -96 0
20 -34 -89 0
20 -27 73 0
20 27 44 0
20 30 -94 0
21 -59 -87 0
21 -32 -79 0
21 -30 -98 0
21 27 -99 0
21 37 -87 0
21 69 -83 0
22 -73 79 0
22 -41 83 0
22 -36 72 0
22 -32 95 0
22 26 -79 0
22 52 -69 0
22 52 -61 0
22 85 -95 0
23 -72 -75 0
23 -28 82 0
23 27 -54 0
23 42 48 0
23 47 -94 0
23 69 78 0
24 32 -95 0
24 50 -73 0
24 55 -70 0
25 -38 61 0
25 -29 79 0
25 -26 53 0
25 50 -75 0
26 -44 61 0
26 36 -74 0
26 62 90 0
27 -77 96 0
27 -53 78 0
27 -37 -76 0
27 32 56 0
27 42 -71 0
27 56 -87 0
27 77 -97 0
28 59 94 0
29 -46 51 0
30 -58 67 0
30 -51 97 0
30 -32 43 0
30 38 85 0
30 55 64 0
30 60 -96 0
30 63 -73 0
30 83 -91 0
30 83 -89 0
31 -51 -91 0
31 38 81 0
31 46 -76 0
31 48 50 0
31 61 85 0
31 94 97 0
32 -60 -65 0
32 -37 -48 0
32 59 -78 0
32 79 89 0
33 -53 72 0
33 -50 -91 0
33 96 -98 0
34 -51 -86 0
34 -48 95 0
34 -43 -46 0
35 -57 -84 0
35 -55 -97 0
35 -37 49 0
36 -61 70 0
36 -60 -84 0
36 -37 58 0
37 -64 90 0
37 -50 80 0
37 -43 91 0
37 55 58 0
38 -83 86 0
38 -77 83 0
38 -65 -84 0
38 47 -97 0
38 86 -92 0
39 -59 72 0
39 49 81 0
39 60 -77 0
40 -43 63 0
41 -87 -95 0
41 -80 -84 0
41 -66 78 0
41 -62 -98 0
42 -79 84 0
42 -72 79 0
42 59 87 0
43 -66 99 0
43 51 -90 0
44 56 88 0
44 76 -91 0
45 -71 82 0
45 -57 63 0
45 72 82 0
46 -97 -100 0
46 -60 100 0
46 -48 61 0
46 47 -48 0
46 58 -60 0
47 -50 84 0
47 54 79 0
47 60 93 0
47 76 -77 0
48 -66 84 0
48 63 -97 0
48 90 97 0
49 66 -72 0
49 75 -94 0
50 63 72 0
50 63 95 0
51 -62 -63 0
52 -78 93 0
52 -77 97 0
52 60 93 0
52 76 -80 0
52 80 85 0
53 65 81 0
54 70 -71 0
54 83 -97 0
55 77 -98 0
56 -60 -100 0
56 64 69 0
56 85 93 0
57 -77 -93 0
59 -89 93 0
59 -67 -69 0
60 70 96 0
61 -65 96 0
61 67 -91 0
62 -81 -83 0
63 -86 -94 0
63 -79 100 0
65 70 89 0
67 -74 81 0
67 -68 -83 0
67 95 -99 0
70 -92 96 0
70 93 100 0
71 76 91 0
72 -88 89 0
74 -76 79 0
75 76 -94 0
76 85 92 0
78 87 91 0
84 -86 88 0
87 89 -96 0
88 -91 -93 0
90 94 -97 0
92 -95 97 0
