p cnf 45 191
-34 35 -39 0
-29 39 -40 0
-28 33 -45 0
-28 38 45 0
-24 26 -27 0
-24 32 -41 0
-23 -31 34 0
-23 27 29 0
-22 -25 -27 0
-21 -26 -27 0
-20 -28 -30 0
-20 34 -37 0
-19 -32 -44 0
-19 22 29 0
-18 31 38 0
-18 35 37 0
-17 -33 44 0
-17 -26 32 0
-17 -23 -32 0
-17 -21 -40 0
-17 18 -43 0
-16 -28 30 0
-16 -27 37 0
-16 -24 -41 0
-16 22 -42 0
-16 31 42 0
-15 -20 -44 0
-14 -28 45 0
-14 -21 35 0
-14 -19 20 0
-14 35 36 0
-14 39 45 0
-13 -24 31 0
-13 -17 36 0
-13 21 28 0
-11 -38 -42 0
-11 -31 34 0
-11 -19 20 0
-11 -15 30 0
-11 20 -32 0
-10 -23 43 0
-10 -13 -32 0
-10 25 42 0
-10 28 36 0
-9 -29 43 0
-9 -10 13 0
-9 16 -44 0
-9 18 -28 0
-8 -22 36 0
-8 -9 -32 0
-8 23 -43 0
-8 27 37 0
-8 29 -32 0
-8 32 -45 0
-7 -27 35 0
-7 28 41 0
-6 -27 39 0
-6 -20 25 0
-6 -17 -29 0
-6 -13 36 0
-6 7 36 0
-6 16 23 0
-6 19 40 0
-6 26 -37 0
-6 31 -35 0
-5 -6 10 0
-5 11 37 0
-5 36 38 0
-4 -21 -44 0
-4 -8 22 0
-4 9 19 0
-4 19 36 0
-3 -23 28 0
-3 -19 28 0
-3 -15 -23 0
-3 -10 -42 0
-3 -10 45 0
-3 14 -41 0
-3 18 26 0
-3 26 27 0
-2 -32 -45 0
-2 -17 -20 0
-2 -16 -24 0
-2 -15 42 0
-2 -11 -41 0
-2 -8 12 0
-2 -8 26 0
-2 25 43 0
-2 31 36 0
-1 -30 -40 0
-1 -18 -19 0
-1 -3 -27 0
-1 -2 16 0
-1 3 39 0
-1 7 44 0
-1 12 14 0
-1 13 -36 0
-1 25 -30 0
-1 39 -40 0
1 -37 -40 0
1 -23 -40 0
1 -15 -41 0
1 -4 -39 0
1 -4 40 0
1 5 -38 0
1 19 31 0
1 23 35 0
2 -20 42 0
3 -20 -43 0
3 6 42 0
3 13 39 0
3 16 -45 0
4 -31 -38 0
4 -22 30 0
4 -17 44 0
4 -16 -38 0
4 19 -33 0
5 -29 -45 0
5 11 32 0
5 19 -36 0
5 22 29 0
5 27 -36 0
5 35 -45 0
6 -35 44 0
6 -31 39 0
6 -22 -40 0
6 -19 23 0
6 8 -21 0
6 38 44 0
7 -22 -41 0
7 -21 -42 0
7 -14 15 0
7 16 -20 0
7 17 30 0
7 22 -37 0
7 32 35 0
8 -21 -43 0
8 -9 36 0
8 21 -23 0
8 21 42 0
9 -40 43 0
10 -19 -43 0
10 -19 27 0
10 14 -37 0
11 -25 -38 0
11 14 -30 0
11 24 -35 0
12 -43 44 0
12 17 -28 0
12 31 36 0
13 -28 -34 0
13 19 28 0
14 -23 -33 0
14 -21 -39 0
15 -42 -45 0
15 -26 -44 0
15 -24 -32 0
15 -23 27 0
15 -18 -35 0
15 33 -39 0
15 42 44 0
16 36 39 0
17 -38 39 0
17 18 22 0
17 34 -38 0
18 -36 -39 0
18 -33 -41 0
18 20 -39 0
18 27 30 0
19 -26 -42 0
19 -22 -44 0
19 43 44 0
21 -34 -44 0
22 -35 43 0
22 -26 -42 0
22 25 -44 0
23 24 -37 0
23 33 38 0
24 27 -42 0
24 42 43 0
25 40 -44 0
26 -34 43 0
26 35 42 0
28 -32 45 0
28 34 -37 0
29 -34 -36 0
29 35 -40 0
32 -41 -44 0
33 -38 40 0
35 38 39 0
40 -42 -44 0
