p cnf 150 525
-110 -119 134 0
-110 114 -136 0
-99 -145 -146 0
-96 -140 142 0
-94 -119 -150 0
-93 -101 121 0
-92 -103 -114 0
-92 107 -109 0
-91 116 149 0
-90 -92 143 0
-90 91 -113 0
-89 -103 -123 0
-89 134 137 0
-88 -123 129 0
-86 -103 -114 0
-86 -94 -111 0
-82 103 118 0
-82 112 -136 0
-81 123 138 0
-80 -82 101 0
-80 102 -104 0
-79 -91 -145 0
-79 94 -98 0
-78 -100 -108 0
-76 -93 -143 0
-76 100 -116 0
-76 133 -136 0
-75 -124 -147 0
-74 -122 126 0
-74 77 112 0
-71 -90 -124 0
-71 -79 -84 0
-71 72 -130 0
-71 99 109 0
-70 144 145 0
-69 134 -139 0
-68 -86 110 0
-64 138 146 0
-63 -88 133 0
-63 86 99 0
-63 95 -103 0
-62 -70 -71 0
-62 78 -137 0
-62 92 105 0
-61 -94 -136 0
-61 -74 -98 0
-61 78 80 0
-61 125 -142 0
-60 -81 118 0
-60 112 114 0
-59 -119 124 0
-59 -107 136 0
-59 93 -150 0
-58 -100 110 0
-57 -116 129 0
-57 -91 150 0
-57 83 -115 0
-56 -59 122 0
-56 87 -133 0
-56 94 95 0
-55 -123 148 0
-55 60 103 0
-55 79 97 0
-55 89 135 0
-53 -60 113 0
-53 96 126 0
-53 111 -131 0
-52 -59 -97 0
-52 65 -115 0
-51 -124 146 0
-51 -102 -141 0
-51 -64 -147 0
-51 -52 108 0
-51 86 -116 0
-50 -66 -142 0
-50 71 -113 0
-50 77 83 0
-49 -108 113 0
-49 -64 -126 0
-49 -57 -73 0
-48 126 133 0
-47 102 -138 0
-47 137 140 0
-46 -124 138 0
-46 59 -101 0
-45 -99 110 0
-45 -78 -120 0
-45 86 -102 0
-45 95 -131 0
-44 -113 -142 0
-43 -71 -83 0
-43 -70 -126 0
-43 68 140 0
-42 -112 120 0
-42 -89 146 0
-42 -45 -123 0
-42 46 -125 0
-42 53 119 0
-42 57 132 0
-42 66 -148 0
-41 -96 -136 0
-41 -54 -63 0
-41 -45 124 0
-41 84 130 0
-40 -107 -144 0
-40 -73 113 0
-40 117 -150 0
-40 120 -139 0
-39 -116 -146 0
-39 -61 107 0
-38 -60 -139 0
-37 -78 122 0
-37 -54 -114 0
-37 -47 -126 0
-37 60 -113 0
-36 -46 51 0
-36 89 -131 0
-35 71 137 0
-34 -36 -133 0
-34 80 -121 0
-34 91 98 0
-33 -71 -76 0
-33 -40 -41 0
-33 55 -61 0
-32 -55 -87 0
-32 34 36 0
-32 46 -73 0
-31 -97 144 0
-31 -73 79 0
-31 54 -77 0
-31 56 113 0
-30 -52 71 0
-30 85 -125 0
-29 35 41 0
-28 -72 81 0
-28 30 92 0
-28 89 -140 0
-27 51 110 0
-27 65 71 0
-27 76 -127 0
-26 47 -87 0
-25 -131 -142 0
-25 -122 124 0
-25 -68 71 0
-25 -60 119 0
-25 -48 -127 0
-25 48 61 0
-23 46 -85 0
-23 85 120 0
-22 -42 133 0
-22 -35 134 0
-22 -33 61 0
-22 27 113 0
-21 -89 -93 0
-21 -70 -125 0
-21 -26 122 0
-21 28 72 0
-21 52 120 0
-21 69 -145 0
-21 85 118 0
-20 -116 118 0
-20 53 -90 0
-19 -90 126 0
-19 -75 -123 0
-19 -62 -105 0
-19 -42 -131 0
-19 -31 108 0
-19 40 -75 0
-18 -115 -132 0
-18 -111 -146 0
-18 31 -66 0
-18 124 135 0
-17 -94 98 0
-17 -93 -125 0
-17 -70 102 0
-17 66 -79 0
-17 70 134 0
-17 80 96 0
-17 90 -143 0
-17 122 131 0
-16 -97 -141 0
-16 -79 89 0
-16 -45 118 0
-16 -39 74 0
-16 -18 -100 0
-16 125 129 0
-15 -69 99 0
-15 82 112 0
-15 133 -146 0
-14 21 -55 0
-14 51 126 0
-14 72 -147 0
-13 -113 129 0
-13 54 132 0
-13 102 103 0
-12 -128 140 0
-12 -55 81 0
-12 18 110 0
-12 22 -49 0
-12 25 -64 0
-11 -121 141 0
-10 -105 -146 0
-10 -94 129 0
-10 -51 66 0
-10 -40 130 0
-10 96 120 0
-9 -68 99 0
-8 -84 -142 0
-8 -57 -118 0
-8 -29 84 0
-8 18 -97 0
-7 -72 95 0
-7 47 -68 0
-6 -55 -123 0
-6 -29 59 0
-6 -27 77 0
-6 -11 -78 0
-6 -11 -13 0
-6 72 -96 0
-5 -98 106 0
-5 -57 -118 0
-5 -21 -34 0
-5 50 -129 0
-5 90 -93 0
-4 -119 141 0
-4 17 127 0
-4 24 -57 0
-3 -49 -78 0
-3 -46 116 0
-3 -44 -72 0
-3 -21 109 0
-3 -14 51 0
-3 32 56 0
-3 70 -92 0
-3 82 90 0
-2 -117 132 0
-2 -67 137 0
-2 -47 136 0
-2 20 35 0
-2 28 -52 0
-2 83 107 0
-2 133 137 0
-1 -22 -51 0
-1 34 -137 0
-1 70 -128 0
-1 95 96 0
1 -77 -129 0
1 -70 -90 0
1 -40 48 0
1 -20 -25 0
1 -14 -55 0
1 5 -90 0
1 54 144 0
1 93 -96 0
2 -54 101 0
2 -25 67 0
2 -17 -115 0
2 -8 35 0
2 -4 24 0
2 58 59 0
2 73 -84 0
3 -100 -146 0
3 -6 -39 0
3 60 -113 0
4 -42 71 0
4 -27 91 0
4 68 133 0
5 -86 125 0
5 -66 87 0
5 -25 -47 0
5 -18 -90 0
5 -11 -104 0
5 48 -93 0
5 130 131 0
6 -93 -102 0
6 -63 -104 0
6 -36 44 0
6 7 97 0
6 25 27 0
6 46 -135 0
6 53 98 0
6 55 119 0
7 -78 150 0
7 -21 116 0
7 -19 -90 0
7 10 -52 0
7 26 -29 0
7 52 72 0
7 65 -81 0
7 92 147 0
8 23 88 0
8 43 102 0
8 96 -149 0
8 103 140 0
8 105 -118 0
10 -27 -118 0
10 -24 -51 0
10 46 -55 0
10 53 134 0
10 67 -99 0
10 111 113 0
11 -12 96 0
11 29 105 0
11 83 122 0
11 97 -104 0
11 100 -105 0
11 112 -128 0
12 -72 -86 0
12 -46 -129 0
13 -22 -134 0
13 60 88 0
13 63 119 0
14 -129 139 0
14 -51 88 0
14 -32 53 0
14 118 128 0
15 -105 135 0
15 -67 91 0
15 37 -110 0
15 86 145 0
16 -132 148 0
16 52 -67 0
16 102 -124 0
17 -73 -93 0
17 -42 102 0
17 -21 -41 0
17 28 -33 0
17 31 -70 0
17 34 150 0
17 37 -40 0
17 62 -140 0
17 93 103 0
18 -124 132 0
18 -64 -144 0
18 -60 83 0
18 -20 28 0
19 -73 -74 0
19 63 -104 0
19 87 -113 0
19 114 118 0
20 -93 124 0
20 -51 -130 0
20 22 -65 0
21 -33 -150 0
21 36 60 0
21 97 -137 0
21 97 139 0
21 129 -141 0
22 -76 114 0
22 -74 142 0
22 -51 55 0
22 65 138 0
23 -137 -150 0
23 -73 75 0
23 -24 30 0
23 36 107 0
23 85 103 0
24 -67 -147 0
24 -51 -146 0
24 -30 -105 0
24 108 133 0
24 128 141 0
25 94 109 0
26 100 -113 0
26 117 -139 0
26 139 144 0
27 -36 37 0
27 -35 -87 0
27 37 53 0
27 59 84 0
27 75 -143 0
27 99 132 0
28 -116 146 0
28 -46 76 0
28 -34 132 0
28 84 110 0
29 -85 130 0
29 -71 134 0
29 -31 -145 0
29 39 -102 0
29 62 93 0
29 93 104 0
29 96 -106 0
30 -128 142 0
30 -61 -96 0
30 -57 -118 0
30 -50 115 0
30 34 114 0
31 -90 129 0
31 -45 -123 0
31 49 -64 0
31 81 129 0
32 70 -104 0
32 91 -144 0
32 113 140 0
33 -100 115 0
33 78 146 0
33 100 139 0
34 -67 147 0
34 -57 -114 0
34 46 104 0
34 50 -54 0
34 66 -77 0
34 84 -102 0
35 -43 -135 0
36 -72 -135 0
36 42 119 0
37 70 121 0
38 -137 -148 0
38 -44 -82 0
38 60 -89 0
38 71 124 0
39 -77 116 0
39 83 -115 0
39 88 -122 0
39 96 -125 0
40 -85 103 0
40 -52 116 0
40 46 144 0
40 61 -66 0
40 95 145 0
41 94 -97 0
42 -106 137 0
42 -78 120 0
42 -63 98 0
42 54 -108 0
42 67 -124 0
43 -83 -88 0
43 44 -143 0
43 70 79 0
43 90 -129 0
44 -113 -122 0
44 80 129 0
45 -105 -123 0
45 -102 -105 0
46 -137 139 0
47 -78 117 0
47 -49 -73 0
47 63 79 0
47 79 -146 0
48 -63 143 0
48 86 -149 0
48 125 -130 0
49 80 -103 0
49 126 -135 0
50 -68 102 0
50 75 -76 0
51 -108 139 0
52 -122 -149 0
52 53 57 0
52 63 -72 0
52 90 -130 0
53 -82 -135 0
53 83 -138 0
54 66 88 0
55 111 -119 0
56 -88 -104 0
56 58 -68 0
56 65 -104 0
58 -134 -143 0
58 -84 141 0
58 67 -129 0
58 104 139 0
60 -65 -84 0
60 92 -123 0
61 -135 139 0
61 -101 127 0
61 -82 146 0
61 -79 111 0
61 -78 97 0
61 81 115 0
62 94 -138 0
63 -100 115 0
63 -90 -101 0
63 -79 108 0
65 98 -120 0
66 -79 103 0
66 71 -146 0
67 -117 -120 0
68 102 -103 0
69 -104 -110 0
69 -95 142 0
70 71 -103 0
71 -93 -106 0
71 86 -99 0
71 93 114 0
72 -140 143 0
72 -85 -108 0
72 75 79 0
72 93 -123 0
73 -86 142 0
73 -77 -93 0
74 84 148 0
75 -130 -143 0
76 -115 140 0
76 100 -135 0
76 138 141 0
77 -100 -116 0
77 -88 112 0
77 95 -130 0
78 -106 139 0
80 -92 137 0
81 85 -147 0
84 105 -110 0
85 -95 121 0
85 110 131 0
87 -104 -108 0
87 -93 -122 0
87 104 -127 0
90 101 -103 0
90 107 -109 0
91 -97 144 0
92 -129 137 0
93 101 106 0
95 99 119 0
99 -124 -143 0
100 112 -125 0
102 -140 147 0
103 118 121 0
104 -120 -131 0
107 129 132 0
112 113 135 0
114 -118 150 0
120 138 141 0
121 -135 -149 0
