p cnf 260 1113
-230 -239 256 0
-228 -235 240 0
-228 -233 249 0
-228 -229 231 0
-214 -245 257 0
-209 223 236 0
-207 229 -237 0
-195 213 254 0
-195 214 220 0
-194 -235 239 0
-193 221 247 0
-189 216 222 0
-188 -192 -234 0
-186 -235 258 0
-185 -202 247 0
-183 -241 -258 0
-183 -211 -231 0
-182 203 245 0
-181 -205 -232 0
-181 -192 -232 0
-179 201 -244 0
-178 -226 242 0
-177 -186 251 0
-175 -189 190 0
-173 -192 227 0
-172 195 -198 0
-171 194 -238 0
-170 190 207 0
-169 -179 -186 0
-167 -187 -228 0
-167 192 241 0
-163 188 -220 0
-159 200 211 0
-159 203 243 0
-159 219 251 0
-158 -182 256 0
-158 238 -243 0
-157 -188 208 0
-157 -179 244 0
-156 -197 -208 0
-156 172 235 0
-156 230 249 0
-153 -194 -228 0
-153 208 238 0
-152 173 247 0
-150 179 216 0
-148 -201 -244 0
-148 -163 257 0
-147 -184 -213 0
-147 163 -255 0
-146 -216 -241 0
-144 -149 213 0
-141 -145 164 0
-141 168 -171 0
-140 179 -212 0
-139 160 -169 0
-139 165 235 0
-138 -165 257 0
-138 151 223 0
-138 213 233 0
-137 -145 -247 0
-137 164 -226 0
-136 -230 245 0
-135 157 -191 0
-134 228 -255 0
-131 165 -257 0
-131 199 -245 0
-130 -133 -145 0
-128 167 198 0
-128 192 -227 0
-127 -211 226 0
-127 -148 -175 0
-126 -193 246 0
-126 -188 -200 0
-126 -167 213 0
-126 196 -229 0
-125 172 -198 0
-124 -194 204 0
-124 -158 170 0
-120 125 -129 0
-120 185 221 0
-119 -151 -177 0
-119 -130 -173 0
-119 123 165 0
-119 150 -227 0
-119 183 -223 0
-119 220 -243 0
-118 -213 -247 0
-118 149 208 0
-117 -163 -234 0
-117 -135 -178 0
-117 -122 -254 0
-117 168 231 0
-116 160 186 0
-116 209 -216 0
-115 -147 223 0
-115 129 137 0
-115 240 252 0
-114 -219 249 0
-114 175 220 0
-113 -135 223 0
-112 120 -190 0
-111 -185 -215 0
-110 -127 -193 0
-110 165 -167 0
-109 -224 235 0
-109 -175 -246 0
-109 -150 -204 0
-109 130 146 0
-108 111 233 0
-107 -228 230 0
-107 -153 -213 0
-107 175 -220 0
-107 203 234 0
-105 -178 196 0
-105 201 -245 0
-103 -158 -190 0
-103 -136 -155 0
-103 -133 -170 0
-103 -121 -240 0
-102 -116 245 0
-102 121 -256 0
-102 156 -199 0
-101 -203 -235 0
-101 112 172 0
-101 128 -235 0
-101 188 221 0
-101 218 -248 0
-99 125 -181 0
-98 -137 211 0
-98 -105 -180 0
-97 120 -197 0
-97 210 -226 0
-96 -171 -255 0
-96 -107 -210 0
-95 -120 -175 0
-95 184 -256 0
-95 195 -239 0
-94 -188 -221 0
-94 -136 160 0
-94 106 -114 0
-94 108 109 0
-93 181 204 0
-93 199 250 0
-92 157 188 0
-91 -181 -212 0
-91 -95 99 0
-91 98 -153 0
-91 105 142 0
-91 161 -206 0
-91 165 242 0
-89 -215 -249 0
-89 -163 -178 0
-89 152 220 0
-88 -220 250 0
-88 -107 -209 0
-88 146 -205 0
-88 156 -203 0
-88 184 224 0
-87 -206 -258 0
-87 -101 -172 0
-87 114 -147 0
-87 154 -206 0
-87 204 221 0
-87 221 -246 0
-86 -196 -245 0
-86 -99 110 0
-86 96 104 0
-86 109 220 0
-86 113 -132 0
-85 -197 241 0
-85 -154 182 0
-85 165 172 0
-84 133 -232 0
-83 -117 -181 0
-83 -108 198 0
-83 147 -245 0
-82 -103 -239 0
-82 -83 234 0
-82 118 -192 0
-82 151 -249 0
-81 -168 -246 0
-81 -119 -130 0
-81 -84 115 0
-80 -89 -131 0
-79 -120 -173 0
-79 179 -258 0
-79 198 200 0
-78 -166 249 0
-78 96 -129 0
-78 116 153 0
-78 145 255 0
-77 -203 -223 0
-77 -190 -230 0
-77 -137 -195 0
-75 -140 -201 0
-75 -111 -138 0
-75 -106 -120 0
-74 -189 -242 0
-74 -109 157 0
-74 -91 -212 0
-74 86 -107 0
-74 88 -197 0
-74 91 153 0
-74 142 175 0
-74 168 224 0
-73 -179 190 0
-73 -156 190 0
-73 -91 -166 0
-73 143 -166 0
-73 155 -249 0
-72 -105 -195 0
-72 183 -228 0
-71 -206 -221 0
-71 -130 -213 0
-71 -100 150 0
-71 72 171 0
-71 75 -229 0
-71 80 -177 0
-70 -101 205 0
-70 -100 109 0
-70 72 218 0
-70 77 -186 0
-69 -127 208 0
-69 -113 136 0
-69 -92 -106 0
-69 74 108 0
-69 85 -163 0
-69 91 -195 0
-69 172 -229 0
-68 -95 247 0
-68 182 236 0
-67 -100 -260 0
-67 164 -213 0
-67 186 187 0
-67 190 247 0
-66 -169 -202 0
-66 -125 -139 0
-66 -73 -216 0
-66 199 -227 0
-65 -196 -259 0
-65 -134 153 0
-65 92 -238 0
-64 169 254 0
-64 203 229 0
-63 -120 253 0
-63 -114 -180 0
-63 -88 109 0
-63 -84 -167 0
-63 97 195 0
-62 -200 -215 0
-62 -170 203 0
-61 139 211 0
-60 -116 -121 0
-60 -111 114 0
-60 -105 -221 0
-60 83 141 0
-59 -202 212 0
-59 63 170 0
-59 64 222 0
-59 91 134 0
-58 -210 212 0
-58 -121 -195 0
-58 -62 -89 0
-58 151 -169 0
-57 -186 242 0
-57 87 -255 0
-57 88 -176 0
-57 136 -141 0
-56 79 244 0
-56 98 -231 0
-56 98 -164 0
-56 117 -178 0
-55 -153 178 0
-55 -82 213 0
-55 73 91 0
-55 89 152 0
-54 61 -84 0
-54 112 239 0
-54 121 127 0
-54 142 -158 0
-53 -199 -211 0
-53 -113 172 0
-53 -84 186 0
-53 124 172 0
-53 230 240 0
-52 -159 -168 0
-52 65 -66 0
-52 119 124 0
-52 149 254 0
-52 154 259 0
-52 165 236 0
-51 -218 223 0
-51 -64 237 0
-51 80 -212 0
-51 96 -110 0
-51 102 178 0
-51 108 -175 0
-51 166 -210 0
-50 -144 159 0
-50 -104 201 0
-50 -81 239 0
-50 -53 -226 0
-50 163 241 0
-49 -184 -215 0
-49 88 -230 0
-49 113 114 0
-49 142 203 0
-48 -198 -208 0
-48 -81 202 0
-48 68 -234 0
-48 77 84 0
-48 81 -107 0
-48 105 -127 0
-47 -73 -142 0
-47 124 138 0
-46 94 165 0
-46 120 -221 0
-46 133 255 0
-46 216 -253 0
-46 231 238 0
-46 241 -249 0
-45 -62 -192 0
-45 76 -176 0
-45 138 242 0
-44 -204 -227 0
-44 -168 -183 0
-44 -161 208 0
-44 -130 204 0
-44 -123 -203 0
-44 -93 94 0
-44 -82 -195 0
-44 76 237 0
-44 81 82 0
-44 83 111 0
-44 96 175 0
-44 103 114 0
-44 132 255 0
-43 -108 208 0
-43 -108 241 0
-43 47 -79 0
-42 -118 159 0
-42 -47 72 0
-42 106 -238 0
-42 124 172 0
-41 -51 -101 0
-41 153 224 0
-40 -231 243 0
-40 -83 154 0
-40 -81 -152 0
-40 -46 82 0
-40 88 -110 0
-40 137 -171 0
-40 232 245 0
-39 -93 -110 0
-39 -84 -246 0
-39 -45 199 0
-39 58 -185 0
-39 69 250 0
-39 85 -238 0
-39 86 -199 0
-39 110 -200 0
-39 154 -173 0
-38 -87 -249 0
-38 -81 -117 0
-38 82 -114 0
-38 100 -228 0
-38 160 254 0
-38 182 -213 0
-37 -124 -195 0
-37 -81 -223 0
-37 -55 81 0
-37 97 180 0
-37 100 190 0
-37 225 -251 0
-36 -246 -257 0
-36 -114 237 0
-36 -81 -134 0
-36 91 225 0
-35 -153 193 0
-35 -87 216 0
-35 93 211 0
-35 176 210 0
-34 -174 217 0
-34 -136 199 0
-34 -57 -182 0
-34 -52 257 0
-34 50 142 0
-34 62 104 0
-33 -121 200 0
-33 -119 229 0
-33 -87 218 0
-33 86 -134 0
-33 178 209 0
-32 -216 -241 0
-32 -117 -213 0
-32 -51 -164 0
-32 -48 198 0
-32 36 -52 0
-32 62 -124 0
-32 159 161 0
-31 -177 -188 0
-31 -170 -226 0
-31 -120 -237 0
-31 -88 -229 0
-31 -45 -249 0
-31 79 -114 0
-31 147 228 0
-30 -249 -252 0
-30 -148 251 0
-30 -107 -142 0
-30 -67 210 0
-30 -65 248 0
-30 -46 133 0
-30 42 148 0
-30 188 -242 0
-29 -106 -138 0
-29 -91 97 0
-29 -74 -150 0
-29 108 -169 0
-28 -163 254 0
-28 -66 75 0
-28 -58 138 0
-28 -51 201 0
-28 -45 -108 0
-28 44 153 0
-28 60 125 0
-28 75 151 0
-28 93 118 0
-27 69 173 0
-27 150 -222 0
-26 -93 -190 0
-26 89 -106 0
-26 93 -152 0
-26 106 -144 0
-26 130 188 0
-25 -76 -179 0
-25 -37 259 0
-25 86 -246 0
-25 99 197 0
-25 101 167 0
-24 -77 97 0
-23 -183 -219 0
-23 -172 -251 0
-23 -27 -249 0
-23 67 -190 0
-22 -163 -212 0
-22 -88 -257 0
-22 -39 -114 0
-22 -38 -66 0
-22 125 206 0
-22 144 161 0
-22 164 175 0
-21 40 -248 0
-21 105 142 0
-21 219 223 0
-20 -155 187 0
-20 -145 -158 0
-20 -126 -195 0
-20 -121 -124 0
-20 -119 196 0
-20 -56 -207 0
-20 -52 219 0
-20 -52 236 0
-20 -44 -249 0
-20 -33 -191 0
-20 72 -140 0
-19 -199 -226 0
-19 -96 209 0
-19 -54 -168 0
-19 40 -161 0
-19 103 -124 0
-18 -92 224 0
-18 -91 -125 0
-18 -33 188 0
-18 31 250 0
-18 41 -73 0
-17 -144 -208 0
-17 -129 -163 0
-17 -82 -174 0
-17 -74 100 0
-17 -43 -157 0
-17 -38 202 0
-17 215 247 0
-16 -171 -205 0
-16 -115 129 0
-16 32 -172 0
-16 59 127 0
-16 197 219 0
-15 -92 206 0
-15 98 -112 0
-15 219 -220 0
-14 -197 -204 0
-14 -128 -242 0
-14 -90 -103 0
-14 -89 136 0
-14 90 248 0
-14 95 223 0
-14 178 -238 0
-13 -63 -239 0
-13 -53 73 0
-13 65 211 0
-12 -118 149 0
-12 -81 -129 0
-12 -66 -75 0
-12 -30 -196 0
-12 117 -131 0
-12 146 226 0
-12 168 229 0
-11 -74 -158 0
-11 -29 148 0
-11 36 -250 0
-11 57 -61 0
-11 63 -212 0
-10 -68 -162 0
-10 -58 -260 0
-10 37 213 0
-10 176 205 0
-10 184 -237 0
-9 -104 137 0
-9 -67 -115 0
-9 15 -230 0
-9 114 141 0
-9 168 -191 0
-9 179 -211 0
-8 -184 -242 0
-8 -50 -219 0
-8 -35 -244 0
-8 14 82 0
-8 99 -229 0
-8 175 -182 0
-8 217 -253 0
-7 -140 184 0
-7 -81 -102 0
-7 -74 251 0
-7 -63 102 0
-7 -57 180 0
-7 -42 -118 0
-7 100 -105 0
-6 -205 -227 0
-6 -14 -242 0
-6 -12 14 0
-6 -11 -206 0
-6 57 -174 0
-6 61 -191 0
-5 -177 242 0
-5 -117 174 0
-5 -109 133 0
-5 -9 13 0
-5 -7 -137 0
-5 -6 -253 0
-5 36 54 0
-5 53 54 0
-5 165 -203 0
-4 -113 137 0
-4 -47 51 0
-4 -13 -146 0
-4 -11 -235 0
-4 -10 -129 0
-4 173 256 0
-4 176 230 0
-3 -199 222 0
-3 -199 231 0
-3 -135 -200 0
-3 -84 147 0
-3 41 233 0
-3 51 -242 0
-3 144 193 0
-2 -63 86 0
-2 -21 -40 0
-2 73 233 0
-2 99 -133 0
-2 202 237 0
-1 -230 243 0
-1 -159 167 0
-1 -57 -59 0
-1 71 -98 0
-1 122 -152 0
1 -187 245 0
1 -59 -89 0
1 -14 -69 0
1 -5 42 0
1 61 -237 0
1 111 -146 0
1 156 -245 0
1 165 248 0
2 -64 171 0
2 9 248 0
2 84 165 0
2 127 222 0
3 -185 -196 0
3 -176 246 0
3 -154 229 0
3 -109 -250 0
3 -31 254 0
3 -4 -57 0
3 57 -86 0
3 67 100 0
4 -206 250 0
4 -142 202 0
4 -129 -205 0
4 -111 130 0
4 -49 -68 0
4 -44 179 0
4 -36 74 0
4 -21 32 0
4 40 100 0
4 109 196 0
4 134 -252 0
4 152 -168 0
4 177 201 0
5 -29 -78 0
5 134 -178 0
6 -154 171 0
6 -64 -111 0
6 -35 54 0
6 113 241 0
6 196 -239 0
7 33 143 0
7 57 75 0
7 67 144 0
7 108 257 0
8 -19 -149 0
8 17 118 0
8 72 122 0
8 78 165 0
8 91 -226 0
8 92 -160 0
8 146 161 0
8 147 -241 0
9 -138 200 0
9 71 -250 0
9 82 96 0
9 82 231 0
9 109 -244 0
10 -150 197 0
10 -122 233 0
10 -43 169 0
10 -13 -259 0
10 69 -127 0
10 156 -216 0
10 172 253 0
11 -119 -254 0
11 31 -207 0
11 113 -176 0
11 243 257 0
12 -189 232 0
12 -49 163 0
12 -34 -250 0
12 -23 230 0
12 16 -32 0
12 66 118 0
12 187 -233 0
13 -87 252 0
13 -18 115 0
13 21 197 0
13 92 -159 0
13 108 215 0
14 -218 249 0
14 -175 -228 0
14 -149 227 0
14 -126 -127 0
14 -94 -151 0
14 -78 239 0
14 79 -246 0
14 129 -141 0
14 153 198 0
15 -151 -220 0
15 -38 -74 0
15 64 88 0
15 65 210 0
15 80 -242 0
15 106 -146 0
16 -129 -173 0
16 -48 155 0
16 -41 52 0
16 39 -168 0
16 81 246 0
16 132 -140 0
16 132 160 0
17 -192 -239 0
17 -96 160 0
17 -60 -64 0
17 19 -39 0
17 23 -214 0
17 83 -182 0
17 159 -167 0
17 211 -218 0
18 -79 118 0
18 -48 149 0
18 -30 -46 0
18 -20 161 0
18 55 -209 0
19 -147 236 0
19 -119 -177 0
19 -59 129 0
19 -25 -179 0
19 133 -235 0
20 26 257 0
20 74 223 0
20 160 -161 0
21 50 -176 0
22 -131 -258 0
22 -55 104 0
23 -87 -101 0
23 47 -73 0
23 50 75 0
23 61 -253 0
23 69 109 0
24 -186 259 0
24 -167 232 0
24 47 -101 0
24 126 -243 0
25 107 -152 0
26 35 83 0
26 71 -90 0
26 211 228 0
27 -106 113 0
27 -91 -172 0
27 -91 200 0
27 -52 -139 0
27 30 203 0
27 97 133 0
27 123 -129 0
28 -146 -160 0
28 -52 -101 0
28 109 256 0
29 -196 -257 0
29 55 159 0
29 115 195 0
29 169 -212 0
30 -123 141 0
30 107 204 0
30 140 218 0
30 176 -225 0
30 210 242 0
31 73 201 0
32 -97 -218 0
32 60 -146 0
32 104 -232 0
33 -218 -234 0
33 -180 -194 0
33 -114 -149 0
33 -88 204 0
33 -58 -191 0
34 -158 249 0
34 -115 -188 0
34 -92 -251 0
34 82 129 0
34 108 -196 0
34 160 -221 0
35 -171 -231 0
35 -78 -126 0
35 -49 -76 0
35 -48 -239 0
36 -112 224 0
36 -84 -114 0
36 -80 128 0
36 -56 197 0
36 -48 -246 0
36 95 -197 0
36 134 193 0
36 143 193 0
36 179 -229 0
37 -163 228 0
37 -131 150 0
37 -115 -128 0
37 -68 69 0
37 147 161 0
37 187 227 0
38 -141 258 0
38 -133 184 0
38 -125 143 0
38 148 -211 0
39 -210 -256 0
39 48 233 0
40 -62 -93 0
40 41 -54 0
40 59 -67 0
40 90 112 0
41 125 156 0
41 126 133 0
41 126 209 0
41 169 -177 0
41 220 234 0
42 -185 222 0
42 -173 -194 0
42 -71 228 0
42 133 -246 0
43 -158 -179 0
43 -99 245 0
43 101 162 0
43 157 -220 0
44 -185 228 0
44 -152 -241 0
44 -140 204 0
44 -90 -204 0
44 -45 -158 0
44 65 220 0
45 -159 235 0
45 -118 -202 0
45 -107 -148 0
45 -105 -188 0
45 -92 234 0
45 87 -172 0
46 -118 138 0
46 -79 -218 0
46 58 81 0
46 59 -138 0
46 79 -150 0
46 110 122 0
46 150 157 0
47 -134 246 0
47 -81 200 0
47 -48 84 0
48 -136 -165 0
48 -109 200 0
48 71 -148 0
49 -201 -237 0
49 -175 233 0
49 -94 236 0
49 -65 117 0
49 -64 168 0
49 164 195 0
50 -175 196 0
50 -157 195 0
50 -89 115 0
50 -88 119 0
50 -62 190 0
50 60 153 0
50 111 -220 0
50 112 -238 0
51 -210 212 0
51 -111 -168 0
51 -91 257 0
51 -57 -193 0
52 -115 -155 0
52 -108 -217 0
52 84 133 0
52 140 -240 0
52 145 177 0
53 -180 -210 0
53 -90 220 0
53 137 243 0
53 227 -241 0
54 -175 260 0
54 -94 -134 0
54 -88 -160 0
54 73 231 0
55 -106 109 0
55 -59 -120 0
55 106 -195 0
56 -135 -192 0
56 74 104 0
56 164 -234 0
57 -60 78 0
58 -123 242 0
58 81 247 0
58 143 209 0
58 171 260 0
59 -181 251 0
59 -131 -205 0
59 77 -122 0
59 121 -228 0
59 144 -208 0
59 163 195 0
60 -195 222 0
60 -179 224 0
60 -72 181 0
61 -79 -211 0
61 68 142 0
61 118 253 0
61 192 -226 0
62 -140 231 0
62 84 -104 0
62 95 -108 0
62 189 -245 0
63 -201 -249 0
63 -146 -242 0
63 72 -252 0
64 -195 208 0
64 99 136 0
64 123 151 0
64 157 232 0
64 236 258 0
65 -90 -199 0
66 -204 211 0
66 -162 -229 0
66 170 259 0
67 93 256 0
67 121 176 0
68 -112 169 0
68 -103 -118 0
68 142 257 0
69 -97 -254 0
69 106 130 0
69 126 218 0
70 -183 -235 0
70 240 244 0
71 -155 -206 0
71 99 -228 0
71 189 -246 0
72 -169 187 0
72 -102 215 0
72 81 229 0
72 84 -234 0
73 -237 -258 0
73 -187 -199 0
73 -81 -247 0
73 83 -174 0
74 -198 -259 0
75 -153 -206 0
75 -91 235 0
75 84 200 0
75 85 105 0
76 -203 -220 0
76 119 172 0
77 -141 181 0
78 114 -190 0
78 116 149 0
78 185 -243 0
78 191 248 0
78 207 260 0
79 97 -221 0
80 -91 95 0
80 228 234 0
81 -238 -243 0
81 -188 256 0
81 109 154 0
81 126 -162 0
82 124 150 0
83 -163 -167 0
83 117 186 0
84 -209 -219 0
84 133 177 0
84 169 -175 0
85 -111 247 0
85 -104 220 0
86 134 195 0
86 139 245 0
86 156 172 0
86 189 248 0
87 -132 191 0
87 -110 211 0
87 -96 -127 0
87 96 143 0
87 124 165 0
87 225 -231 0
88 103 -122 0
89 158 180 0
89 168 214 0
90 -148 246 0
90 130 172 0
91 -127 -192 0
91 110 -168 0
91 156 -228 0
92 -132 180 0
92 -112 -117 0
93 -194 245 0
93 -104 -212 0
93 98 -123 0
94 103 -138 0
95 96 159 0
95 139 167 0
95 203 -249 0
96 149 -202 0
96 223 240 0
97 -123 -194 0
98 -113 257 0
98 118 193 0
98 168 205 0
98 189 253 0
99 115 -253 0
99 127 189 0
99 171 245 0
100 -136 240 0
100 -112 -179 0
100 173 249 0
101 -149 -150 0
101 -125 203 0
101 107 -144 0
103 -147 166 0
103 -110 -239 0
103 132 -237 0
103 156 208 0
104 -112 198 0
104 115 159 0
104 203 236 0
105 -171 194 0
105 -138 206 0
105 -119 241 0
106 -222 -253 0
106 107 -189 0
106 142 252 0
106 217 -239 0
107 225 230 0
110 160 -202 0
110 210 -240 0
112 -181 -182 0
112 122 -227 0
113 -166 194 0
113 -141 142 0
113 -125 -164 0
113 134 147 0
114 220 -225 0
115 -137 237 0
115 150 185 0
115 173 241 0
116 -173 214 0
116 132 258 0
117 -180 198 0
117 -140 193 0
118 -202 -224 0
118 -147 -247 0
118 196 252 0
119 134 152 0
119 179 190 0
120 -153 -238 0
120 -135 -179 0
120 145 -256 0
120 228 260 0
121 124 184 0
121 152 -179 0
121 169 -234 0
121 189 -249 0
122 159 241 0
123 188 202 0
124 -198 217 0
124 -159 162 0
124 -140 -157 0
124 141 218 0
125 -217 224 0
125 -161 178 0
125 133 148 0
125 204 205 0
126 -139 148 0
126 173 189 0
126 195 -224 0
127 -154 196 0
128 -152 216 0
128 158 -250 0
128 256 -260 0
129 -205 -213 0
129 -178 -250 0
130 -160 171 0
130 197 233 0
131 -191 -218 0
131 -173 -252 0
132 -201 -219 0
133 -138 177 0
133 236 -241 0
134 -242 248 0
135 178 254 0
135 182 -203 0
135 200 -217 0
136 151 162 0
137 161 -195 0
137 164 252 0
138 142 204 0
140 157 -170 0
141 -153 250 0
141 145 196 0
141 218 -253 0
141 236 258 0
142 158 -212 0
143 145 -234 0
144 162 -228 0
145 178 215 0
145 186 253 0
145 199 -255 0
146 -182 220 0
146 -173 -186 0
148 -221 254 0
148 -216 238 0
148 -173 -240 0
148 -149 -192 0
148 239 -249 0
150 -214 -243 0
151 -205 -253 0
151 -188 -237 0
152 -171 206 0
153 -169 223 0
154 217 230 0
155 -210 246 0
155 -206 -212 0
156 -190 -216 0
158 172 -220 0
159 -201 202 0
159 -175 241 0
160 -193 235 0
160 -189 -202 0
162 178 220 0
163 -206 -246 0
164 -227 231 0
167 -176 -182 0
169 -207 239 0
169 202 -208 0
172 201 241 0
173 -175 -196 0
178 -244 -255 0
182 209 -230 0
186 -219 -224 0
187 -225 235 0
190 -221 -233 0
194 -216 -219 0
201 214 218 0
201 242 -252 0
206 -233 236 0
207 226 235 0
212 216 -230 0
217 220 233 0
228 -233 251 0
237 240 260 0
