p cnf 45 191
-38 -41 44 0
-38 40 -44 0
-37 -41 43 0
-34 35 -44 0
-33 -37 -42 0
-30 -41 -42 0
-30 33 -34 0
-28 -40 44 0
-28 38 44 0
-26 -38 44 0
-24 -42 -44 0
-24 -39 -45 0
-24 -25 32 0
-24 26 -35 0
-23 -34 -35 0
-23 -24 45 0
-21 30 -33 0
-21 35 42 0
-20 -27 -37 0
-20 -23 30 0
-20 -21 -34 0
-19 -38 -39 0
-19 -20 -41 0
-19 20 -45 0
-18 32 -40 0
-18 43 45 0
-17 -38 40 0
-17 -29 43 0
-16 21 40 0
-16 25 30 0
-16 32 -39 0
-15 17 -18 0
-15 27 -44 0
-14 -26 45 0
-14 -24 40 0
-14 -17 -19 0
-14 15 -27 0
-14 15 25 0
-14 22 -32 0
-14 35 41 0
-13 -24 -31 0
-13 14 -38 0
-12 -22 28 0
-12 18 19 0
-12 19 40 0
-12 28 -35 0
-11 -30 44 0
-11 -23 -35 0
-11 -13 25 0
-11 16 -42 0
-11 20 -23 0
-10 -34 36 0
-10 -34 45 0
-10 -20 -29 0
-10 -13 15 0
-10 13 -28 0
-10 17 -20 0
-10 20 -21 0
-10 24 26 0
-10 41 -43 0
-9 16 -41 0
-8 12 22 0
-8 26 32 0
-8 30 -32 0
-7 -18 27 0
-7 -16 21 0
-7 8 -29 0
-7 9 -21 0
-7 12 21 0
-7 19 36 0
-6 -38 -44 0
-6 31 -44 0
-5 -12 -33 0
-5 -11 -34 0
-5 6 -30 0
-5 18 -22 0
-4 -14 37 0
-4 5 26 0
-4 12 15 0
-3 -33 38 0
-3 -29 35 0
-3 -28 -39 0
-3 -18 39 0
-3 -11 20 0
-3 13 31 0
-3 30 -45 0
-3 31 38 0
-2 -19 -34 0
-2 -14 31 0
-2 -6 -7 0
-2 -3 -30 0
-2 18 -26 0
-2 25 35 0
-2 33 34 0
-2 42 -43 0
-1 -8 -44 0
-1 -3 -20 0
-1 2 -16 0
-1 2 -5 0
-1 7 -42 0
-1 13 17 0
-1 14 41 0
-1 24 37 0
-1 37 -43 0
1 -33 -45 0
1 -28 29 0
1 -14 38 0
1 -9 28 0
1 -3 -13 0
1 3 43 0
1 4 -15 0
1 7 27 0
1 15 -28 0
1 22 44 0
2 -5 -20 0
2 8 -40 0
3 -19 28 0
3 -9 -19 0
3 12 14 0
3 14 -32 0
3 25 -44 0
3 30 33 0
3 36 -43 0
4 -21 32 0
4 -17 -21 0
4 -15 24 0
4 -12 44 0
4 5 20 0
4 13 17 0
5 -12 -31 0
5 -6 16 0
5 23 -32 0
6 -13 28 0
6 -7 -35 0
6 8 24 0
6 19 25 0
7 -41 -42 0
7 -27 39 0
7 -20 21 0
7 11 -25 0
7 15 -37 0
7 18 -26 0
8 -42 45 0
8 -19 -43 0
8 -15 -40 0
8 -9 -11 0
8 13 19 0
9 -12 38 0
9 12 41 0
9 30 -40 0
10 -39 -43 0
10 14 -39 0
10 15 -29 0
10 33 39 0
10 39 -41 0
12 32 40 0
13 -33 -45 0
13 -33 -35 0
13 -32 43 0
13 25 -26 0
14 -22 40 0
14 33 42 0
15 -19 -27 0
15 -16 32 0
15 22 -34 0
15 22 36 0
15 35 40 0
16 -39 -40 0
16 -26 37 0
16 36 -44 0
17 24 -41 0
17 32 -38 0
18 -22 -41 0
20 25 32 0
21 -37 -42 0
22 -23 -27 0
22 33 -35 0
23 -26 41 0
23 24 -33 0
23 33 43 0
24 -42 45 0
24 30 -41 0
25 -33 -39 0
27 -29 -37 0
27 40 42 0
29 -38 43 0
31 -34 43 0
31 33 -37 0
32 33 45 0
32 41 44 0
40 42 -44 0
