p cnf 100 425
-88 90 -97 0
-83 -88 -90 0
-78 81 92 0
-74 -93 -94 0
-74 -80 -97 0
-71 74 -100 0
-70 77 91 0
-69 -73 93 0
-69 71 -79 0
-67 75 82 0
-65 -71 -90 0
-64 -90 96 0
-64 -68 75 0
-59 -60 -80 0
-59 72 -78 0
-58 60 82 0
-58 93 100 0
-57 80 -81 0
-55 -58 73 0
-53 59 -65 0
-50 -65 85 0
-50 54 -63 0
-49 -78 97 0
-49 -61 -76 0
-49 51 -76 0
-49 87 91 0
-49 95 -99 0
-48 -65 -75 0
-48 51 -57 0
-47 -68 92 0
-47 55 78 0
-45 -69 -77 0
-45 51 98 0
-45 67 -76 0
-45 92 99 0
-44 -70 -79 0
-44 -45 82 0
-44 66 71 0
-44 69 99 0
-44 86 96 0
-43 -61 84 0
-43 -46 -97 0
-42 -63 -65 0
-41 42 49 0
-41 45 -72 0
-41 59 78 0
-41 66 75 0
-40 -44 -89 0
-39 -62 85 0
-39 68 -89 0
-38 79 90 0
-37 -38 83 0
-36 70 -86 0
-36 92 -95 0
-35 36 -39 0
-35 65 -95 0
-34 44 -100 0
-33 39 63 0
-32 -47 -68 0
-32 45 95 0
-32 49 -66 0
-32 65 -96 0
-32 88 -96 0
-31 77 98 0
-30 -32 -97 0
-29 -53 92 0
-29 -46 -56 0
-29 -42 -67 0
-28 -68 -85 0
-28 30 37 0
-28 38 -48 0
-27 -62 -78 0
-27 -53 -97 0
-27 36 66 0
-27 64 83 0
-26 -59 -66 0
-26 -42 88 0
-26 31 -85 0
-26 36 -41 0
-26 39 41 0
-26 67 85 0
-25 -77 97 0
-25 37 -50 0
-24 91 96 0
-23 -30 -68 0
-23 27 -99 0
-23 56 -86 0
-23 60 62 0
-22 -70 74 0
-22 -26 31 0
-22 53 -67 0
-21 -77 95 0
-21 -69 86 0
-21 -27 -40 0
-21 -23 -92 0
-21 23 -87 0
-21 58 -84 0
-21 61 -63 0
-20 -55 73 0
-20 -37 62 0
-20 31 52 0
-20 43 62 0
-19 -56 -88 0
-19 -48 -65 0
-19 -34 37 0
-19 -27 61 0
-19 24 -78 0
-19 29 -60 0
-19 40 80 0
-19 57 96 0
-18 -59 84 0
-18 -58 -63 0
-18 -54 94 0
-18 -43 -50 0
-18 60 90 0
-17 -29 -38 0
-17 50 95 0
-17 73 93 0
-16 -62 66 0
-16 -35 63 0
-16 25 -82 0
-16 48 -90 0
-15 -66 74 0
-15 -62 -69 0
-15 -46 71 0
-15 -18 100 0
-15 21 60 0
-14 -65 -81 0
-14 -33 46 0
-14 -23 52 0
-14 35 -94 0
-14 41 -66 0
-14 86 -100 0
-13 -26 -94 0
-13 -18 83 0
-13 -15 -86 0
-13 22 -68 0
-13 31 84 0
-13 47 -77 0
-12 31 -85 0
-12 47 75 0
-12 58 71 0
-11 -61 -94 0
-11 -57 99 0
-11 -43 71 0
-11 -37 97 0
-11 24 -34 0
-11 35 -43 0
-11 54 -69 0
-11 90 96 0
-10 -33 -66 0
-10 -31 -94 0
-10 -23 27 0
-10 17 39 0
-10 31 -86 0
-10 36 87 0
-9 -70 84 0
-9 -37 -66 0
-9 -14 -69 0
-9 17 -95 0
-9 27 -73 0
-9 36 63 0
-8 -86 89 0
-8 9 37 0
-8 14 -17 0
-7 -33 48 0
-7 -18 -80 0
-7 8 58 0
-7 21 93 0
-7 83 92 0
-6 -30 -67 0
-6 -27 35 0
-6 -25 -48 0
-6 -12 -80 0
-6 -11 71 0
-6 13 87 0
-6 29 87 0
-6 44 -74 0
-5 -43 -78 0
-5 -7 63 0
-5 12 55 0
-5 47 59 0
-5 70 71 0
-4 -78 -96 0
-4 -10 -80 0
-4 12 -80 0
-4 14 93 0
-4 15 93 0
-4 81 -84 0
-3 -54 72 0
-3 -20 51 0
-3 -6 64 0
-2 -43 -96 0
-2 -4 -74 0
-2 -3 -64 0
-2 18 -74 0
-2 44 -61 0
-1 -20 -22 0
-1 -9 12 0
-1 -4 -65 0
-1 -3 12 0
-1 24 56 0
-1 32 68 0
-1 55 -60 0
-1 59 63 0
1 -18 -99 0
1 -13 -92 0
2 -66 -97 0
2 -42 -90 0
2 -23 -69 0
2 -15 59 0
2 -5 -50 0
2 4 -81 0
2 4 83 0
2 7 11 0
2 19 -92 0
2 73 81 0
3 -49 -92 0
3 -39 67 0
3 -15 -71 0
3 6 86 0
3 21 77 0
3 25 94 0
3 57 68 0
3 77 -88 0
4 -50 89 0
4 -42 -57 0
4 -11 67 0
4 -10 20 0
4 42 87 0
4 80 91 0
5 22 -41 0
5 22 -30 0
5 37 85 0
5 63 -98 0
5 82 84 0
6 -48 99 0
6 -42 -81 0
6 -15 58 0
6 7 56 0
6 21 90 0
6 33 66 0
6 64 -69 0
7 -11 -62 0
7 12 -71 0
7 30 69 0
7 31 85 0
8 -71 75 0
8 -37 84 0
8 -18 -36 0
8 -17 -27 0
8 -16 92 0
8 27 96 0
8 42 58 0
8 55 96 0
8 56 71 0
9 -32 -96 0
9 -21 99 0
9 18 47 0
9 30 35 0
9 54 -87 0
9 61 -82 0
9 71 84 0
9 78 98 0
10 -29 62 0
10 21 -100 0
10 25 99 0
10 62 -89 0
10 62 100 0
11 -33 -93 0
11 -29 84 0
11 -23 64 0
11 25 -47 0
11 30 -55 0
11 48 62 0
12 -26 -57 0
12 28 -75 0
12 58 60 0
13 -56 67 0
13 -49 -93 0
13 -44 47 0
13 -27 -60 0
13 -17 72 0
13 27 70 0
14 -83 85 0
14 -21 23 0
14 38 42 0
14 60 90 0
14 68 77 0
15 -48 77 0
15 -33 -98 0
15 -19 33 0
15 -16 -48 0
15 31 -45 0
15 37 -65 0
15 43 -48 0
17 -57 -62 0
17 -46 -67 0
17 -22 73 0
17 24 -80 0
18 -28 -89 0
18 20 30 0
18 37 -49 0
18 48 -55 0
18 58 95 0
19 -47 -85 0
19 -26 49 0
19 -21 -38 0
19 20 -23 0
19 28 57 0
20 -64 -76 0
20 -63 68 0
20 -46 96 0
20 35 -56 0
20 65 66 0
21 34 85 0
21 86 89 0
22 -51 74 0
22 -24 91 0
23 -46 49 0
23 -28 29 0
23 32 -33 0
23 37 -69 0
23 46 49 0
24 -50 -80 0
24 -43 -85 0
24 31 -86 0
24 55 84 0
25 -34 -97 0
26 -75 100 0
26 -30 97 0
26 70 81 0
27 45 71 0
27 62 -98 0
28 -51 -62 0
28 -39 -75 0
28 -39 44 0
28 42 -72 0
29 -55 85 0
29 -30 63 0
30 -87 -96 0
30 -78 82 0
30 -42 73 0
31 -86 87 0
31 -73 -85 0
31 -72 -93 0
31 -66 -100 0
31 -43 46 0
31 43 85 0
32 -47 -57 0
32 38 61 0
32 85 99 0
33 -84 87 0
33 -73 83 0
33 -53 -90 0
36 -53 74 0
37 75 -96 0
38 -80 -96 0
38 -62 91 0
38 -41 -75 0
38 44 68 0
38 62 -85 0
39 -63 73 0
39 52 -76 0
40 -65 -99 0
40 41 53 0
41 -77 100 0
41 -59 65 0
41 56 -95 0
42 -68 -80 0
42 53 74 0
43 -56 -84 0
43 50 66 0
43 51 57 0
43 79 82 0
43 89 95 0
45 58 -82 0
45 71 -79 0
46 -54 96 0
47 -63 94 0
48 -55 -78 0
48 60 -88 0
49 -65 67 0
49 -54 -91 0
49 50 98 0
49 80 -82 0
50 -94 96 0
50 -57 95 0
50 -53 54 0
50 70 -91 0
52 -97 98 0
52 -54 100 0
53 -59 -75 0
53 69 -70 0
54 -62 -89 0
54 57 -90 0
54 61 75 0
55 56 -67 0
57 63 72 0
60 -86 -100 0
60 -77 -88 0
60 76 80 0
60 85 -94 0
61 -77 -91 0
63 -81 -97 0
63 -69 95 0
64 -73 96 0
64 -71 89 0
64 -65 76 0
64 75 84 0
65 -77 -93 0
65 67 -74 0
65 70 -90 0
65 84 -95 0
66 -80 97 0
66 95 98 0
67 -82 -89 0
67 -70 99 0
67 70 -94 0
69 -70 79 0
70 -88 95 0
71 -99 -100 0
73 -81 -95 0
79 84 -96 0
79 88 90 0
