p cnf 100 425
-85 -88 -97 0
-83 -90 -95 0
-83 -89 99 0
-78 -81 -96 0
-71 81 100 0
-70 74 -77 0
-70 82 100 0
-68 76 -86 0
-66 -94 -95 0
-66 -68 76 0
-65 -68 72 0
-63 69 -81 0
-63 97 100 0
-62 -70 -76 0
-60 -73 96 0
-59 -70 95 0
-54 75 -79 0
-53 66 70 0
-52 -69 -93 0
-52 54 -80 0
-52 57 -92 0
-51 70 76 0
-48 66 70 0
-47 -55 69 0
-47 48 61 0
-46 -56 84 0
-46 58 94 0
-45 -96 99 0
-43 -64 85 0
-42 -96 99 0
-42 -75 -95 0
-42 -65 -88 0
-42 46 -63 0
-41 -64 82 0
-41 55 83 0
-40 52 83 0
-39 -86 91 0
-39 -47 -57 0
-39 -41 -49 0
-39 74 -79 0
-38 -61 78 0
-38 72 77 0
-37 47 -88 0
-37 47 85 0
-36 47 -84 0
-36 52 -75 0
-36 71 -80 0
-36 86 -89 0
-35 69 81 0
-34 -62 71 0
-34 -56 -92 0
-34 -39 -49 0
-34 75 -80 0
-34 91 93 0
-33 -73 -83 0
-32 -70 -88 0
-32 45 -47 0
-32 69 -95 0
-31 -85 98 0
-31 -48 -91 0
-31 -37 -63 0
-31 47 95 0
-31 86 88 0
-30 -57 94 0
-30 -53 60 0
-30 -52 -76 0
-30 -39 90 0
-30 50 69 0
-29 44 87 0
-29 49 -94 0
-28 -73 81 0
-28 -40 -68 0
-28 41 -61 0
-27 36 40 0
-27 49 -62 0
-27 53 74 0
-26 -38 -67 0
-26 -33 -36 0
-26 46 -84 0
-25 -28 60 0
-25 27 62 0
-25 34 -74 0
-25 36 54 0
-24 -76 -91 0
-24 -60 -68 0
-24 -58 68 0
-24 -46 87 0
-24 34 -82 0
-24 42 86 0
-24 65 68 0
-23 -93 99 0
-23 -66 -93 0
-23 -39 -96 0
-22 -62 -84 0
-22 25 90 0
-22 27 99 0
-22 47 63 0
-21 -40 -52 0
-21 -25 -28 0
-21 67 -95 0
-20 50 -77 0
-19 -50 63 0
-19 -44 48 0
-19 -32 -73 0
-19 56 -68 0
-18 27 56 0
-18 30 -81 0
-18 41 98 0
-17 -93 -99 0
-17 -49 -54 0
-17 -45 61 0
-17 -36 47 0
-17 -18 -40 0
-17 20 -76 0
-17 31 -69 0
-17 53 58 0
-17 58 73 0
-16 -49 82 0
-16 -28 -74 0
-16 40 75 0
-16 53 68 0
-15 -23 -62 0
-15 -21 39 0
-15 -21 42 0
-15 -21 92 0
-15 37 46 0
-15 40 -58 0
-15 41 75 0
-15 82 -93 0
-14 -24 26 0
-14 25 33 0
-14 28 78 0
-13 -86 96 0
-13 -79 -84 0
-13 -32 55 0
-13 -29 -93 0
-13 -14 -87 0
-13 44 -50 0
-13 46 -90 0
-12 -42 76 0
-12 15 61 0
-11 -89 93 0
-11 -39 -65 0
-11 14 -52 0
-10 -53 -56 0
-10 -52 -84 0
-10 -32 47 0
-10 15 78 0
-10 67 68 0
-9 -53 -82 0
-9 -44 65 0
-9 43 73 0
-9 44 -76 0
-8 -50 60 0
-8 -20 39 0
-8 -11 12 0
-8 9 -42 0
-8 39 46 0
-8 56 64 0
-7 -67 73 0
-7 -33 -69 0
-7 36 -94 0
-7 39 -97 0
-6 -90 -93 0
-6 -34 53 0
-6 27 -96 0
-6 73 -76 0
-5 -45 -61 0
-5 -26 31 0
-5 -23 -69 0
-5 -15 -84 0
-5 13 -69 0
-4 -83 92 0
-4 -18 -53 0
-4 -14 -39 0
-4 -11 17 0
-4 5 -57 0
-4 12 40 0
-4 23 -89 0
-3 -57 -92 0
-3 65 74 0
-2 -13 33 0
-2 10 15 0
-2 43 -45 0
-2 55 72 0
-2 67 -100 0
-1 -33 -66 0
-1 51 97 0
1 -81 -83 0
1 -74 -99 0
1 -74 -83 0
1 -55 -95 0
1 -19 -66 0
1 -19 58 0
1 -19 71 0
1 -12 -74 0
1 -7 -43 0
1 10 -84 0
1 29 74 0
1 32 -85 0
1 46 -73 0
1 72 -78 0
1 74 84 0
2 -57 89 0
2 -48 -70 0
2 -36 -88 0
2 -30 79 0
2 -14 -79 0
2 26 41 0
2 42 -58 0
3 -75 -82 0
3 -29 60 0
3 -13 -73 0
3 -12 94 0
3 5 23 0
3 61 -76 0
4 -64 67 0
4 -28 -93 0
4 16 -43 0
4 23 58 0
4 30 69 0
4 44 87 0
4 65 82 0
5 -68 -88 0
5 -52 -95 0
5 -32 90 0
5 -22 -79 0
5 -11 23 0
5 11 12 0
5 29 36 0
5 34 -60 0
6 -92 -97 0
6 -87 98 0
6 -68 70 0
6 -33 74 0
6 -19 -55 0
6 -13 57 0
6 24 -32 0
6 38 93 0
6 49 -92 0
6 57 65 0
6 87 99 0
7 -23 32 0
7 -23 65 0
7 -12 -88 0
7 -9 12 0
7 24 -29 0
7 55 -87 0
8 -67 -86 0
8 -24 -97 0
8 -21 85 0
8 -9 79 0
8 13 87 0
8 14 -88 0
8 48 84 0
8 51 95 0
8 63 -92 0
8 79 -89 0
9 -70 -89 0
9 -66 77 0
9 -10 -18 0
9 12 -81 0
9 71 -93 0
10 -65 -94 0
10 67 68 0
11 -23 -46 0
11 60 -62 0
11 63 83 0
12 -27 -87 0
12 -27 -78 0
12 -14 77 0
13 -67 75 0
13 -27 49 0
13 -16 -48 0
13 25 42 0
13 40 78 0
14 -42 50 0
14 -40 53 0
14 -22 -29 0
14 -20 -59 0
14 22 -51 0
14 43 89 0
14 77 -94 0
14 90 -96 0
15 -71 100 0
15 -57 -61 0
15 -36 57 0
15 -34 89 0
15 -33 79 0
15 19 -31 0
15 27 44 0
15 44 76 0
16 -41 -77 0
16 -41 99 0
16 -35 -70 0
16 31 -77 0
16 34 89 0
17 -49 86 0
17 -32 87 0
17 19 45 0
17 24 57 0
17 29 56 0
17 61 -88 0
17 94 95 0
18 -63 86 0
18 -56 73 0
18 -48 -98 0
18 -39 67 0
18 -38 -85 0
18 -33 63 0
18 23 -36 0
18 39 -69 0
18 45 -77 0
18 74 -83 0
19 -55 -65 0
19 -24 -88 0
19 24 48 0
20 -56 78 0
20 -36 -84 0
20 -33 -65 0
20 40 42 0
21 -25 -89 0
21 26 82 0
21 28 -96 0
21 68 -94 0
21 74 86 0
22 -64 81 0
22 -40 81 0
22 46 98 0
22 74 75 0
23 -66 78 0
23 48 -79 0
23 93 100 0
24 -55 66 0
24 45 97 0
24 74 80 0
25 -73 -97 0
25 -31 73 0
25 41 -99 0
26 -97 -100 0
26 -34 -76 0
26 42 -98 0
27 46 71 0
28 -48 -77 0
28 31 82 0
28 45 89 0
28 65 97 0
29 -47 99 0
29 -36 -70 0
29 40 88 0
30 -63 88 0
30 -41 -90 0
30 64 91 0
31 -55 -80 0
32 -51 -94 0
32 -49 -59 0
32 -49 84 0
32 -49 97 0
32 -39 75 0
32 -34 94 0
33 45 54 0
34 -68 78 0
34 67 -83 0
35 -49 -89 0
35 -45 -78 0
35 -38 -67 0
35 51 -85 0
35 84 89 0
36 46 -53 0
36 49 70 0
36 61 -68 0
37 -63 88 0
37 57 -82 0
37 57 92 0
37 84 98 0
38 -39 61 0
39 -57 63 0
39 64 -90 0
39 78 95 0
40 -62 98 0
41 -64 95 0
41 44 -47 0
41 46 61 0
42 -44 75 0
42 46 47 0
42 51 62 0
43 -62 -90 0
44 -59 60 0
44 46 -75 0
44 47 56 0
45 -92 97 0
45 -60 -67 0
47 -55 -86 0
47 76 85 0
47 87 -99 0
49 -57 -59 0
50 -76 95 0
50 -64 -83 0
50 58 -66 0
51 -52 72 0
51 67 79 0
52 -93 95 0
52 -62 -67 0
52 -54 -97 0
54 -59 -98 0
54 66 86 0
55 64 -97 0
55 66 70 0
56 71 -96 0
58 -67 100 0
60 -85 86 0
62 -64 90 0
63 73 76 0
63 79 -100 0
64 -65 -95 0
64 77 -83 0
67 93 -98 0
68 75 -88 0
70 -78 84 0
70 -75 -78 0
70 -74 82 0
71 -79 -93 0
71 -74 -84 0
79 84 95 0
85 87 -98 0
