p cnf 55 234
-46 47 -53 0
-46 53 54 0
-40 41 54 0
-38 -43 48 0
-38 39 46 0
-38 40 -47 0
-32 43 -52 0
-31 39 51 0
-30 -33 -53 0
-28 29 51 0
-28 34 35 0
-28 49 -50 0
-28 53 -55 0
-27 -36 44 0
-27 35 -54 0
-26 31 44 0
-25 39 -43 0
-25 42 55 0
-24 -27 34 0
-23 -30 -35 0
-23 -25 32 0
-23 -24 49 0
-23 25 -33 0
-22 -27 -29 0
-22 -27 43 0
-22 -24 44 0
-22 -24 55 0
-21 35 36 0
-20 -25 48 0
-20 -22 31 0
-19 -24 -33 0
-19 20 -55 0
-19 28 50 0
-18 -44 -49 0
-18 -19 35 0
-17 -44 -51 0
-17 -30 54 0
-17 -18 -55 0
-17 43 44 0
-16 -25 -26 0
-16 -22 -38 0
-16 -20 21 0
-15 28 -55 0
-15 29 -53 0
-14 -21 -53 0
-14 -17 30 0
-14 15 50 0
-14 41 -53 0
-14 43 -52 0
-13 -49 50 0
-13 -16 42 0
-13 19 -23 0
-13 21 -49 0
-13 28 -55 0
-12 -23 -41 0
-12 16 22 0
-11 -29 39 0
-11 -18 -37 0
-11 19 31 0
-11 24 43 0
-10 -36 50 0
-10 -27 31 0
-10 19 -43 0
-10 19 -29 0
-10 19 -28 0
-10 47 50 0
-9 -18 -49 0
-9 -15 -47 0
-9 -15 30 0
-8 -21 -30 0
-8 -19 -51 0
-8 21 36 0
-8 46 51 0
-7 -27 31 0
-7 -13 36 0
-7 -12 29 0
-7 8 -41 0
-7 38 45 0
-7 39 -44 0
-7 43 55 0
-6 -19 -32 0
-6 -12 -53 0
-6 -7 52 0
-6 10 -49 0
-6 32 -54 0
-6 32 55 0
-5 -13 50 0
-5 33 55 0
-5 42 50 0
-4 -39 -45 0
-4 -28 37 0
-4 13 22 0
-3 -17 -28 0
-3 -17 21 0
-3 -10 -28 0
-3 11 -32 0
-3 22 51 0
-2 -51 54 0
-2 -45 51 0
-2 -30 36 0
-2 -9 47 0
-2 18 22 0
-2 26 32 0
-1 -33 51 0
-1 -21 -39 0
-1 2 4 0
-1 14 55 0
-1 15 16 0
-1 19 -41 0
-1 21 -30 0
-1 24 31 0
1 -34 -42 0
1 -17 24 0
2 -10 30 0
2 12 34 0
2 13 17 0
2 21 51 0
3 -23 -30 0
3 -18 55 0
3 -7 51 0
3 7 -38 0
3 15 44 0
3 38 49 0
4 -49 -52 0
4 -21 -30 0
4 -16 42 0
4 -10 -55 0
4 -6 -26 0
4 5 45 0
4 8 -53 0
4 37 -39 0
5 -49 -52 0
5 -38 54 0
5 -30 42 0
5 -28 -42 0
5 -11 -14 0
5 -10 34 0
5 12 38 0
5 14 40 0
5 22 -55 0
5 35 -47 0
6 -43 49 0
6 12 -38 0
6 37 40 0
7 -34 -52 0
7 -28 37 0
7 -22 26 0
7 -14 17 0
7 8 -42 0
7 26 40 0
7 39 -41 0
7 49 52 0
8 -33 -41 0
8 18 27 0
8 36 -48 0
9 -18 -20 0
9 -15 -45 0
9 30 38 0
9 38 54 0
9 40 -52 0
10 -15 -52 0
10 17 20 0
10 29 34 0
10 40 -53 0
11 -29 -37 0
11 -29 53 0
11 -27 -36 0
11 -23 -24 0
11 -21 -25 0
11 33 -52 0
11 35 -39 0
12 -37 54 0
12 -25 26 0
12 -17 26 0
12 -15 50 0
12 15 21 0
12 15 42 0
12 19 -50 0
12 22 -43 0
12 24 -42 0
12 41 43 0
12 49 54 0
13 -16 -25 0
13 20 -40 0
13 50 -52 0
14 27 -32 0
14 32 -54 0
15 -31 -43 0
15 -19 48 0
15 -17 -26 0
15 17 -47 0
15 18 -27 0
15 21 -41 0
15 23 27 0
15 26 49 0
15 31 46 0
16 -22 -23 0
17 19 -36 0
17 23 -46 0
17 26 53 0
17 26 55 0
17 29 -44 0
18 -35 36 0
18 -33 -45 0
18 41 -45 0
19 -41 -44 0
19 -25 -30 0
19 27 45 0
19 34 51 0
21 -29 37 0
21 -27 -33 0
21 25 -36 0
22 -34 39 0
23 -39 -48 0
23 24 -31 0
24 -31 -53 0
26 -44 -54 0
27 -29 -43 0
28 47 53 0
29 31 -45 0
30 -37 -38 0
30 31 -50 0
30 31 54 0
31 43 -53 0
33 39 -44 0
35 -48 54 0
35 46 47 0
36 -37 49 0
39 -40 44 0
39 40 -49 0
39 47 55 0
41 -44 -45 0
42 -44 -46 0
45 47 50 0
