p cnf 140 595
-121 -127 -136 0
-113 117 -129 0
-112 123 -127 0
-112 124 -137 0
-111 -123 -135 0
-106 -120 122 0
-102 -108 109 0
-102 112 -128 0
-101 -110 -121 0
-101 110 111 0
-98 -99 -102 0
-95 -103 -133 0
-94 -112 -134 0
-93 -101 130 0
-93 123 139 0
-91 127 -130 0
-90 91 -108 0
-89 -96 -100 0
-89 108 -128 0
-88 -127 140 0
-88 -90 106 0
-87 113 127 0
-87 120 -122 0
-85 103 -127 0
-84 -124 -131 0
-84 99 108 0
-84 103 -106 0
-82 -84 92 0
-81 -121 132 0
-81 -113 128 0
-81 95 -112 0
-80 89 -108 0
-79 104 -127 0
-76 -80 -127 0
-76 -78 122 0
-76 81 121 0
-76 100 -104 0
-75 -88 -103 0
-75 -80 -116 0
-75 107 -123 0
-74 -101 124 0
-74 -76 -122 0
-74 106 117 0
-74 123 136 0
-73 -81 121 0
-72 87 124 0
-71 -89 -96 0
-71 82 -115 0
-70 -103 138 0
-70 87 89 0
-70 97 99 0
-69 75 108 0
-68 -77 79 0
-67 -68 -92 0
-67 78 -134 0
-66 -82 -127 0
-66 95 -128 0
-63 -117 136 0
-63 -107 -116 0
-63 -104 110 0
-63 104 124 0
-63 121 138 0
-62 -103 140 0
-62 -79 -119 0
-61 -99 -131 0
-61 -68 133 0
-60 -79 121 0
-60 -77 101 0
-60 -65 112 0
-59 91 -100 0
-59 105 -107 0
-59 136 137 0
-58 -97 128 0
-58 -70 -117 0
-58 94 -106 0
-57 71 -108 0
-56 62 124 0
-56 116 119 0
-55 -121 -140 0
-55 -97 106 0
-55 113 125 0
-53 -105 121 0
-53 -99 130 0
-53 73 -103 0
-53 90 -101 0
-52 -98 -104 0
-52 53 -136 0
-52 68 103 0
-52 71 112 0
-51 -92 -108 0
-51 -79 111 0
-51 52 99 0
-51 54 56 0
-51 103 125 0
-50 -114 134 0
-50 -62 110 0
-49 -53 74 0
-49 58 -119 0
-48 70 74 0
-47 -73 108 0
-47 51 -130 0
-47 64 -90 0
-46 -83 100 0
-46 -50 138 0
-45 -96 137 0
-45 51 70 0
-44 -64 -67 0
-44 -52 92 0
-43 63 83 0
-43 88 97 0
-42 -48 65 0
-41 -76 -133 0
-41 44 132 0
-41 94 -126 0
-40 -82 97 0
-39 -41 -64 0
-39 44 74 0
-39 50 -138 0
-39 110 -130 0
-38 106 -123 0
-37 -90 -97 0
-37 -58 -133 0
-37 46 -75 0
-37 50 134 0
-36 -66 -83 0
-36 -54 55 0
-36 52 -138 0
-36 63 90 0
-35 -57 120 0
-35 -50 -55 0
-35 49 58 0
-35 91 -123 0
-34 -100 125 0
-34 45 -139 0
-34 86 -99 0
-33 -37 -86 0
-33 74 92 0
-32 -97 -132 0
-32 33 -73 0
-30 37 101 0
-30 42 87 0
-30 60 113 0
-29 41 -75 0
-29 78 -108 0
-29 94 95 0
-29 124 131 0
-28 71 -76 0
-27 -88 -139 0
-27 33 99 0
-27 45 115 0
-27 50 94 0
-27 53 134 0
-27 80 -116 0
-26 -127 -128 0
-25 -117 125 0
-25 -82 -90 0
-25 -73 -130 0
-25 -60 62 0
-25 -42 123 0
-25 31 -73 0
-24 -89 -119 0
-24 62 -68 0
-24 67 -117 0
-23 -73 -97 0
-23 -65 123 0
-23 86 132 0
-22 -85 -138 0
-22 -50 130 0
-22 -42 -47 0
-22 69 -123 0
-21 -81 -105 0
-21 -52 -63 0
-21 -24 -40 0
-20 -87 122 0
-20 -77 126 0
-20 -25 48 0
-20 -21 41 0
-20 36 112 0
-20 91 -104 0
-19 -57 -78 0
-19 30 -67 0
-19 46 -84 0
-18 -85 -139 0
-18 -53 100 0
-18 -22 -60 0
-18 26 102 0
-18 29 34 0
-18 52 -127 0
-17 -69 127 0
-17 -60 -126 0
-17 -57 77 0
-16 -79 87 0
-16 22 37 0
-16 37 -130 0
-16 70 98 0
-16 102 -104 0
-15 -49 87 0
-15 -34 44 0
-15 -28 -137 0
-15 -18 -65 0
-15 68 -105 0
-15 90 -114 0
-15 112 127 0
-14 -120 127 0
-14 -20 -112 0
-14 67 97 0
-14 123 -126 0
-13 -91 -95 0
-13 -73 93 0
-13 26 120 0
-13 38 50 0
-12 -105 -113 0
-12 -39 58 0
-12 30 -97 0
-12 44 -104 0
-11 -53 100 0
-11 -25 -56 0
-11 15 -97 0
-11 19 60 0
-11 53 -66 0
-10 -67 -133 0
-10 -58 87 0
-10 -46 114 0
-10 -44 105 0
-10 -38 -86 0
-10 -21 -115 0
-10 -16 -92 0
-10 110 -112 0
-10 127 -140 0
-9 -137 140 0
-9 -74 -138 0
-9 -54 108 0
-9 -51 84 0
-9 -50 71 0
-9 -24 -36 0
-9 19 -134 0
-9 27 -41 0
-8 -124 134 0
-8 -114 -123 0
-8 -88 106 0
-8 -84 -94 0
-8 -47 -74 0
-8 -37 -127 0
-8 -16 -62 0
-8 -11 -29 0
-8 35 -108 0
-8 37 -115 0
-8 40 94 0
-8 67 120 0
-7 -61 85 0
-7 17 -62 0
-7 26 64 0
-7 26 137 0
-7 28 -115 0
-7 28 85 0
-7 34 139 0
-7 50 57 0
-7 69 -135 0
-7 107 -132 0
-6 -70 119 0
-6 18 111 0
-6 23 104 0
-5 -61 116 0
-5 -45 131 0
-5 16 -94 0
-5 25 -129 0
-5 28 50 0
-5 46 135 0
-5 47 -108 0
-5 94 -131 0
-4 -124 132 0
-4 -71 72 0
-4 -65 -108 0
-4 -17 -21 0
-4 -17 64 0
-4 79 -91 0
-3 -100 140 0
-3 -83 -112 0
-3 -74 89 0
-3 -55 -115 0
-3 4 31 0
-3 16 36 0
-3 79 101 0
-2 -67 -133 0
-2 -18 139 0
-2 48 -100 0
-1 -22 42 0
-1 -18 26 0
-1 -16 23 0
-1 26 -117 0
-1 48 119 0
1 -64 -69 0
1 -54 61 0
1 -34 37 0
1 -30 110 0
1 -26 -110 0
1 -26 99 0
1 5 -36 0
1 9 -117 0
2 -63 87 0
2 5 -83 0
2 11 17 0
2 26 -67 0
3 -65 126 0
3 -51 -81 0
3 50 -68 0
3 72 76 0
3 75 -90 0
4 -60 -86 0
4 -43 67 0
4 -7 59 0
4 64 112 0
4 89 107 0
5 -58 -107 0
5 13 -48 0
6 -67 -137 0
6 -61 93 0
6 -27 132 0
6 13 57 0
6 17 138 0
6 20 -106 0
6 24 121 0
7 -99 111 0
7 -66 -138 0
7 -56 -66 0
7 -48 86 0
7 -20 46 0
7 -10 -71 0
7 54 93 0
7 71 -85 0
7 86 -111 0
8 -58 -88 0
8 24 -43 0
8 28 -59 0
8 87 99 0
9 -113 134 0
9 -89 93 0
9 -72 -83 0
9 -55 -119 0
9 -55 -74 0
9 -14 -105 0
9 -10 -96 0
9 36 98 0
10 -130 135 0
10 -49 -51 0
10 -18 -124 0
10 -14 56 0
10 33 62 0
10 35 48 0
10 96 -97 0
11 -65 -92 0
11 -40 -42 0
11 64 -66 0
11 64 76 0
12 -81 135 0
12 -44 -98 0
12 -38 -47 0
12 36 -104 0
12 120 -134 0
13 -32 -110 0
13 -26 -80 0
14 -90 -119 0
14 -86 -124 0
14 -80 107 0
14 -67 129 0
14 -51 120 0
14 -27 -79 0
14 -20 -34 0
14 21 99 0
14 43 -125 0
14 115 -135 0
14 129 -138 0
15 -94 -117 0
15 -59 -115 0
15 44 -110 0
15 76 113 0
16 -88 -117 0
16 -85 95 0
16 -34 -130 0
16 -29 -139 0
16 -17 -52 0
16 56 -126 0
17 -61 89 0
17 -39 63 0
17 92 125 0
17 114 133 0
18 -40 -59 0
18 52 90 0
18 61 101 0
18 65 73 0
19 -33 -58 0
19 -32 82 0
19 20 106 0
19 46 48 0
19 68 -126 0
20 -56 116 0
20 -40 45 0
20 -31 86 0
20 -28 -71 0
20 76 113 0
21 -67 -137 0
21 -39 86 0
21 43 -115 0
22 -36 116 0
22 -35 117 0
22 48 -72 0
22 104 133 0
23 -89 92 0
23 -63 -88 0
24 -81 -102 0
24 -42 -69 0
24 -32 -57 0
24 118 -133 0
25 -30 -99 0
25 78 112 0
26 -66 102 0
26 -61 126 0
26 -48 133 0
26 -44 -65 0
26 -35 -59 0
26 54 -70 0
27 -34 92 0
27 33 83 0
27 74 77 0
28 -62 112 0
29 -108 -121 0
29 30 -137 0
29 32 85 0
29 45 -57 0
29 67 -108 0
30 -105 -118 0
30 -85 121 0
30 -40 53 0
30 -32 94 0
30 55 -80 0
30 120 -134 0
31 -107 140 0
31 -57 78 0
31 103 -118 0
32 -110 -132 0
32 -35 -58 0
32 65 -97 0
32 77 115 0
33 -117 135 0
33 -50 112 0
33 34 -136 0
33 49 -88 0
33 67 -138 0
34 -43 -110 0
34 -35 81 0
34 45 51 0
34 55 -85 0
34 61 107 0
35 -95 -137 0
35 -48 73 0
35 37 -92 0
35 49 -126 0
35 66 110 0
36 -67 -103 0
36 42 -46 0
36 85 -104 0
37 -117 125 0
37 -82 121 0
37 60 90 0
38 -65 -135 0
38 69 83 0
38 92 110 0
39 -127 128 0
39 -59 -83 0
39 58 -119 0
40 -45 -127 0
40 -41 -73 0
40 65 82 0
41 -62 -98 0
41 97 122 0
42 -73 90 0
42 63 82 0
42 86 -122 0
42 126 -140 0
43 -91 -124 0
43 49 54 0
44 77 -79 0
44 98 -126 0
45 51 -82 0
45 70 -75 0
45 92 -98 0
46 -79 81 0
46 78 -108 0
47 -128 135 0
47 -108 109 0
47 -98 139 0
47 107 124 0
48 -90 -95 0
48 -89 123 0
48 67 109 0
48 69 -91 0
48 102 111 0
49 74 140 0
50 76 -128 0
51 -74 84 0
51 66 137 0
51 92 98 0
52 -84 115 0
52 61 97 0
52 63 -74 0
52 71 140 0
52 112 114 0
53 -62 -81 0
53 -58 121 0
54 -104 115 0
54 59 -112 0
54 80 -126 0
54 130 132 0
56 -82 -113 0
56 -82 106 0
56 -61 -92 0
56 -60 -99 0
56 57 -73 0
56 133 -135 0
57 -69 -132 0
58 -100 133 0
58 -68 128 0
59 -88 -105 0
59 -87 137 0
60 -70 -93 0
61 75 -87 0
61 86 110 0
61 127 -140 0
62 -69 -100 0
62 95 -116 0
63 -85 -124 0
63 -79 -115 0
63 102 -116 0
64 -95 -120 0
64 74 -78 0
64 121 -126 0
65 -123 136 0
65 123 -131 0
66 -67 131 0
67 -113 127 0
67 -95 139 0
68 -93 114 0
68 80 123 0
68 110 139 0
69 89 136 0
69 126 129 0
70 106 126 0
71 -105 137 0
72 100 -125 0
73 88 118 0
73 106 124 0
75 -123 132 0
75 -113 138 0
75 -100 -134 0
75 -80 -138 0
75 83 92 0
75 97 -121 0
76 -113 -132 0
76 -84 99 0
76 -82 98 0
76 98 115 0
76 100 -122 0
78 -79 81 0
78 101 121 0
79 -103 -135 0
79 -89 105 0
79 126 -128 0
80 -96 -120 0
80 90 103 0
80 115 134 0
82 -86 -125 0
83 -105 113 0
83 -95 125 0
86 93 -94 0
86 114 133 0
89 -96 127 0
89 107 -113 0
90 -113 -116 0
90 104 -106 0
91 -98 -112 0
91 96 119 0
93 -115 137 0
93 98 -131 0
94 117 130 0
95 106 126 0
99 -105 -119 0
100 -101 -114 0
100 113 -128 0
101 -108 109 0
101 -102 128 0
102 -115 -128 0
103 130 135 0
105 112 -117 0
112 128 130 0
119 129 130 0
