p cnf 35 149
-29 -32 33 0
-27 28 34 0
-26 -28 -35 0
-25 -26 30 0
-22 23 -26 0
-21 -27 30 0
-21 22 -31 0
-21 29 33 0
-20 21 -26 0
-18 32 -33 0
-17 25 35 0
-16 -18 -21 0
-15 -30 -31 0
-14 -17 28 0
-14 17 -23 0
-13 -17 24 0
-13 15 -33 0
-13 31 35 0
-12 24 -33 0
-12 29 -35 0
-11 -17 -34 0
-11 -16 -24 0
-11 12 15 0
-11 13 -18 0
-10 14 29 0
-10 25 28 0
-9 -25 29 0
-9 -11 31 0
-9 15 -35 0
-9 22 27 0
-9 26 30 0
-8 -17 -22 0
-8 -11 26 0
-8 22 25 0
-7 -24 -32 0
-7 9 17 0
-6 -16 -30 0
-6 -10 19 0
-6 9 19 0
-6 9 29 0
-6 10 17 0
-5 -22 -24 0
-5 -17 34 0
-5 7 33 0
-5 10 14 0
-5 11 26 0
-5 11 31 0
-5 19 32 0
-5 24 -27 0
-5 26 29 0
-4 -16 27 0
-4 -14 31 0
-3 -14 18 0
-3 -12 -21 0
-3 -10 13 0
-3 -5 -35 0
-3 9 33 0
-3 11 -21 0
-3 20 28 0
-2 -25 -29 0
-2 -5 19 0
-2 -4 32 0
-2 7 -15 0
-2 9 19 0
-2 9 31 0
-2 19 -21 0
-1 -25 32 0
-1 -18 -34 0
-1 -18 25 0
-1 -3 -23 0
-1 2 -29 0
-1 2 18 0
-1 5 27 0
-1 9 26 0
-1 12 -33 0
-1 13 -28 0
1 -27 33 0
1 -16 -20 0
1 2 -27 0
1 3 -27 0
1 10 -27 0
1 24 25 0
2 -10 -34 0
2 18 -21 0
2 19 32 0
3 -34 35 0
3 -21 -23 0
3 8 10 0
3 12 -24 0
3 17 -33 0
3 17 34 0
3 20 -32 0
4 -18 21 0
4 -16 -35 0
4 -15 -16 0
4 11 23 0
5 14 -22 0
5 23 35 0
5 31 -35 0
6 -19 24 0
6 -14 -19 0
6 10 -32 0
6 14 -21 0
7 -23 -28 0
7 -12 31 0
7 15 29 0
7 21 -26 0
7 30 31 0
8 -19 -30 0
8 11 -32 0
8 20 32 0
8 20 34 0
9 -25 34 0
9 -22 29 0
9 -10 -29 0
9 11 20 0
9 20 -23 0
9 24 -34 0
10 -14 33 0
10 13 33 0
10 20 33 0
11 -29 -34 0
11 -22 24 0
11 -19 -30 0
11 16 -29 0
12 -30 31 0
12 18 -23 0
12 25 -30 0
13 -21 -26 0
13 -14 -35 0
14 18 -34 0
14 23 27 0
14 25 32 0
15 -25 26 0
16 -28 31 0
16 20 -30 0
16 22 24 0
17 21 -25 0
18 -22 -32 0
18 -21 32 0
19 -23 -24 0
19 20 24 0
19 27 -30 0
21 -34 35 0
21 -22 -33 0
21 27 -35 0
23 -27 35 0
26 29 32 0
29 30 -31 0
