p cnf 30 128
-19 -26 -29 0
-18 -26 29 0
-18 23 -29 0
-16 23 -28 0
-15 -16 -21 0
-15 16 18 0
-14 18 -19 0
-12 20 23 0
-12 21 27 0
-12 27 28 0
-11 -19 30 0
-11 15 22 0
-11 16 -29 0
-10 -22 24 0
-10 -19 -29 0
-10 -13 16 0
-10 16 20 0
-10 22 25 0
-9 13 25 0
-9 14 18 0
-9 20 25 0
-8 -26 29 0
-8 -12 -18 0
-8 15 -21 0
-7 -16 -19 0
-7 -16 22 0
-7 -13 -22 0
-7 25 28 0
-6 -17 24 0
-6 -11 23 0
-6 -7 19 0
-6 8 -22 0
-5 9 -22 0
-5 10 -20 0
-5 22 24 0
-4 -9 -24 0
-4 -7 -22 0
-4 6 13 0
-4 7 -20 0
-4 9 -24 0
-4 20 -24 0
-3 -16 -26 0
-3 -12 24 0
-3 -11 22 0
-3 -9 -14 0
-3 -5 6 0
-3 -5 22 0
-3 4 5 0
-3 9 -13 0
-2 -9 23 0
-2 -4 -11 0
-2 14 18 0
-1 -19 -29 0
-1 -3 9 0
-1 -2 -29 0
-1 4 -11 0
-1 5 29 0
1 2 -8 0
1 2 20 0
1 4 -27 0
1 7 11 0
1 13 14 0
1 14 26 0
1 17 -23 0
2 -15 -17 0
2 -7 26 0
2 -6 23 0
2 -5 19 0
2 7 -28 0
2 7 -24 0
2 9 -27 0
2 9 16 0
3 -28 -29 0
3 -12 19 0
3 -9 -15 0
3 -6 -19 0
3 11 -26 0
3 14 -28 0
4 -26 28 0
4 -14 -22 0
4 -14 -15 0
4 5 7 0
4 11 28 0
4 22 -23 0
5 7 -13 0
5 7 11 0
5 18 29 0
5 20 26 0
6 -20 27 0
6 -7 -14 0
6 8 -23 0
6 9 -27 0
6 11 -22 0
6 22 23 0
7 -9 15 0
7 8 -21 0
7 8 20 0
7 9 -15 0
7 11 12 0
8 -26 27 0
8 -17 25 0
8 -17 28 0
8 -15 27 0
8 12 23 0
8 17 -20 0
8 24 -28 0
9 -22 23 0
9 13 16 0
10 -26 -29 0
10 -13 -27 0
10 -12 25 0
11 14 25 0
11 27 -28 0
12 21 -23 0
13 -25 26 0
13 -19 20 0
13 -16 30 0
13 14 16 0
14 -22 -30 0
15 22 26 0
16 18 -24 0
16 19 -28 0
17 -20 -21 0
17 23 -25 0
18 -20 27 0
18 19 -29 0
19 -26 29 0
19 -22 27 0
