p cnf 120 510
-116 -117 120 0
-102 -107 -117 0
-99 102 106 0
-97 -103 120 0
-90 94 114 0
-88 -98 120 0
-88 92 110 0
-84 100 -120 0
-81 116 -120 0
-79 -107 108 0
-79 89 114 0
-78 -89 94 0
-77 -78 -103 0
-77 107 114 0
-76 -80 111 0
-76 90 115 0
-75 -102 108 0
-74 -102 116 0
-74 -81 -111 0
-74 -78 96 0
-74 88 103 0
-71 -109 119 0
-71 -84 92 0
-71 -78 79 0
-70 75 85 0
-69 -70 -101 0
-69 74 108 0
-67 79 -120 0
-65 -95 112 0
-64 67 -110 0
-63 71 79 0
-63 87 -91 0
-61 98 107 0
-60 82 120 0
-58 -64 103 0
-58 68 -102 0
-57 62 85 0
-56 64 106 0
-55 -69 74 0
-55 -56 -59 0
-54 -57 79 0
-53 66 120 0
-53 73 96 0
-53 78 -102 0
-52 -93 120 0
-52 -54 93 0
-52 75 107 0
-51 -92 -93 0
-50 84 103 0
-50 85 -114 0
-50 93 -111 0
-49 -94 115 0
-49 -76 118 0
-49 53 104 0
-49 58 114 0
-48 -67 -96 0
-47 -77 -81 0
-47 -61 -70 0
-47 -54 -106 0
-47 76 -113 0
-47 90 98 0
-47 97 -98 0
-46 -68 87 0
-46 47 99 0
-46 55 107 0
-45 -61 -103 0
-45 85 -95 0
-44 -87 -92 0
-44 60 -86 0
-43 44 -109 0
-42 -75 -90 0
-42 -64 107 0
-42 -50 94 0
-42 45 -60 0
-41 -82 -94 0
-41 -62 -101 0
-40 74 -91 0
-39 -73 92 0
-39 -67 -96 0
-38 -67 111 0
-38 -52 -94 0
-38 63 -97 0
-37 -55 -94 0
-37 40 -110 0
-37 42 49 0
-37 67 -84 0
-37 70 97 0
-36 45 -86 0
-36 58 101 0
-36 93 -96 0
-35 -47 67 0
-35 62 -72 0
-35 67 109 0
-34 -76 -109 0
-34 -48 119 0
-34 56 99 0
-33 -54 -112 0
-33 90 -119 0
-32 -102 -114 0
-32 40 85 0
-32 56 100 0
-31 -48 -54 0
-31 -45 -93 0
-31 35 66 0
-31 80 120 0
-30 -53 -78 0
-30 -53 86 0
-30 -52 -92 0
-30 -31 -87 0
-30 45 64 0
-30 50 -97 0
-30 67 86 0
-29 31 57 0
-29 44 53 0
-29 44 99 0
-28 -61 66 0
-28 -44 89 0
-28 31 -100 0
-28 33 -90 0
-28 34 -77 0
-27 -73 -107 0
-27 -67 -84 0
-27 -59 99 0
-27 -41 97 0
-27 -29 114 0
-26 -78 99 0
-25 -52 114 0
-25 88 -93 0
-24 50 99 0
-24 81 -96 0
-23 -50 -102 0
-23 -32 -91 0
-23 25 40 0
-23 26 -38 0
-23 34 -104 0
-23 42 101 0
-22 -69 -70 0
-22 -36 65 0
-22 -34 50 0
-21 -37 101 0
-21 -22 -109 0
-20 -32 -59 0
-20 -21 -97 0
-20 22 29 0
-20 70 106 0
-19 -55 118 0
-19 -45 -82 0
-19 25 -56 0
-19 29 102 0
-19 34 -93 0
-19 37 92 0
-19 57 107 0
-19 70 -83 0
-19 74 -113 0
-19 110 115 0
-18 -88 91 0
-18 -67 119 0
-18 23 -87 0
-18 40 53 0
-18 89 -97 0
-17 -53 -102 0
-17 23 -112 0
-17 30 -103 0
-17 37 81 0
-17 86 112 0
-17 92 110 0
-16 -25 59 0
-16 -21 68 0
-16 45 116 0
-15 -80 -93 0
-15 -41 -62 0
-15 -38 -73 0
-15 18 -114 0
-15 49 57 0
-15 52 111 0
-15 57 120 0
-15 82 -91 0
-14 -43 -58 0
-14 -24 109 0
-14 34 78 0
-14 44 -91 0
-14 62 63 0
-13 -56 -107 0
-13 -40 -52 0
-13 24 -30 0
-13 57 -84 0
-12 -92 97 0
-12 -25 104 0
-12 17 79 0
-12 43 -80 0
-12 47 -67 0
-11 -29 67 0
-11 -19 49 0
-11 14 -102 0
-11 44 46 0
-11 59 87 0
-10 -81 109 0
-10 -49 -103 0
-10 -39 -107 0
-10 -32 101 0
-10 -26 -57 0
-10 12 -31 0
-10 35 85 0
-10 69 -107 0
-9 -21 -113 0
-9 38 87 0
-9 53 -64 0
-9 58 -62 0
-7 -19 -43 0
-7 18 -66 0
-7 24 -77 0
-7 24 40 0
-7 45 -112 0
-7 71 -84 0
-7 93 109 0
-6 -89 93 0
-6 -78 -101 0
-6 -46 -107 0
-6 -33 -93 0
-6 -14 -100 0
-6 30 93 0
-6 72 -90 0
-5 25 74 0
-4 -63 107 0
-4 -14 20 0
-4 10 72 0
-4 12 21 0
-4 12 105 0
-4 22 -76 0
-4 26 82 0
-4 28 -98 0
-4 28 -30 0
-3 -80 84 0
-3 -40 -110 0
-3 -37 103 0
-3 -35 -72 0
-3 -26 30 0
-3 6 -44 0
-3 21 52 0
-3 38 -93 0
-3 49 -89 0
-3 55 -57 0
-3 57 -70 0
-3 68 -115 0
-2 -56 110 0
-2 -19 91 0
-2 7 52 0
-2 23 82 0
-2 55 -99 0
-2 67 79 0
-2 100 111 0
-1 -77 -103 0
-1 -10 -11 0
-1 18 73 0
-1 42 89 0
-1 61 74 0
1 -87 -93 0
1 -46 68 0
1 -10 59 0
1 5 -64 0
1 34 -114 0
1 48 78 0
1 54 -109 0
2 -44 81 0
2 -24 52 0
2 -13 -116 0
2 9 54 0
2 16 55 0
2 38 -66 0
2 62 117 0
2 87 106 0
3 -65 -100 0
3 -38 69 0
3 23 -94 0
3 23 53 0
3 53 -110 0
4 -77 -85 0
4 -21 -84 0
4 9 104 0
4 31 91 0
4 51 97 0
4 67 -85 0
4 83 -96 0
4 89 -104 0
4 93 107 0
5 -59 63 0
5 -52 67 0
5 48 100 0
5 48 101 0
6 -81 83 0
6 -18 117 0
6 38 -105 0
6 48 85 0
6 49 -85 0
6 57 61 0
6 89 -92 0
7 -29 91 0
7 36 -73 0
7 43 103 0
7 49 -61 0
8 -85 -114 0
8 -27 108 0
8 -22 -67 0
8 -17 -75 0
8 -16 120 0
8 -11 28 0
8 -10 -110 0
8 103 -117 0
9 -49 77 0
9 -38 -102 0
9 -15 -87 0
9 -12 67 0
9 18 44 0
9 39 -55 0
9 49 60 0
9 76 102 0
10 -56 98 0
10 -44 -98 0
10 -29 112 0
10 44 -109 0
10 59 108 0
11 -101 105 0
12 -82 -106 0
12 -76 -118 0
12 -54 86 0
12 -53 -61 0
12 24 -50 0
12 47 -55 0
12 48 -102 0
12 50 -89 0
13 -98 -116 0
14 -72 86 0
14 -52 66 0
14 -39 60 0
14 19 -33 0
14 72 -106 0
15 -88 -91 0
15 41 -57 0
15 41 65 0
15 44 93 0
16 -69 -79 0
17 -55 119 0
17 -24 -32 0
17 30 72 0
17 94 101 0
18 -31 66 0
18 -28 -75 0
18 24 113 0
18 44 115 0
19 -108 -112 0
19 -102 -115 0
19 -100 110 0
19 -68 -94 0
19 -32 -88 0
19 28 65 0
19 99 110 0
20 -64 -83 0
20 -55 73 0
20 -33 -66 0
20 24 -84 0
20 48 82 0
20 69 -109 0
20 69 99 0
21 -56 -107 0
21 36 80 0
22 -67 -120 0
22 -65 67 0
22 -38 93 0
22 37 -118 0
23 -33 -100 0
23 77 103 0
23 97 101 0
24 -114 -115 0
24 63 -97 0
24 93 112 0
25 -57 -83 0
25 -42 -49 0
25 77 81 0
26 -74 110 0
26 -38 102 0
26 -36 -75 0
26 66 -93 0
26 84 -111 0
26 104 105 0
27 -34 -118 0
27 -33 -62 0
27 -28 114 0
28 -110 -120 0
28 -70 93 0
28 70 74 0
28 106 111 0
29 45 89 0
29 85 113 0
30 -105 115 0
30 -51 104 0
30 -50 87 0
30 35 56 0
30 43 96 0
30 55 84 0
31 -74 -86 0
31 -61 -91 0
31 53 -111 0
32 36 101 0
33 -86 -93 0
33 -83 88 0
33 -69 -85 0
33 -49 117 0
33 61 -107 0
33 79 -106 0
34 -80 95 0
34 48 -87 0
34 55 -90 0
35 -53 -77 0
35 -44 -59 0
35 72 -82 0
36 -101 119 0
36 -78 91 0
36 -49 93 0
36 41 -53 0
37 -42 66 0
37 66 119 0
38 -99 -106 0
38 -45 102 0
38 -42 -48 0
38 57 -118 0
38 72 -73 0
39 -72 -83 0
39 48 -116 0
39 54 114 0
39 59 93 0
39 85 -92 0
40 -73 -86 0
40 -46 -89 0
40 46 -81 0
40 48 -100 0
40 117 -118 0
41 104 111 0
42 -100 -117 0
42 -92 -103 0
42 -44 -70 0
42 73 -87 0
43 44 117 0
44 -104 112 0
44 -56 -115 0
45 -53 -73 0
45 -51 -112 0
45 -51 -79 0
45 68 -81 0
46 -53 -70 0
46 -50 94 0
46 57 -79 0
46 81 -116 0
47 -54 72 0
47 49 -118 0
47 51 -61 0
47 79 -100 0
48 -103 112 0
48 -64 -86 0
48 50 56 0
50 -57 -77 0
50 58 -60 0
50 60 119 0
50 70 -83 0
51 -54 -77 0
51 102 -117 0
52 -80 -91 0
52 -66 -91 0
52 64 111 0
53 68 -107 0
53 74 -77 0
54 -62 -120 0
54 59 78 0
55 71 103 0
55 80 -99 0
56 -57 68 0
56 67 110 0
56 69 -79 0
56 79 96 0
57 92 107 0
57 104 -120 0
58 -61 108 0
59 -89 -118 0
59 67 -104 0
60 -90 120 0
62 -80 115 0
63 -109 -115 0
64 66 -103 0
66 -78 112 0
66 114 -116 0
68 84 96 0
72 -99 116 0
72 96 -114 0
72 99 115 0
74 -80 114 0
74 86 -109 0
75 -85 -91 0
75 81 -86 0
75 98 -104 0
78 79 116 0
79 -93 -94 0
80 87 -103 0
81 82 90 0
83 -92 -112 0
85 96 105 0
85 99 -107 0
90 103 -114 0
94 98 -107 0
96 109 -117 0
99 -112 -114 0
109 -112 -115 0
