p cnf 70 298
-61 -64 67 0
-56 63 -70 0
-53 58 59 0
-51 -56 -66 0
-50 61 67 0
-48 -56 -61 0
-48 57 -68 0
-46 -50 -64 0
-45 -59 -60 0
-45 -52 70 0
-45 61 -67 0
-44 48 -69 0
-43 -48 49 0
-43 65 70 0
-41 42 47 0
-39 -67 -69 0
-39 -40 41 0
-38 -40 -42 0
-37 38 -46 0
-36 -64 -70 0
-36 -42 -52 0
-36 -42 45 0
-36 45 -62 0
-35 -64 -65 0
-33 -51 55 0
-33 40 56 0
-32 -45 61 0
-32 33 -49 0
-30 -53 -59 0
-30 -51 -62 0
-30 -37 -56 0
-30 -35 44 0
-30 -31 -41 0
-29 48 -59 0
-27 36 65 0
-26 33 67 0
-26 57 -58 0
-25 -63 68 0
-25 50 62 0
-23 -53 -60 0
-23 -26 -31 0
-23 -26 62 0
-23 27 -28 0
-23 29 50 0
-23 31 56 0
-23 64 66 0
-22 -46 48 0
-22 -25 -43 0
-22 24 -26 0
-22 25 -38 0
-22 38 45 0
-21 -57 -66 0
-21 -22 24 0
-21 22 51 0
-21 23 -57 0
-20 -47 -51 0
-20 -39 51 0
-20 -33 -67 0
-20 -31 -67 0
-20 22 -58 0
-19 -28 -53 0
-18 19 60 0
-17 -42 43 0
-17 -38 -56 0
-17 -37 61 0
-17 -19 -25 0
-17 41 -70 0
-16 -64 66 0
-16 -63 70 0
-16 47 -58 0
-15 -28 29 0
-15 -27 42 0
-15 25 -28 0
-14 -53 70 0
-14 -45 -61 0
-14 16 -67 0
-14 22 59 0
-13 -30 41 0
-13 -24 -59 0
-13 15 -67 0
-13 19 55 0
-13 37 47 0
-13 44 64 0
-12 -52 -56 0
-12 -21 -24 0
-12 49 -59 0
-12 53 -63 0
-11 -30 -40 0
-11 -19 36 0
-11 46 -52 0
-10 -24 40 0
-10 -21 -56 0
-10 23 56 0
-10 25 51 0
-9 -16 32 0
-9 -16 35 0
-9 37 66 0
-9 45 51 0
-8 34 -38 0
-8 38 40 0
-8 56 -68 0
-7 -32 57 0
-7 19 -40 0
-7 26 -50 0
-6 -47 -48 0
-6 -38 45 0
-6 -23 -57 0
-6 23 47 0
-6 27 -43 0
-6 34 -69 0
-6 58 69 0
-5 7 60 0
-5 34 -39 0
-5 37 47 0
-5 38 -52 0
-5 67 70 0
-4 -10 67 0
-4 -6 69 0
-4 25 36 0
-4 32 -52 0
-4 36 -69 0
-4 39 55 0
-3 -40 -70 0
-3 -36 -69 0
-3 -35 -56 0
-3 -18 42 0
-3 -17 26 0
-3 -7 24 0
-3 -5 11 0
-3 5 -21 0
-3 11 -16 0
-3 12 -14 0
-3 40 58 0
-3 46 -66 0
-2 -48 -60 0
-2 8 -30 0
-1 -24 -53 0
-1 -19 49 0
-1 6 11 0
-1 10 -47 0
-1 47 64 0
-1 55 62 0
-1 60 -64 0
1 -41 -46 0
1 -23 40 0
1 -10 54 0
1 -7 11 0
1 -4 23 0
1 -2 53 0
1 23 32 0
1 57 -61 0
2 -25 66 0
2 46 58 0
2 55 -58 0
3 -60 -70 0
3 -32 68 0
3 56 63 0
3 62 -67 0
4 -51 -55 0
4 -33 46 0
4 -30 69 0
4 -23 -38 0
4 -16 -40 0
4 -7 30 0
4 6 37 0
4 24 43 0
4 57 65 0
5 -60 -64 0
5 -35 55 0
5 -18 -44 0
5 -13 62 0
5 -7 52 0
5 15 -31 0
6 -17 56 0
6 54 -65 0
7 -55 57 0
7 -54 61 0
7 -43 -70 0
7 -23 -50 0
7 -18 -19 0
7 16 37 0
7 40 41 0
7 43 -66 0
8 -60 62 0
8 -58 -60 0
8 -30 -32 0
8 -25 64 0
8 22 39 0
8 28 65 0
8 35 -53 0
9 -41 43 0
9 -33 50 0
9 -21 27 0
9 32 63 0
9 47 -55 0
10 -44 -63 0
10 29 58 0
10 30 52 0
10 34 66 0
10 48 61 0
11 -60 62 0
11 -47 63 0
11 -33 -39 0
11 -16 42 0
11 27 -61 0
11 40 -58 0
12 -42 -67 0
12 -35 65 0
12 -33 -39 0
12 -28 -68 0
12 15 54 0
12 24 26 0
12 34 58 0
12 42 -53 0
13 -40 -56 0
13 -29 46 0
13 29 52 0
13 52 -68 0
14 -53 65 0
14 -46 -54 0
14 -20 54 0
14 -19 -41 0
14 24 39 0
14 45 59 0
14 47 -57 0
15 -28 39 0
15 -27 -51 0
15 18 60 0
15 27 -45 0
15 44 65 0
16 -21 25 0
16 19 28 0
16 46 -49 0
17 -45 66 0
17 -42 70 0
17 -40 44 0
17 22 63 0
18 -52 59 0
18 -30 -51 0
18 31 50 0
19 -36 44 0
19 -20 24 0
19 50 -62 0
20 37 45 0
20 38 -60 0
21 35 -52 0
22 -37 67 0
22 -28 -47 0
23 -41 45 0
23 36 -37 0
24 -49 52 0
24 -31 49 0
24 -25 -59 0
24 46 50 0
25 -57 -65 0
25 40 -46 0
26 -45 -60 0
26 -33 -68 0
26 27 28 0
26 58 -66 0
27 -38 -59 0
27 61 66 0
28 -54 -65 0
29 -51 67 0
29 42 58 0
30 -50 -52 0
31 51 65 0
31 54 -62 0
32 -52 56 0
32 50 -55 0
34 -45 -55 0
36 -47 -58 0
36 -47 62 0
36 43 58 0
36 50 53 0
37 -57 59 0
37 -42 59 0
37 64 -69 0
38 -43 -52 0
41 -61 -67 0
41 42 -52 0
42 45 -50 0
42 47 -54 0
43 -63 69 0
43 55 -69 0
43 66 68 0
44 47 54 0
44 47 57 0
46 47 48 0
47 -61 -66 0
47 -50 65 0
47 57 62 0
49 -60 62 0
49 54 59 0
51 -58 63 0
54 56 -68 0
60 62 66 0
61 -65 67 0
