p cnf 150 525
-130 -141 -143 0
-117 120 134 0
-117 121 133 0
-114 119 126 0
-106 119 -137 0
-104 115 120 0
-101 -126 -147 0
-101 112 -113 0
-100 -109 137 0
-99 -112 128 0
-98 140 149 0
-97 100 -121 0
-97 142 -148 0
-96 -119 -140 0
-96 111 -119 0
-96 120 -144 0
-93 107 -112 0
-90 -96 -119 0
-88 111 -149 0
-87 -105 -139 0
-87 -95 -150 0
-86 -90 115 0
-85 -105 109 0
-85 124 136 0
-84 -89 -133 0
-82 -92 -139 0
-81 84 143 0
-81 106 126 0
-79 84 122 0
-79 90 -122 0
-78 81 -88 0
-76 90 -108 0
-75 -88 94 0
-73 -135 -149 0
-72 -106 -123 0
-71 85 131 0
-71 109 -129 0
-70 -76 118 0
-69 -88 -102 0
-68 -98 121 0
-68 -69 92 0
-67 -147 -150 0
-66 -80 -108 0
-66 92 128 0
-63 -115 -116 0
-62 -126 -144 0
-62 83 90 0
-61 -113 -147 0
-61 62 -118 0
-61 119 -133 0
-61 145 -147 0
-60 104 142 0
-60 118 126 0
-59 -126 -144 0
-59 -107 139 0
-59 -65 94 0
-58 -81 137 0
-58 122 149 0
-57 111 116 0
-56 -104 -144 0
-56 -76 -92 0
-55 -57 139 0
-55 124 149 0
-54 -78 -105 0
-54 -73 128 0
-54 67 115 0
-53 -100 101 0
-53 116 -149 0
-53 118 134 0
-51 67 -85 0
-51 67 138 0
-50 -79 125 0
-50 86 -147 0
-49 -90 -120 0
-49 -83 -139 0
-49 65 -107 0
-49 71 119 0
-49 100 109 0
-49 121 146 0
-48 -91 -92 0
-48 -58 108 0
-48 70 112 0
-48 91 145 0
-47 -60 86 0
-47 -56 106 0
-47 105 -115 0
-47 106 107 0
-46 105 -108 0
-46 115 118 0
-45 -113 146 0
-43 80 88 0
-41 55 -108 0
-40 -81 -147 0
-40 -75 107 0
-40 -60 -122 0
-40 109 -149 0
-40 136 -138 0
-39 -132 -142 0
-39 -93 -133 0
-39 -63 145 0
-38 -55 120 0
-38 49 84 0
-38 74 123 0
-37 -116 -140 0
-37 -105 -143 0
-37 42 89 0
-36 -82 -105 0
-36 -50 82 0
-35 -98 110 0
-35 40 74 0
-35 54 93 0
-35 88 123 0
-35 91 92 0
-34 -49 68 0
-34 -44 76 0
-33 -104 -135 0
-33 -50 128 0
-33 40 -79 0
-33 51 66 0
-33 102 113 0
-33 124 -126 0
-32 63 -143 0
-32 97 -132 0
-32 103 139 0
-32 118 -139 0
-31 -93 -129 0
-31 -91 -107 0
-31 -61 -146 0
-31 -56 68 0
-31 -40 -122 0
-31 76 148 0
-31 84 88 0
-31 113 146 0
-30 -44 138 0
-30 38 105 0
-29 -91 -96 0
-29 -69 150 0
-29 76 -91 0
-29 143 -145 0
-28 -51 -54 0
-28 -49 -101 0
-28 -43 110 0
-28 -32 -83 0
-28 -29 32 0
-28 29 -136 0
-28 40 -118 0
-28 44 -68 0
-28 66 90 0
-27 47 -106 0
-27 92 149 0
-26 -109 124 0
-26 -46 76 0
-25 103 -123 0
-24 -37 106 0
-23 -73 144 0
-23 25 -79 0
-23 37 95 0
-23 56 99 0
-22 -38 72 0
-22 63 -113 0
-21 -47 130 0
-21 -39 90 0
-21 26 -150 0
-21 27 -41 0
-21 33 -43 0
-21 51 -59 0
-21 55 -139 0
-21 55 90 0
-21 86 145 0
-21 92 -150 0
-20 -67 -134 0
-20 -21 -105 0
-20 39 142 0
-20 70 -74 0
-20 113 117 0
-20 118 133 0
-19 -113 -150 0
-19 -108 -116 0
-19 -61 124 0
-19 79 -146 0
-18 -107 -109 0
-18 -47 -116 0
-18 72 -114 0
-17 -71 74 0
-17 71 146 0
-16 -112 -141 0
-16 23 -61 0
-16 62 105 0
-15 -113 128 0
-15 -78 88 0
-15 -30 103 0
-15 47 138 0
-15 60 -103 0
-14 49 -81 0
-14 55 -81 0
-14 109 -134 0
-13 -73 -88 0
-13 -32 102 0
-12 -93 136 0
-12 -75 -112 0
-12 -54 93 0
-12 -41 119 0
-12 86 -96 0
-12 100 112 0
-11 -39 -112 0
-11 -13 -62 0
-10 -123 146 0
-10 -78 -135 0
-10 -64 148 0
-10 -29 47 0
-10 32 56 0
-10 55 66 0
-9 -121 129 0
-9 -89 -118 0
-9 -48 -134 0
-9 -20 112 0
-9 -15 -55 0
-9 -12 62 0
-9 14 50 0
-9 15 81 0
-9 41 -85 0
-9 52 -112 0
-8 -44 -81 0
-8 -29 74 0
-8 14 27 0
-7 -28 105 0
-7 31 123 0
-7 38 113 0
-7 131 149 0
-6 -84 -121 0
-6 28 -64 0
-6 68 -125 0
-6 73 -94 0
-5 -79 118 0
-5 43 -114 0
-4 -120 -128 0
-4 -19 101 0
-4 9 -74 0
-4 18 40 0
-4 56 138 0
-3 -10 -94 0
-3 8 130 0
-3 39 -48 0
-2 -77 89 0
-2 -23 103 0
-2 -13 -64 0
-2 -6 20 0
-2 11 81 0
-1 -95 -112 0
-1 -13 86 0
-1 -10 85 0
-1 -9 63 0
-1 146 149 0
1 -119 -138 0
1 -16 117 0
1 -9 -52 0
1 11 47 0
1 26 -121 0
1 27 103 0
1 74 -81 0
2 -106 -108 0
2 4 113 0
2 16 124 0
2 27 -113 0
2 33 60 0
2 40 81 0
3 -139 141 0
3 -84 -145 0
3 -84 130 0
3 10 74 0
3 34 123 0
3 55 104 0
4 -35 -109 0
4 -8 120 0
4 17 94 0
4 49 106 0
5 -110 -120 0
5 -32 149 0
5 18 86 0
5 31 -88 0
5 38 -59 0
5 91 -126 0
6 -43 -74 0
6 -40 -131 0
6 37 138 0
6 42 97 0
7 -90 -102 0
7 28 43 0
8 -107 125 0
8 -79 139 0
8 47 53 0
9 -14 -107 0
9 -14 92 0
9 23 -138 0
9 123 -129 0
10 -71 126 0
10 -67 -150 0
10 -63 88 0
10 12 -121 0
10 124 141 0
11 -19 -27 0
11 88 -143 0
12 -74 -107 0
12 26 -49 0
12 75 -136 0
12 98 -130 0
13 -102 -143 0
13 -84 135 0
13 -70 87 0
13 65 108 0
13 124 -125 0
14 -86 123 0
14 57 119 0
15 -69 116 0
15 -58 -91 0
15 -54 144 0
15 -24 41 0
15 24 70 0
16 -46 -127 0
16 -33 62 0
16 -25 -99 0
16 -20 -51 0
16 65 -105 0
16 138 142 0
17 -52 111 0
17 -38 -64 0
17 -29 67 0
17 50 140 0
17 71 126 0
18 -51 82 0
18 -47 -68 0
19 -32 68 0
19 23 71 0
19 85 90 0
20 -68 -108 0
20 -61 -135 0
20 -28 41 0
20 35 -39 0
20 72 105 0
21 -107 114 0
21 -85 121 0
21 -65 94 0
21 -32 -51 0
21 -28 -90 0
21 43 -126 0
21 82 -86 0
22 -81 -147 0
22 37 69 0
22 133 -142 0
23 -46 -62 0
23 -42 -93 0
23 37 100 0
23 39 -58 0
24 -121 -132 0
24 -79 125 0
24 26 -137 0
24 102 -146 0
24 105 -138 0
25 -49 -141 0
25 116 -124 0
26 -31 64 0
26 34 -131 0
26 40 84 0
26 59 134 0
26 109 121 0
27 -35 -114 0
27 36 -70 0
27 40 102 0
27 56 138 0
27 96 121 0
28 32 126 0
28 55 -149 0
28 79 131 0
28 87 131 0
28 105 144 0
28 109 -147 0
29 -62 116 0
29 -37 97 0
30 -131 135 0
30 -35 -82 0
30 41 -97 0
30 97 -140 0
31 -38 -87 0
31 78 112 0
32 -139 145 0
32 -113 118 0
32 -78 100 0
32 -77 80 0
32 -53 87 0
32 -49 -135 0
32 64 120 0
33 -109 121 0
33 -93 132 0
33 -79 150 0
33 76 143 0
33 129 -143 0
34 -123 148 0
34 -47 93 0
35 -95 99 0
35 -81 101 0
35 45 47 0
36 -115 136 0
36 -96 -132 0
36 39 -106 0
36 68 122 0
36 75 -132 0
36 94 -97 0
37 -131 -140 0
37 -118 120 0
37 85 -135 0
38 -101 103 0
38 -97 -117 0
38 -97 128 0
38 53 -76 0
38 59 -86 0
39 -84 -140 0
39 -41 100 0
40 108 138 0
42 -86 117 0
42 -51 -103 0
42 -46 125 0
42 79 123 0
43 97 -104 0
44 -125 -128 0
44 -79 -129 0
44 -63 90 0
44 -47 150 0
44 79 -80 0
45 -106 144 0
45 -99 114 0
45 -83 93 0
45 -73 -114 0
45 -69 136 0
45 -57 122 0
45 -50 136 0
46 53 -82 0
46 77 128 0
46 118 -126 0
47 -91 -129 0
47 125 -145 0
49 -64 -78 0
49 84 123 0
49 86 -89 0
50 -68 75 0
50 60 106 0
50 63 104 0
51 -53 109 0
52 -117 -134 0
52 -95 -111 0
52 -77 -96 0
52 -77 97 0
52 57 89 0
52 128 129 0
53 -57 -58 0
53 54 -132 0
53 126 140 0
54 -80 -138 0
54 -74 100 0
54 70 89 0
55 -86 -136 0
56 110 139 0
58 -74 -86 0
58 -62 -109 0
59 -100 111 0
59 -87 95 0
59 106 -147 0
61 -95 -147 0
61 -95 -118 0
62 66 -98 0
62 99 141 0
63 105 -112 0
63 120 -136 0
63 126 -143 0
64 -119 144 0
64 -96 -130 0
66 83 -85 0
66 88 -108 0
67 109 143 0
69 -75 -133 0
70 -137 147 0
70 89 146 0
71 -134 137 0
71 -83 -111 0
71 110 -124 0
72 -101 106 0
73 -76 -97 0
74 -83 -113 0
74 79 120 0
75 -118 131 0
75 -83 149 0
76 -112 143 0
77 105 -113 0
77 130 -138 0
78 -93 132 0
78 93 123 0
82 118 140 0
82 139 143 0
83 -88 -116 0
83 86 -133 0
86 94 142 0
86 137 145 0
88 112 -114 0
88 132 137 0
89 -110 -122 0
93 -95 122 0
95 -119 140 0
95 122 131 0
96 -113 142 0
97 -108 117 0
99 -117 130 0
100 -120 142 0
101 -133 -143 0
102 -120 130 0
103 -105 131 0
104 -136 -145 0
104 113 -129 0
105 -126 139 0
105 -111 -121 0
110 119 126 0
111 -115 132 0
111 120 144 0
117 -146 -148 0
119 144 150 0
129 -145 -150 0
131 -141 -145 0
