p cnf 140 595
-117 -120 -128 0
-113 117 -118 0
-112 113 135 0
-111 121 122 0
-106 117 127 0
-105 -129 136 0
-100 113 -137 0
-98 110 -125 0
-97 123 -136 0
-94 113 -115 0
-92 -98 133 0
-91 117 -136 0
-90 -109 129 0
-90 -97 -107 0
-89 98 106 0
-89 106 120 0
-88 102 104 0
-87 92 -111 0
-86 88 -133 0
-86 134 138 0
-85 104 134 0
-84 99 125 0
-83 -121 -134 0
-83 96 -118 0
-82 -101 -116 0
-82 90 -124 0
-82 100 129 0
-81 -97 -136 0
-80 -109 -135 0
-80 105 -120 0
-80 108 135 0
-80 129 -131 0
-78 79 92 0
-77 80 -134 0
-76 -112 127 0
-76 78 -95 0
-76 78 -89 0
-74 88 -107 0
-73 77 -137 0
-73 104 -122 0
-71 101 -121 0
-70 79 88 0
-70 81 -115 0
-68 -99 -121 0
-68 -77 -121 0
-68 116 131 0
-67 -76 -124 0
-66 -73 -132 0
-65 -84 -106 0
-64 -84 -101 0
-63 -109 134 0
-63 -84 87 0
-63 -64 -138 0
-62 69 -90 0
-61 -80 -101 0
-61 100 -117 0
-61 112 -135 0
-60 -93 98 0
-60 -77 78 0
-59 -102 -106 0
-59 -95 102 0
-59 62 129 0
-59 65 133 0
-58 -116 117 0
-57 126 139 0
-56 -100 113 0
-56 -89 -136 0
-56 -76 100 0
-55 -82 137 0
-55 -65 80 0
-54 115 128 0
-54 122 123 0
-53 -68 -85 0
-53 -63 113 0
-53 -59 -67 0
-53 60 -93 0
-53 110 -130 0
-52 -79 -137 0
-52 -73 84 0
-52 60 78 0
-52 62 92 0
-51 -126 136 0
-50 -90 112 0
-50 -77 125 0
-50 -69 72 0
-50 -68 -75 0
-50 -65 126 0
-49 -69 110 0
-49 59 -103 0
-49 67 -133 0
-49 83 -127 0
-48 -76 -108 0
-48 62 -140 0
-48 64 -95 0
-48 96 126 0
-47 69 -88 0
-47 109 -114 0
-46 87 -117 0
-45 -74 -122 0
-45 114 -126 0
-44 -121 129 0
-43 -88 -119 0
-43 -78 118 0
-43 47 -74 0
-43 68 89 0
-42 -68 -127 0
-42 -43 128 0
-42 48 -121 0
-42 97 -100 0
-40 -116 -120 0
-40 -103 -113 0
-40 -60 -103 0
-40 45 -112 0
-40 57 88 0
-40 80 128 0
-39 -87 96 0
-39 -67 -112 0
-39 -59 139 0
-39 96 105 0
-38 -64 100 0
-37 -45 130 0
-37 72 127 0
-37 73 132 0
-37 85 -102 0
-36 50 -120 0
-35 -105 -138 0
-35 -61 116 0
-35 41 -45 0
-35 112 115 0
-34 -126 132 0
-34 -67 82 0
-34 71 -103 0
-33 -121 130 0
-33 49 109 0
-33 49 129 0
-33 102 -113 0
-32 -57 74 0
-32 56 -82 0
-32 88 -136 0
-32 116 -118 0
-31 -70 91 0
-31 -42 95 0
-31 39 140 0
-31 40 125 0
-31 90 105 0
-30 -101 -122 0
-30 -86 -91 0
-30 67 -118 0
-30 83 -122 0
-29 -91 -137 0
-29 -88 118 0
-29 -52 -95 0
-29 -46 81 0
-29 -32 -114 0
-29 32 -96 0
-28 32 86 0
-28 67 -77 0
-27 -96 107 0
-27 29 75 0
-27 31 138 0
-27 35 -63 0
-27 75 -81 0
-27 125 -128 0
-26 -124 -136 0
-26 -120 133 0
-26 -75 -90 0
-26 54 102 0
-26 57 -127 0
-26 83 -114 0
-25 -128 133 0
-25 33 100 0
-25 46 72 0
-25 59 -106 0
-24 -53 -110 0
-24 38 88 0
-24 40 -54 0
-24 64 84 0
-24 73 -115 0
-23 -45 60 0
-23 -44 -130 0
-23 34 37 0
-23 123 130 0
-22 -36 77 0
-22 49 133 0
-22 54 -61 0
-22 64 105 0
-22 89 140 0
-22 119 -128 0
-21 -90 -104 0
-21 -87 139 0
-21 -23 116 0
-21 44 124 0
-21 72 129 0
-20 -108 113 0
-20 -77 94 0
-20 -46 95 0
-20 32 48 0
-19 -48 -116 0
-19 -46 60 0
-19 -33 44 0
-19 -24 -95 0
-19 -22 66 0
-19 25 -85 0
-19 28 -71 0
-19 45 -140 0
-18 -58 -121 0
-18 -27 -77 0
-18 -22 -45 0
-18 56 -74 0
-17 -127 -139 0
-17 -122 128 0
-17 -73 111 0
-17 57 118 0
-17 67 -81 0
-16 111 133 0
-15 -87 -115 0
-15 -61 104 0
-15 -38 -67 0
-15 -28 -62 0
-15 37 -45 0
-15 90 102 0
-14 -46 -62 0
-14 -23 49 0
-14 17 -88 0
-14 21 -50 0
-14 36 50 0
-14 39 -55 0
-14 61 92 0
-13 18 24 0
-13 44 -50 0
-12 -31 120 0
-12 63 107 0
-12 119 137 0
-11 -91 122 0
-11 -73 133 0
-11 -47 -77 0
-11 -16 124 0
-11 -13 -75 0
-10 -78 93 0
-10 -77 -101 0
-10 -60 124 0
-10 -54 -62 0
-10 35 -112 0
-10 70 71 0
-10 84 -128 0
-10 101 111 0
-9 -91 115 0
-9 -58 128 0
-9 86 -98 0
-8 -105 -132 0
-8 -58 68 0
-8 -18 89 0
-8 12 70 0
-8 30 40 0
-8 39 86 0
-8 52 -78 0
-8 106 -126 0
-7 -83 -85 0
-7 -81 87 0
-7 11 101 0
-7 24 134 0
-7 30 84 0
-7 46 -95 0
-7 50 -109 0
-6 -84 107 0
-6 -42 -102 0
-6 -26 69 0
-6 -25 -79 0
-6 13 36 0
-6 28 -67 0
-6 55 -80 0
-5 -98 -133 0
-5 -77 87 0
-5 -71 73 0
-5 -67 88 0
-5 -61 127 0
-5 -54 -108 0
-5 -33 -72 0
-5 17 -138 0
-5 55 140 0
-4 -116 121 0
-4 -31 -50 0
-4 -6 27 0
-4 5 80 0
-4 13 43 0
-4 16 -136 0
-4 16 75 0
-4 19 96 0
-4 38 -84 0
-4 39 -96 0
-3 -92 134 0
-3 -74 -137 0
-3 -71 -93 0
-3 -36 125 0
-3 5 67 0
-3 26 -94 0
-3 58 -80 0
-2 -88 -94 0
-2 -67 -75 0
-2 -66 -72 0
-2 -37 -56 0
-2 -27 -117 0
-2 -24 -114 0
-2 -10 75 0
-2 -6 69 0
-2 14 -45 0
-2 33 -73 0
-2 49 121 0
-2 72 82 0
-1 19 -108 0
-1 29 57 0
-1 73 125 0
1 -60 -122 0
1 -16 113 0
1 53 54 0
2 -111 116 0
2 -55 93 0
2 -6 -50 0
2 105 125 0
3 -87 134 0
3 -56 -90 0
3 -10 -55 0
3 -4 -72 0
3 53 135 0
4 -51 -135 0
4 -24 69 0
4 -14 29 0
4 72 81 0
5 -74 -91 0
5 -35 -112 0
5 13 -46 0
5 48 -98 0
5 60 -64 0
5 64 94 0
5 81 112 0
5 83 122 0
5 93 -117 0
5 130 136 0
6 90 -111 0
6 97 131 0
7 -67 112 0
7 -55 -108 0
7 50 -120 0
8 -28 67 0
8 11 87 0
8 64 90 0
8 65 92 0
8 96 -140 0
8 102 -125 0
8 115 137 0
9 -128 134 0
9 -23 -30 0
9 10 21 0
9 24 25 0
10 -63 140 0
10 -43 133 0
10 -25 34 0
10 33 59 0
10 53 138 0
10 64 -66 0
11 -92 -105 0
11 -57 78 0
11 32 -110 0
11 68 94 0
11 70 -72 0
11 78 -119 0
11 98 -123 0
11 104 -107 0
12 -71 -121 0
12 -69 98 0
12 -25 104 0
12 15 116 0
12 23 139 0
12 30 95 0
13 -95 121 0
13 -38 92 0
13 -25 105 0
13 -21 -97 0
13 25 108 0
13 77 117 0
14 -71 -127 0
14 -57 97 0
14 -18 75 0
14 36 -86 0
14 57 77 0
14 76 87 0
15 -91 -128 0
15 -84 95 0
15 -80 -100 0
15 -61 -97 0
15 -53 61 0
15 -52 129 0
15 -50 100 0
15 75 -124 0
15 83 -86 0
15 115 130 0
16 -92 -113 0
16 -62 135 0
16 -22 42 0
16 18 30 0
16 108 -127 0
17 -63 -98 0
17 -55 -113 0
17 -26 -45 0
17 103 120 0
18 -66 -124 0
18 -64 -134 0
18 -40 107 0
18 22 138 0
18 25 -92 0
18 34 -138 0
18 47 87 0
18 102 108 0
19 -80 -133 0
19 -77 -103 0
19 -62 -120 0
19 -40 70 0
19 -24 -62 0
19 33 -135 0
19 48 138 0
20 -75 -102 0
20 -45 130 0
20 -44 -66 0
20 43 -126 0
20 44 57 0
20 61 -128 0
20 78 -98 0
21 -87 -104 0
21 37 52 0
21 74 -90 0
22 -81 -114 0
22 -24 66 0
22 31 -34 0
22 34 -124 0
22 34 92 0
22 71 76 0
23 -104 -118 0
23 46 -78 0
23 89 -97 0
24 -36 -100 0
24 28 36 0
24 31 -57 0
24 83 -130 0
26 -106 -135 0
26 -100 -115 0
26 -48 84 0
26 32 -97 0
26 42 59 0
26 63 -69 0
26 64 137 0
26 75 91 0
27 -86 89 0
27 -81 -92 0
27 -72 -126 0
27 -52 127 0
27 -37 -79 0
27 -30 -64 0
27 48 -54 0
28 -65 123 0
28 -54 -113 0
28 -42 -117 0
28 60 64 0
29 -48 106 0
29 63 68 0
30 -78 -117 0
30 56 99 0
30 68 94 0
31 34 -102 0
31 69 86 0
32 84 124 0
32 125 -129 0
33 -46 -94 0
33 46 -75 0
34 -82 98 0
34 -79 -92 0
35 39 -137 0
35 39 -76 0
35 57 119 0
35 84 -106 0
36 111 140 0
37 -71 129 0
37 -45 121 0
37 92 -137 0
38 -55 71 0
38 40 118 0
38 74 -88 0
39 -96 -137 0
39 -78 83 0
39 -74 -134 0
39 -57 68 0
39 49 -139 0
39 71 -78 0
39 99 -121 0
40 -45 -59 0
40 65 -135 0
40 65 122 0
40 67 -103 0
41 -45 114 0
41 -45 115 0
41 57 121 0
42 -66 -69 0
42 -52 -67 0
42 43 81 0
42 58 -64 0
42 123 -131 0
43 -112 114 0
43 -61 109 0
43 77 -81 0
44 -56 91 0
44 58 -86 0
44 69 98 0
45 -97 -114 0
45 -66 105 0
45 102 -118 0
46 47 -139 0
46 53 -112 0
46 54 -58 0
46 93 -126 0
47 108 118 0
48 -63 109 0
48 52 -63 0
49 -110 -125 0
50 -58 112 0
50 68 -113 0
51 -121 133 0
51 -95 133 0
51 81 120 0
51 86 118 0
52 -78 93 0
53 -124 138 0
53 -110 113 0
53 -104 -135 0
53 -66 105 0
53 56 83 0
53 98 135 0
54 -74 86 0
55 -78 122 0
55 71 -125 0
56 -76 83 0
57 -99 -113 0
57 -98 -136 0
57 -96 120 0
58 -70 94 0
58 59 88 0
58 79 87 0
59 -86 140 0
60 71 -80 0
61 -128 130 0
63 -67 -128 0
63 73 -84 0
64 -67 -137 0
65 -88 -102 0
65 -78 -104 0
65 73 114 0
67 -125 135 0
67 121 -135 0
69 73 97 0
69 86 127 0
69 89 -124 0
70 -132 138 0
70 -97 -139 0
70 78 140 0
72 -126 -132 0
72 -85 -86 0
73 -89 117 0
74 82 124 0
74 88 -132 0
74 97 137 0
75 -92 96 0
75 115 -129 0
76 -121 132 0
77 -90 103 0
77 89 -133 0
78 -105 119 0
79 -99 -137 0
79 114 -138 0
79 121 -127 0
81 -100 -105 0
81 104 140 0
82 -85 -97 0
84 108 -111 0
85 -117 -138 0
85 -98 -101 0
85 90 110 0
86 -112 128 0
87 -115 119 0
87 96 -129 0
89 -124 -135 0
89 -91 -105 0
90 121 -133 0
91 -129 135 0
95 102 -135 0
99 -108 126 0
101 105 133 0
109 -134 -138 0
