p cnf 55 234
-40 -43 53 0
-36 39 41 0
-35 -47 55 0
-34 -41 -48 0
-34 48 54 0
-33 41 54 0
-32 45 46 0
-32 46 -50 0
-31 39 53 0
-31 46 -50 0
-29 36 37 0
-29 47 52 0
-28 -39 -42 0
-28 -33 49 0
-27 33 -47 0
-26 -35 -41 0
-25 -27 -40 0
-24 -35 -37 0
-24 -29 41 0
-23 45 47 0
-22 35 48 0
-20 -23 35 0
-20 32 45 0
-19 -33 -48 0
-18 -47 -48 0
-18 -44 -49 0
-18 -31 -34 0
-18 -25 -31 0
-18 19 47 0
-18 25 -55 0
-18 30 -35 0
-17 -34 35 0
-17 -29 35 0
-17 -24 26 0
-16 27 -48 0
-16 28 -38 0
-16 34 36 0
-15 -31 32 0
-15 24 44 0
-15 25 53 0
-15 28 -31 0
-15 46 50 0
-14 -25 40 0
-14 -20 22 0
-14 41 -42 0
-13 -29 -39 0
-13 -23 44 0
-13 -20 -26 0
-13 -20 28 0
-13 22 30 0
-12 -37 51 0
-12 -22 34 0
-12 -22 44 0
-12 13 -24 0
-12 18 27 0
-11 -12 30 0
-11 16 -34 0
-10 -34 45 0
-9 -23 50 0
-9 -16 -23 0
-9 13 -55 0
-9 28 45 0
-9 45 -50 0
-8 -37 47 0
-8 -12 -54 0
-8 -9 -43 0
-8 34 -37 0
-8 36 -55 0
-7 -23 39 0
-7 8 21 0
-7 12 -54 0
-7 27 -36 0
-7 31 38 0
-6 -33 35 0
-6 -22 46 0
-6 -19 -33 0
-6 -12 36 0
-6 -7 35 0
-6 14 20 0
-6 28 -47 0
-6 32 51 0
-6 35 -54 0
-6 40 46 0
-5 11 30 0
-5 22 26 0
-4 -34 39 0
-4 -21 54 0
-4 -17 26 0
-4 -12 36 0
-4 7 47 0
-4 15 -38 0
-4 19 41 0
-4 22 -50 0
-4 42 43 0
-3 -35 -38 0
-3 -19 44 0
-3 7 -15 0
-3 12 52 0
-2 -37 44 0
-2 -20 -30 0
-2 -17 -21 0
-2 -8 9 0
-2 3 -23 0
-2 19 -20 0
-2 23 -24 0
-2 31 -37 0
-2 35 -50 0
-1 -36 37 0
-1 -27 54 0
-1 -21 -38 0
-1 -20 -24 0
-1 -13 -52 0
-1 -10 40 0
-1 6 53 0
-1 7 36 0
-1 17 -52 0
-1 26 28 0
1 -33 -47 0
1 -10 11 0
1 16 48 0
1 33 40 0
1 44 -54 0
2 -36 37 0
2 -10 48 0
2 -5 -39 0
2 12 27 0
3 -38 47 0
3 -14 16 0
3 -11 -38 0
3 -11 52 0
4 -33 49 0
4 -17 39 0
4 -15 -51 0
4 -8 16 0
4 15 31 0
4 16 53 0
4 19 -43 0
4 26 -45 0
4 48 -52 0
5 -23 -55 0
5 -7 -43 0
5 27 -35 0
6 -31 -38 0
6 -15 -27 0
6 48 55 0
6 51 54 0
7 -15 -52 0
7 -8 -12 0
7 17 21 0
7 34 -48 0
7 37 -44 0
8 -28 50 0
8 -19 41 0
8 -14 18 0
8 9 -21 0
8 32 -47 0
8 39 -51 0
9 27 -29 0
10 -26 41 0
10 27 36 0
10 30 40 0
10 39 -43 0
11 -20 -48 0
11 -14 -41 0
11 17 -53 0
11 20 36 0
11 21 -49 0
11 21 31 0
11 25 43 0
11 32 -43 0
12 18 26 0
12 35 42 0
13 -31 -50 0
13 -22 23 0
13 -20 -29 0
13 -19 -48 0
13 -17 27 0
13 14 41 0
13 21 27 0
13 22 -26 0
13 49 -54 0
14 21 51 0
14 28 -29 0
14 48 50 0
16 21 -48 0
16 21 -23 0
16 27 31 0
16 47 48 0
17 -34 -42 0
17 18 -42 0
18 -24 -42 0
18 22 -30 0
19 27 34 0
19 31 43 0
20 -48 -52 0
20 -43 -49 0
20 -25 -27 0
20 25 43 0
20 36 -46 0
21 -27 46 0
21 27 45 0
21 32 43 0
21 35 -46 0
21 37 -45 0
21 38 -43 0
22 31 -49 0
24 -34 39 0
24 -32 47 0
25 -27 -42 0
27 -40 48 0
27 46 -52 0
28 -39 49 0
28 32 42 0
29 -45 -51 0
29 37 -48 0
30 -39 44 0
30 -33 51 0
30 32 -40 0
31 -33 -46 0
32 -44 -52 0
32 -33 -45 0
32 52 53 0
33 -47 -50 0
33 -35 46 0
34 39 -53 0
35 36 -44 0
35 41 51 0
36 -42 54 0
38 49 53 0
39 -44 -54 0
39 40 47 0
40 42 46 0
44 -49 -54 0
50 -53 55 0
