p cnf 20 85
-13 -15 19 0
-13 17 18 0
-12 16 -18 0
-11 -13 -14 0
-9 -11 18 0
-9 11 18 0
-8 13 -15 0
-7 -13 18 0
-7 10 -13 0
-7 15 19 0
-6 -7 8 0
-6 -7 10 0
-6 10 16 0
-6 12 -16 0
-6 15 -19 0
-6 18 -19 0
-5 -15 -19 0
-5 8 14 0
-5 9 17 0
-4 -9 10 0
-4 6 15 0
-4 10 20 0
-4 16 17 0
-3 -9 -13 0
-3 -6 -18 0
-3 -6 -7 0
-3 -4 7 0
-3 4 -5 0
-3 4 19 0
-3 8 -13 0
-3 11 -20 0
-3 12 -17 0
-2 -7 12 0
-2 -5 -7 0
-2 3 9 0
-2 3 13 0
-2 8 11 0
-2 8 18 0
-2 10 -19 0
-2 13 16 0
-2 14 18 0
-1 -12 20 0
-1 -7 -14 0
-1 -7 16 0
-1 -4 10 0
-1 -4 13 0
-1 2 17 0
-1 3 12 0
-1 5 10 0
-1 9 -20 0
1 2 -12 0
1 6 7 0
1 9 18 0
2 -15 -19 0
2 -12 20 0
2 -8 17 0
2 -4 -19 0
2 4 17 0
2 11 -15 0
2 11 20 0
2 12 16 0
2 15 -18 0
2 17 18 0
3 4 -8 0
3 7 -19 0
4 -15 -16 0
4 -5 16 0
4 7 -17 0
4 9 12 0
5 -7 15 0
5 6 -8 0
5 15 20 0
6 -15 19 0
6 -13 17 0
6 10 -19 0
7 -12 15 0
7 -11 17 0
7 -8 -12 0
7 8 18 0
7 12 -18 0
8 -13 17 0
10 -16 -20 0
10 -14 15 0
11 -13 -18 0
14 -15 18 0
