p cnf 70 298
-44 -52 63 0
-43 -62 69 0
-43 -54 59 0
-42 49 56 0
-41 46 -64 0
-41 63 -65 0
-40 -51 -62 0
-37 -42 69 0
-37 44 -70 0
-36 -37 -67 0
-36 41 -55 0
-34 -49 -53 0
-34 -39 53 0
-34 42 69 0
-34 43 46 0
-33 -34 -51 0
-33 38 -56 0
-33 66 -69 0
-31 -60 61 0
-31 47 -52 0
-30 -46 -58 0
-30 -40 62 0
-30 57 67 0
-29 -49 70 0
-29 38 -52 0
-29 45 -55 0
-28 -35 61 0
-28 36 65 0
-28 41 63 0
-28 48 -53 0
-27 29 -42 0
-26 35 53 0
-26 65 -66 0
-25 -39 61 0
-25 54 -64 0
-24 -55 -63 0
-24 -44 -49 0
-24 -32 45 0
-24 35 -60 0
-24 49 55 0
-23 -44 -47 0
-23 -35 -69 0
-23 -33 62 0
-23 33 -67 0
-23 45 54 0
-22 -45 56 0
-22 -29 50 0
-21 -59 -64 0
-21 -48 59 0
-21 -33 -39 0
-21 -24 61 0
-21 28 32 0
-21 44 -57 0
-20 -39 54 0
-20 -33 -34 0
-20 26 36 0
-20 28 -53 0
-20 37 48 0
-20 38 -39 0
-19 -49 68 0
-19 24 54 0
-19 49 67 0
-18 -47 -68 0
-18 -38 -46 0
-18 25 -64 0
-18 26 45 0
-18 46 -70 0
-18 53 70 0
-18 55 -63 0
-17 -56 -59 0
-17 -48 65 0
-17 -38 -47 0
-17 -36 40 0
-17 -32 60 0
-17 -25 60 0
-17 37 -54 0
-17 47 65 0
-17 56 62 0
-16 -57 68 0
-16 21 32 0
-15 -51 -55 0
-15 20 33 0
-15 46 -70 0
-14 -40 -47 0
-14 -37 60 0
-14 33 70 0
-14 55 59 0
-13 25 -57 0
-13 41 -43 0
-13 56 -64 0
-12 -59 -67 0
-12 -32 41 0
-12 16 -47 0
-11 -35 -58 0
-11 -12 64 0
-11 15 -35 0
-11 25 -67 0
-11 34 60 0
-10 -56 -60 0
-10 -41 43 0
-10 -40 -54 0
-10 -39 62 0
-10 -12 -64 0
-10 30 -47 0
-10 48 -66 0
-9 -49 59 0
-9 -34 70 0
-9 -15 63 0
-9 -11 31 0
-9 10 54 0
-9 16 53 0
-9 49 -66 0
-8 -47 -60 0
-8 -14 23 0
-8 -12 62 0
-8 15 -64 0
-8 24 47 0
-8 32 -56 0
-7 -47 -64 0
-7 -40 57 0
-7 -27 -67 0
-7 25 28 0
-7 27 38 0
-6 -47 -53 0
-6 -23 49 0
-6 -18 -63 0
-6 9 15 0
-6 32 41 0
-6 37 -64 0
-5 -11 -44 0
-5 31 -40 0
-4 17 46 0
-4 20 -65 0
-4 37 66 0
-3 -32 -70 0
-3 -16 52 0
-3 -8 -43 0
-3 5 6 0
-3 31 67 0
-3 46 -58 0
-2 -40 -58 0
-2 -29 -43 0
-2 -19 -46 0
-2 -11 -55 0
-2 7 31 0
-2 9 58 0
-2 12 -69 0
-2 27 69 0
-2 38 56 0
-1 -40 -53 0
-1 35 -59 0
-1 36 43 0
-1 42 51 0
1 -49 59 0
1 -33 64 0
1 -19 28 0
1 -15 -55 0
1 -11 31 0
1 -11 54 0
1 -3 36 0
1 4 -11 0
1 6 11 0
1 25 -30 0
1 49 63 0
2 -16 -38 0
2 -5 19 0
2 36 59 0
3 -60 -70 0
3 -48 59 0
3 -27 -63 0
3 -22 -29 0
3 -18 66 0
3 10 -37 0
3 53 -68 0
4 -38 -58 0
4 -32 -44 0
4 -19 -43 0
4 42 58 0
4 46 -51 0
5 -9 28 0
5 9 37 0
6 -66 -67 0
6 -55 67 0
6 8 -35 0
6 14 -26 0
6 23 45 0
6 32 52 0
6 61 68 0
7 -26 -66 0
7 -17 18 0
8 -10 57 0
8 12 -56 0
8 16 70 0
9 10 -64 0
9 21 -24 0
9 32 59 0
9 38 61 0
9 50 56 0
9 50 68 0
10 -46 -68 0
10 -31 60 0
10 -20 47 0
10 19 -55 0
10 41 62 0
11 -25 41 0
11 -19 -67 0
11 -13 43 0
11 13 22 0
12 -25 33 0
12 -17 -35 0
12 -16 -66 0
12 27 -32 0
13 -40 -53 0
13 -17 58 0
13 36 51 0
14 -56 58 0
14 -30 49 0
14 -25 49 0
14 -21 67 0
14 24 48 0
14 34 35 0
14 41 66 0
14 58 -63 0
15 -36 -41 0
15 -20 -52 0
15 29 45 0
15 38 46 0
16 -49 54 0
16 26 65 0
16 47 64 0
17 25 -41 0
17 30 -52 0
17 30 50 0
17 40 68 0
19 -48 55 0
19 -41 54 0
19 -37 -62 0
19 -23 63 0
19 42 -68 0
19 55 65 0
21 -40 48 0
21 -24 -48 0
22 -45 -53 0
22 -35 45 0
22 -30 -33 0
22 -29 39 0
22 25 -51 0
22 27 57 0
22 38 42 0
23 -35 -65 0
23 -33 -35 0
23 -27 33 0
23 33 -36 0
23 41 -42 0
23 44 68 0
24 -27 42 0
26 -28 49 0
26 32 -62 0
27 -45 59 0
27 -36 49 0
27 29 31 0
27 48 63 0
27 51 53 0
28 -30 43 0
28 39 -48 0
29 43 66 0
30 37 -50 0
31 -40 -65 0
31 39 70 0
32 46 48 0
33 -48 -68 0
33 50 -53 0
35 -56 -59 0
35 -36 56 0
35 55 -62 0
35 58 69 0
35 60 -70 0
36 37 46 0
36 50 -55 0
37 44 49 0
38 -64 -69 0
39 46 69 0
40 -41 48 0
42 47 -52 0
42 49 57 0
43 57 -59 0
44 -50 -58 0
45 -58 -60 0
47 51 -55 0
47 55 -68 0
48 -55 -60 0
49 -63 69 0
49 56 -62 0
49 57 63 0
52 64 -65 0
54 -64 -66 0
54 56 -66 0
58 -69 70 0
