p cnf 80 340
-61 -69 78 0
-61 72 -78 0
-55 -64 -67 0
-55 73 -80 0
-54 61 67 0
-49 52 70 0
-49 68 -77 0
-48 -76 -77 0
-46 -60 64 0
-46 50 -65 0
-45 47 58 0
-43 49 54 0
-42 52 69 0
-40 -43 -44 0
-39 -51 66 0
-39 -41 -72 0
-39 66 67 0
-38 39 63 0
-37 -52 58 0
-36 39 48 0
-36 45 48 0
-36 60 -73 0
-35 -61 -68 0
-35 -61 -62 0
-35 42 -75 0
-34 -46 -65 0
-34 -42 47 0
-34 35 -79 0
-34 70 76 0
-33 -55 70 0
-32 47 -54 0
-32 49 63 0
-31 35 -37 0
-31 37 74 0
-31 55 76 0
-30 -42 48 0
-30 31 -77 0
-30 46 -72 0
-30 57 -65 0
-29 45 67 0
-28 -61 -80 0
-28 -49 58 0
-27 -30 47 0
-27 38 70 0
-27 42 -53 0
-27 49 -60 0
-27 52 77 0
-27 57 72 0
-26 -52 -79 0
-26 31 39 0
-26 46 -55 0
-25 -27 -37 0
-25 31 37 0
-25 41 71 0
-25 47 -59 0
-24 28 78 0
-24 66 78 0
-23 -57 -63 0
-23 -31 36 0
-23 -24 -63 0
-22 -50 -74 0
-22 -38 -77 0
-21 -31 -71 0
-21 32 71 0
-21 48 -69 0
-20 -55 62 0
-20 -27 -45 0
-20 60 79 0
-19 34 65 0
-18 -66 77 0
-18 -40 80 0
-18 -34 -53 0
-18 -19 -70 0
-18 20 70 0
-18 24 -80 0
-17 -33 -52 0
-17 -29 -71 0
-17 29 -59 0
-16 -23 -61 0
-16 18 -71 0
-16 34 -74 0
-16 35 39 0
-16 43 -69 0
-16 45 59 0
-15 -28 -31 0
-15 -19 -61 0
-15 18 79 0
-15 19 26 0
-15 21 -80 0
-14 60 -80 0
-13 -72 74 0
-13 -20 40 0
-13 18 -43 0
-13 57 65 0
-12 -45 -71 0
-12 -35 79 0
-12 -33 -53 0
-12 23 56 0
-12 38 -80 0
-12 58 -78 0
-11 -50 55 0
-11 -30 68 0
-11 13 80 0
-11 27 -74 0
-11 42 55 0
-10 -42 -68 0
-10 -15 -35 0
-10 15 -40 0
-10 29 34 0
-10 58 -79 0
-9 -71 -75 0
-9 -48 58 0
-9 -45 -63 0
-9 -23 -64 0
-9 11 -38 0
-9 14 -47 0
-9 31 77 0
-8 -16 19 0
-8 24 59 0
-7 -57 61 0
-7 -55 -75 0
-7 -44 -50 0
-7 -37 -75 0
-7 -30 -78 0
-7 -24 65 0
-7 -20 -57 0
-7 -11 46 0
-7 9 -37 0
-7 11 19 0
-6 -61 67 0
-6 -38 -53 0
-6 -28 32 0
-6 -21 -30 0
-6 -19 -32 0
-6 -11 -35 0
-6 -10 -31 0
-6 9 -55 0
-6 26 65 0
-6 36 39 0
-5 -6 -21 0
-5 12 -66 0
-5 12 -20 0
-5 19 -30 0
-5 25 -80 0
-5 54 -56 0
-4 -16 77 0
-4 -9 48 0
-4 7 47 0
-4 11 42 0
-4 17 -57 0
-4 17 70 0
-4 25 67 0
-4 31 76 0
-4 34 35 0
-4 48 -49 0
-3 -41 54 0
-3 -40 -64 0
-3 -32 -35 0
-3 -11 -72 0
-2 3 -69 0
-2 15 -59 0
-1 -33 -65 0
-1 -15 30 0
-1 31 46 0
-1 40 70 0
-1 79 -80 0
1 -38 54 0
1 -24 -70 0
1 13 -41 0
1 13 45 0
1 32 -46 0
1 51 79 0
1 54 80 0
2 -22 23 0
2 -16 -62 0
2 -15 57 0
2 9 58 0
2 23 -43 0
2 36 71 0
3 -16 -66 0
3 20 -35 0
3 22 -24 0
3 33 56 0
3 42 53 0
4 11 -80 0
4 13 -49 0
4 20 -59 0
4 49 -52 0
5 -32 55 0
5 -25 55 0
5 -17 -38 0
5 8 -73 0
5 29 -59 0
5 56 72 0
5 62 -70 0
6 -28 75 0
6 -25 -76 0
6 -18 29 0
6 -7 -73 0
6 11 -69 0
6 14 75 0
6 25 -44 0
6 42 -48 0
7 -40 -68 0
7 -38 76 0
7 -21 -42 0
7 -11 36 0
7 27 -31 0
8 -55 -64 0
8 -43 53 0
8 -21 -56 0
8 -11 42 0
8 -10 15 0
8 -9 -71 0
8 34 -80 0
8 48 58 0
9 -24 54 0
9 16 -54 0
9 22 -37 0
10 -52 62 0
10 -36 -54 0
10 -32 52 0
10 -22 -73 0
10 -17 43 0
10 -13 -38 0
10 37 76 0
10 41 62 0
10 44 -78 0
10 60 -66 0
10 64 -77 0
11 -76 78 0
11 -66 67 0
11 23 43 0
12 -69 -75 0
12 -37 -38 0
12 -25 -80 0
12 -15 -36 0
12 26 50 0
12 50 67 0
12 69 78 0
13 -30 71 0
13 20 -74 0
13 40 -60 0
13 42 -67 0
13 75 -78 0
14 -66 -70 0
14 -29 54 0
14 -16 79 0
14 26 -48 0
14 26 62 0
14 36 -43 0
14 47 -66 0
14 49 54 0
15 -34 -74 0
15 -24 30 0
15 -19 -38 0
15 34 46 0
16 42 -53 0
17 -60 -62 0
17 -41 -71 0
17 -23 42 0
17 21 -80 0
18 -26 50 0
18 -20 -49 0
18 45 -51 0
19 32 -36 0
19 40 67 0
20 -62 -71 0
20 -36 -61 0
20 -32 -35 0
20 59 -79 0
21 -31 -34 0
21 -30 -46 0
21 28 -34 0
21 40 -74 0
22 -48 58 0
22 -30 49 0
22 -23 -48 0
22 36 49 0
22 66 72 0
23 62 -75 0
24 -25 -59 0
25 31 70 0
26 -71 -78 0
26 -29 71 0
26 51 69 0
26 63 64 0
27 -59 -79 0
27 -53 79 0
27 -34 66 0
27 35 65 0
27 68 72 0
28 -47 62 0
28 -31 35 0
28 39 78 0
29 -42 78 0
29 -30 -77 0
30 -40 48 0
31 -50 -62 0
31 -34 66 0
31 33 -57 0
33 45 74 0
34 51 -74 0
34 56 76 0
34 62 -80 0
35 -55 -71 0
35 53 68 0
37 -52 56 0
37 -47 62 0
37 -45 -79 0
39 44 80 0
40 -41 -54 0
40 53 -70 0
40 70 -79 0
41 -57 63 0
41 -45 52 0
41 -42 -72 0
42 -49 -62 0
43 -67 72 0
43 -56 65 0
43 -45 66 0
45 -65 80 0
46 -52 -60 0
46 -51 -76 0
47 -60 -71 0
47 -58 -68 0
47 -56 80 0
47 64 70 0
50 65 -67 0
51 -75 79 0
53 -70 -80 0
53 -61 -63 0
53 55 70 0
53 63 70 0
56 -69 76 0
58 -79 80 0
58 -68 -71 0
60 77 80 0
61 -66 -68 0
69 -77 79 0
