p cnf 45 191
-34 -35 37 0
-34 36 38 0
-33 37 -43 0
-32 -39 40 0
-32 -35 43 0
-30 37 -45 0
-26 -34 44 0
-26 -28 -40 0
-25 32 -35 0
-24 -25 28 0
-24 42 -45 0
-23 -24 28 0
-22 -26 40 0
-22 24 -39 0
-20 -34 -38 0
-20 -24 -26 0
-20 -23 28 0
-20 32 35 0
-19 -24 -37 0
-17 -34 45 0
-17 -29 -30 0
-16 24 -26 0
-16 36 -38 0
-15 -29 42 0
-15 23 41 0
-14 33 35 0
-13 -16 29 0
-13 19 -41 0
-13 34 45 0
-12 -28 -30 0
-12 -23 -33 0
-12 -20 -32 0
-12 -19 44 0
-12 18 -38 0
-12 21 45 0
-12 22 -38 0
-12 31 36 0
-12 39 -40 0
-11 -16 -21 0
-11 41 -44 0
-10 -30 36 0
-10 -29 36 0
-10 -20 -42 0
-9 -37 40 0
-9 -29 31 0
-9 16 45 0
-9 26 29 0
-8 -33 -44 0
-8 -20 40 0
-8 -12 -44 0
-8 -11 22 0
-8 -10 31 0
-8 20 -33 0
-7 -26 -27 0
-7 -13 -30 0
-7 -11 -22 0
-7 9 -25 0
-7 14 -39 0
-7 29 38 0
-7 38 -45 0
-6 -36 37 0
-6 -7 25 0
-6 19 -27 0
-6 28 37 0
-6 40 43 0
-5 -28 -35 0
-5 -19 21 0
-5 -13 -19 0
-5 23 25 0
-4 -42 45 0
-4 -20 -30 0
-4 -13 19 0
-4 7 38 0
-4 11 17 0
-4 11 40 0
-4 25 -43 0
-3 -39 -42 0
-3 -24 35 0
-3 -11 -19 0
-3 -4 -40 0
-3 -4 35 0
-3 11 22 0
-3 22 37 0
-3 25 -33 0
-3 32 -42 0
-2 -23 -39 0
-2 -21 23 0
-2 6 30 0
-2 13 43 0
-2 15 19 0
-2 27 -44 0
-2 27 -31 0
-1 -6 9 0
-1 7 -26 0
-1 10 -35 0
-1 17 -36 0
-1 22 45 0
1 -28 -41 0
1 -23 -31 0
1 -4 -31 0
1 -2 30 0
1 35 -41 0
2 -15 36 0
2 4 43 0
2 6 9 0
2 26 29 0
2 31 -37 0
2 32 -35 0
3 -32 44 0
3 -28 -45 0
3 6 -19 0
3 6 10 0
3 29 39 0
4 -38 -45 0
4 -29 44 0
4 -24 29 0
4 8 -41 0
4 9 19 0
5 -35 -44 0
5 -23 -40 0
5 -16 27 0
5 11 37 0
5 14 30 0
6 -25 32 0
6 -13 -19 0
6 -13 -17 0
6 -11 -29 0
6 29 -31 0
6 36 44 0
7 -10 35 0
7 38 39 0
8 -9 23 0
8 11 -39 0
8 39 45 0
9 -37 41 0
9 -25 36 0
9 -13 17 0
9 -11 -14 0
9 14 20 0
9 15 -32 0
9 22 39 0
10 -34 -42 0
10 -19 -36 0
10 24 35 0
11 -38 41 0
11 -24 42 0
11 15 -36 0
12 -28 39 0
13 -26 -39 0
13 19 -27 0
13 21 -26 0
13 24 -29 0
14 -29 36 0
14 -28 44 0
14 -25 40 0
14 -19 26 0
14 -16 -33 0
14 16 -41 0
15 -17 -32 0
15 16 17 0
15 20 23 0
15 24 -36 0
16 -39 -44 0
16 -27 -38 0
16 -22 -39 0
16 17 -24 0
16 21 -26 0
16 30 37 0
17 -20 -38 0
18 -19 25 0
18 26 -45 0
18 30 -35 0
18 31 36 0
19 -33 -40 0
19 24 31 0
20 -32 -38 0
20 -26 -33 0
20 -22 -30 0
21 -28 -29 0
21 39 -42 0
22 -29 -41 0
24 -27 34 0
24 -27 36 0
24 26 45 0
24 27 -43 0
25 -41 42 0
26 -30 -43 0
26 27 -30 0
26 39 40 0
31 39 -44 0
35 36 -42 0
