p cnf 30 128
-19 -26 29 0
-18 19 21 0
-16 -25 28 0
-16 18 30 0
-16 23 -28 0
-14 16 21 0
-13 -23 -27 0
-12 19 29 0
-11 -12 29 0
-10 -21 28 0
-10 -17 -19 0
-10 -15 29 0
-10 -11 23 0
-9 12 25 0
-9 15 25 0
-9 28 -30 0
-8 -22 -26 0
-8 -21 -23 0
-8 -20 24 0
-8 -17 26 0
-8 -16 26 0
-8 12 -30 0
-7 -18 -23 0
-7 -10 -28 0
-7 -10 -21 0
-7 -10 -17 0
-7 8 -12 0
-7 9 16 0
-7 15 -22 0
-6 -24 -26 0
-6 -24 26 0
-6 -11 -19 0
-6 -9 18 0
-6 9 -24 0
-6 12 16 0
-5 -23 29 0
-5 7 23 0
-5 8 -10 0
-5 8 22 0
-5 11 25 0
-5 18 19 0
-4 -15 -20 0
-4 -13 27 0
-4 10 -21 0
-4 17 19 0
-2 -12 24 0
-2 4 5 0
-2 4 14 0
-2 19 -27 0
-1 -16 -18 0
-1 -6 -18 0
-1 -3 22 0
-1 4 -12 0
-1 6 -22 0
-1 7 25 0
-1 11 12 0
-1 24 -28 0
-1 26 -30 0
-1 26 29 0
1 -18 -23 0
1 -11 27 0
1 -8 -30 0
1 -8 -11 0
1 6 -29 0
1 12 29 0
1 14 -28 0
1 21 27 0
1 24 -30 0
2 -14 29 0
2 -9 -13 0
2 4 -9 0
2 17 -29 0
3 -7 -11 0
3 16 -23 0
4 -21 25 0
4 -13 18 0
4 -5 24 0
4 9 18 0
4 12 -29 0
4 20 29 0
4 25 -27 0
5 -20 25 0
5 6 -21 0
5 6 11 0
5 14 -18 0
6 -22 -27 0
6 -11 -17 0
6 -8 30 0
6 17 -25 0
6 18 30 0
7 -12 -18 0
7 -10 15 0
7 8 -20 0
7 10 -21 0
7 19 -30 0
8 -26 -27 0
8 11 -21 0
9 -20 29 0
9 14 -26 0
9 17 19 0
9 21 30 0
9 23 -28 0
10 -17 30 0
10 -15 -21 0
10 15 30 0
11 14 22 0
11 17 18 0
11 18 20 0
11 18 30 0
12 -25 26 0
12 -18 -22 0
13 -20 25 0
13 20 -29 0
14 -20 28 0
14 16 -26 0
15 -19 22 0
15 22 -26 0
15 23 -27 0
15 23 -24 0
16 17 22 0
16 22 23 0
16 23 26 0
17 21 22 0
18 -26 27 0
18 19 -24 0
18 26 -27 0
19 -25 26 0
19 23 26 0
