p cnf 120 420
-97 -104 -112 0
-94 -95 116 0
-89 -99 -108 0
-81 111 112 0
-77 -83 -104 0
-76 -98 109 0
-76 -89 -111 0
-76 90 115 0
-73 94 111 0
-71 -76 114 0
-71 114 119 0
-70 -80 82 0
-69 83 100 0
-68 -78 116 0
-68 83 100 0
-67 -101 105 0
-67 86 118 0
-66 88 -109 0
-66 107 110 0
-65 -90 -98 0
-65 69 99 0
-65 81 -94 0
-63 -77 90 0
-63 65 100 0
-63 87 -116 0
-63 111 -114 0
-62 -85 -114 0
-61 62 -115 0
-60 -75 97 0
-60 71 -106 0
-59 71 101 0
-59 109 112 0
-58 -67 96 0
-57 92 114 0
-56 65 -74 0
-55 -91 94 0
-55 -56 -95 0
-54 68 -90 0
-53 62 -112 0
-53 79 -88 0
-52 -92 99 0
-52 -54 -67 0
-52 77 85 0
-52 108 -117 0
-51 73 -94 0
-51 104 -120 0
-50 -66 91 0
-50 -55 -116 0
-50 55 67 0
-50 57 90 0
-50 63 -72 0
-49 88 102 0
-48 -51 66 0
-47 -95 109 0
-47 -75 -118 0
-47 54 100 0
-46 -75 -78 0
-45 49 -90 0
-44 -66 76 0
-44 51 -56 0
-43 44 -59 0
-43 77 -116 0
-42 -49 -54 0
-42 80 104 0
-42 81 101 0
-41 -81 -92 0
-41 -55 82 0
-41 51 109 0
-40 62 -70 0
-38 -58 114 0
-38 62 78 0
-37 -61 66 0
-37 50 -58 0
-37 50 65 0
-36 -89 -105 0
-36 -76 -111 0
-36 -76 -91 0
-36 77 119 0
-35 -94 -97 0
-35 -45 111 0
-35 55 -88 0
-34 -36 -69 0
-34 52 -120 0
-34 65 71 0
-33 -61 -83 0
-33 74 -114 0
-32 -54 -105 0
-32 -37 84 0
-32 44 63 0
-31 -91 -95 0
-31 -71 -108 0
-31 -34 89 0
-30 -60 -61 0
-30 -57 66 0
-30 -56 -87 0
-30 -34 58 0
-30 52 82 0
-29 -48 103 0
-28 -50 -73 0
-27 -50 88 0
-27 -36 114 0
-27 -30 62 0
-27 28 57 0
-27 87 -96 0
-26 -76 89 0
-26 -68 116 0
-26 -64 -84 0
-26 -37 -52 0
-26 39 -68 0
-26 61 68 0
-25 -83 -99 0
-25 -47 -112 0
-25 27 45 0
-24 -32 108 0
-24 -26 -72 0
-24 58 86 0
-24 75 79 0
-24 107 -111 0
-23 -35 -52 0
-23 -28 -69 0
-23 31 89 0
-23 104 115 0
-23 113 -116 0
-22 -74 -109 0
-22 -24 73 0
-22 46 65 0
-22 54 58 0
-22 56 -84 0
-22 58 -86 0
-22 59 63 0
-22 80 -89 0
-22 83 114 0
-21 -105 116 0
-21 -61 79 0
-20 56 105 0
-19 -59 100 0
-19 52 -99 0
-18 -74 -95 0
-18 36 95 0
-17 -114 -116 0
-17 -48 80 0
-17 -42 60 0
-17 -33 -87 0
-17 33 -112 0
-17 54 78 0
-17 79 83 0
-16 -99 -104 0
-16 -39 -117 0
-16 64 78 0
-15 -75 81 0
-15 -46 -73 0
-15 20 62 0
-15 68 -108 0
-15 70 -83 0
-14 -97 -104 0
-14 -25 -99 0
-14 24 -118 0
-13 -67 -69 0
-13 -55 -105 0
-13 -55 105 0
-13 23 -26 0
-13 37 -116 0
-13 52 117 0
-13 58 72 0
-12 -76 119 0
-12 -57 113 0
-12 -42 -63 0
-12 -40 82 0
-12 -15 65 0
-12 17 -23 0
-11 -87 -116 0
-11 -84 -113 0
-10 -69 -90 0
-10 -24 -104 0
-10 -22 70 0
-10 -17 54 0
-10 11 69 0
-10 26 -113 0
-10 40 -100 0
-10 66 89 0
-10 67 73 0
-9 -55 91 0
-9 -47 -95 0
-9 -25 45 0
-9 37 53 0
-9 46 64 0
-9 73 -75 0
-8 -83 -89 0
-8 -79 112 0
-8 -60 114 0
-8 -55 -96 0
-8 41 78 0
-8 107 -115 0
-7 -30 -48 0
-7 -12 50 0
-7 12 -15 0
-7 86 -119 0
-7 89 98 0
-7 89 114 0
-7 90 -98 0
-6 -14 -17 0
-6 -8 76 0
-6 9 31 0
-6 41 -102 0
-6 73 -103 0
-5 -78 106 0
-5 -27 66 0
-5 -16 -68 0
-5 -14 68 0
-4 -105 108 0
-4 -81 110 0
-4 -73 99 0
-4 -21 -91 0
-4 -9 58 0
-4 18 93 0
-4 71 -83 0
-4 100 -107 0
-3 12 37 0
-3 27 80 0
-2 -59 -100 0
-2 30 88 0
-1 -74 95 0
-1 -56 95 0
-1 -34 -40 0
-1 -27 -39 0
-1 -25 75 0
-1 -16 -17 0
-1 3 113 0
1 -23 -47 0
1 -21 54 0
1 14 -44 0
1 65 103 0
1 106 -115 0
2 -40 117 0
2 8 -94 0
2 17 -19 0
3 -79 -87 0
3 -14 -21 0
3 13 -52 0
3 64 -89 0
3 77 -113 0
4 -45 -106 0
4 -34 -86 0
4 -15 85 0
4 87 -103 0
5 -76 77 0
6 -67 -110 0
6 -40 71 0
6 14 -108 0
7 -61 62 0
7 -52 -79 0
7 -48 85 0
7 -44 -76 0
7 -16 -39 0
7 46 108 0
7 59 -76 0
8 -12 29 0
8 10 88 0
9 -12 -42 0
9 51 57 0
10 56 -85 0
10 88 -115 0
11 -21 -45 0
11 16 102 0
11 18 -87 0
11 26 57 0
11 27 113 0
11 46 117 0
11 83 106 0
12 -34 115 0
12 -27 107 0
12 -25 83 0
12 -23 -84 0
12 -16 -30 0
12 35 61 0
12 42 -70 0
13 -29 -64 0
13 70 97 0
13 72 104 0
13 102 -111 0
14 28 -61 0
14 95 -96 0
15 -80 -92 0
15 -21 -116 0
15 35 -91 0
15 77 -87 0
16 -27 -30 0
16 -26 -117 0
16 39 -107 0
16 55 -112 0
16 118 -119 0
17 40 87 0
17 92 -101 0
18 -54 -85 0
18 -51 77 0
18 -46 119 0
18 -20 73 0
18 -19 104 0
18 23 46 0
18 39 -117 0
18 55 119 0
18 62 -68 0
19 -80 107 0
19 -48 89 0
19 -29 49 0
19 25 -98 0
19 49 95 0
19 108 118 0
20 -100 108 0
20 48 -62 0
21 -60 101 0
21 -57 -74 0
21 -53 113 0
21 57 -101 0
22 -44 -90 0
22 25 -61 0
22 61 72 0
23 28 -50 0
24 -49 84 0
24 -26 -96 0
24 50 -71 0
25 -74 75 0
25 -44 80 0
25 -40 114 0
25 76 -113 0
26 -63 -113 0
26 -37 75 0
27 95 97 0
28 -101 106 0
28 67 -118 0
29 -56 -120 0
29 -54 101 0
30 -78 110 0
32 -88 -104 0
32 -71 -99 0
32 -65 -85 0
32 39 -52 0
32 82 101 0
33 -84 -116 0
33 -78 97 0
33 44 113 0
34 -46 -56 0
34 39 -71 0
34 54 -94 0
35 -67 -107 0
35 -59 115 0
35 -43 -54 0
35 45 61 0
36 -106 -112 0
36 -45 71 0
36 46 -94 0
36 47 50 0
36 84 118 0
37 -54 81 0
37 39 -42 0
37 67 95 0
38 -87 -103 0
38 -78 -89 0
38 -75 78 0
40 -56 104 0
40 76 -112 0
41 -93 105 0
41 -86 110 0
41 -47 -85 0
42 -63 109 0
42 98 117 0
43 -107 -119 0
43 -54 100 0
43 98 109 0
44 -82 -104 0
44 63 76 0
45 -70 -102 0
45 -65 92 0
45 67 -78 0
46 -63 -90 0
46 78 80 0
46 111 -116 0
47 86 -101 0
48 88 114 0
48 109 -117 0
49 -77 106 0
49 51 94 0
49 56 -70 0
51 -60 -77 0
53 75 83 0
53 97 -103 0
54 76 109 0
57 86 -110 0
58 -67 99 0
58 59 -60 0
58 72 93 0
60 80 110 0
61 70 -117 0
62 -78 -120 0
62 -71 78 0
63 -77 -91 0
63 89 -94 0
65 84 88 0
65 102 103 0
67 -110 120 0
67 94 113 0
68 -74 -117 0
69 71 107 0
69 105 -107 0
73 81 91 0
76 -116 -120 0
76 101 120 0
78 99 -106 0
81 -89 102 0
82 -84 -93 0
84 -89 -119 0
84 102 105 0
86 -97 -101 0
89 -96 102 0
92 -100 120 0
92 108 -120 0
93 -111 -120 0
93 -96 -101 0
96 -103 104 0
98 -102 -106 0
