p cnf 40 170
-30 -32 33 0
-27 -33 -34 0
-24 -27 35 0
-24 30 31 0
-22 -29 36 0
-21 23 -24 0
-20 -22 -24 0
-19 -21 36 0
-18 -30 -32 0
-18 -26 33 0
-17 -27 -29 0
-17 -24 39 0
-17 -18 -25 0
-16 17 32 0
-16 22 25 0
-16 25 -27 0
-15 22 39 0
-14 -29 -32 0
-14 -27 -37 0
-14 -22 -40 0
-13 -32 -36 0
-13 -25 34 0
-13 -20 -27 0
-13 -16 -22 0
-13 -15 19 0
-13 26 -28 0
-13 29 -33 0
-12 -22 36 0
-12 -21 -34 0
-12 27 -35 0
-11 -27 -28 0
-11 -24 36 0
-11 -18 -27 0
-11 -13 -25 0
-11 24 -27 0
-10 -25 -38 0
-10 13 -39 0
-9 -20 31 0
-9 -14 19 0
-9 12 17 0
-9 16 -26 0
-9 19 34 0
-8 -26 33 0
-8 -12 -13 0
-8 -9 -15 0
-8 9 -23 0
-8 15 -28 0
-7 -16 -19 0
-7 -10 35 0
-7 15 35 0
-7 17 29 0
-6 -26 37 0
-6 -15 23 0
-6 7 -24 0
-6 7 -21 0
-6 8 -38 0
-6 9 39 0
-6 17 -23 0
-6 21 36 0
-6 29 -40 0
-5 -26 34 0
-5 -20 -39 0
-5 -14 -22 0
-5 6 31 0
-5 11 -26 0
-5 23 -36 0
-4 -26 -36 0
-4 -23 -38 0
-4 -14 23 0
-4 7 -8 0
-4 8 -23 0
-4 24 -30 0
-3 -15 28 0
-3 -8 -22 0
-3 4 -16 0
-3 7 22 0
-3 31 37 0
-3 34 37 0
-2 -18 -21 0
-2 -6 9 0
-2 11 -38 0
-2 16 -34 0
-2 19 -38 0
-2 26 35 0
1 -35 -37 0
1 -27 -37 0
1 -21 -32 0
1 -4 -12 0
1 -4 -5 0
1 4 19 0
1 5 -10 0
1 11 16 0
2 -18 -29 0
2 -11 -16 0
2 5 -7 0
2 11 25 0
3 -14 26 0
3 -6 35 0
3 10 16 0
3 11 -39 0
3 20 -27 0
3 29 30 0
3 32 -39 0
4 -27 35 0
4 -25 29 0
4 10 34 0
4 10 37 0
4 13 21 0
4 14 24 0
5 -24 -40 0
5 7 20 0
5 14 -21 0
5 16 28 0
6 -21 -27 0
6 -17 40 0
6 30 35 0
6 35 36 0
7 -12 18 0
7 -8 39 0
8 -19 25 0
8 -9 -39 0
8 12 24 0
8 36 38 0
9 -11 -27 0
9 11 36 0
9 25 27 0
10 -16 22 0
10 -13 14 0
10 13 -31 0
10 33 34 0
11 -33 -39 0
11 -26 30 0
12 -24 -30 0
12 -23 24 0
12 -18 -35 0
12 -18 29 0
12 20 33 0
12 23 -35 0
12 23 -34 0
13 -22 35 0
13 -16 -17 0
13 -14 26 0
14 23 27 0
15 -25 -34 0
15 -16 23 0
15 16 -40 0
15 22 -40 0
15 24 40 0
16 -22 40 0
16 -17 -40 0
17 -27 35 0
18 -22 39 0
18 -20 34 0
18 26 37 0
19 -26 -30 0
19 20 -38 0
19 30 38 0
19 31 -34 0
20 -24 31 0
20 22 -37 0
21 -24 34 0
21 28 34 0
22 32 -39 0
23 30 33 0
23 33 -37 0
24 -37 39 0
26 29 40 0
27 -39 40 0
32 35 -36 0
35 37 38 0
