p cnf 100 360
-85 -97 98 0
-76 -92 97 0
-73 88 94 0
-71 91 -96 0
-69 72 75 0
-64 80 -83 0
-63 -86 92 0
-61 -70 -97 0
-59 -73 -93 0
-59 61 -85 0
-58 86 97 0
-57 -94 -98 0
-57 -92 100 0
-56 -73 -100 0
-55 -61 -92 0
-54 -57 -75 0
-52 -82 -98 0
-52 -53 77 0
-52 62 -72 0
-51 -69 71 0
-51 -53 54 0
-50 -79 87 0
-50 -54 -89 0
-49 -85 -100 0
-49 -61 71 0
-46 -94 100 0
-45 -75 98 0
-45 -67 92 0
-45 78 87 0
-44 -47 60 0
-44 54 -79 0
-44 71 83 0
-42 -67 -98 0
-42 -58 -82 0
-42 66 -83 0
-42 72 -90 0
-41 -87 91 0
-41 -48 -95 0
-41 -45 -77 0
-41 42 43 0
-41 47 -74 0
-41 50 80 0
-41 88 91 0
-40 -44 -90 0
-39 69 81 0
-39 88 -95 0
-38 -50 95 0
-38 -39 83 0
-38 45 -49 0
-37 -40 -79 0
-36 -40 -64 0
-36 79 -91 0
-35 58 -63 0
-35 60 80 0
-35 61 70 0
-34 -52 56 0
-34 -49 -69 0
-34 -41 -50 0
-34 78 -91 0
-34 78 -86 0
-33 -58 87 0
-33 -43 82 0
-33 34 -90 0
-32 -52 66 0
-31 -54 -71 0
-31 61 98 0
-30 -91 -94 0
-30 -33 57 0
-30 44 87 0
-30 52 68 0
-30 57 -73 0
-30 65 -94 0
-30 72 -89 0
-29 -64 73 0
-29 -43 -97 0
-29 -40 89 0
-29 44 -80 0
-28 -85 -87 0
-28 -67 -76 0
-28 -31 51 0
-28 -30 -72 0
-28 82 -99 0
-27 -87 97 0
-27 -41 -47 0
-27 -36 53 0
-27 32 89 0
-27 35 52 0
-26 -60 -74 0
-26 -60 91 0
-26 31 93 0
-26 71 89 0
-26 73 91 0
-26 81 100 0
-25 -59 -71 0
-25 -55 66 0
-24 -86 93 0
-24 -44 88 0
-24 -29 -86 0
-24 73 95 0
-23 30 74 0
-23 45 -47 0
-22 -64 94 0
-22 -39 85 0
-22 45 54 0
-22 60 86 0
-21 -73 95 0
-21 28 56 0
-20 -53 95 0
-20 -25 73 0
-19 -60 -99 0
-19 23 -81 0
-19 35 81 0
-19 84 98 0
-18 -46 71 0
-18 -40 80 0
-18 -22 89 0
-18 53 -67 0
-17 -68 -79 0
-17 -47 -48 0
-17 -47 79 0
-17 -42 63 0
-17 -39 -50 0
-17 -23 -99 0
-17 35 51 0
-16 -63 -87 0
-16 -42 -85 0
-16 64 82 0
-15 -82 92 0
-15 -66 93 0
-15 -40 67 0
-15 -37 -69 0
-15 80 85 0
-14 -48 52 0
-14 -19 -83 0
-14 -16 98 0
-14 82 100 0
-13 -34 -93 0
-13 14 71 0
-13 45 -47 0
-13 75 93 0
-13 86 92 0
-12 -52 81 0
-12 -14 81 0
-12 18 -53 0
-12 28 71 0
-12 34 -41 0
-11 -58 88 0
-11 -14 -64 0
-11 52 70 0
-10 -35 38 0
-10 -18 -96 0
-9 -68 -79 0
-9 -63 -93 0
-9 11 70 0
-9 25 77 0
-9 37 91 0
-9 54 -87 0
-8 36 66 0
-8 50 79 0
-7 -80 87 0
-7 -59 -61 0
-7 -56 -79 0
-7 -47 -76 0
-7 66 -86 0
-7 74 93 0
-6 -22 -24 0
-6 -18 24 0
-6 63 91 0
-6 70 -82 0
-5 -64 93 0
-5 -62 -88 0
-5 -57 -96 0
-5 -51 -78 0
-5 -11 59 0
-5 72 90 0
-4 -48 -64 0
-4 -5 -95 0
-4 22 78 0
-4 32 -97 0
-4 84 91 0
-3 -59 82 0
-3 -50 -67 0
-3 -31 86 0
-3 -29 -85 0
-3 9 -69 0
-3 26 55 0
-2 -53 -72 0
-2 -39 46 0
-2 -10 -24 0
-2 4 7 0
-2 21 50 0
-2 23 81 0
-2 25 74 0
-2 40 70 0
-2 81 97 0
-1 -47 -91 0
-1 -42 91 0
-1 -37 82 0
-1 36 -66 0
1 -15 -55 0
1 22 -82 0
1 40 98 0
2 -72 99 0
2 -17 -57 0
3 -42 -73 0
3 -11 53 0
3 7 55 0
3 66 -74 0
3 98 -99 0
4 -59 97 0
4 -52 -53 0
4 -33 46 0
4 19 -65 0
5 -9 86 0
5 16 -87 0
5 16 58 0
5 60 99 0
6 -80 86 0
6 -31 96 0
6 -7 -61 0
6 -7 48 0
6 8 -50 0
6 47 95 0
6 50 74 0
6 86 94 0
7 -34 -83 0
7 -28 -56 0
7 22 -41 0
7 30 67 0
7 43 -75 0
8 -60 99 0
8 -16 -27 0
8 40 -85 0
9 15 -67 0
10 -88 92 0
10 27 82 0
10 40 58 0
10 50 99 0
11 -62 -71 0
11 -36 43 0
11 -21 71 0
11 37 57 0
11 42 -46 0
11 43 74 0
12 -19 40 0
12 -15 73 0
12 29 -92 0
12 35 -57 0
12 49 -61 0
12 73 84 0
13 -56 -70 0
13 -45 78 0
13 22 26 0
13 39 67 0
13 69 -77 0
14 -89 -92 0
14 -73 -92 0
14 -59 -89 0
14 -25 73 0
14 -23 36 0
14 -16 -64 0
14 35 94 0
15 -44 85 0
15 -23 75 0
15 -21 -33 0
15 -17 45 0
15 25 70 0
15 39 63 0
15 57 71 0
16 -51 56 0
16 -41 -49 0
16 -34 -60 0
16 64 -98 0
17 -28 58 0
17 42 57 0
18 -61 -83 0
18 -60 66 0
18 -56 -82 0
18 -32 -33 0
19 -62 76 0
19 -40 -58 0
19 -36 89 0
20 -61 78 0
20 -25 -53 0
20 37 60 0
20 52 -57 0
21 -38 -92 0
21 62 -65 0
22 -40 71 0
22 23 82 0
22 48 -53 0
22 49 63 0
22 60 -64 0
23 -58 -91 0
23 -46 56 0
23 -41 -99 0
23 -29 -98 0
23 34 -88 0
24 -76 -100 0
24 -39 -55 0
24 28 -30 0
24 48 76 0
24 69 97 0
25 -53 -93 0
25 -30 92 0
26 -32 -95 0
27 -36 54 0
27 -33 -97 0
27 51 -84 0
28 -33 -73 0
28 32 89 0
28 48 -82 0
29 -34 -37 0
30 -32 45 0
30 41 84 0
31 -86 100 0
31 34 -57 0
32 -52 54 0
33 -47 89 0
33 71 75 0
34 37 48 0
36 40 -74 0
36 41 -50 0
36 43 -45 0
37 43 71 0
37 45 -85 0
37 53 -73 0
38 75 97 0
40 -74 -98 0
40 -58 77 0
40 49 55 0
41 -83 -100 0
42 -48 -71 0
42 48 -72 0
42 49 60 0
42 55 -66 0
43 -44 -47 0
44 70 90 0
44 74 -85 0
45 -63 -77 0
45 67 88 0
46 -56 77 0
47 -52 -77 0
47 74 -94 0
50 -55 56 0
52 57 87 0
54 -87 -98 0
54 -63 97 0
56 -65 -97 0
63 -78 -90 0
63 74 86 0
63 87 100 0
64 73 84 0
64 75 -96 0
65 72 80 0
69 82 -92 0
70 -80 90 0
75 -78 -94 0
80 81 86 0
87 -91 -98 0
