p cnf 220 942
-199 -209 -212 0
-182 -185 -198 0
-181 -191 213 0
-171 -209 215 0
-171 -184 -208 0
-171 173 -174 0
-169 197 -211 0
-168 -199 -205 0
-166 168 -200 0
-163 -166 185 0
-160 182 -190 0
-158 -169 173 0
-150 -185 213 0
-149 171 -218 0
-148 -175 -208 0
-147 218 -220 0
-144 -172 -218 0
-143 -183 -218 0
-143 -161 216 0
-141 145 215 0
-139 -158 -218 0
-139 166 -169 0
-137 -142 -153 0
-136 187 -192 0
-135 179 -188 0
-132 135 140 0
-131 -153 -167 0
-131 -153 176 0
-131 197 213 0
-130 -191 -213 0
-129 -186 196 0
-127 180 191 0
-125 153 165 0
-124 -133 -211 0
-122 131 167 0
-121 -154 193 0
-121 202 -217 0
-120 -136 -187 0
-119 131 191 0
-116 -201 -211 0
-116 -152 -206 0
-116 162 198 0
-116 169 198 0
-113 128 206 0
-112 165 -209 0
-111 -132 203 0
-110 -140 172 0
-109 114 -181 0
-108 -139 152 0
-108 187 -195 0
-104 -105 202 0
-99 -195 -215 0
-98 -189 216 0
-98 -155 205 0
-98 127 150 0
-97 198 211 0
-96 -155 205 0
-96 131 -190 0
-96 162 -164 0
-95 -138 143 0
-95 211 -217 0
-94 -103 -204 0
-93 -194 210 0
-93 -161 -219 0
-93 -152 -211 0
-93 96 -204 0
-93 132 -174 0
-92 -155 -211 0
-92 110 164 0
-92 143 -201 0
-92 156 207 0
-89 129 -215 0
-87 -95 164 0
-87 104 168 0
-86 -179 205 0
-85 -114 -115 0
-85 -97 179 0
-84 -138 -186 0
-84 -95 123 0
-84 118 -197 0
-84 145 -209 0
-82 -104 217 0
-82 91 142 0
-82 147 -192 0
-82 167 189 0
-80 -161 183 0
-80 -139 165 0
-80 -127 171 0
-80 -94 219 0
-80 107 201 0
-80 189 -216 0
-79 -212 213 0
-79 -89 -173 0
-79 -80 -211 0
-79 190 191 0
-78 -203 213 0
-78 -116 207 0
-78 -85 -197 0
-77 -173 -205 0
-77 -103 -138 0
-76 -109 209 0
-76 81 -166 0
-76 151 169 0
-75 -186 203 0
-75 77 151 0
-75 104 -202 0
-75 105 -172 0
-74 -107 129 0
-74 177 -199 0
-73 -179 217 0
-73 -94 -131 0
-73 108 136 0
-73 118 -168 0
-73 152 206 0
-73 165 -213 0
-73 170 176 0
-72 102 -180 0
-71 155 213 0
-71 168 -198 0
-71 204 -206 0
-70 -184 -190 0
-70 -160 161 0
-70 -123 135 0
-70 -91 -100 0
-70 165 213 0
-68 -71 -193 0
-68 83 133 0
-68 98 143 0
-68 140 -181 0
-67 -115 145 0
-67 -95 -112 0
-67 100 -201 0
-67 104 -188 0
-67 165 174 0
-66 -151 165 0
-66 -72 -188 0
-65 -132 -187 0
-65 -130 -148 0
-65 -101 -122 0
-65 -70 -151 0
-65 114 -123 0
-65 180 -183 0
-64 -133 -139 0
-64 97 105 0
-64 111 146 0
-64 117 174 0
-63 -163 -211 0
-63 -111 215 0
-63 -99 133 0
-63 80 205 0
-63 85 -157 0
-62 -164 198 0
-62 -143 194 0
-62 -120 -157 0
-62 -78 118 0
-62 116 -201 0
-61 -150 196 0
-61 -136 -175 0
-61 -88 -181 0
-61 -76 -191 0
-61 -71 -109 0
-61 155 -192 0
-60 -191 -215 0
-60 -118 -132 0
-60 -102 196 0
-60 -98 103 0
-60 -86 -220 0
-59 132 203 0
-59 145 170 0
-59 193 -199 0
-58 -154 198 0
-58 -135 146 0
-58 -100 -190 0
-58 88 -214 0
-58 92 -151 0
-58 95 132 0
-57 -114 163 0
-57 -101 -154 0
-57 94 -185 0
-57 149 -178 0
-56 95 159 0
-55 -106 -190 0
-55 -99 115 0
-55 -97 -121 0
-55 -73 -99 0
-55 139 192 0
-54 -139 149 0
-54 -101 -157 0
-54 62 -219 0
-54 112 153 0
-54 140 -161 0
-54 185 202 0
-53 56 -120 0
-52 -157 173 0
-52 75 81 0
-52 104 154 0
-52 128 160 0
-51 -137 166 0
-51 -115 -213 0
-51 -92 147 0
-51 -77 94 0
-51 -56 -194 0
-51 93 -110 0
-51 127 -211 0
-51 160 173 0
-51 190 -196 0
-50 -191 -214 0
-50 -108 198 0
-50 77 -204 0
-49 -140 205 0
-49 -109 -129 0
-49 -82 209 0
-49 98 110 0
-48 -91 -215 0
-48 58 211 0
-48 109 -190 0
-47 -187 -206 0
-47 -126 144 0
-47 -56 72 0
-47 93 210 0
-47 133 -135 0
-46 -136 213 0
-46 96 -146 0
-46 160 -214 0
-45 -147 219 0
-45 54 -164 0
-45 95 152 0
-44 -52 -187 0
-44 56 194 0
-43 -103 -206 0
-42 -68 84 0
-42 49 216 0
-42 62 -123 0
-42 154 -176 0
-41 -192 -195 0
-41 67 -122 0
-41 93 211 0
-41 200 -211 0
-40 -105 123 0
-40 123 188 0
-39 -150 -194 0
-39 -150 166 0
-39 -121 217 0
-39 128 219 0
-39 156 -162 0
-38 -123 -207 0
-38 84 168 0
-38 91 -149 0
-38 127 -188 0
-37 -125 -212 0
-37 -121 -130 0
-37 -93 -110 0
-37 -88 -92 0
-37 -88 134 0
-37 -49 178 0
-37 -43 -82 0
-37 53 -102 0
-37 64 -122 0
-37 162 -182 0
-36 -115 188 0
-36 -104 211 0
-36 -62 -142 0
-36 -46 -160 0
-36 58 66 0
-35 -97 205 0
-35 -93 191 0
-35 -68 -188 0
-35 -39 -105 0
-35 166 201 0
-34 -63 -166 0
-34 47 110 0
-33 -73 -116 0
-33 69 -136 0
-33 115 201 0
-33 137 -170 0
-32 -151 158 0
-32 -103 -219 0
-32 -74 -174 0
-32 -74 178 0
-32 -48 142 0
-32 48 157 0
-32 80 -210 0
-31 -140 -195 0
-31 -113 125 0
-31 -32 139 0
-31 32 189 0
-31 94 198 0
-31 102 -158 0
-31 105 -123 0
-31 106 207 0
-31 138 -215 0
-30 -94 -219 0
-30 -89 -174 0
-30 135 206 0
-30 157 195 0
-30 183 -195 0
-29 -172 193 0
-29 -122 -218 0
-29 -67 -211 0
-29 -58 -66 0
-29 102 143 0
-28 -54 -58 0
-28 -34 -163 0
-28 51 -157 0
-28 58 -134 0
-28 60 116 0
-27 -164 -216 0
-27 -55 -137 0
-27 -31 132 0
-27 35 210 0
-27 177 204 0
-26 -202 -213 0
-26 -49 84 0
-26 -45 -123 0
-26 -29 -125 0
-26 30 66 0
-26 74 174 0
-25 -127 132 0
-25 -86 103 0
-25 -69 -129 0
-25 -38 121 0
-25 49 140 0
-24 -91 -134 0
-24 -40 -82 0
-24 82 -203 0
-23 -120 194 0
-23 -70 77 0
-23 -48 -69 0
-23 -46 -127 0
-23 -39 197 0
-23 40 -158 0
-23 51 -67 0
-23 64 -159 0
-23 103 -155 0
-23 179 183 0
-22 -117 -167 0
-22 -92 181 0
-22 -57 92 0
-22 -56 -160 0
-22 29 213 0
-22 32 215 0
-22 64 114 0
-22 84 -92 0
-21 -138 189 0
-21 -62 -69 0
-21 -58 -62 0
-21 92 212 0
-21 102 185 0
-21 112 198 0
-20 -134 -189 0
-20 -100 -204 0
-20 -75 127 0
-20 -32 -171 0
-20 54 -78 0
-20 81 -145 0
-20 107 -169 0
-20 112 220 0
-19 -123 -201 0
-19 38 168 0
-19 87 -151 0
-18 58 97 0
-18 73 -128 0
-18 74 152 0
-18 81 -151 0
-17 -122 -172 0
-17 -93 -173 0
-17 -59 116 0
-17 -49 -97 0
-17 21 -142 0
-17 33 179 0
-17 44 -165 0
-17 186 197 0
-16 -139 -156 0
-16 -49 188 0
-16 -46 -191 0
-16 170 -220 0
-15 -96 -122 0
-15 -81 -129 0
-15 -69 112 0
-15 29 219 0
-15 49 70 0
-15 57 -175 0
-15 68 219 0
-14 -78 168 0
-14 -70 -178 0
-14 -57 -66 0
-14 -38 114 0
-14 -22 -104 0
-14 -16 -161 0
-14 18 216 0
-14 44 100 0
-14 155 -183 0
-13 -60 157 0
-13 -49 115 0
-13 24 214 0
-13 86 -139 0
-13 93 208 0
-13 170 188 0
-12 -172 -181 0
-12 -129 220 0
-12 -24 171 0
-12 18 148 0
-12 32 -195 0
-12 32 201 0
-12 56 66 0
-12 85 -112 0
-12 135 136 0
-11 -80 -91 0
-11 -14 30 0
-11 24 151 0
-10 42 143 0
-10 137 192 0
-9 -191 -208 0
-9 -16 -20 0
-9 18 199 0
-9 65 121 0
-9 79 -151 0
-9 102 154 0
-8 -98 -119 0
-8 -82 133 0
-8 -16 -180 0
-8 24 159 0
-8 31 -120 0
-8 43 158 0
-8 64 140 0
-8 74 -97 0
-8 80 -82 0
-8 88 -189 0
-8 121 -209 0
-7 -106 -161 0
-7 -20 -44 0
-7 15 51 0
-7 89 -112 0
-6 -85 -218 0
-6 -44 -114 0
-6 -29 -204 0
-6 -17 -101 0
-6 -16 89 0
-6 61 65 0
-6 63 -115 0
-6 84 -134 0
-6 154 -166 0
-5 -131 -171 0
-5 -35 152 0
-5 61 -71 0
-4 -104 -153 0
-4 -53 78 0
-4 -32 163 0
-4 113 -121 0
-3 -153 192 0
-3 -143 -168 0
-3 -113 206 0
-3 -100 173 0
-3 -40 188 0
-3 -23 129 0
-3 -21 -178 0
-3 83 -118 0
-2 -143 209 0
-2 -62 -103 0
-2 -54 -93 0
-2 18 -118 0
-2 57 177 0
-2 117 156 0
-2 132 -190 0
-1 -46 -124 0
-1 -28 -214 0
-1 -4 -25 0
-1 56 -156 0
1 -90 -92 0
1 -24 117 0
1 -2 160 0
1 26 -41 0
1 26 65 0
1 73 -124 0
1 103 -215 0
1 124 -142 0
1 177 -220 0
2 -114 -205 0
2 -73 132 0
2 25 69 0
2 39 -187 0
3 -180 -193 0
3 -91 197 0
3 -35 -51 0
3 -8 -162 0
3 -6 162 0
3 34 67 0
4 -92 -214 0
4 -51 -187 0
4 16 -34 0
4 26 -209 0
4 45 58 0
4 55 114 0
5 -117 167 0
5 -77 -197 0
5 46 -93 0
5 57 113 0
5 107 181 0
5 160 -220 0
6 -129 179 0
6 24 -127 0
6 33 204 0
6 38 85 0
6 49 -112 0
6 50 -69 0
6 97 143 0
6 134 -162 0
6 147 -163 0
7 -134 136 0
7 -122 160 0
7 -97 -200 0
7 -96 -205 0
7 -88 -99 0
7 -81 -149 0
7 87 95 0
7 128 -211 0
8 -157 -210 0
8 -57 -205 0
8 -16 -65 0
8 38 86 0
8 58 -127 0
8 101 165 0
9 14 139 0
9 89 174 0
9 146 -192 0
10 -121 -172 0
10 -21 -172 0
10 60 -85 0
10 69 -97 0
10 116 127 0
10 172 194 0
11 -184 -207 0
11 -123 145 0
11 -113 -123 0
11 -89 -156 0
11 -76 -121 0
11 -61 -138 0
11 -57 -86 0
11 19 158 0
12 -142 -145 0
12 -112 -204 0
12 -97 146 0
12 -57 137 0
12 -19 166 0
12 20 -106 0
12 142 -191 0
13 -15 -58 0
13 62 89 0
13 66 216 0
13 120 220 0
13 124 213 0
14 -124 133 0
14 -66 163 0
14 -62 125 0
14 -23 218 0
14 -16 -21 0
14 21 -125 0
14 95 -117 0
14 131 -181 0
14 173 -208 0
14 179 -187 0
15 -36 140 0
15 23 47 0
15 54 -207 0
16 -93 -118 0
16 -73 196 0
16 -47 -118 0
16 -23 201 0
16 47 -70 0
16 55 -149 0
16 96 148 0
16 134 -181 0
16 163 -212 0
17 -131 181 0
17 -21 -158 0
17 59 -178 0
17 149 -203 0
18 -130 -217 0
18 -70 212 0
18 -69 72 0
18 -64 -120 0
18 26 -200 0
18 39 130 0
18 91 190 0
18 111 220 0
18 161 -180 0
19 -127 160 0
19 -95 165 0
19 -55 197 0
20 -197 204 0
20 -154 164 0
20 -100 -125 0
20 29 -159 0
20 73 -136 0
20 75 -147 0
20 123 213 0
20 191 211 0
21 -114 -132 0
21 -33 39 0
21 -23 205 0
21 42 63 0
21 189 -206 0
22 40 -176 0
22 74 78 0
23 38 -75 0
23 73 -126 0
23 117 215 0
24 -129 -142 0
24 -107 202 0
24 -71 -125 0
24 -64 -206 0
25 -123 202 0
25 34 -212 0
25 72 103 0
25 93 -106 0
25 159 172 0
26 -83 187 0
26 -80 -152 0
26 58 -60 0
27 -61 -173 0
27 70 -139 0
28 -34 -153 0
28 31 190 0
28 91 156 0
29 -128 163 0
29 -93 -122 0
29 -79 -194 0
29 95 -211 0
29 196 -209 0
30 -162 194 0
30 -139 198 0
30 -73 -220 0
30 99 216 0
31 -72 212 0
31 -46 -128 0
31 -39 -133 0
31 -32 -219 0
31 108 190 0
31 113 132 0
32 -172 -184 0
32 -63 165 0
32 -46 -55 0
32 73 -135 0
32 93 95 0
32 106 -214 0
32 139 194 0
32 159 217 0
33 -172 181 0
33 -75 188 0
33 82 -172 0
34 -72 -152 0
34 57 -218 0
34 139 193 0
35 -154 -189 0
35 -145 -182 0
35 -122 -202 0
35 -112 -162 0
35 -46 -119 0
35 43 152 0
36 -132 -212 0
36 -129 -140 0
36 -114 -138 0
36 -93 106 0
36 -50 182 0
36 37 -52 0
36 40 -60 0
36 59 144 0
36 79 184 0
36 113 198 0
36 169 216 0
37 -161 188 0
37 129 171 0
38 -144 162 0
39 -47 122 0
39 45 -88 0
39 100 -138 0
39 193 -207 0
40 -100 -121 0
40 51 192 0
40 97 -116 0
41 -125 -147 0
41 -113 -198 0
41 75 177 0
42 -125 -132 0
42 -121 153 0
42 -92 -182 0
42 -90 164 0
42 -89 -103 0
42 -78 -118 0
42 -67 186 0
42 71 179 0
42 100 195 0
42 124 -220 0
42 157 185 0
43 -98 -163 0
43 85 -175 0
43 112 -192 0
43 113 167 0
44 -68 -82 0
44 56 -170 0
44 57 -58 0
44 87 -124 0
44 104 199 0
45 -127 -153 0
45 -84 -116 0
46 -162 173 0
47 -121 -153 0
47 -95 -213 0
47 48 -211 0
47 50 -154 0
47 119 202 0
47 156 178 0
47 171 -186 0
48 -135 175 0
48 -93 128 0
48 -70 123 0
48 78 172 0
48 85 172 0
48 95 115 0
48 96 -207 0
49 -133 -156 0
49 -50 152 0
49 58 -89 0
49 104 151 0
50 -152 207 0
50 -102 220 0
50 136 -179 0
51 -127 -212 0
51 52 84 0
51 137 170 0
52 -95 99 0
52 108 140 0
53 -86 -209 0
53 -81 -180 0
53 76 -175 0
53 101 -159 0
53 102 -185 0
54 -141 -180 0
54 -89 122 0
54 145 206 0
54 164 -194 0
54 214 -216 0
55 -186 -199 0
55 -136 209 0
55 -89 -129 0
55 57 -90 0
55 136 180 0
55 173 -203 0
56 -128 -190 0
56 -81 156 0
56 114 -138 0
57 -122 -199 0
57 -63 76 0
57 63 170 0
57 78 124 0
57 81 206 0
57 101 203 0
57 108 159 0
58 -197 -205 0
58 -87 162 0
58 72 -132 0
59 -147 175 0
59 -113 164 0
59 -87 -128 0
59 77 -141 0
59 95 135 0
59 145 -157 0
60 -125 185 0
60 -115 -159 0
61 -173 200 0
61 -134 -159 0
62 -122 203 0
62 -101 134 0
62 -84 121 0
62 95 -144 0
62 159 -171 0
63 -78 176 0
63 -64 74 0
63 74 -139 0
63 81 164 0
63 93 -151 0
64 -85 150 0
64 104 188 0
64 182 -198 0
65 -167 -187 0
65 -163 180 0
65 -111 -140 0
66 -142 -179 0
66 -110 -182 0
66 -83 189 0
66 -79 -151 0
66 93 -199 0
66 126 198 0
67 -119 -136 0
67 -97 208 0
68 161 195 0
69 85 -106 0
70 -101 199 0
70 -84 -132 0
70 101 125 0
70 134 175 0
71 -103 -202 0
71 80 192 0
72 -191 208 0
72 73 179 0
73 -172 -218 0
73 -144 -148 0
73 188 193 0
74 -178 -186 0
74 -103 -113 0
74 95 198 0
75 84 -219 0
76 -77 218 0
76 93 -194 0
77 -82 -160 0
77 -80 -121 0
77 90 168 0
78 -181 -196 0
78 -123 206 0
79 -103 194 0
79 -95 -175 0
79 -90 204 0
80 -205 -211 0
80 91 -108 0
81 -163 194 0
81 -158 -180 0
82 83 191 0
82 89 -129 0
82 161 -163 0
83 -145 159 0
83 105 129 0
84 -119 -143 0
84 -89 -147 0
84 93 199 0
85 -145 -173 0
86 -185 -210 0
86 -123 126 0
86 -87 -196 0
86 154 189 0
87 -128 -144 0
87 -111 193 0
88 -156 -185 0
88 -112 -202 0
88 -112 160 0
88 -89 -207 0
89 -195 218 0
89 130 167 0
89 146 -149 0
89 173 -216 0
91 -125 131 0
91 -116 -176 0
92 -156 186 0
92 -145 218 0
92 -115 117 0
93 -162 -176 0
93 106 180 0
93 114 -160 0
93 130 -150 0
94 121 125 0
96 -152 162 0
96 -146 208 0
97 101 116 0
98 -162 -188 0
98 -150 -204 0
99 -150 -191 0
99 -110 -127 0
99 119 -219 0
100 132 -146 0
101 -104 -139 0
101 169 184 0
102 -151 186 0
103 -147 -175 0
103 -147 203 0
104 -174 -179 0
104 125 -187 0
105 -158 220 0
105 171 -194 0
107 -190 216 0
107 -132 139 0
107 119 -213 0
107 209 210 0
108 -153 179 0
108 124 155 0
108 143 176 0
110 114 -213 0
112 190 218 0
113 -114 138 0
113 165 -174 0
114 137 211 0
114 149 187 0
114 159 191 0
115 -123 -217 0
115 134 160 0
115 161 175 0
116 141 183 0
116 174 201 0
118 -157 211 0
120 -130 205 0
121 139 -200 0
122 -168 172 0
126 144 -145 0
131 -167 -190 0
131 167 -181 0
135 142 198 0
135 165 213 0
139 -150 172 0
139 150 154 0
140 -166 -184 0
141 -178 183 0
141 147 195 0
142 -169 -194 0
142 144 174 0
142 178 192 0
142 197 -214 0
143 147 -165 0
143 154 -198 0
145 -196 -214 0
147 -152 202 0
147 176 -200 0
147 189 -220 0
148 -214 217 0
149 154 -164 0
150 169 213 0
151 -162 166 0
154 -162 -164 0
154 174 -177 0
155 -161 -176 0
155 160 -213 0
155 178 213 0
155 212 -217 0
156 -186 192 0
157 -172 -218 0
158 160 167 0
161 -168 206 0
164 172 -191 0
170 182 -190 0
175 179 -211 0
180 185 193 0
183 -195 -205 0
187 197 -200 0
194 -196 204 0
203 -205 -207 0
