p cnf 35 149
-25 30 34 0
-23 -28 -31 0
-22 29 35 0
-20 -30 32 0
-20 26 32 0
-19 24 26 0
-19 26 32 0
-18 24 -31 0
-15 -20 32 0
-15 -17 25 0
-15 19 34 0
-15 21 -23 0
-14 16 -20 0
-13 -20 22 0
-13 17 -34 0
-12 14 -21 0
-12 15 -25 0
-11 16 -28 0
-11 26 27 0
-10 -30 -31 0
-10 -15 -18 0
-10 -15 29 0
-10 12 26 0
-10 27 28 0
-9 -24 29 0
-9 10 31 0
-9 15 31 0
-8 -25 -30 0
-8 -16 -22 0
-8 -11 32 0
-8 10 18 0
-7 -20 -24 0
-7 9 26 0
-7 14 23 0
-7 24 -26 0
-6 -32 35 0
-6 -14 -17 0
-6 7 18 0
-6 17 18 0
-6 29 -32 0
-6 32 33 0
-5 -12 22 0
-5 13 15 0
-5 21 -29 0
-4 -24 26 0
-4 -19 32 0
-4 -10 21 0
-4 -9 20 0
-4 7 28 0
-4 24 34 0
-3 -12 18 0
-3 -10 -11 0
-3 -7 22 0
-3 -5 -9 0
-3 -5 7 0
-3 5 20 0
-3 20 -24 0
-3 21 -28 0
-3 23 26 0
-3 30 33 0
-2 -13 33 0
-2 -8 -29 0
-2 -6 -19 0
-2 -5 -15 0
-2 3 -27 0
-2 13 -31 0
-2 13 -14 0
-1 -25 -35 0
-1 -9 -29 0
-1 7 31 0
-1 8 -21 0
-1 9 -30 0
-1 28 -34 0
1 -16 26 0
1 -11 -34 0
1 -7 15 0
1 4 -19 0
1 9 10 0
1 10 -12 0
2 -24 29 0
2 -6 27 0
2 8 25 0
2 17 -28 0
3 4 -33 0
3 7 8 0
3 10 -33 0
3 12 -33 0
3 20 -33 0
4 -30 34 0
4 10 35 0
4 12 -34 0
4 12 21 0
4 12 27 0
4 19 -22 0
5 -22 -25 0
5 -15 20 0
5 -15 22 0
5 -11 18 0
5 -10 -34 0
5 -9 34 0
6 -17 24 0
6 -15 -33 0
6 -7 -23 0
6 16 17 0
6 23 -26 0
7 22 34 0
7 25 -35 0
8 -30 -33 0
8 -25 29 0
8 -12 -18 0
8 -9 26 0
8 19 -32 0
8 27 32 0
9 27 35 0
9 28 -33 0
10 -22 27 0
10 -11 -15 0
11 -23 -25 0
11 13 29 0
11 30 31 0
11 31 -33 0
11 33 34 0
12 -22 -24 0
12 -15 24 0
12 16 -30 0
14 -26 -31 0
14 16 24 0
14 18 -29 0
15 -31 33 0
15 -23 -27 0
15 16 -23 0
16 17 -18 0
17 -26 -29 0
17 -21 31 0
17 -20 26 0
17 29 -30 0
17 30 -31 0
19 -32 -34 0
20 22 32 0
21 -31 -34 0
22 -30 32 0
22 23 24 0
22 27 35 0
23 -29 -35 0
23 24 -30 0
23 29 -30 0
24 -25 26 0
25 -26 33 0
26 27 29 0
