p cnf 30 128
-22 23 -28 0
-19 -23 -30 0
-19 21 22 0
-16 17 26 0
-15 19 26 0
-14 20 22 0
-14 24 29 0
-13 -14 25 0
-13 15 28 0
-12 -21 30 0
-12 22 30 0
-11 -14 -16 0
-10 -27 28 0
-10 11 -19 0
-9 -23 -28 0
-9 -21 -23 0
-9 -12 25 0
-9 -10 28 0
-9 10 -18 0
-9 19 29 0
-8 -26 -28 0
-8 -17 28 0
-8 9 -13 0
-8 9 27 0
-8 18 -19 0
-7 -25 -28 0
-7 -10 -13 0
-7 10 11 0
-7 13 -27 0
-7 20 -26 0
-7 23 27 0
-6 -27 -30 0
-6 -16 27 0
-6 16 23 0
-5 -17 -26 0
-5 -17 -19 0
-5 -12 -19 0
-5 -11 20 0
-5 -8 30 0
-5 11 19 0
-5 13 -24 0
-4 -9 16 0
-4 -8 20 0
-4 13 -19 0
-4 19 -23 0
-4 20 26 0
-3 -13 -30 0
-3 -5 -19 0
-3 -5 12 0
-3 5 -16 0
-3 5 -11 0
-3 5 19 0
-3 8 13 0
-3 16 29 0
-3 24 28 0
-2 3 21 0
-1 -4 25 0
-1 2 16 0
-1 16 24 0
-1 26 -27 0
1 -6 -22 0
1 -2 20 0
1 16 -22 0
1 17 -20 0
2 -23 24 0
2 -7 21 0
2 -7 22 0
2 8 10 0
2 9 -12 0
2 12 -14 0
3 -23 26 0
3 9 27 0
3 10 17 0
3 15 22 0
4 -22 29 0
4 -13 -15 0
4 -10 -23 0
4 7 -29 0
4 8 -9 0
4 9 20 0
4 16 -20 0
4 21 -28 0
5 11 15 0
5 15 -17 0
6 -14 29 0
6 14 -20 0
7 -25 -28 0
7 -13 -21 0
7 -13 -17 0
7 -9 -15 0
7 -9 20 0
7 21 30 0
7 23 -27 0
7 26 -29 0
7 26 30 0
8 -24 29 0
8 14 23 0
8 15 23 0
8 17 23 0
8 24 28 0
9 -23 -30 0
9 -20 28 0
9 -15 25 0
9 -13 -15 0
10 11 -26 0
10 13 -24 0
10 17 21 0
10 21 30 0
11 -27 30 0
11 -25 30 0
11 -22 29 0
12 -21 -29 0
12 -15 -22 0
13 -14 19 0
14 16 20 0
15 -21 23 0
15 23 28 0
16 -27 29 0
16 -24 25 0
16 22 23 0
17 22 26 0
17 28 -29 0
18 21 -30 0
19 -24 30 0
20 -24 -30 0
22 -25 -28 0
23 -25 26 0
23 -24 26 0
