p cnf 80 260
-69 -75 76 0
-62 63 68 0
-61 67 71 0
-59 -60 -76 0
-53 60 74 0
-52 -55 71 0
-51 61 69 0
-50 -59 70 0
-49 -57 -59 0
-47 59 -63 0
-39 -66 79 0
-39 50 -72 0
-38 41 76 0
-36 -43 -53 0
-35 -57 73 0
-34 -45 -64 0
-34 35 69 0
-34 41 -72 0
-34 70 -74 0
-33 -73 -79 0
-33 -63 -71 0
-33 -34 -74 0
-33 40 46 0
-32 -38 48 0
-32 -36 58 0
-31 -41 -79 0
-31 50 63 0
-31 70 72 0
-31 77 -80 0
-30 -68 -69 0
-30 -43 76 0
-30 36 63 0
-30 41 45 0
-30 57 78 0
-30 68 -78 0
-30 75 76 0
-29 -65 73 0
-29 -50 51 0
-29 30 -72 0
-29 33 -38 0
-28 52 -69 0
-27 28 49 0
-27 43 -55 0
-26 -50 -61 0
-26 31 40 0
-25 -45 53 0
-25 -33 60 0
-24 -56 -58 0
-24 27 65 0
-24 28 78 0
-23 -27 67 0
-23 40 -49 0
-22 -72 -75 0
-22 -28 59 0
-22 31 53 0
-21 -52 60 0
-21 -41 80 0
-21 -26 44 0
-21 35 64 0
-21 48 -52 0
-19 -51 62 0
-18 -32 57 0
-18 28 -62 0
-17 -63 71 0
-17 -61 -70 0
-17 20 35 0
-17 51 -72 0
-16 -46 -75 0
-16 -33 77 0
-16 -32 -47 0
-16 19 -65 0
-16 20 -69 0
-16 33 -64 0
-15 28 51 0
-14 -57 71 0
-14 -49 64 0
-14 -18 31 0
-14 22 -72 0
-14 56 73 0
-14 63 -78 0
-13 -51 -60 0
-13 -32 -43 0
-13 14 -21 0
-13 17 32 0
-12 22 -25 0
-12 53 58 0
-11 46 63 0
-10 20 -57 0
-9 -47 75 0
-9 23 67 0
-9 28 -63 0
-9 41 -49 0
-9 54 -64 0
-8 -51 76 0
-8 -31 35 0
-7 33 -74 0
-7 34 -41 0
-7 41 72 0
-7 46 -54 0
-6 -31 55 0
-6 -17 33 0
-6 -12 35 0
-6 7 59 0
-6 25 -59 0
-5 -6 -9 0
-5 18 67 0
-5 19 66 0
-5 41 -44 0
-4 -40 -63 0
-4 -38 49 0
-4 -32 54 0
-4 -13 -20 0
-4 -11 15 0
-4 -9 -23 0
-4 11 51 0
-4 32 -44 0
-4 48 69 0
-4 50 55 0
-4 65 71 0
-3 9 50 0
-3 10 67 0
-3 35 63 0
-3 44 74 0
-2 -26 -80 0
-2 -17 -49 0
-2 5 -20 0
-2 17 27 0
-2 39 42 0
-1 -63 -64 0
-1 -55 79 0
-1 -49 73 0
-1 -10 49 0
1 -39 -48 0
1 -33 64 0
1 -32 58 0
1 -23 -51 0
1 -6 -29 0
1 -2 -60 0
1 73 -79 0
2 -23 26 0
2 -21 22 0
2 -19 70 0
2 37 59 0
3 -35 60 0
3 -30 64 0
3 -12 25 0
4 -10 27 0
4 5 -56 0
4 10 37 0
4 25 77 0
5 6 55 0
5 38 51 0
5 54 -58 0
6 -70 79 0
7 -73 79 0
7 -33 -49 0
7 13 -50 0
7 27 55 0
7 49 52 0
8 -55 75 0
8 -25 53 0
8 -19 34 0
8 -16 -78 0
8 -10 -12 0
8 43 -56 0
8 47 67 0
8 53 57 0
9 -64 65 0
9 -47 -78 0
9 -39 -75 0
9 10 24 0
9 28 -49 0
9 63 80 0
10 28 -63 0
10 33 -42 0
11 -41 71 0
11 -17 28 0
11 18 -66 0
13 -71 -80 0
13 -32 50 0
13 -28 63 0
13 -22 47 0
13 26 54 0
14 -27 -44 0
14 -21 52 0
14 25 -77 0
14 37 49 0
14 52 -62 0
15 21 51 0
16 27 79 0
17 -74 -79 0
17 -62 -73 0
17 -38 67 0
17 -20 73 0
17 30 -35 0
17 39 -52 0
18 -65 -80 0
18 -36 -49 0
18 -23 -34 0
18 21 -77 0
19 -32 40 0
19 37 78 0
19 53 -57 0
20 24 56 0
20 35 -79 0
22 -27 47 0
23 -44 49 0
23 -34 -47 0
23 32 67 0
23 59 -62 0
24 26 74 0
24 34 -44 0
24 40 69 0
25 -30 49 0
25 -29 -75 0
25 27 76 0
25 32 -48 0
26 -28 -37 0
26 27 77 0
26 37 -42 0
26 54 -76 0
27 28 50 0
28 -41 63 0
28 58 77 0
29 -55 80 0
29 55 -74 0
30 -58 77 0
30 -51 66 0
30 -44 -66 0
30 -32 62 0
30 45 -54 0
31 37 64 0
32 35 67 0
33 -57 -71 0
33 -38 43 0
33 69 -73 0
36 43 48 0
37 -62 71 0
38 53 -76 0
40 48 -63 0
41 -43 -45 0
41 50 62 0
41 71 74 0
42 -47 63 0
44 -74 -77 0
44 -54 -66 0
44 -45 80 0
45 47 -66 0
46 51 55 0
47 -67 -69 0
47 52 -75 0
48 -60 -68 0
48 64 -75 0
49 54 -56 0
55 -67 72 0
56 57 -68 0
56 62 -67 0
56 72 75 0
57 -60 -66 0
58 66 69 0
