p cnf 24 102
-19 -22 -24 0
-18 -23 -24 0
-17 23 24 0
-16 -19 22 0
-16 -18 22 0
-16 18 -21 0
-16 18 23 0
-15 -16 20 0
-13 17 -18 0
-13 18 -22 0
-11 16 23 0
-10 -15 17 0
-9 -19 -21 0
-9 -18 24 0
-9 11 13 0
-9 12 16 0
-9 12 20 0
-8 -9 -19 0
-8 14 19 0
-8 16 -19 0
-7 -14 -23 0
-7 10 23 0
-7 11 -16 0
-7 14 -20 0
-7 19 22 0
-7 21 23 0
-7 22 -24 0
-5 -16 -19 0
-5 -10 -13 0
-5 -8 -24 0
-5 -8 -16 0
-4 -12 -16 0
-4 -8 -15 0
-4 -8 17 0
-4 6 23 0
-4 11 22 0
-4 13 -20 0
-3 -10 -21 0
-3 5 14 0
-2 -9 13 0
-2 7 -10 0
-1 -7 22 0
-1 -5 9 0
-1 -4 18 0
-1 -3 22 0
-1 12 18 0
-1 20 -22 0
1 -17 18 0
1 -4 22 0
1 6 15 0
1 9 18 0
1 10 -17 0
1 14 -23 0
1 17 -21 0
1 21 22 0
2 -15 16 0
2 -7 23 0
2 -5 8 0
2 -5 9 0
2 5 -21 0
2 12 20 0
2 16 19 0
2 17 -22 0
3 -21 -24 0
3 -13 -20 0
3 -11 -12 0
3 5 -12 0
3 20 -24 0
4 -11 -14 0
4 -9 11 0
4 -5 22 0
4 6 -16 0
4 8 -18 0
4 15 22 0
5 -15 21 0
5 -6 9 0
5 7 -20 0
6 -14 -16 0
6 12 19 0
6 14 -23 0
6 15 -18 0
7 -18 -20 0
7 -18 22 0
7 -11 14 0
7 10 -12 0
7 17 -22 0
7 19 -24 0
8 -16 17 0
8 -14 -22 0
8 9 -21 0
9 -13 16 0
9 -11 -21 0
9 16 18 0
10 12 -24 0
11 -15 19 0
12 -15 -17 0
12 -13 23 0
12 21 23 0
13 -15 -24 0
13 -14 21 0
14 15 -22 0
19 21 -22 0
