p cnf 80 260
-68 -73 80 0
-66 67 74 0
-66 76 80 0
-62 -68 -71 0
-57 72 -78 0
-56 68 -78 0
-52 -66 -80 0
-52 -59 77 0
-52 65 -67 0
-50 67 75 0
-49 56 -80 0
-49 56 61 0
-49 73 -77 0
-48 -55 62 0
-48 54 -75 0
-46 -61 68 0
-46 60 73 0
-43 64 -78 0
-41 -54 67 0
-41 54 -70 0
-40 43 69 0
-40 48 54 0
-40 57 71 0
-39 -56 71 0
-38 55 -62 0
-37 -60 67 0
-37 -56 58 0
-37 -44 -58 0
-37 -42 76 0
-36 -66 78 0
-35 -53 57 0
-34 -48 -62 0
-34 -48 63 0
-34 -37 77 0
-33 -60 72 0
-33 36 -73 0
-30 -60 62 0
-30 32 -66 0
-30 52 62 0
-30 65 77 0
-29 -76 -79 0
-29 -49 54 0
-28 -53 58 0
-27 -62 -72 0
-27 57 64 0
-26 -38 45 0
-26 -34 36 0
-25 -41 78 0
-23 -66 70 0
-23 -64 -80 0
-23 -54 66 0
-23 -45 -71 0
-23 -30 38 0
-23 -24 51 0
-23 33 68 0
-23 46 76 0
-22 -47 -50 0
-21 -54 56 0
-21 -46 52 0
-21 -26 69 0
-20 -62 75 0
-20 31 -33 0
-19 -73 75 0
-19 -35 46 0
-19 -27 -77 0
-19 37 63 0
-19 71 76 0
-18 -38 72 0
-18 27 -46 0
-18 38 -43 0
-17 -20 -66 0
-17 26 -34 0
-16 36 -38 0
-16 50 -66 0
-15 -25 32 0
-15 47 78 0
-14 -20 -44 0
-13 -31 74 0
-13 -25 -80 0
-13 18 -26 0
-13 41 67 0
-12 -29 -73 0
-12 18 -25 0
-11 -34 -59 0
-11 -20 62 0
-11 -18 -71 0
-10 -63 -79 0
-10 -35 62 0
-10 -12 -38 0
-10 13 -37 0
-10 57 64 0
-10 68 -71 0
-9 -38 77 0
-9 -23 -26 0
-9 -17 44 0
-9 -11 70 0
-9 26 69 0
-8 -16 -52 0
-8 25 48 0
-7 -54 77 0
-7 -9 -35 0
-7 31 41 0
-7 36 69 0
-5 -44 65 0
-5 -20 64 0
-5 -15 -67 0
-5 17 -69 0
-4 6 29 0
-4 43 62 0
-3 -38 -78 0
-3 -25 -65 0
-3 28 -35 0
-3 63 -76 0
-2 -6 29 0
-2 -5 61 0
-2 3 -58 0
-2 71 80 0
-1 -19 57 0
-1 -13 65 0
1 -47 52 0
1 -43 -53 0
1 -31 34 0
1 -20 -39 0
1 8 -28 0
1 8 78 0
1 17 69 0
1 44 -46 0
2 -36 -74 0
2 -22 39 0
2 -21 38 0
2 -10 24 0
2 -9 -71 0
2 9 -38 0
2 13 -51 0
2 21 76 0
2 43 -71 0
2 50 75 0
2 71 -77 0
3 -35 55 0
3 -17 -71 0
3 6 12 0
3 26 -74 0
4 -17 71 0
4 -12 42 0
5 -34 57 0
5 -23 32 0
5 -13 79 0
5 22 45 0
5 41 50 0
5 62 -72 0
6 11 19 0
6 23 43 0
6 31 39 0
6 38 56 0
6 68 -74 0
7 -50 70 0
7 -12 -64 0
7 13 30 0
7 23 -47 0
7 35 46 0
8 -28 -59 0
8 19 -58 0
8 30 -65 0
8 31 -78 0
8 50 -53 0
9 -42 -44 0
9 -40 76 0
9 -17 -39 0
9 -11 33 0
9 22 43 0
9 71 73 0
10 -72 -74 0
10 -64 72 0
10 -57 67 0
10 -30 69 0
10 -27 -48 0
10 -12 21 0
10 42 -61 0
10 66 -80 0
11 -49 57 0
11 -38 -56 0
11 18 -62 0
11 32 -44 0
11 40 -67 0
12 -49 58 0
12 -31 63 0
12 -26 29 0
13 -60 -76 0
13 -23 24 0
13 14 46 0
13 49 51 0
14 -55 -70 0
14 -24 71 0
14 45 -62 0
15 -39 -67 0
15 71 -74 0
16 -67 71 0
16 32 52 0
17 -58 80 0
17 -44 61 0
17 -41 59 0
17 -21 58 0
18 -35 -60 0
18 -32 -42 0
18 -27 72 0
18 50 -66 0
19 -36 -56 0
19 -29 45 0
20 21 27 0
21 -22 33 0
21 23 -43 0
21 28 65 0
21 29 75 0
21 46 55 0
22 29 48 0
22 34 -54 0
22 47 64 0
23 28 75 0
24 36 -41 0
24 68 -77 0
25 -49 -61 0
25 -28 -62 0
25 40 -57 0
26 38 -54 0
26 66 69 0
27 -41 -42 0
27 35 -63 0
27 55 -72 0
28 -44 -60 0
28 -32 66 0
28 38 -67 0
28 40 -53 0
28 56 -75 0
29 -65 70 0
29 70 80 0
31 45 -66 0
32 -49 -61 0
32 45 -71 0
34 -55 -77 0
36 49 -75 0
37 -55 77 0
37 44 47 0
37 46 -69 0
38 -47 70 0
38 55 61 0
39 -67 78 0
44 65 -67 0
46 -48 60 0
47 -69 74 0
47 -56 72 0
48 68 77 0
54 -59 73 0
55 -76 80 0
56 61 -74 0
57 66 69 0
59 -67 77 0
59 67 -70 0
62 -68 -78 0
68 69 -79 0
74 76 77 0
