p cnf 100 360
-86 92 -100 0
-77 89 -94 0
-74 -90 94 0
-74 76 -78 0
-72 -91 -93 0
-71 78 -84 0
-68 -79 -87 0
-64 -97 100 0
-63 68 93 0
-62 -80 93 0
-62 63 80 0
-61 -71 -73 0
-61 94 97 0
-60 61 -80 0
-57 -62 -85 0
-56 -87 89 0
-55 56 -80 0
-55 66 -82 0
-54 -68 -73 0
-54 61 98 0
-53 -57 70 0
-52 -82 -87 0
-52 -72 99 0
-52 -64 -73 0
-51 73 77 0
-51 84 93 0
-49 -75 -98 0
-49 61 70 0
-48 -92 -98 0
-48 50 -93 0
-46 50 100 0
-45 -57 -64 0
-44 78 -99 0
-43 -82 -83 0
-43 -81 95 0
-43 -67 73 0
-43 -55 84 0
-43 58 -66 0
-42 -91 -92 0
-42 44 45 0
-41 -77 -90 0
-41 -49 93 0
-40 -77 87 0
-40 -76 -97 0
-40 67 93 0
-39 -59 -83 0
-39 -51 91 0
-39 -44 -70 0
-39 -40 -90 0
-39 54 -82 0
-38 39 82 0
-38 76 78 0
-37 40 76 0
-37 52 78 0
-36 -54 91 0
-36 -39 -59 0
-36 50 90 0
-36 85 96 0
-36 98 99 0
-34 -49 91 0
-34 -35 66 0
-33 -50 -86 0
-33 42 -75 0
-33 53 -86 0
-32 -68 -86 0
-32 -34 -81 0
-31 -86 92 0
-31 -45 94 0
-31 68 -100 0
-29 -71 -87 0
-29 -65 -94 0
-29 -54 91 0
-29 -50 54 0
-29 -37 40 0
-29 -33 -92 0
-29 61 97 0
-28 34 -87 0
-28 93 -95 0
-27 -65 70 0
-27 -60 -82 0
-27 -50 75 0
-27 -41 -80 0
-27 44 -84 0
-27 64 -90 0
-27 75 -99 0
-26 -96 -97 0
-26 29 -61 0
-26 47 -63 0
-25 -68 94 0
-25 29 52 0
-24 -27 -30 0
-24 26 93 0
-24 30 42 0
-24 89 99 0
-23 -35 100 0
-23 -34 35 0
-23 26 100 0
-22 -28 -48 0
-22 55 -88 0
-21 -26 -84 0
-21 29 69 0
-21 40 63 0
-21 47 88 0
-20 -56 -60 0
-20 24 41 0
-19 -52 94 0
-19 -44 -62 0
-19 -30 -100 0
-19 -23 -93 0
-19 62 -73 0
-18 -60 -66 0
-18 -26 65 0
-18 71 -93 0
-17 -54 57 0
-17 34 -76 0
-17 38 -61 0
-17 65 88 0
-16 -82 -91 0
-16 -19 26 0
-16 26 -89 0
-16 32 -86 0
-15 -25 -83 0
-15 26 76 0
-15 37 86 0
-15 42 77 0
-14 -64 -99 0
-14 -51 58 0
-14 -22 -81 0
-14 30 -99 0
-14 66 100 0
-13 -46 50 0
-13 -37 -46 0
-13 -27 61 0
-13 -21 -25 0
-13 25 38 0
-13 28 78 0
-12 -44 54 0
-12 51 -64 0
-11 -31 77 0
-11 66 -100 0
-11 68 70 0
-11 93 96 0
-10 -62 -89 0
-10 -23 78 0
-10 14 -43 0
-10 70 82 0
-10 74 -77 0
-9 -66 -98 0
-9 -18 -97 0
-9 50 69 0
-9 67 75 0
-8 -93 96 0
-8 -58 -98 0
-8 21 79 0
-7 -54 -61 0
-7 -30 -36 0
-7 -20 56 0
-7 57 91 0
-7 89 -99 0
-6 -73 -80 0
-6 -70 -100 0
-6 14 -79 0
-6 60 -84 0
-5 -65 78 0
-5 28 -31 0
-5 46 -66 0
-5 56 86 0
-4 -40 -51 0
-4 7 -75 0
-4 27 -31 0
-4 32 -71 0
-3 -14 -67 0
-3 7 50 0
-3 14 -28 0
-3 85 -94 0
-2 -50 -74 0
-2 -44 -79 0
-2 -24 56 0
-2 -18 -83 0
-2 -17 -60 0
-2 -15 56 0
-2 13 -51 0
-2 16 31 0
-2 39 -83 0
-2 45 -51 0
-1 -71 -94 0
-1 -31 54 0
-1 15 -50 0
-1 20 40 0
-1 21 -40 0
-1 57 99 0
-1 58 -96 0
1 -68 83 0
1 -7 -88 0
1 22 40 0
1 61 98 0
2 -37 -60 0
2 -33 37 0
2 -20 -65 0
2 3 66 0
3 -44 -62 0
3 -12 99 0
3 18 -44 0
3 33 99 0
3 37 82 0
3 38 -82 0
3 48 -72 0
4 -12 85 0
4 32 -98 0
4 51 85 0
5 -65 91 0
5 -9 -57 0
5 16 -17 0
5 16 68 0
6 -89 -92 0
6 -46 47 0
6 -33 -95 0
6 -26 94 0
6 7 54 0
6 72 -99 0
7 -71 -83 0
7 37 99 0
7 43 77 0
7 67 80 0
8 -32 -65 0
8 11 -53 0
9 -34 -65 0
9 -31 95 0
9 -19 57 0
9 21 -53 0
9 44 -81 0
10 40 80 0
10 44 52 0
10 46 -52 0
10 71 -78 0
11 -81 82 0
11 -55 -89 0
12 -84 -97 0
12 -60 82 0
12 -28 -40 0
12 13 -88 0
12 32 53 0
12 47 99 0
12 73 -77 0
13 -67 99 0
13 25 98 0
13 35 90 0
13 67 -97 0
13 71 80 0
14 18 79 0
14 41 57 0
14 68 -86 0
15 -29 -64 0
15 -25 -60 0
15 -21 -47 0
15 27 -58 0
15 47 -81 0
15 67 94 0
15 70 -95 0
16 -46 93 0
16 -40 -64 0
16 -28 -67 0
16 21 -76 0
17 -76 91 0
17 -31 -57 0
17 22 94 0
17 49 -69 0
18 -34 67 0
18 -32 71 0
18 27 90 0
18 68 -94 0
19 -96 -98 0
20 -70 95 0
20 -34 -65 0
20 23 -36 0
22 -58 89 0
22 25 82 0
23 -86 89 0
23 -30 -34 0
23 37 -81 0
23 77 85 0
24 -70 -85 0
24 -56 75 0
24 43 87 0
24 46 67 0
25 -32 81 0
26 -89 -100 0
26 -61 -97 0
26 33 88 0
27 -60 -63 0
27 72 -92 0
28 -70 -94 0
28 -62 -84 0
28 -34 -63 0
29 -57 -73 0
29 -42 -56 0
29 40 74 0
29 62 -72 0
30 -97 -98 0
30 -77 -78 0
30 -46 72 0
30 37 -44 0
31 42 93 0
32 -41 42 0
33 -67 -97 0
33 58 -100 0
34 52 -96 0
34 90 -100 0
35 -62 75 0
35 65 -92 0
36 -41 -52 0
36 77 -87 0
37 45 96 0
37 51 -73 0
38 40 -73 0
39 -50 -76 0
40 -81 85 0
41 -89 94 0
41 -43 47 0
42 -48 97 0
42 55 57 0
44 -68 -70 0
44 -60 67 0
44 86 87 0
45 -76 96 0
45 -60 71 0
45 -56 76 0
45 90 93 0
47 -63 -65 0
47 57 -81 0
49 -83 88 0
49 -68 -72 0
50 -71 -74 0
50 -54 -60 0
50 58 -60 0
51 54 -86 0
52 -71 -100 0
54 -56 75 0
54 65 92 0
56 -73 90 0
56 -67 91 0
56 58 87 0
56 77 -83 0
57 -79 -89 0
59 65 -86 0
60 69 86 0
60 76 -82 0
62 85 -88 0
63 -77 100 0
63 64 -89 0
63 69 100 0
63 88 -92 0
65 85 -96 0
67 74 -94 0
69 97 100 0
71 -95 96 0
71 83 92 0
77 92 93 0
81 -83 -92 0
90 92 96 0
