p cnf 80 260
-66 -67 -74 0
-58 -61 79 0
-58 77 -79 0
-57 -72 -79 0
-55 57 -66 0
-54 -74 80 0
-53 -66 -77 0
-53 -55 -80 0
-53 54 -79 0
-52 65 72 0
-48 71 -76 0
-48 74 -80 0
-47 -49 77 0
-47 69 78 0
-46 65 -73 0
-45 -56 -62 0
-44 -47 -79 0
-41 -59 74 0
-41 51 69 0
-40 -59 76 0
-40 46 79 0
-40 50 -52 0
-38 52 -80 0
-37 -65 -72 0
-36 -58 66 0
-33 41 -72 0
-33 57 77 0
-32 -54 70 0
-32 -51 59 0
-30 43 69 0
-30 58 62 0
-29 -55 59 0
-29 42 76 0
-28 42 79 0
-26 -30 32 0
-26 30 -59 0
-26 35 36 0
-26 39 63 0
-25 -42 78 0
-25 37 59 0
-24 -28 -63 0
-24 45 47 0
-23 -47 53 0
-22 -30 39 0
-22 -26 79 0
-22 50 57 0
-21 -38 44 0
-21 -26 -43 0
-21 -23 -53 0
-21 23 -57 0
-21 39 43 0
-21 46 61 0
-20 -25 74 0
-19 -75 76 0
-19 -26 -33 0
-19 -20 -30 0
-19 30 57 0
-18 22 78 0
-18 32 65 0
-17 -30 62 0
-17 -20 -78 0
-16 21 49 0
-16 50 61 0
-16 55 59 0
-15 -24 39 0
-15 -18 -44 0
-15 47 -51 0
-15 58 -72 0
-14 36 -67 0
-14 42 -44 0
-14 44 54 0
-14 53 -57 0
-13 -42 71 0
-13 -14 49 0
-13 16 42 0
-13 62 78 0
-12 -26 -52 0
-12 -21 46 0
-12 -14 -41 0
-12 50 52 0
-12 74 -79 0
-11 15 -75 0
-11 23 -36 0
-11 39 -75 0
-10 -34 77 0
-10 -22 53 0
-10 -14 58 0
-10 28 -48 0
-9 -35 -65 0
-9 -31 -57 0
-9 23 50 0
-8 -51 66 0
-8 -39 58 0
-8 35 -48 0
-7 -25 -80 0
-7 -21 -58 0
-7 -12 32 0
-7 12 34 0
-6 -26 60 0
-6 21 70 0
-5 -52 58 0
-5 -15 -19 0
-5 9 63 0
-5 28 51 0
-5 64 -69 0
-4 -30 47 0
-4 46 -64 0
-4 67 -76 0
-3 -48 -71 0
-3 -10 42 0
-3 -8 12 0
-3 7 39 0
-3 11 38 0
-3 18 -63 0
-2 -5 18 0
-2 49 -67 0
-1 -34 69 0
-1 -30 -38 0
-1 -7 53 0
-1 -3 -70 0
-1 2 -27 0
-1 29 -53 0
-1 33 -63 0
1 40 66 0
2 -69 80 0
2 -42 78 0
2 -13 -61 0
2 3 -36 0
2 20 -45 0
2 38 50 0
2 47 78 0
3 -12 -38 0
3 18 -28 0
3 45 48 0
4 -52 -80 0
4 -41 50 0
4 -34 -37 0
4 -29 75 0
4 -17 -79 0
4 6 -51 0
5 -48 -57 0
5 -10 -35 0
5 6 -26 0
5 22 41 0
5 36 70 0
5 46 -60 0
5 60 75 0
6 23 -74 0
6 46 -57 0
7 -76 -79 0
7 -53 58 0
7 16 -28 0
7 49 -75 0
7 67 73 0
8 -11 57 0
8 68 -72 0
10 -36 37 0
10 36 -55 0
11 -75 76 0
11 -64 76 0
11 -46 -63 0
11 54 79 0
12 -27 -38 0
12 -16 35 0
12 21 37 0
12 46 -79 0
12 56 61 0
14 -31 66 0
14 36 41 0
15 -42 -53 0
15 16 -49 0
15 55 -78 0
17 20 39 0
17 21 -28 0
18 -22 74 0
18 -20 -28 0
18 40 42 0
19 -35 54 0
19 -30 35 0
19 -23 -37 0
19 21 -46 0
19 32 65 0
19 38 -71 0
20 -36 -40 0
20 -22 53 0
21 -38 68 0
21 -27 -76 0
21 24 -64 0
21 35 -67 0
21 46 -74 0
23 -64 73 0
23 -47 -76 0
23 -26 34 0
23 55 74 0
24 -27 -28 0
25 -28 74 0
25 28 -32 0
25 38 -51 0
26 29 42 0
26 40 -61 0
26 41 -45 0
26 61 73 0
27 -28 47 0
27 46 -56 0
27 69 73 0
28 -51 -59 0
28 -49 57 0
28 -30 64 0
28 29 -62 0
29 -37 -67 0
29 40 65 0
29 46 62 0
30 -39 42 0
30 49 50 0
30 50 52 0
31 -69 72 0
31 -55 -80 0
31 -35 -44 0
31 48 -67 0
32 -45 79 0
32 41 -62 0
33 -47 -61 0
33 45 56 0
33 49 -66 0
33 49 -57 0
34 40 -56 0
35 40 46 0
35 64 74 0
36 40 54 0
36 48 -50 0
37 -74 -75 0
38 -50 -63 0
38 -40 71 0
40 57 -72 0
43 -65 67 0
43 -53 70 0
43 -52 -79 0
43 56 63 0
44 -46 -71 0
44 52 -64 0
44 72 73 0
45 -76 77 0
45 -50 64 0
48 -54 74 0
49 63 -80 0
51 62 63 0
52 -59 79 0
53 -54 -55 0
53 61 -68 0
53 63 -77 0
54 66 -77 0
55 56 65 0
56 -59 80 0
57 -64 -77 0
58 -66 77 0
59 -65 -75 0
65 -68 73 0
67 -71 78 0
71 72 -75 0
73 76 79 0
