p cnf 40 170
-35 -37 -38 0
-32 -33 35 0
-32 33 40 0
-26 -34 37 0
-25 28 -30 0
-24 -36 38 0
-23 -26 36 0
-23 26 -34 0
-23 32 -40 0
-22 31 -33 0
-22 37 -40 0
-21 -24 -39 0
-21 27 -39 0
-20 -25 -35 0
-20 -24 -33 0
-20 -24 -31 0
-20 33 35 0
-19 -28 -39 0
-18 -25 -26 0
-18 27 -34 0
-17 -39 40 0
-17 -22 23 0
-17 -18 -28 0
-17 24 31 0
-17 37 -40 0
-16 26 -36 0
-16 33 39 0
-15 -17 27 0
-15 19 -29 0
-13 -28 35 0
-13 36 -40 0
-12 -21 27 0
-12 -18 39 0
-12 18 23 0
-11 -25 -30 0
-11 13 -35 0
-11 22 -39 0
-11 36 -39 0
-10 -32 -39 0
-10 -15 -24 0
-9 -20 -26 0
-9 14 21 0
-9 20 37 0
-9 21 28 0
-9 34 -35 0
-8 -26 -36 0
-8 -25 38 0
-8 16 20 0
-8 23 -40 0
-7 -11 -39 0
-7 8 -26 0
-6 -25 -39 0
-6 -20 -22 0
-6 -16 -31 0
-6 14 -36 0
-5 -16 25 0
-5 12 -37 0
-5 27 31 0
-4 -15 -25 0
-4 12 15 0
-4 23 -31 0
-3 -30 -32 0
-3 -15 -29 0
-3 -13 -17 0
-3 -12 18 0
-3 -11 -39 0
-3 -10 13 0
-3 10 18 0
-2 -29 38 0
-2 -4 -34 0
-2 -3 19 0
-2 11 -31 0
-2 11 29 0
-2 19 -26 0
-2 21 -40 0
-2 28 -31 0
-2 35 -36 0
-1 -23 -34 0
-1 -13 38 0
-1 -5 -30 0
-1 6 38 0
-1 11 -13 0
-1 26 -40 0
1 4 26 0
1 12 21 0
1 29 38 0
2 -24 25 0
2 -7 -25 0
2 3 21 0
2 9 -24 0
2 10 33 0
2 12 -13 0
3 -18 37 0
3 -6 28 0
3 16 -20 0
4 -18 -20 0
4 -17 -38 0
4 -11 -22 0
4 -10 -20 0
4 11 36 0
4 12 40 0
4 17 -40 0
5 -14 25 0
5 9 35 0
5 19 28 0
5 20 -35 0
5 21 34 0
5 24 -25 0
5 28 34 0
6 9 -39 0
6 14 -22 0
6 18 19 0
6 20 -21 0
6 31 37 0
7 -8 -9 0
7 17 28 0
7 31 35 0
8 -33 35 0
8 -28 -30 0
8 12 -37 0
8 20 -33 0
8 22 33 0
8 23 -35 0
9 10 29 0
9 11 -16 0
9 12 -40 0
9 15 -16 0
10 -33 -40 0
10 -30 34 0
10 -19 -25 0
10 32 -37 0
11 -16 -19 0
11 13 30 0
11 27 35 0
12 -22 -39 0
12 -20 25 0
12 29 40 0
12 32 -39 0
12 34 -39 0
13 31 -37 0
14 -31 40 0
14 -28 38 0
14 -22 29 0
15 -16 20 0
15 32 -35 0
16 -26 37 0
16 -22 -32 0
16 -21 22 0
16 36 -40 0
17 -22 28 0
17 25 34 0
18 -22 -29 0
18 22 -23 0
18 22 26 0
18 23 -28 0
18 32 -36 0
19 -21 23 0
19 23 29 0
20 30 -35 0
22 -29 -34 0
22 24 34 0
23 -24 -34 0
23 24 39 0
25 -32 -35 0
26 30 -38 0
27 -31 -34 0
27 34 38 0
28 -36 38 0
30 -35 -39 0
30 36 39 0
