p cnf 32 136
-28 -29 -30 0
-23 -26 -27 0
-22 -26 -27 0
-20 -26 27 0
-19 -26 -30 0
-18 -20 -23 0
-18 20 27 0
-18 21 24 0
-18 27 -28 0
-17 -20 -22 0
-17 21 -28 0
-15 -23 32 0
-14 -22 -32 0
-14 -19 22 0
-14 21 32 0
-14 24 27 0
-12 -16 -28 0
-11 -12 -19 0
-11 12 -14 0
-11 20 -21 0
-10 -14 28 0
-9 -13 -16 0
-9 12 -31 0
-9 16 -32 0
-8 -27 30 0
-8 -9 17 0
-7 -10 23 0
-7 12 19 0
-7 12 25 0
-7 19 -26 0
-6 -13 14 0
-6 8 31 0
-6 9 -16 0
-6 12 -32 0
-6 22 -28 0
-5 -13 -15 0
-5 -7 -31 0
-5 7 -10 0
-5 16 -23 0
-4 -29 31 0
-4 -19 28 0
-4 -14 -19 0
-4 -13 22 0
-4 -6 16 0
-4 12 31 0
-4 15 -24 0
-4 15 -18 0
-3 -31 -32 0
-3 -22 23 0
-3 -10 27 0
-3 -7 31 0
-3 -6 -30 0
-3 4 -5 0
-3 8 31 0
-3 10 21 0
-3 11 -22 0
-3 27 -32 0
-2 -8 -31 0
-2 -6 23 0
-2 5 -19 0
-2 8 12 0
-2 8 18 0
-2 9 -14 0
-2 15 27 0
-1 -10 29 0
-1 -6 -17 0
-1 4 -27 0
-1 5 29 0
-1 8 -14 0
-1 12 -22 0
-1 16 -30 0
-1 16 -27 0
1 -10 18 0
1 13 -17 0
1 13 18 0
1 24 30 0
1 31 32 0
2 -15 -28 0
2 -9 17 0
2 -6 22 0
2 9 -23 0
2 15 -20 0
2 16 25 0
2 19 26 0
3 -8 -21 0
3 -5 -32 0
3 -4 27 0
4 -26 32 0
4 -21 27 0
4 -19 -22 0
4 -12 -30 0
4 -8 13 0
4 5 17 0
4 10 -23 0
4 15 21 0
4 20 -29 0
5 7 -22 0
6 -29 30 0
6 -13 27 0
6 -8 30 0
6 11 -15 0
6 17 23 0
6 26 -27 0
7 -8 -13 0
7 20 30 0
8 -16 24 0
8 -13 -27 0
9 11 25 0
9 12 15 0
9 14 16 0
9 23 27 0
10 -25 32 0
10 -14 22 0
10 -12 19 0
10 17 31 0
10 18 25 0
10 23 -26 0
11 -23 -26 0
11 -20 -27 0
11 -12 15 0
11 20 -21 0
11 24 -26 0
12 -18 -22 0
12 13 29 0
13 -17 25 0
13 -16 -32 0
13 15 26 0
13 16 27 0
16 -26 29 0
16 -18 -27 0
18 -31 32 0
19 -22 -30 0
20 25 -28 0
21 -31 -32 0
22 25 30 0
23 -25 31 0
