p cnf 100 600
-86 -93 -97 0
-79 92 -99 0
-78 84 -98 0
-77 91 -93 0
-76 87 92 0
-74 88 95 0
-72 82 92 0
-71 91 -94 0
-69 -76 -94 0
-64 -76 88 0
-64 77 -84 0
-63 65 -97 0
-62 -84 -95 0
-62 -79 96 0
-61 -85 -99 0
-60 -82 93 0
-59 62 76 0
-59 83 96 0
-57 -65 -70 0
-57 60 90 0
-57 74 -95 0
-56 59 88 0
-56 91 94 0
-54 -55 -60 0
-54 79 -81 0
-54 84 95 0
-53 59 77 0
-52 -74 -78 0
-52 -54 -59 0
-51 -79 86 0
-51 -75 -81 0
-51 -60 63 0
-51 52 86 0
-50 -51 97 0
-50 96 -97 0
-49 79 89 0
-48 -56 66 0
-48 84 -86 0
-47 -92 97 0
-47 -75 -100 0
-47 -68 -96 0
-47 69 -80 0
-46 -49 -58 0
-46 47 99 0
-46 69 74 0
-45 49 52 0
-45 64 -68 0
-45 73 92 0
-44 -73 95 0
-44 -54 -85 0
-44 -47 -77 0
-43 -71 -89 0
-43 -71 87 0
-42 56 -76 0
-41 -87 -94 0
-41 -82 -95 0
-41 44 -87 0
-41 83 -87 0
-40 -81 -97 0
-39 -92 99 0
-39 -59 72 0
-37 -74 -96 0
-37 93 -96 0
-36 -52 99 0
-36 39 -73 0
-36 43 -79 0
-35 57 63 0
-35 67 72 0
-34 -80 -88 0
-34 -60 92 0
-34 -45 -48 0
-34 -38 75 0
-34 41 -86 0
-34 53 -57 0
-34 62 77 0
-34 65 -74 0
-33 -53 -68 0
-33 -48 74 0
-33 37 -97 0
-33 82 98 0
-32 -63 -72 0
-32 -58 91 0
-32 -49 95 0
-32 39 94 0
-32 42 60 0
-32 51 60 0
-32 97 -99 0
-31 -77 96 0
-31 -71 -96 0
-31 34 -39 0
-31 46 48 0
-31 63 -73 0
-30 -33 -97 0
-30 39 100 0
-30 52 -89 0
-29 -77 82 0
-29 -65 96 0
-29 -43 61 0
-29 -40 45 0
-29 34 76 0
-28 -60 -69 0
-28 -56 77 0
-28 50 -100 0
-27 30 32 0
-27 41 84 0
-27 47 68 0
-27 63 86 0
-26 -34 -98 0
-26 43 -94 0
-26 53 75 0
-26 56 61 0
-26 64 -78 0
-25 -48 95 0
-25 -47 -65 0
-25 -41 -49 0
-25 -39 98 0
-25 -33 97 0
-25 -29 34 0
-25 47 75 0
-25 64 94 0
-25 68 -91 0
-24 -71 95 0
-24 -37 59 0
-24 -36 42 0
-24 -36 86 0
-24 32 -49 0
-24 39 99 0
-24 50 -98 0
-23 35 -78 0
-22 -85 -96 0
-22 -31 -53 0
-22 -30 49 0
-22 54 83 0
-21 -56 75 0
-21 -47 50 0
-21 -31 97 0
-21 -26 48 0
-21 54 100 0
-20 -74 92 0
-20 -69 73 0
-20 -60 86 0
-20 -34 90 0
-20 33 75 0
-20 43 -69 0
-20 52 56 0
-19 -23 59 0
-19 -20 31 0
-19 54 58 0
-19 69 -78 0
-19 74 99 0
-18 -79 -92 0
-18 -64 88 0
-18 -62 -76 0
-18 -55 58 0
-18 23 -70 0
-17 -67 83 0
-17 -60 61 0
-17 -50 93 0
-17 -49 -77 0
-17 -42 93 0
-17 31 -99 0
-16 -60 -68 0
-16 -57 -72 0
-16 -51 -90 0
-16 -24 94 0
-16 17 26 0
-16 55 -67 0
-15 -76 -84 0
-15 -60 -64 0
-15 -36 77 0
-15 -33 58 0
-15 68 -86 0
-14 -50 -86 0
-14 15 -99 0
-14 19 -74 0
-14 41 68 0
-13 -67 80 0
-13 -56 -88 0
-13 -48 -82 0
-13 -44 52 0
-13 -23 -48 0
-13 18 -21 0
-13 24 72 0
-13 30 -99 0
-13 35 -79 0
-12 -71 -95 0
-12 -67 92 0
-12 -38 -66 0
-12 -28 84 0
-12 -20 70 0
-12 -17 30 0
-12 26 67 0
-12 43 -59 0
-12 62 92 0
-12 80 -100 0
-11 -97 -99 0
-11 -43 -45 0
-11 12 -15 0
-11 25 -57 0
-11 45 -92 0
-11 51 62 0
-11 80 86 0
-10 -80 86 0
-10 -75 -84 0
-10 -70 -83 0
-10 -40 45 0
-10 -34 -42 0
-10 -32 -61 0
-10 -27 -98 0
-10 -16 95 0
-10 25 -44 0
-10 44 -59 0
-10 76 -85 0
-10 80 -97 0
-10 86 -94 0
-9 -71 89 0
-9 -60 64 0
-9 -26 85 0
-9 -22 28 0
-9 38 -97 0
-9 66 87 0
-9 87 -97 0
-8 -42 -62 0
-8 -20 -88 0
-8 -9 98 0
-8 24 -59 0
-8 38 -47 0
-8 91 95 0
-7 -84 -92 0
-7 -79 -82 0
-7 -76 -91 0
-7 -69 96 0
-7 -52 -93 0
-7 -50 -96 0
-7 -27 52 0
-7 -24 97 0
-7 -15 43 0
-7 -12 -99 0
-7 14 -52 0
-7 15 -55 0
-7 29 47 0
-7 32 -37 0
-7 33 -51 0
-7 37 69 0
-7 39 -84 0
-7 48 96 0
-6 -16 -92 0
-6 30 -83 0
-6 56 77 0
-5 -84 90 0
-5 -50 98 0
-5 -46 92 0
-5 -42 -43 0
-5 -22 65 0
-5 -18 -79 0
-5 -11 -24 0
-5 13 91 0
-5 15 -81 0
-5 53 -55 0
-4 -78 -79 0
-4 -23 68 0
-4 -12 79 0
-4 -7 -66 0
-4 10 -18 0
-4 11 71 0
-4 36 -46 0
-4 38 97 0
-4 89 -93 0
-3 -7 -64 0
-3 -4 44 0
-3 61 96 0
-3 63 100 0
-3 75 -81 0
-3 79 88 0
-2 -54 93 0
-2 -44 63 0
-2 -30 34 0
-2 -14 -41 0
-2 -13 73 0
-2 -8 -55 0
-2 3 -47 0
-2 12 27 0
-2 14 95 0
-2 15 -38 0
-2 29 -59 0
-2 37 79 0
-1 -78 -82 0
-1 -49 -55 0
-1 -29 -91 0
-1 -18 -64 0
-1 -16 94 0
-1 -8 -9 0
-1 -7 -86 0
-1 -6 35 0
-1 -6 95 0
-1 4 25 0
-1 24 -34 0
-1 39 84 0
-1 45 -99 0
-1 45 78 0
1 -54 -63 0
1 -48 -59 0
1 -24 29 0
1 -10 -29 0
1 2 30 0
1 13 82 0
1 38 49 0
1 66 -97 0
1 75 -89 0
1 77 -94 0
2 -58 67 0
2 -52 85 0
2 -37 -86 0
2 27 -91 0
2 28 57 0
2 33 92 0
2 37 -75 0
2 41 -42 0
3 9 24 0
3 21 85 0
3 51 -75 0
4 -62 73 0
4 -61 69 0
4 -52 -85 0
4 -20 -34 0
4 -20 95 0
4 14 82 0
4 15 86 0
4 22 -90 0
4 57 99 0
4 69 99 0
5 -73 90 0
5 -56 -93 0
5 -41 -91 0
5 -40 80 0
5 -38 -51 0
5 -34 -72 0
5 -33 -75 0
5 -29 94 0
5 13 -18 0
5 17 54 0
5 21 -78 0
5 35 -59 0
5 36 -92 0
5 42 -86 0
5 50 -96 0
5 61 78 0
5 67 -76 0
5 67 96 0
6 -47 97 0
6 -22 56 0
6 -21 -73 0
6 22 -53 0
6 25 -100 0
6 30 83 0
6 55 -96 0
6 85 87 0
7 -81 100 0
7 -59 80 0
7 -47 96 0
7 -41 94 0
7 -22 50 0
7 15 -58 0
7 23 -64 0
7 30 -34 0
7 40 -78 0
7 84 92 0
8 -63 100 0
8 -51 71 0
8 -26 -87 0
8 -25 27 0
8 32 45 0
9 -58 60 0
9 -58 77 0
9 -44 -91 0
9 -37 84 0
9 -21 -63 0
9 -21 39 0
9 32 -57 0
10 -81 89 0
10 -63 65 0
10 -52 -84 0
10 -42 -73 0
10 -41 64 0
10 -13 79 0
10 18 -94 0
10 39 -87 0
10 54 -98 0
10 54 -71 0
10 72 -93 0
11 -44 80 0
11 27 -98 0
11 45 -57 0
11 52 -79 0
12 -41 92 0
12 -20 -72 0
12 21 77 0
12 72 -80 0
12 78 -83 0
13 -41 -85 0
13 -22 97 0
13 -19 -33 0
13 -18 51 0
13 16 68 0
13 26 64 0
13 64 -72 0
14 -46 62 0
14 -41 -82 0
14 19 -99 0
14 24 -79 0
15 -29 56 0
15 -19 44 0
15 -16 -48 0
15 18 -24 0
15 30 56 0
15 33 60 0
15 44 50 0
15 71 -89 0
15 80 89 0
16 -49 -54 0
16 -19 -100 0
16 65 -88 0
17 -39 84 0
17 -36 95 0
17 22 -90 0
17 22 75 0
17 73 -90 0
18 -54 79 0
18 22 26 0
19 -77 -98 0
19 -27 -37 0
19 40 -42 0
19 57 -88 0
19 66 -68 0
19 72 -88 0
19 87 -99 0
20 -60 -75 0
20 -32 57 0
20 -28 56 0
20 22 -66 0
20 37 88 0
20 44 61 0
20 64 -83 0
21 -63 -91 0
21 -50 76 0
21 -41 -57 0
21 -26 -94 0
21 32 -74 0
21 41 -75 0
21 74 -98 0
21 74 88 0
22 -30 55 0
23 95 -100 0
24 -69 -89 0
24 -55 82 0
24 -46 56 0
24 -31 53 0
24 45 85 0
24 70 87 0
24 82 99 0
25 -36 85 0
25 -33 -64 0
25 -26 -70 0
25 29 37 0
25 30 -61 0
25 32 66 0
25 33 48 0
26 -59 74 0
26 -56 -100 0
26 -39 44 0
26 27 -83 0
26 46 -66 0
26 72 98 0
26 87 -100 0
27 -85 99 0
27 -65 86 0
27 -44 69 0
27 -34 -60 0
27 -30 65 0
27 36 -94 0
27 68 80 0
27 69 -72 0
27 75 -92 0
27 84 -96 0
28 -74 84 0
28 32 -43 0
28 32 33 0
28 77 97 0
28 82 -90 0
28 87 -98 0
29 -83 95 0
29 -78 84 0
29 -54 74 0
29 -38 58 0
29 -32 -73 0
29 61 93 0
30 -76 -88 0
30 -65 81 0
30 60 85 0
31 -81 -89 0
31 -48 -59 0
31 -38 -52 0
32 -49 74 0
32 -35 68 0
32 40 74 0
32 47 71 0
32 62 -76 0
33 -57 -61 0
33 54 -81 0
33 57 -70 0
33 77 89 0
34 44 -84 0
34 56 -63 0
35 -46 84 0
35 39 86 0
35 40 64 0
35 49 -84 0
35 49 -55 0
35 57 -74 0
35 63 -67 0
36 -54 -73 0
36 -37 79 0
36 37 -39 0
37 -45 86 0
37 56 -90 0
38 -69 -89 0
38 -45 -98 0
38 40 -84 0
38 88 -98 0
38 90 -99 0
39 -91 95 0
39 -54 74 0
39 48 50 0
39 84 -93 0
40 -83 100 0
40 -54 -93 0
40 59 88 0
40 72 86 0
41 -54 -92 0
41 -54 86 0
41 -51 -53 0
42 -80 -90 0
42 -67 68 0
42 -62 69 0
42 -46 57 0
42 55 86 0
42 80 -93 0
42 90 93 0
43 -48 -74 0
43 51 -76 0
44 45 -92 0
45 -92 96 0
45 -69 82 0
45 -49 51 0
45 49 -89 0
46 -75 86 0
46 53 83 0
46 56 -74 0
46 58 -94 0
47 -57 -83 0
47 51 64 0
48 76 87 0
48 81 -82 0
48 90 98 0
49 -76 96 0
49 -67 -68 0
50 -54 99 0
51 -95 -100 0
52 64 -70 0
53 -85 100 0
53 -59 -93 0
53 78 -97 0
54 -77 -95 0
55 -65 74 0
56 80 94 0
57 -76 -91 0
57 -70 76 0
57 -59 79 0
57 59 -68 0
59 -60 67 0
59 65 95 0
59 75 95 0
59 81 -91 0
60 -61 -68 0
61 -90 -92 0
62 69 86 0
64 -66 76 0
65 -67 96 0
65 74 97 0
69 -80 91 0
69 70 76 0
69 79 -85 0
70 -73 93 0
72 73 -92 0
73 -86 -89 0
74 78 80 0
74 79 -88 0
74 96 98 0
75 -85 95 0
76 93 -100 0
