p cnf 80 260
-67 72 -75 0
-64 -66 -67 0
-64 66 -69 0
-64 72 75 0
-61 -69 77 0
-61 71 79 0
-61 75 -77 0
-59 64 73 0
-58 -70 -79 0
-57 -59 -65 0
-54 60 79 0
-53 -69 79 0
-51 55 80 0
-51 64 76 0
-48 -50 -74 0
-48 54 79 0
-46 -52 80 0
-46 58 70 0
-45 51 -74 0
-44 45 75 0
-44 50 -70 0
-38 -63 -75 0
-38 60 61 0
-37 48 72 0
-36 -64 72 0
-36 -47 48 0
-35 -41 -60 0
-35 39 67 0
-35 43 44 0
-34 -35 42 0
-33 73 -74 0
-32 -75 77 0
-32 -39 70 0
-32 43 -63 0
-31 -36 -56 0
-30 44 63 0
-30 61 -67 0
-29 45 -62 0
-28 -46 -50 0
-28 46 67 0
-27 -72 -80 0
-24 -53 74 0
-23 -77 -78 0
-23 -27 52 0
-23 44 -74 0
-23 46 -76 0
-23 51 -62 0
-22 26 -54 0
-21 -26 -43 0
-20 -68 80 0
-20 32 76 0
-20 39 -68 0
-19 -50 76 0
-18 -56 59 0
-18 -37 39 0
-18 -36 -60 0
-18 -35 49 0
-18 43 60 0
-18 59 70 0
-17 -47 -58 0
-17 -19 -46 0
-17 48 -63 0
-17 51 67 0
-16 -32 50 0
-16 24 34 0
-16 47 61 0
-15 -46 -79 0
-15 -33 60 0
-14 36 -44 0
-14 38 61 0
-13 -60 -80 0
-13 -45 72 0
-13 16 64 0
-13 21 67 0
-12 -16 64 0
-12 -14 53 0
-12 17 57 0
-12 18 -35 0
-12 48 -78 0
-11 -41 78 0
-11 -26 -33 0
-11 14 76 0
-11 32 71 0
-11 70 -80 0
-10 -21 -76 0
-10 23 50 0
-9 -19 46 0
-9 17 -48 0
-9 25 -49 0
-9 48 63 0
-8 -35 -77 0
-8 -17 24 0
-8 -14 30 0
-8 -13 70 0
-8 11 26 0
-7 24 -33 0
-6 -29 41 0
-6 -15 46 0
-6 15 -53 0
-6 28 -51 0
-6 31 40 0
-5 -46 73 0
-5 -25 -75 0
-5 -18 -61 0
-5 -7 40 0
-5 41 -67 0
-5 45 -69 0
-5 46 -58 0
-4 -35 -79 0
-3 -53 58 0
-3 -11 -76 0
-3 -6 -27 0
-3 4 -8 0
-3 9 -46 0
-3 24 -56 0
-3 28 -70 0
-3 48 -77 0
-3 54 77 0
-2 -28 76 0
-2 -24 54 0
-2 8 27 0
-2 15 22 0
-2 20 53 0
-2 66 79 0
-1 -63 64 0
-1 -37 46 0
-1 -23 70 0
-1 -7 28 0
-1 13 -43 0
-1 52 -75 0
1 -19 44 0
1 33 -44 0
2 -30 65 0
2 -18 64 0
2 -13 -40 0
2 43 48 0
3 -35 -37 0
3 -29 -70 0
3 -14 54 0
3 8 -12 0
3 9 20 0
3 22 53 0
3 49 -65 0
3 52 -64 0
4 -26 74 0
4 -18 40 0
4 25 -46 0
4 39 -79 0
4 57 67 0
5 14 50 0
6 -64 69 0
6 -18 -24 0
6 -16 -80 0
6 31 45 0
6 65 -66 0
7 -58 77 0
7 14 -57 0
7 15 -35 0
8 -17 -61 0
8 18 30 0
8 30 -77 0
9 -43 60 0
9 -28 50 0
9 -23 27 0
9 14 44 0
10 -27 -43 0
10 -17 -19 0
10 11 -40 0
10 63 -74 0
11 22 27 0
11 38 -68 0
12 -26 -68 0
12 -19 -73 0
12 -16 -49 0
12 19 -55 0
12 33 -47 0
13 -63 -76 0
13 -42 54 0
13 25 44 0
13 34 -35 0
13 37 78 0
13 42 68 0
14 -29 35 0
14 26 73 0
14 43 54 0
14 52 72 0
15 -76 -79 0
15 -21 30 0
15 -20 -44 0
15 19 48 0
15 34 -48 0
16 40 -78 0
16 59 67 0
17 -40 45 0
18 -60 76 0
18 -39 52 0
18 30 51 0
19 -31 80 0
19 26 57 0
20 -54 -67 0
20 53 -68 0
20 61 -75 0
22 26 -71 0
22 29 35 0
22 40 69 0
22 58 74 0
23 44 78 0
24 30 -78 0
24 68 -73 0
25 -34 79 0
26 49 -72 0
26 49 60 0
27 -61 -79 0
27 -38 -54 0
28 -53 65 0
28 -50 70 0
28 -41 76 0
29 30 -55 0
29 46 -71 0
29 54 -79 0
29 57 77 0
30 -37 76 0
30 45 61 0
31 -47 -52 0
31 -38 74 0
31 37 -72 0
31 45 -52 0
31 59 -62 0
33 -48 -68 0
33 77 79 0
34 54 -76 0
35 -65 78 0
35 52 73 0
36 -37 46 0
36 39 56 0
36 45 -65 0
38 -53 -63 0
38 -52 -62 0
39 -66 -80 0
39 58 -75 0
41 -50 51 0
41 51 -76 0
41 57 65 0
43 -74 79 0
43 -55 77 0
47 -49 64 0
47 48 -64 0
49 -59 78 0
49 -58 -77 0
51 -55 79 0
51 58 -68 0
52 53 -73 0
52 55 -62 0
53 -60 -68 0
54 -77 -79 0
54 -57 69 0
54 59 73 0
55 58 -64 0
56 -64 79 0
63 65 75 0
