p cnf 60 255
-43 -45 -46 0
-40 -43 51 0
-39 43 -51 0
-37 -39 60 0
-36 38 41 0
-35 -47 -51 0
-33 -55 -56 0
-31 -39 -46 0
-30 -50 -52 0
-30 47 -52 0
-29 -32 -39 0
-28 -30 -33 0
-27 -35 50 0
-27 39 -52 0
-27 53 -59 0
-25 -43 -52 0
-25 -28 -50 0
-24 -37 -52 0
-22 31 -35 0
-22 37 -51 0
-22 51 59 0
-21 -26 -51 0
-21 -23 36 0
-21 22 -26 0
-21 32 44 0
-20 30 36 0
-20 42 60 0
-19 -22 53 0
-19 24 -54 0
-19 37 -58 0
-19 38 -48 0
-19 48 -59 0
-18 -27 -39 0
-18 -24 -34 0
-18 38 48 0
-18 39 41 0
-17 -46 60 0
-17 -29 43 0
-17 -28 59 0
-17 -25 38 0
-17 18 47 0
-17 19 46 0
-17 20 26 0
-17 31 42 0
-16 -17 32 0
-16 18 -41 0
-16 27 59 0
-16 31 -42 0
-16 43 56 0
-15 -38 39 0
-15 -29 58 0
-15 16 -28 0
-15 16 -23 0
-15 24 27 0
-15 40 -44 0
-15 41 60 0
-14 19 -28 0
-14 25 26 0
-13 -26 -59 0
-13 35 -43 0
-13 50 -57 0
-12 -31 42 0
-12 -17 -30 0
-11 -28 -48 0
-11 -23 -58 0
-11 16 34 0
-11 26 49 0
-10 -51 53 0
-10 -21 43 0
-10 -12 -50 0
-10 23 -51 0
-9 -46 57 0
-9 -23 25 0
-9 -12 31 0
-9 25 35 0
-9 42 57 0
-8 -39 57 0
-8 -35 -45 0
-8 -9 -55 0
-7 -46 -51 0
-7 -28 33 0
-7 -14 17 0
-7 24 -40 0
-7 27 -29 0
-7 29 60 0
-6 -34 -49 0
-6 -23 -44 0
-6 19 26 0
-5 -18 49 0
-5 15 32 0
-5 31 36 0
-4 -27 43 0
-4 -25 47 0
-4 -11 -26 0
-4 19 54 0
-4 32 55 0
-3 -23 -52 0
-3 11 -18 0
-3 16 -43 0
-3 16 -41 0
-3 38 -57 0
-2 -24 -49 0
-2 -24 31 0
-2 -20 -48 0
-2 -15 29 0
-2 -12 22 0
-2 -11 44 0
-2 -9 -60 0
-2 4 -21 0
-1 -24 25 0
-1 -21 47 0
-1 -9 -27 0
-1 7 9 0
1 -28 29 0
1 -16 -58 0
1 -3 59 0
1 34 -54 0
1 39 47 0
2 -32 -36 0
2 -30 55 0
2 -14 23 0
2 -11 -31 0
2 -6 -52 0
2 31 32 0
3 -57 -59 0
3 -14 -44 0
3 -10 29 0
3 -5 -29 0
3 -4 35 0
3 9 46 0
3 10 -30 0
3 28 42 0
4 -48 59 0
4 -24 -47 0
4 -12 -45 0
4 6 38 0
4 13 -24 0
4 21 54 0
4 23 -37 0
4 24 -42 0
4 29 45 0
5 -23 31 0
5 -15 38 0
5 15 40 0
5 17 -58 0
5 27 39 0
5 33 -58 0
5 54 58 0
6 -27 29 0
6 14 58 0
6 19 38 0
6 22 42 0
6 35 43 0
7 -28 -51 0
7 -25 59 0
7 14 21 0
7 41 -50 0
8 -32 -53 0
8 -26 -59 0
8 -23 -33 0
8 -13 -26 0
8 -10 -51 0
9 -24 -34 0
9 39 -49 0
9 39 53 0
9 53 -59 0
10 -44 -46 0
10 -40 -55 0
10 -26 48 0
10 -23 60 0
10 -18 -28 0
10 15 24 0
10 22 -55 0
10 26 -45 0
10 33 35 0
10 38 51 0
11 -13 54 0
11 14 54 0
12 -52 54 0
12 -35 -60 0
12 -30 41 0
12 14 -45 0
13 -36 -53 0
13 -31 -46 0
13 18 -37 0
13 31 -50 0
14 23 -59 0
14 24 34 0
14 29 -54 0
15 -28 46 0
15 -25 -48 0
15 38 -54 0
15 45 54 0
16 -30 -47 0
16 -27 46 0
16 24 -54 0
16 33 -60 0
17 -52 60 0
17 -44 57 0
17 -18 -40 0
17 20 -28 0
17 26 -28 0
18 -50 51 0
18 -39 57 0
18 -27 50 0
18 -19 43 0
18 31 58 0
19 -31 55 0
19 30 46 0
19 30 56 0
19 31 -50 0
19 42 43 0
20 -57 59 0
20 -36 -47 0
21 -32 33 0
21 -24 -41 0
21 32 -50 0
22 -34 39 0
22 -28 38 0
22 -24 -36 0
22 31 -40 0
22 32 -53 0
22 37 51 0
23 -45 -47 0
23 -25 49 0
23 40 41 0
24 40 42 0
24 41 55 0
24 42 53 0
25 45 -55 0
26 33 -47 0
26 37 51 0
26 49 58 0
26 50 53 0
28 -44 -57 0
28 -36 54 0
28 -33 37 0
29 -40 -41 0
30 33 -49 0
31 36 59 0
33 37 54 0
34 -39 51 0
34 37 -46 0
35 43 -50 0
37 40 -53 0
38 52 -53 0
41 -54 -60 0
42 -45 47 0
43 44 -51 0
45 -48 -53 0
45 46 -56 0
46 47 59 0
47 -48 58 0
48 50 -55 0
49 -51 -59 0
