p cnf 100 360
-80 88 -92 0
-76 79 99 0
-75 -89 -98 0
-73 -78 93 0
-71 -83 96 0
-71 -73 -84 0
-68 -90 -93 0
-64 -77 83 0
-64 98 -99 0
-63 75 -84 0
-61 72 74 0
-60 64 -87 0
-56 -89 -90 0
-56 -60 -99 0
-56 71 77 0
-56 73 86 0
-55 -73 -92 0
-55 61 96 0
-51 55 96 0
-51 58 -93 0
-51 62 63 0
-51 63 89 0
-49 -50 74 0
-49 58 -78 0
-48 -88 94 0
-48 59 -81 0
-48 81 -94 0
-47 -58 60 0
-47 72 81 0
-47 79 85 0
-46 -73 95 0
-46 89 -97 0
-45 -57 -93 0
-44 -53 -83 0
-41 -92 100 0
-41 -43 -50 0
-41 56 -82 0
-40 -63 -80 0
-40 67 98 0
-39 -82 87 0
-39 -57 59 0
-39 51 -99 0
-38 -66 -95 0
-38 66 86 0
-37 -87 -95 0
-37 -61 -92 0
-37 49 60 0
-36 -56 76 0
-36 -54 -94 0
-36 -45 49 0
-35 -64 -83 0
-35 48 -55 0
-35 72 85 0
-35 86 -98 0
-34 -38 -77 0
-34 -38 44 0
-34 52 88 0
-33 -47 -80 0
-33 44 -54 0
-32 -57 -82 0
-32 40 85 0
-32 51 78 0
-31 -52 -54 0
-30 -72 83 0
-30 -51 -64 0
-30 51 -75 0
-29 54 61 0
-29 67 90 0
-29 78 -97 0
-28 -54 61 0
-28 68 95 0
-27 -57 89 0
-27 -32 -42 0
-27 31 -71 0
-26 -27 -73 0
-26 49 -53 0
-25 -49 -72 0
-25 -47 -100 0
-25 -44 89 0
-25 31 -89 0
-25 73 -77 0
-25 92 98 0
-24 -40 54 0
-24 -26 -78 0
-23 -59 -64 0
-23 -37 72 0
-23 -32 -83 0
-22 -60 -67 0
-22 -36 -88 0
-22 -29 59 0
-22 26 48 0
-22 37 -58 0
-22 90 -97 0
-21 -68 -83 0
-21 -36 -76 0
-21 -27 -67 0
-21 23 50 0
-21 50 -76 0
-21 77 88 0
-20 -75 -88 0
-20 -27 -42 0
-20 26 44 0
-20 30 94 0
-20 31 -89 0
-20 61 74 0
-19 -36 37 0
-19 -31 -57 0
-19 37 -58 0
-18 -43 88 0
-18 52 60 0
-18 58 -75 0
-17 -78 88 0
-17 -53 55 0
-16 -45 -56 0
-16 -18 -43 0
-16 19 -73 0
-16 22 -92 0
-15 -58 -76 0
-15 17 -94 0
-15 43 -82 0
-15 53 -78 0
-15 57 67 0
-14 -56 -98 0
-14 -46 -49 0
-14 -32 75 0
-14 -25 -93 0
-14 -22 45 0
-14 17 -87 0
-14 44 -53 0
-14 70 -84 0
-13 28 29 0
-12 35 40 0
-10 -21 89 0
-10 -16 71 0
-10 18 50 0
-10 74 84 0
-9 -74 -76 0
-9 -16 -96 0
-9 -13 67 0
-9 25 -56 0
-9 35 -97 0
-8 -28 -80 0
-8 58 69 0
-7 -48 -70 0
-7 -43 -69 0
-7 9 11 0
-7 29 57 0
-7 65 -82 0
-7 73 74 0
-7 77 94 0
-6 -59 -80 0
-6 -23 -92 0
-6 -9 91 0
-6 12 44 0
-6 41 63 0
-5 -62 -88 0
-5 -57 -64 0
-5 -44 63 0
-5 -38 98 0
-5 -24 -99 0
-5 -18 63 0
-5 16 -26 0
-5 21 -87 0
-5 67 -72 0
-4 -31 -47 0
-4 21 96 0
-4 25 -51 0
-3 -70 -90 0
-3 -44 -100 0
-3 -22 47 0
-3 -19 70 0
-3 13 -100 0
-3 42 72 0
-3 43 90 0
-3 47 -97 0
-3 58 94 0
-3 71 89 0
-2 -33 -69 0
-2 10 -73 0
-2 19 -41 0
-2 43 -50 0
-2 48 -93 0
-2 54 -65 0
-1 -32 -66 0
-1 3 77 0
-1 4 78 0
-1 37 55 0
-1 51 -83 0
1 -65 67 0
1 -64 -66 0
1 -44 -46 0
1 -16 -25 0
1 -11 -95 0
1 -7 11 0
1 5 -8 0
1 41 49 0
2 -91 -97 0
2 -76 -87 0
2 -49 -67 0
2 -48 -79 0
2 17 -38 0
3 12 64 0
3 21 93 0
3 51 -91 0
4 -63 -100 0
4 -62 88 0
4 -33 92 0
4 -24 70 0
4 9 39 0
4 54 97 0
5 -84 -97 0
5 -64 -79 0
5 -47 52 0
5 23 26 0
6 -48 -72 0
6 -13 95 0
6 -7 21 0
6 9 -36 0
6 65 -97 0
7 -32 -47 0
7 66 -70 0
8 -59 -82 0
8 -46 -61 0
8 -43 -71 0
8 -22 100 0
8 44 -64 0
8 51 93 0
9 -58 -68 0
9 -35 -89 0
9 18 -46 0
9 24 43 0
9 31 -75 0
10 -87 -92 0
10 11 18 0
10 13 70 0
10 38 -85 0
10 56 -78 0
10 57 -64 0
11 -72 -79 0
11 -37 -79 0
11 -34 60 0
11 24 -82 0
11 85 -95 0
12 22 79 0
12 22 92 0
12 25 -95 0
14 -64 96 0
14 -23 -54 0
14 15 -17 0
14 23 -70 0
14 32 47 0
14 38 99 0
14 61 -65 0
15 21 45 0
15 34 -45 0
15 73 99 0
16 -58 79 0
17 -72 -91 0
17 -18 -21 0
17 45 -77 0
17 55 -86 0
18 -45 -52 0
18 -20 80 0
18 38 -41 0
18 50 100 0
18 58 -62 0
18 75 77 0
19 -83 97 0
19 -55 95 0
19 -35 91 0
19 -34 54 0
19 90 91 0
20 -24 -45 0
20 78 -93 0
21 -67 -90 0
21 41 -64 0
22 -81 -94 0
22 -78 79 0
22 -43 59 0
22 -34 44 0
22 37 -94 0
23 -49 90 0
23 41 -48 0
23 43 68 0
24 -30 62 0
24 49 -58 0
25 -52 76 0
25 -37 -98 0
25 45 -66 0
25 53 73 0
26 38 81 0
26 47 61 0
26 51 -56 0
26 54 96 0
27 -44 -55 0
27 -32 -83 0
27 57 -86 0
28 -70 -72 0
29 -39 -58 0
30 -48 -72 0
30 -46 73 0
30 65 -67 0
31 -72 91 0
31 -41 51 0
31 -40 -48 0
31 35 -55 0
32 46 -90 0
33 50 -52 0
34 -59 -91 0
34 41 62 0
35 49 69 0
36 -61 -80 0
37 -92 -98 0
37 54 -62 0
37 85 100 0
38 -71 -83 0
38 41 -92 0
38 66 80 0
39 -69 -85 0
40 -52 -90 0
41 -49 53 0
41 54 -73 0
41 75 99 0
43 -60 -68 0
44 -64 -89 0
44 -50 75 0
45 48 -61 0
46 -75 -85 0
46 69 73 0
46 80 98 0
47 54 78 0
47 72 89 0
49 -96 -97 0
49 -66 -90 0
49 92 -98 0
50 -57 86 0
50 57 77 0
50 59 83 0
51 -62 -83 0
54 -79 90 0
54 -76 -99 0
54 -71 87 0
55 -57 64 0
55 73 -77 0
56 -71 78 0
57 66 69 0
60 -65 -100 0
60 75 89 0
61 77 96 0
62 -67 -74 0
62 82 93 0
63 -76 81 0
70 -80 84 0
71 74 84 0
73 79 -95 0
74 76 -85 0
74 78 94 0
75 78 82 0
77 83 -100 0
80 -89 98 0
