p cnf 100 600
-86 -96 -99 0
-81 84 -89 0
-81 85 93 0
-78 83 97 0
-77 -79 95 0
-72 -76 88 0
-72 81 -85 0
-71 78 -79 0
-67 -83 -97 0
-67 -82 -93 0
-67 -71 92 0
-67 68 98 0
-66 -85 -100 0
-66 -84 -94 0
-66 73 -78 0
-65 -72 -85 0
-65 68 70 0
-62 -69 85 0
-62 65 -77 0
-60 -84 100 0
-60 -76 89 0
-60 -62 -90 0
-58 65 -84 0
-57 -69 82 0
-57 -61 100 0
-56 66 -94 0
-55 69 92 0
-54 56 -73 0
-54 67 68 0
-52 -66 73 0
-51 -79 -98 0
-51 -52 94 0
-51 56 93 0
-51 59 69 0
-51 63 93 0
-50 55 -78 0
-50 61 -78 0
-50 64 -99 0
-49 -66 -99 0
-49 62 80 0
-48 -88 91 0
-48 -84 86 0
-48 -76 -80 0
-48 53 96 0
-48 57 97 0
-48 61 92 0
-48 69 85 0
-47 -65 -79 0
-47 57 82 0
-46 -72 -73 0
-46 -67 -95 0
-46 -59 -80 0
-46 -47 53 0
-46 68 80 0
-46 71 -84 0
-46 78 -79 0
-46 81 85 0
-45 -63 69 0
-45 -50 74 0
-44 -70 -82 0
-44 -64 -86 0
-43 -44 -100 0
-43 47 64 0
-43 50 -57 0
-43 52 -62 0
-43 79 -91 0
-42 45 -61 0
-42 57 84 0
-42 66 86 0
-41 -45 60 0
-41 -42 86 0
-41 46 90 0
-41 52 -66 0
-40 -72 76 0
-40 42 73 0
-39 -73 85 0
-39 -68 -84 0
-39 -57 90 0
-39 -48 55 0
-38 -64 -67 0
-38 -59 88 0
-38 61 -96 0
-38 62 65 0
-38 72 78 0
-37 -62 -72 0
-37 -46 68 0
-37 41 -92 0
-37 51 60 0
-37 88 91 0
-37 89 -93 0
-36 -63 67 0
-36 -54 76 0
-36 40 86 0
-36 43 81 0
-36 63 95 0
-35 -98 -100 0
-35 -54 89 0
-35 43 72 0
-35 54 66 0
-34 -72 92 0
-34 -40 91 0
-34 45 85 0
-33 -63 -74 0
-33 -34 -48 0
-33 40 85 0
-33 47 95 0
-32 -64 84 0
-32 33 -86 0
-32 46 -66 0
-32 59 -82 0
-31 55 -72 0
-30 -70 -74 0
-30 -67 79 0
-30 -58 -95 0
-30 -42 46 0
-30 32 48 0
-30 38 -65 0
-30 38 73 0
-30 48 81 0
-29 -79 -96 0
-29 -42 -92 0
-29 59 65 0
-28 -73 -88 0
-28 -33 -72 0
-28 33 -41 0
-28 41 -98 0
-27 -46 -87 0
-27 -31 -58 0
-27 72 75 0
-27 82 -85 0
-26 -58 -69 0
-26 -54 60 0
-26 -54 71 0
-26 33 -72 0
-26 59 68 0
-25 -42 61 0
-25 -32 -46 0
-25 45 -70 0
-24 -70 76 0
-24 -61 87 0
-24 -39 -75 0
-24 -39 -59 0
-24 29 71 0
-24 36 -37 0
-24 52 -77 0
-23 -45 -46 0
-23 -44 60 0
-22 -72 -90 0
-22 41 60 0
-22 66 -87 0
-21 -66 68 0
-21 -35 -41 0
-21 -32 68 0
-20 -23 -94 0
-20 22 56 0
-20 26 94 0
-19 -52 -84 0
-19 -24 -57 0
-19 29 91 0
-19 79 86 0
-19 91 96 0
-18 -71 73 0
-18 -71 94 0
-18 -56 81 0
-18 -31 82 0
-18 37 -76 0
-18 64 74 0
-17 -38 -88 0
-17 -36 84 0
-17 -24 56 0
-17 -23 -95 0
-17 31 -60 0
-17 40 62 0
-17 42 -70 0
-16 -66 -92 0
-16 -37 -74 0
-16 22 26 0
-16 36 64 0
-15 -66 70 0
-15 -39 46 0
-15 -39 89 0
-15 -30 -76 0
-15 -23 71 0
-15 -17 32 0
-15 29 -81 0
-15 33 49 0
-15 48 50 0
-15 52 72 0
-15 55 -62 0
-14 -35 100 0
-14 -27 -72 0
-14 -22 70 0
-14 16 33 0
-14 42 43 0
-13 -43 98 0
-13 -38 -59 0
-13 -20 -85 0
-13 30 -82 0
-13 48 -96 0
-12 -82 91 0
-12 -80 85 0
-12 -50 -84 0
-12 -40 -66 0
-12 19 60 0
-12 28 -71 0
-12 30 66 0
-12 48 61 0
-12 60 -68 0
-11 -31 -85 0
-11 -26 -78 0
-11 -25 -72 0
-11 -25 96 0
-11 -20 -87 0
-11 -19 36 0
-11 19 -27 0
-11 20 92 0
-11 33 67 0
-11 55 98 0
-11 57 -94 0
-10 -58 -79 0
-10 -33 -44 0
-10 -16 58 0
-10 15 96 0
-10 27 -68 0
-10 67 -77 0
-10 90 91 0
-9 -65 68 0
-9 -55 -68 0
-9 -37 -41 0
-9 -31 62 0
-9 20 98 0
-9 52 73 0
-9 64 -96 0
-8 -39 48 0
-8 -36 -41 0
-8 -31 83 0
-8 -27 64 0
-8 12 59 0
-8 24 -91 0
-8 34 -41 0
-8 41 -64 0
-7 -62 99 0
-7 -58 73 0
-7 -48 65 0
-7 -29 62 0
-7 -26 55 0
-7 -26 56 0
-7 -19 -23 0
-7 8 100 0
-7 13 22 0
-7 22 -84 0
-7 51 -84 0
-7 57 76 0
-7 89 -91 0
-6 -63 -89 0
-6 -8 -10 0
-6 15 82 0
-6 38 -98 0
-6 47 63 0
-5 -63 86 0
-5 -55 -94 0
-5 -9 -71 0
-5 6 -95 0
-5 12 -28 0
-5 24 25 0
-5 31 -35 0
-5 51 -85 0
-5 65 -97 0
-4 -38 -78 0
-4 -38 49 0
-4 -38 70 0
-4 23 -50 0
-4 66 81 0
-3 -72 -76 0
-3 -41 -73 0
-3 -22 54 0
-3 5 -57 0
-3 6 -15 0
-3 21 -30 0
-3 25 -82 0
-3 29 66 0
-3 52 94 0
-3 81 85 0
-2 -54 -55 0
-2 -45 54 0
-2 -33 -89 0
-2 -13 -62 0
-2 4 -55 0
-2 13 -71 0
-2 25 -78 0
-2 30 66 0
-1 -65 -87 0
-1 -59 -72 0
-1 -37 65 0
-1 -24 53 0
-1 -22 -80 0
-1 -20 33 0
-1 -18 55 0
-1 -5 -87 0
-1 9 76 0
-1 71 88 0
-1 73 -98 0
1 -30 -35 0
1 -30 87 0
1 -24 66 0
1 -22 -62 0
1 -19 48 0
1 -17 34 0
1 -15 96 0
1 -14 19 0
1 18 -34 0
1 26 -74 0
1 54 -67 0
2 9 -22 0
2 23 -98 0
2 31 -54 0
2 44 92 0
3 -93 -94 0
3 -58 -59 0
3 -56 99 0
3 -33 -34 0
3 -28 -93 0
3 -17 -30 0
3 11 -43 0
3 16 32 0
3 51 94 0
4 -45 90 0
4 -43 50 0
4 -41 -45 0
4 -37 91 0
4 -12 69 0
4 -11 65 0
4 11 39 0
4 47 74 0
4 71 99 0
5 -73 94 0
5 -60 -98 0
5 -32 78 0
5 -29 -84 0
5 -25 -38 0
5 -21 52 0
5 -15 53 0
5 -11 77 0
5 -8 -100 0
5 16 80 0
5 18 -65 0
5 24 -87 0
5 28 -33 0
5 30 93 0
5 33 77 0
5 51 -56 0
5 61 -80 0
6 -84 -96 0
6 -50 100 0
6 -41 80 0
6 43 -74 0
6 49 97 0
6 71 -89 0
7 -92 96 0
7 -58 -100 0
7 16 70 0
7 19 34 0
7 27 -49 0
7 57 -69 0
7 63 -90 0
8 -72 -98 0
8 -16 -96 0
8 17 65 0
8 30 -35 0
8 31 58 0
8 39 64 0
8 54 82 0
8 69 92 0
8 96 -99 0
9 -12 40 0
9 52 -70 0
9 68 -96 0
10 -77 94 0
10 -53 92 0
10 -40 44 0
10 -31 -73 0
10 -25 -64 0
10 -22 -75 0
10 24 79 0
10 38 -88 0
10 40 52 0
11 -66 -74 0
11 -32 84 0
11 -28 61 0
11 -15 20 0
11 26 99 0
11 27 -90 0
11 96 -99 0
12 -64 -81 0
12 -23 -45 0
12 29 50 0
12 33 48 0
12 39 51 0
13 -74 100 0
13 -67 -92 0
13 -66 -79 0
13 -56 -70 0
13 -46 -47 0
13 -43 75 0
13 -39 -64 0
13 -30 85 0
13 -25 81 0
13 -23 25 0
13 -18 93 0
13 -17 88 0
13 15 86 0
13 15 100 0
13 19 -48 0
13 32 -49 0
14 -17 -44 0
14 45 71 0
14 61 74 0
14 98 -100 0
15 -75 -91 0
15 -58 77 0
15 -34 -71 0
15 -25 35 0
15 19 -57 0
15 19 21 0
16 -58 -93 0
16 -51 -65 0
16 -50 57 0
16 -32 -55 0
17 -34 -73 0
17 -25 40 0
17 34 -100 0
17 36 46 0
17 38 -94 0
17 69 96 0
17 74 -76 0
17 77 -83 0
18 -30 -56 0
18 -22 -97 0
18 34 -81 0
18 40 -78 0
19 -27 -87 0
19 48 61 0
20 -62 65 0
20 26 73 0
20 82 -84 0
20 88 -97 0
21 27 53 0
21 29 73 0
21 43 -49 0
21 48 92 0
21 60 -85 0
21 72 -80 0
21 91 -94 0
22 -74 -76 0
22 -51 63 0
22 -46 64 0
22 26 37 0
22 31 73 0
22 37 96 0
22 59 88 0
23 -42 43 0
23 40 -64 0
23 68 92 0
24 -87 98 0
24 -38 -74 0
24 27 -29 0
24 27 50 0
24 41 -63 0
24 46 59 0
25 -83 -92 0
25 -57 78 0
25 26 -52 0
26 -80 -91 0
26 -44 -52 0
26 -29 40 0
26 34 -72 0
26 40 -70 0
26 48 -97 0
27 -64 78 0
27 -50 -80 0
27 -45 -58 0
27 -38 66 0
27 44 98 0
27 76 -99 0
28 -63 72 0
28 -44 -61 0
28 -43 -69 0
28 -30 37 0
28 31 70 0
28 39 81 0
29 -53 77 0
29 -52 62 0
29 56 -65 0
30 43 -61 0
30 49 -63 0
30 83 -91 0
31 -72 -95 0
31 -71 87 0
31 -39 -79 0
31 -37 -88 0
31 -32 57 0
31 36 57 0
31 52 54 0
31 70 -91 0
31 72 -83 0
32 -80 85 0
32 -60 83 0
32 -56 -92 0
32 34 64 0
32 44 -72 0
32 46 -71 0
33 -82 -89 0
33 -77 86 0
33 -65 68 0
33 -44 72 0
33 39 -72 0
34 -68 73 0
34 -51 57 0
35 36 -86 0
35 39 -59 0
36 -62 -93 0
36 -47 -49 0
36 -40 92 0
36 47 49 0
36 58 74 0
36 72 -84 0
37 -71 81 0
37 -65 -81 0
37 40 -74 0
37 44 -97 0
37 48 -91 0
37 59 71 0
38 -73 -84 0
38 -40 85 0
38 61 -100 0
39 -89 97 0
39 -50 -61 0
40 -65 100 0
40 -58 -84 0
40 -49 50 0
40 73 -86 0
41 -71 -72 0
41 -61 -89 0
41 -44 -65 0
41 -44 47 0
41 48 86 0
41 69 82 0
42 -58 -98 0
42 -56 -89 0
42 -53 96 0
42 53 -77 0
44 -64 100 0
44 -49 -96 0
45 -61 81 0
45 58 -83 0
45 82 -83 0
45 92 -96 0
46 -78 82 0
46 -54 100 0
46 60 67 0
47 -56 -61 0
47 57 -63 0
48 -86 95 0
48 -67 92 0
48 52 80 0
49 -77 -93 0
50 -90 97 0
50 -79 93 0
50 -62 77 0
50 63 87 0
50 70 -81 0
51 58 -96 0
52 57 78 0
53 -75 -80 0
53 67 -95 0
53 67 -85 0
53 73 81 0
53 85 -97 0
56 65 -68 0
57 71 -97 0
58 -92 94 0
58 -92 98 0
59 71 -95 0
61 62 82 0
63 93 100 0
64 -66 -70 0
64 90 92 0
65 72 85 0
66 -78 87 0
66 -76 -85 0
67 -68 76 0
68 71 74 0
70 84 -85 0
73 76 -98 0
73 94 95 0
73 97 -100 0
75 -87 -99 0
78 81 -92 0
83 -87 -95 0
94 96 -97 0
