p cnf 60 255
-46 -49 -53 0
-46 47 -58 0
-43 -44 -45 0
-43 49 58 0
-42 43 55 0
-42 48 50 0
-41 -46 -54 0
-41 -45 49 0
-40 52 -54 0
-39 51 -59 0
-36 43 49 0
-35 40 -43 0
-33 38 -41 0
-33 39 51 0
-33 47 -54 0
-31 -50 57 0
-30 33 40 0
-29 36 -57 0
-29 45 -53 0
-28 -34 37 0
-28 56 59 0
-26 32 56 0
-25 -33 -57 0
-25 29 58 0
-25 31 38 0
-24 -56 -57 0
-24 30 45 0
-24 33 51 0
-24 48 57 0
-23 -51 53 0
-23 44 -59 0
-22 -45 -60 0
-22 24 35 0
-22 36 50 0
-21 -38 54 0
-21 -30 33 0
-21 -23 56 0
-21 29 40 0
-21 39 -48 0
-20 -39 55 0
-20 -21 43 0
-20 39 50 0
-19 -53 -60 0
-19 -24 -27 0
-19 -23 33 0
-19 -20 27 0
-19 20 -54 0
-19 22 56 0
-19 34 -42 0
-19 37 39 0
-19 46 56 0
-18 34 43 0
-18 48 -50 0
-17 -35 58 0
-17 21 52 0
-16 -19 -25 0
-16 42 -60 0
-14 -29 58 0
-14 -26 33 0
-14 -20 -54 0
-14 50 -56 0
-13 -46 -58 0
-13 -46 47 0
-13 -32 51 0
-13 17 -55 0
-13 44 -54 0
-12 -28 52 0
-12 -18 43 0
-12 -13 60 0
-12 15 -60 0
-12 17 -40 0
-12 23 38 0
-11 -45 -50 0
-11 -37 -55 0
-11 -30 -47 0
-11 -14 32 0
-11 16 31 0
-11 29 -57 0
-11 32 36 0
-10 -35 45 0
-10 -17 47 0
-10 27 41 0
-9 -23 -43 0
-9 11 -43 0
-8 -9 -44 0
-8 12 46 0
-7 -43 -52 0
-7 -24 -25 0
-7 -16 -38 0
-7 -8 45 0
-7 18 57 0
-7 50 56 0
-6 -43 49 0
-6 -31 -54 0
-6 -24 34 0
-6 22 -35 0
-6 27 46 0
-5 -27 -30 0
-4 -23 -55 0
-4 -14 -29 0
-4 -10 -39 0
-4 9 54 0
-4 23 32 0
-4 32 -47 0
-4 38 -54 0
-4 50 -52 0
-3 -26 51 0
-3 -20 56 0
-3 12 -19 0
-3 16 46 0
-2 -31 -47 0
-2 -14 -38 0
-2 3 57 0
-2 6 36 0
-2 33 46 0
-2 49 -57 0
-1 -28 -53 0
-1 -27 47 0
-1 -11 16 0
-1 -8 -26 0
-1 -7 -51 0
-1 29 59 0
-1 33 50 0
-1 34 -42 0
-1 35 -41 0
1 -33 -54 0
1 -16 44 0
1 -3 45 0
1 -2 -6 0
1 3 -13 0
1 21 48 0
1 49 -52 0
2 -17 -60 0
2 -5 14 0
2 16 -30 0
2 18 42 0
2 39 49 0
3 -18 39 0
3 8 28 0
3 9 43 0
3 18 53 0
3 20 41 0
4 -23 48 0
4 -15 -42 0
4 -9 40 0
4 -7 -55 0
4 6 37 0
4 11 -44 0
4 11 17 0
4 55 59 0
5 -34 38 0
5 12 24 0
6 -37 -41 0
6 -16 -49 0
6 -7 -24 0
6 13 14 0
6 23 -56 0
6 28 -60 0
7 15 -17 0
8 12 15 0
8 15 49 0
8 31 38 0
8 36 40 0
8 39 -55 0
9 -18 37 0
9 -14 52 0
9 34 -53 0
10 -34 -56 0
10 -25 41 0
10 -17 40 0
10 26 -41 0
10 29 45 0
10 30 -49 0
10 42 -59 0
11 -13 17 0
11 14 51 0
11 20 -37 0
12 -29 30 0
12 -25 29 0
12 14 -56 0
12 14 24 0
12 18 -49 0
12 36 38 0
13 -40 54 0
13 -34 55 0
13 -19 -56 0
13 -16 20 0
13 22 -32 0
13 29 35 0
13 37 -51 0
13 49 -60 0
14 -19 42 0
14 34 -55 0
15 -42 59 0
15 -35 48 0
15 -32 -51 0
15 -23 60 0
15 -19 40 0
15 -18 42 0
15 -16 -56 0
15 33 54 0
16 -37 -43 0
17 -33 -54 0
17 25 46 0
17 36 43 0
18 19 -35 0
18 27 52 0
18 28 59 0
18 41 49 0
18 53 -58 0
19 -27 52 0
19 -26 -32 0
19 36 51 0
20 -25 48 0
21 -26 -42 0
21 36 43 0
21 42 59 0
22 46 -56 0
23 -52 58 0
23 -34 -48 0
23 -25 54 0
23 25 -55 0
23 28 29 0
24 27 -44 0
25 -32 -58 0
25 -31 -55 0
25 -30 60 0
26 -45 -53 0
26 38 -54 0
27 -28 59 0
27 31 33 0
27 34 -50 0
28 -39 -42 0
28 44 46 0
29 -43 -45 0
29 -34 -36 0
29 -31 -40 0
29 35 -59 0
29 36 -56 0
30 43 48 0
31 -49 51 0
31 -38 -58 0
33 -46 60 0
33 42 43 0
34 -48 -51 0
34 -38 -51 0
38 -49 -55 0
38 -39 -56 0
39 -42 -45 0
40 -45 -57 0
40 -41 -46 0
40 52 54 0
41 -43 -48 0
44 46 -53 0
46 52 54 0
