p cnf 120 420
-87 -114 -120 0
-85 -98 101 0
-82 86 92 0
-81 88 115 0
-78 91 115 0
-76 -89 112 0
-74 -100 117 0
-74 75 116 0
-73 -78 89 0
-72 93 109 0
-71 80 -110 0
-66 -100 -103 0
-65 -81 93 0
-65 -68 113 0
-64 -67 83 0
-62 86 108 0
-61 -81 -109 0
-57 -98 -119 0
-57 -94 119 0
-56 -78 -89 0
-55 -107 -116 0
-55 -82 110 0
-54 59 79 0
-53 91 106 0
-52 60 -108 0
-52 61 83 0
-52 97 -104 0
-51 -65 89 0
-50 -83 -85 0
-50 99 106 0
-49 -51 102 0
-49 59 -114 0
-49 72 -94 0
-48 84 89 0
-47 48 -116 0
-46 -93 107 0
-46 -51 69 0
-46 64 113 0
-46 87 -90 0
-45 -76 -119 0
-45 84 89 0
-44 -100 -118 0
-44 -94 -106 0
-44 -52 58 0
-43 79 -116 0
-42 -69 -80 0
-42 68 -117 0
-42 81 -98 0
-41 -88 -120 0
-41 -88 -114 0
-41 -74 94 0
-41 -57 91 0
-41 49 -108 0
-41 78 94 0
-41 105 119 0
-40 -66 -70 0
-40 -65 -97 0
-40 -41 -120 0
-40 42 -103 0
-39 -69 103 0
-38 -80 -116 0
-38 -80 -115 0
-38 -76 -79 0
-38 -39 101 0
-38 74 -77 0
-37 -59 -63 0
-37 -48 92 0
-37 -41 114 0
-36 65 118 0
-36 67 -118 0
-36 68 -107 0
-36 80 111 0
-35 36 -106 0
-35 54 73 0
-34 -87 -103 0
-34 -45 -46 0
-34 87 -103 0
-33 -37 -79 0
-32 51 73 0
-32 77 -96 0
-31 -107 109 0
-30 -92 94 0
-30 -55 -75 0
-30 -53 -92 0
-30 -47 -48 0
-30 -44 108 0
-30 -38 -113 0
-29 -41 83 0
-29 49 83 0
-29 101 -113 0
-28 -113 -114 0
-28 -29 -70 0
-28 107 116 0
-27 -115 120 0
-27 -31 57 0
-27 29 -110 0
-26 -37 79 0
-26 31 114 0
-26 66 116 0
-25 -83 88 0
-25 -82 -108 0
-25 37 -60 0
-25 82 91 0
-25 89 98 0
-24 -59 77 0
-24 87 109 0
-23 -75 -92 0
-23 -47 58 0
-23 -44 50 0
-23 -26 118 0
-23 30 -44 0
-23 51 108 0
-23 83 -120 0
-21 -113 -116 0
-21 -84 -113 0
-21 71 -75 0
-21 84 108 0
-20 -59 108 0
-20 -22 -45 0
-20 38 105 0
-20 55 -108 0
-20 70 114 0
-19 -91 -104 0
-19 -76 96 0
-19 -59 100 0
-19 25 78 0
-19 32 -114 0
-19 64 -72 0
-19 68 -79 0
-19 83 84 0
-18 62 -118 0
-17 -94 108 0
-17 -84 96 0
-17 -71 81 0
-17 -28 48 0
-17 50 99 0
-17 65 85 0
-17 98 -108 0
-16 -61 113 0
-16 -37 -86 0
-16 -20 -69 0
-16 -18 94 0
-16 28 -53 0
-16 34 62 0
-16 92 101 0
-15 -23 39 0
-15 -22 -68 0
-15 20 22 0
-15 25 -33 0
-15 40 -58 0
-15 46 103 0
-15 52 119 0
-14 -110 117 0
-14 -38 -84 0
-14 -25 119 0
-14 25 -40 0
-14 27 54 0
-13 -66 -104 0
-13 66 120 0
-12 40 -103 0
-12 64 -65 0
-12 68 -71 0
-12 86 111 0
-11 -69 88 0
-11 -27 65 0
-11 29 120 0
-11 54 -119 0
-10 -55 -83 0
-10 -34 86 0
-10 -25 118 0
-10 -20 60 0
-10 -15 -103 0
-10 14 -102 0
-10 17 -97 0
-10 41 -95 0
-9 -87 -101 0
-9 -54 -82 0
-9 -16 -46 0
-9 13 -85 0
-9 35 90 0
-9 48 -119 0
-9 69 -102 0
-9 81 86 0
-9 89 102 0
-8 -83 104 0
-8 -55 -118 0
-7 8 80 0
-7 10 -48 0
-7 11 46 0
-7 27 -47 0
-7 44 93 0
-7 50 -95 0
-7 67 -114 0
-6 -75 -112 0
-6 -70 114 0
-6 -45 -120 0
-6 -44 64 0
-6 16 -95 0
-6 29 98 0
-6 65 -72 0
-6 105 108 0
-5 -44 -110 0
-5 -8 -84 0
-5 18 -97 0
-5 19 21 0
-5 22 116 0
-5 50 -105 0
-5 50 94 0
-5 58 -86 0
-4 -84 -114 0
-4 -26 -103 0
-4 -18 115 0
-4 7 109 0
-4 41 -107 0
-4 51 -105 0
-4 83 -110 0
-3 -17 -68 0
-3 -7 -71 0
-3 6 -100 0
-3 13 49 0
-2 -59 -60 0
-2 -10 -118 0
-1 -85 109 0
-1 -66 91 0
-1 -43 -71 0
-1 -21 -115 0
-1 -20 75 0
-1 -12 -66 0
-1 9 89 0
1 15 120 0
1 72 -90 0
2 -11 -97 0
2 3 53 0
2 13 -118 0
2 23 60 0
2 27 84 0
2 30 31 0
2 37 52 0
2 45 -76 0
3 -42 120 0
3 -25 -119 0
3 -19 98 0
3 -12 63 0
3 -10 88 0
3 7 32 0
3 13 20 0
3 28 94 0
4 -42 56 0
4 35 -108 0
4 39 76 0
5 -53 96 0
5 -37 48 0
5 11 69 0
5 19 33 0
5 69 108 0
6 -29 92 0
6 9 -42 0
7 -30 63 0
7 -29 50 0
7 -27 113 0
7 9 -55 0
7 50 -67 0
7 67 -71 0
8 -55 -115 0
8 -10 -59 0
8 60 74 0
9 -55 -76 0
9 -19 64 0
9 41 91 0
9 75 -97 0
10 -87 -97 0
10 -42 -66 0
10 -37 -48 0
11 -31 -96 0
11 -21 23 0
11 -12 -21 0
11 61 -98 0
12 -82 -108 0
12 52 117 0
12 70 -107 0
13 -53 92 0
13 -48 50 0
13 14 -117 0
13 24 -65 0
13 38 -73 0
13 49 103 0
13 68 -99 0
14 -60 62 0
14 -41 47 0
14 -16 85 0
14 17 -118 0
14 49 -120 0
15 -94 -108 0
15 -86 98 0
15 -64 -86 0
15 -29 79 0
16 -73 -113 0
16 -44 77 0
16 -34 53 0
17 -40 69 0
17 -32 -61 0
18 -55 84 0
18 -39 -111 0
18 71 -79 0
19 -74 -119 0
20 -34 -37 0
21 -57 73 0
21 32 -74 0
21 41 -60 0
21 71 -104 0
21 83 -112 0
22 -43 46 0
22 -23 52 0
22 27 -90 0
23 32 -62 0
23 66 80 0
24 -88 -95 0
24 -26 -90 0
24 33 64 0
25 -42 114 0
25 41 74 0
25 74 -101 0
26 -46 -64 0
26 -36 38 0
27 75 -105 0
28 -89 99 0
28 -79 -101 0
28 -65 -87 0
28 43 73 0
28 61 -95 0
29 -78 90 0
29 -65 -84 0
29 45 51 0
29 107 -112 0
30 -51 92 0
30 -37 -53 0
30 43 -49 0
30 103 -115 0
31 34 -88 0
31 36 98 0
31 39 -54 0
31 59 87 0
31 81 -114 0
32 -55 -106 0
32 38 -82 0
32 93 110 0
33 -34 64 0
33 34 38 0
34 -35 -63 0
34 80 96 0
35 -95 -100 0
36 75 98 0
37 -60 -76 0
37 71 -86 0
38 -100 112 0
38 -95 -117 0
39 -58 -91 0
39 44 -56 0
39 59 98 0
39 76 -105 0
39 83 106 0
40 68 81 0
41 -58 -74 0
41 90 95 0
41 112 -115 0
42 -68 88 0
42 46 60 0
42 54 117 0
43 -46 72 0
43 59 120 0
45 -98 113 0
45 -51 87 0
46 -93 95 0
46 66 86 0
46 68 -76 0
48 -53 -104 0
50 -111 -115 0
50 -96 -112 0
51 -79 -88 0
51 -58 93 0
52 -90 97 0
52 72 -93 0
53 56 -112 0
53 57 82 0
54 -96 100 0
54 66 73 0
55 56 -73 0
55 61 -90 0
55 112 118 0
57 -94 114 0
57 91 102 0
58 -106 -117 0
58 -76 114 0
59 -86 -101 0
60 62 -75 0
60 97 -111 0
61 -89 95 0
62 -97 -116 0
62 63 -114 0
64 72 -79 0
64 78 -110 0
66 -75 -104 0
66 -75 -100 0
69 -78 105 0
71 84 111 0
72 -80 -90 0
73 -106 114 0
74 -78 -102 0
76 -85 100 0
77 -108 -112 0
77 -103 -109 0
77 90 101 0
81 -82 90 0
82 -96 108 0
83 -94 114 0
85 94 -106 0
87 -99 100 0
90 97 -110 0
91 -109 117 0
98 -100 -104 0
