p cnf 20 85
-14 -17 20 0
-13 15 16 0
-12 -17 19 0
-11 -13 -17 0
-10 11 -18 0
-10 16 19 0
-9 -12 15 0
-8 -12 -17 0
-7 9 -12 0
-7 9 11 0
-7 11 12 0
-7 17 -20 0
-5 -14 -17 0
-5 -10 17 0
-5 7 -16 0
-5 10 -13 0
-5 10 18 0
-4 -5 -15 0
-4 -5 20 0
-4 6 -17 0
-4 14 16 0
-4 16 20 0
-3 -7 19 0
-3 -5 -14 0
-3 7 17 0
-2 -4 -8 0
-2 3 -15 0
-2 16 17 0
-1 -13 -18 0
-1 -4 18 0
-1 2 11 0
-1 3 8 0
-1 4 -20 0
-1 10 -19 0
-1 11 -18 0
-1 14 18 0
1 -17 18 0
1 -14 -18 0
1 -10 14 0
1 -7 17 0
1 -3 11 0
1 6 -8 0
1 9 13 0
1 13 -17 0
2 -11 20 0
2 -5 -9 0
2 -3 -4 0
2 3 -15 0
2 9 11 0
3 -14 -18 0
3 -11 20 0
3 -4 -17 0
3 -4 16 0
3 8 -11 0
3 11 16 0
3 12 15 0
3 17 20 0
4 -11 19 0
4 -10 -12 0
4 5 -11 0
5 -11 15 0
5 7 -12 0
5 10 -20 0
5 17 -18 0
6 -14 -17 0
6 -14 19 0
6 -12 13 0
6 -11 -18 0
6 -10 -15 0
6 -10 -12 0
6 -9 -19 0
6 9 -10 0
6 14 -18 0
7 -14 -19 0
7 -11 -17 0
7 10 15 0
7 11 19 0
8 -13 20 0
10 -16 17 0
10 -13 19 0
10 11 16 0
11 -12 16 0
11 16 -20 0
12 14 17 0
13 14 -20 0
