p cnf 120 510
-99 107 110 0
-98 -102 -111 0
-92 -95 -109 0
-86 -106 117 0
-85 -107 -114 0
-85 107 116 0
-85 113 119 0
-84 -99 112 0
-84 -87 92 0
-83 -104 105 0
-83 -87 -100 0
-82 -101 -120 0
-81 -101 -120 0
-79 87 -107 0
-75 -108 -114 0
-75 81 -109 0
-75 89 111 0
-75 90 -114 0
-73 78 -86 0
-72 81 -103 0
-71 -75 -94 0
-71 106 -107 0
-68 74 96 0
-66 -73 91 0
-66 -68 -107 0
-65 -66 111 0
-65 86 -89 0
-64 89 -115 0
-61 74 96 0
-61 82 -92 0
-61 87 -109 0
-60 -61 92 0
-59 -98 112 0
-59 82 120 0
-59 89 101 0
-57 -81 -90 0
-57 59 -98 0
-56 -69 70 0
-54 -80 -96 0
-54 -60 95 0
-53 -76 114 0
-53 -63 64 0
-52 -103 -117 0
-50 -74 78 0
-50 59 93 0
-49 -87 88 0
-49 -79 80 0
-49 -62 -114 0
-49 74 -84 0
-49 75 97 0
-49 76 110 0
-49 103 -114 0
-48 50 63 0
-46 -107 -109 0
-46 60 -82 0
-46 102 113 0
-44 -98 104 0
-44 46 51 0
-44 47 -70 0
-44 79 101 0
-43 -45 98 0
-43 53 -85 0
-43 56 118 0
-43 74 87 0
-41 -105 118 0
-41 -66 -73 0
-41 -51 113 0
-40 -103 -119 0
-40 -57 -90 0
-38 -106 119 0
-38 68 -109 0
-37 -108 -113 0
-37 -58 -113 0
-37 -50 118 0
-37 -40 42 0
-37 39 -60 0
-37 40 -50 0
-36 -43 95 0
-36 -39 48 0
-36 87 106 0
-35 -72 -112 0
-35 -55 87 0
-35 95 98 0
-34 -59 -75 0
-34 -41 99 0
-34 73 -98 0
-33 -86 114 0
-33 54 -92 0
-33 105 118 0
-32 -102 108 0
-32 -76 117 0
-32 -59 88 0
-32 36 61 0
-32 57 -87 0
-31 35 -41 0
-30 -73 -96 0
-30 46 -88 0
-29 -69 -103 0
-29 66 -76 0
-28 -65 116 0
-28 -59 118 0
-28 -56 -110 0
-28 56 102 0
-27 -54 -73 0
-27 -28 -58 0
-27 44 50 0
-26 51 88 0
-25 -74 -98 0
-25 -30 -62 0
-25 51 -92 0
-24 -37 47 0
-24 -30 -35 0
-24 29 -107 0
-24 33 -52 0
-24 34 -95 0
-24 34 107 0
-24 90 98 0
-23 -48 -53 0
-23 42 -68 0
-23 60 -78 0
-23 77 -107 0
-22 27 59 0
-22 37 -71 0
-22 66 80 0
-22 80 99 0
-22 83 92 0
-21 -75 119 0
-21 -56 -65 0
-21 -47 -51 0
-21 55 64 0
-20 -48 102 0
-20 -43 -106 0
-20 -41 -81 0
-19 -68 73 0
-19 -65 -94 0
-19 -41 -65 0
-19 44 54 0
-19 50 -52 0
-19 53 -96 0
-18 -70 -119 0
-18 39 -58 0
-18 49 99 0
-17 -24 -82 0
-17 24 102 0
-17 25 -91 0
-17 64 -66 0
-17 96 -108 0
-16 -53 88 0
-16 -35 79 0
-16 -19 -75 0
-16 29 65 0
-16 36 85 0
-16 66 93 0
-15 -100 -106 0
-15 19 -76 0
-15 55 -107 0
-14 -109 -117 0
-14 -80 111 0
-14 -49 -112 0
-14 26 33 0
-13 -37 -104 0
-13 -22 46 0
-13 -17 -114 0
-13 -14 99 0
-13 42 77 0
-13 52 -120 0
-12 -62 84 0
-12 50 -85 0
-12 58 108 0
-12 62 -97 0
-11 -79 119 0
-11 -77 87 0
-11 -68 95 0
-11 -46 99 0
-11 -28 -36 0
-11 32 -96 0
-11 64 -116 0
-11 64 -83 0
-10 13 -18 0
-10 14 -31 0
-10 16 56 0
-10 24 59 0
-10 25 85 0
-10 40 72 0
-9 -56 -57 0
-9 -19 -64 0
-9 15 77 0
-9 16 83 0
-9 27 -92 0
-9 56 116 0
-9 97 114 0
-8 -40 45 0
-8 -23 34 0
-8 15 81 0
-8 64 -91 0
-7 -88 93 0
-7 -44 100 0
-7 -37 56 0
-7 29 37 0
-7 52 -96 0
-7 68 118 0
-6 -96 -116 0
-6 -54 94 0
-6 -44 -82 0
-6 -35 118 0
-6 -30 50 0
-6 -27 -64 0
-6 -20 -36 0
-6 18 -87 0
-6 24 -98 0
-6 36 -91 0
-6 61 -88 0
-5 -64 -87 0
-5 -35 -120 0
-5 7 -110 0
-5 102 111 0
-4 -95 -107 0
-4 -46 89 0
-4 6 -47 0
-4 7 38 0
-4 19 104 0
-4 35 -53 0
-4 54 73 0
-3 20 24 0
-3 73 79 0
-2 -20 -114 0
-2 25 -31 0
-2 54 -55 0
-2 55 94 0
-2 56 99 0
-2 112 114 0
-1 -36 117 0
-1 24 84 0
-1 30 -92 0
-1 60 -83 0
1 -53 72 0
1 -30 106 0
1 -27 60 0
1 -27 111 0
1 -19 76 0
1 -12 46 0
1 -9 -78 0
1 -6 34 0
1 11 -41 0
1 39 72 0
1 50 -66 0
2 -71 80 0
2 -57 -66 0
2 -21 25 0
2 -12 21 0
2 -4 35 0
2 59 -118 0
3 7 -86 0
3 34 93 0
3 71 -81 0
3 89 113 0
4 -59 -65 0
4 -52 -73 0
4 -38 99 0
4 -32 57 0
4 -18 -40 0
4 7 -31 0
4 15 -63 0
4 39 63 0
4 49 58 0
5 -84 95 0
5 -82 -92 0
5 21 48 0
5 34 -86 0
5 50 -63 0
5 58 117 0
6 -83 119 0
6 -57 78 0
6 -28 -30 0
6 -24 40 0
6 -20 -31 0
6 -20 73 0
6 -8 -113 0
6 8 -16 0
6 11 38 0
6 14 108 0
6 80 82 0
6 86 114 0
7 -86 103 0
7 -28 91 0
7 -27 -75 0
7 -10 -70 0
7 -9 -66 0
7 56 -112 0
7 58 -107 0
8 -66 120 0
8 -41 92 0
8 -17 83 0
8 39 -81 0
8 44 103 0
8 81 109 0
9 20 59 0
9 36 -114 0
9 51 -94 0
10 -87 -112 0
10 -16 -70 0
11 -68 91 0
11 -45 -115 0
11 -22 75 0
11 -19 58 0
11 80 -93 0
12 -99 102 0
12 -51 -107 0
12 -21 -50 0
12 41 118 0
12 64 -67 0
13 -36 -101 0
13 46 -78 0
14 -75 94 0
14 -67 -88 0
14 28 41 0
14 37 -93 0
14 54 -71 0
14 75 77 0
15 -29 -101 0
15 -16 46 0
16 -71 -87 0
16 -31 -98 0
16 20 -89 0
16 29 63 0
16 53 -72 0
16 59 -82 0
17 -112 117 0
17 -66 113 0
17 53 -54 0
17 60 -94 0
18 -93 -95 0
18 -65 -78 0
18 -54 58 0
18 -48 112 0
18 -46 94 0
18 -44 115 0
18 41 -106 0
19 -72 -98 0
19 -51 61 0
19 -46 48 0
19 42 -85 0
19 65 95 0
19 83 100 0
19 105 112 0
20 -80 -98 0
20 -60 85 0
20 -21 32 0
20 31 -96 0
20 58 89 0
21 -80 84 0
21 -68 72 0
21 -38 -113 0
21 23 -91 0
21 65 88 0
22 -87 107 0
22 31 64 0
22 40 -117 0
22 69 89 0
23 -93 97 0
23 -89 -92 0
23 -57 89 0
23 -30 114 0
24 -99 -110 0
24 -64 107 0
24 -53 -58 0
24 -29 54 0
25 -72 -74 0
25 -60 66 0
25 -43 58 0
25 38 -83 0
25 88 -95 0
25 89 -109 0
26 -76 94 0
26 -30 37 0
26 43 58 0
26 58 81 0
27 -51 -91 0
27 -47 66 0
27 -43 -78 0
27 86 92 0
28 -50 -101 0
28 29 84 0
28 46 108 0
28 94 -119 0
29 -54 -82 0
29 60 80 0
29 70 107 0
29 86 93 0
29 108 -112 0
30 -98 103 0
30 -44 -92 0
30 -38 84 0
30 47 -82 0
30 47 76 0
30 83 -84 0
31 -78 -80 0
31 -52 -60 0
31 46 -118 0
31 53 -94 0
31 86 -93 0
32 86 -113 0
33 -79 -119 0
33 38 -52 0
33 101 -106 0
34 -51 74 0
34 -47 104 0
35 46 -48 0
35 68 81 0
35 97 -114 0
36 -110 118 0
36 -89 -90 0
36 -48 -78 0
37 -111 119 0
37 -84 118 0
37 -74 -76 0
37 -73 91 0
37 -72 -104 0
37 -56 -111 0
37 40 -45 0
37 49 74 0
37 86 -89 0
38 -104 117 0
38 -65 -83 0
38 -62 -73 0
38 -46 -79 0
38 60 69 0
39 -105 -119 0
39 68 -112 0
40 -70 -86 0
41 -66 -107 0
41 58 94 0
42 -74 -75 0
42 -71 78 0
42 -46 -89 0
42 50 -67 0
43 -50 -104 0
43 47 -84 0
43 49 -109 0
44 -99 112 0
45 78 87 0
45 82 120 0
46 -65 114 0
47 78 110 0
47 93 120 0
48 -70 79 0
48 -56 97 0
49 55 -59 0
49 73 111 0
49 90 -118 0
49 113 118 0
50 -61 -97 0
50 59 -82 0
51 -90 -112 0
51 -69 -87 0
51 -65 66 0
51 57 78 0
51 77 -90 0
51 91 -119 0
52 -56 -97 0
52 57 -72 0
52 81 95 0
52 86 116 0
53 -57 -80 0
53 81 -95 0
54 84 110 0
55 -79 -98 0
55 -67 -103 0
55 66 -114 0
55 104 113 0
57 110 -117 0
58 -76 -91 0
59 -87 114 0
59 -62 -104 0
59 96 114 0
60 79 80 0
63 -80 -91 0
63 106 -108 0
64 -116 -118 0
64 -73 76 0
66 -74 98 0
66 95 98 0
67 -90 -118 0
67 84 112 0
68 73 102 0
72 -87 96 0
73 93 -116 0
73 100 113 0
73 104 112 0
74 79 -87 0
74 87 99 0
75 -86 102 0
75 -80 -97 0
75 80 -119 0
77 -114 -118 0
78 -86 -97 0
79 99 102 0
80 -100 -119 0
80 -92 -106 0
80 85 100 0
84 85 101 0
86 -103 -104 0
89 -96 108 0
89 99 -114 0
90 99 117 0
90 117 -119 0
91 -102 106 0
96 -104 -105 0
101 -102 -111 0
102 106 -110 0
