p cnf 28 119
-22 23 24 0
-22 23 28 0
-21 23 -27 0
-16 -25 -26 0
-15 -16 -18 0
-15 -16 17 0
-14 16 22 0
-13 16 21 0
-13 17 24 0
-12 -17 -20 0
-12 -14 -22 0
-12 18 -19 0
-12 25 -28 0
-11 15 -22 0
-10 -21 -23 0
-10 -16 26 0
-9 -14 28 0
-9 -11 18 0
-9 21 -22 0
-8 -13 -20 0
-8 -11 17 0
-8 12 -14 0
-8 13 21 0
-8 16 -27 0
-8 20 21 0
-8 21 23 0
-7 -24 27 0
-7 -11 -26 0
-7 -10 -28 0
-7 8 -16 0
-7 9 -28 0
-7 13 -28 0
-6 -11 -21 0
-6 12 26 0
-6 16 25 0
-6 19 -25 0
-5 10 25 0
-5 11 16 0
-4 -20 -25 0
-4 -9 24 0
-4 24 -27 0
-3 -7 10 0
-3 5 -25 0
-3 20 24 0
-3 22 25 0
-2 -21 -22 0
-2 -13 24 0
-2 -6 12 0
-2 -5 -20 0
-2 -5 20 0
-2 3 28 0
-2 4 14 0
-2 5 15 0
-2 6 -17 0
-2 7 -19 0
-2 7 15 0
-2 15 20 0
-1 -19 24 0
-1 -8 13 0
-1 -7 -20 0
-1 -6 -26 0
-1 -5 27 0
-1 -2 7 0
-1 -2 10 0
-1 2 -3 0
-1 7 24 0
-1 9 -26 0
-1 11 22 0
-1 14 26 0
-1 15 -19 0
1 -10 19 0
1 2 -6 0
2 -15 -26 0
2 3 15 0
3 -20 -28 0
3 9 -22 0
3 11 14 0
4 -17 -18 0
4 -9 23 0
4 -5 9 0
4 5 -22 0
4 6 20 0
4 9 -18 0
4 11 -19 0
4 11 28 0
4 14 -15 0
5 10 -15 0
5 13 -20 0
5 16 -26 0
6 -23 -25 0
6 -20 -24 0
6 -19 -20 0
6 -17 -25 0
6 16 23 0
6 17 21 0
7 13 16 0
8 -13 16 0
8 -10 -18 0
8 9 -26 0
8 14 -16 0
9 -25 -28 0
9 -20 -21 0
9 -15 -25 0
9 -11 -19 0
9 -11 19 0
9 10 12 0
9 17 -26 0
9 20 21 0
11 -18 24 0
12 -14 -20 0
12 14 -21 0
13 16 21 0
14 15 -28 0
14 15 17 0
14 24 26 0
15 22 -24 0
16 -20 23 0
16 23 24 0
21 22 25 0
