p cnf 60 255
-46 55 -56 0
-45 -50 51 0
-44 47 55 0
-38 39 -42 0
-38 41 51 0
-37 -43 -49 0
-37 -40 -42 0
-36 41 59 0
-34 -54 -56 0
-34 -50 57 0
-32 48 -52 0
-31 34 -35 0
-31 35 51 0
-30 -38 -54 0
-30 -38 55 0
-30 -34 -57 0
-29 -39 -42 0
-29 39 59 0
-28 29 -59 0
-28 40 -47 0
-27 -39 41 0
-26 -36 47 0
-26 42 -50 0
-25 33 53 0
-24 -40 56 0
-24 -33 52 0
-24 -29 -58 0
-24 -27 -38 0
-24 37 -58 0
-24 46 -55 0
-23 -42 48 0
-23 -32 44 0
-23 37 48 0
-22 -29 51 0
-22 24 -50 0
-22 26 -59 0
-22 52 53 0
-21 -35 54 0
-20 -41 59 0
-20 24 -32 0
-20 24 28 0
-20 26 45 0
-20 40 58 0
-19 -49 -57 0
-18 -37 56 0
-18 -31 -60 0
-18 25 53 0
-18 28 -36 0
-18 43 -57 0
-17 -18 -38 0
-17 23 40 0
-17 28 -59 0
-16 -34 50 0
-16 27 -52 0
-15 -28 53 0
-15 24 46 0
-14 15 41 0
-14 30 33 0
-13 -36 39 0
-12 15 55 0
-12 18 -55 0
-11 -40 55 0
-11 -18 33 0
-10 -34 -44 0
-10 -18 -47 0
-10 28 58 0
-9 -26 -39 0
-9 11 57 0
-9 43 -48 0
-8 -38 -56 0
-8 -17 28 0
-8 16 -22 0
-7 -37 53 0
-7 -30 -51 0
-7 -12 46 0
-7 15 -53 0
-6 -52 53 0
-6 -42 54 0
-6 -16 -55 0
-6 -12 -43 0
-6 7 -41 0
-5 -23 43 0
-5 -21 -23 0
-5 -21 43 0
-5 -11 -16 0
-5 -11 52 0
-5 -10 -46 0
-4 -37 -41 0
-4 -24 53 0
-4 -14 -44 0
-4 -11 46 0
-4 -10 31 0
-4 -7 52 0
-4 26 -36 0
-3 -39 -53 0
-3 -16 -50 0
-3 -8 -12 0
-3 21 -53 0
-3 27 58 0
-3 35 -37 0
-3 41 -51 0
-2 -16 18 0
-2 -16 43 0
-2 -16 48 0
-2 -7 -54 0
-2 8 -11 0
-2 17 26 0
-1 -58 -60 0
-1 -4 -24 0
-1 30 57 0
-1 37 39 0
1 -25 -29 0
1 -16 -23 0
1 5 -10 0
1 5 47 0
1 18 -56 0
2 -49 52 0
2 -29 -34 0
2 -22 -49 0
2 -18 41 0
2 -5 44 0
2 -3 -31 0
2 5 -12 0
2 6 57 0
2 13 16 0
2 17 -30 0
2 24 36 0
3 -34 36 0
3 12 -19 0
3 17 37 0
3 23 55 0
3 28 -42 0
3 30 32 0
3 32 -51 0
4 -38 -60 0
4 -30 49 0
4 -10 -53 0
4 -9 -33 0
4 9 53 0
4 18 -45 0
5 -55 57 0
5 -45 56 0
5 -34 51 0
5 14 -51 0
5 16 27 0
5 32 -60 0
5 48 54 0
6 -37 56 0
6 -8 -21 0
6 8 -54 0
6 8 60 0
6 17 -46 0
7 -30 59 0
7 -12 45 0
7 20 -38 0
8 -42 -46 0
8 -26 -51 0
8 -16 -39 0
8 -16 31 0
8 15 32 0
8 19 -28 0
8 29 -32 0
9 -48 52 0
9 -46 49 0
9 -28 -51 0
9 -25 36 0
9 -11 31 0
9 11 -54 0
10 -17 -29 0
10 20 -21 0
10 20 45 0
11 -24 -59 0
11 20 46 0
11 45 50 0
12 -49 56 0
12 -44 -48 0
12 20 36 0
12 26 46 0
13 -51 -56 0
13 -34 52 0
13 -33 59 0
13 -32 -44 0
13 -29 44 0
13 -20 36 0
13 -17 -35 0
13 25 -36 0
13 32 60 0
13 38 -48 0
13 46 60 0
14 -34 51 0
14 -33 -55 0
14 23 -35 0
15 -51 53 0
15 17 34 0
15 22 24 0
15 24 48 0
15 35 -37 0
15 52 60 0
16 -39 58 0
16 23 -52 0
16 27 52 0
16 29 -54 0
17 -31 -45 0
17 -25 -26 0
17 -23 -35 0
18 -27 46 0
18 -23 45 0
18 22 59 0
19 30 32 0
20 -33 34 0
20 25 47 0
20 27 57 0
20 32 -46 0
21 -33 -48 0
21 -27 29 0
21 -24 46 0
21 53 -54 0
22 -31 -36 0
22 25 36 0
22 27 -48 0
23 -44 46 0
23 -34 -51 0
23 -28 42 0
23 33 53 0
23 50 -56 0
24 -36 42 0
24 45 58 0
24 49 59 0
25 -47 51 0
25 -47 57 0
25 39 42 0
26 -42 60 0
26 -34 40 0
26 41 -50 0
27 -32 -47 0
27 34 -57 0
28 -41 57 0
28 -34 -36 0
28 -30 -55 0
29 -51 55 0
29 -42 54 0
29 35 -39 0
29 47 53 0
32 -34 -45 0
32 49 -53 0
32 53 -54 0
35 -39 -43 0
36 -44 -56 0
37 -40 50 0
37 39 48 0
39 40 55 0
39 52 -58 0
44 -49 54 0
45 47 60 0
50 -54 59 0
