p cnf 100 600
-85 -93 98 0
-78 90 98 0
-77 -94 95 0
-76 81 -83 0
-74 -91 -97 0
-67 -80 84 0
-66 85 86 0
-64 -87 97 0
-64 73 -79 0
-64 73 91 0
-61 -87 -96 0
-61 -72 91 0
-60 73 82 0
-59 78 -84 0
-58 59 85 0
-58 66 -74 0
-57 71 84 0
-56 -76 -83 0
-56 58 -63 0
-55 74 83 0
-54 -90 92 0
-54 -66 70 0
-54 -62 -91 0
-54 -58 -90 0
-53 61 75 0
-52 -74 91 0
-52 -70 -71 0
-52 58 -63 0
-52 61 -72 0
-52 89 -93 0
-51 -56 -66 0
-51 58 70 0
-51 79 88 0
-50 -93 -95 0
-49 55 -91 0
-49 63 -98 0
-48 -75 -94 0
-48 54 -55 0
-47 -60 -83 0
-47 54 86 0
-47 69 98 0
-46 -84 -95 0
-46 -57 -73 0
-46 -56 -62 0
-45 -60 -91 0
-45 53 72 0
-44 -81 -85 0
-44 -63 91 0
-44 -51 56 0
-44 -47 -79 0
-43 -55 70 0
-42 87 97 0
-41 -82 96 0
-41 -50 -74 0
-41 -48 -99 0
-41 48 52 0
-41 77 100 0
-40 58 66 0
-39 41 -78 0
-39 80 -97 0
-38 -84 -89 0
-38 45 91 0
-38 51 95 0
-38 56 -96 0
-38 59 -82 0
-38 63 -72 0
-37 -74 90 0
-37 -67 -74 0
-37 -47 -70 0
-36 -79 85 0
-36 -63 -75 0
-36 -55 96 0
-36 65 -76 0
-35 -50 -99 0
-35 -44 88 0
-35 48 49 0
-35 73 -84 0
-35 78 85 0
-34 -83 -86 0
-34 -56 -72 0
-34 -36 -38 0
-34 48 -70 0
-34 52 62 0
-34 53 72 0
-33 -70 81 0
-32 -64 82 0
-32 -58 -88 0
-32 37 -64 0
-32 43 -67 0
-32 52 -67 0
-31 -55 -63 0
-31 -42 47 0
-31 39 82 0
-31 39 99 0
-31 40 93 0
-31 73 99 0
-30 -78 80 0
-30 -62 -77 0
-30 44 57 0
-30 52 87 0
-30 53 -57 0
-30 82 -86 0
-29 -60 -88 0
-29 -57 -70 0
-29 -56 -65 0
-29 30 55 0
-29 30 70 0
-29 44 -73 0
-28 -73 75 0
-28 -46 53 0
-28 -30 -77 0
-28 89 -98 0
-27 -56 91 0
-27 53 -56 0
-27 80 -92 0
-26 -41 79 0
-26 39 45 0
-26 59 93 0
-26 87 -89 0
-25 -40 70 0
-25 -38 69 0
-25 26 45 0
-25 42 47 0
-25 44 87 0
-25 48 -89 0
-25 67 -73 0
-24 -38 57 0
-24 38 94 0
-24 41 -67 0
-24 44 67 0
-23 -32 -36 0
-23 33 -49 0
-23 40 64 0
-23 45 -97 0
-22 -44 -92 0
-22 28 -29 0
-22 65 84 0
-21 -43 -97 0
-21 64 99 0
-21 65 88 0
-20 -79 -81 0
-20 -46 65 0
-20 35 -76 0
-20 37 -58 0
-20 83 -90 0
-19 -44 -61 0
-19 -35 -78 0
-19 32 73 0
-19 36 -75 0
-18 -71 97 0
-18 -45 -88 0
-18 -36 -65 0
-17 -20 77 0
-17 26 76 0
-17 27 -82 0
-17 29 -30 0
-17 38 49 0
-17 76 -96 0
-16 -78 -97 0
-16 -66 -88 0
-16 -57 -62 0
-16 -55 94 0
-16 -33 -50 0
-16 -32 50 0
-16 -25 -84 0
-16 -21 -73 0
-16 -18 37 0
-16 18 -34 0
-16 26 -45 0
-16 32 93 0
-16 50 77 0
-16 61 -93 0
-16 84 -85 0
-15 -80 -94 0
-15 -76 90 0
-15 -71 -78 0
-15 -33 50 0
-15 -24 -69 0
-15 21 56 0
-15 42 -44 0
-15 43 -76 0
-15 46 48 0
-15 68 -96 0
-15 93 -94 0
-14 -44 -45 0
-14 -36 64 0
-14 -24 -55 0
-14 17 54 0
-14 70 -94 0
-14 86 93 0
-13 -86 96 0
-13 -82 91 0
-13 -66 76 0
-13 -35 -38 0
-13 -30 84 0
-13 32 85 0
-13 42 71 0
-12 -77 91 0
-12 -66 75 0
-12 -54 -72 0
-12 -51 79 0
-12 -26 81 0
-12 15 -94 0
-12 58 65 0
-12 83 85 0
-11 -39 92 0
-11 -30 42 0
-11 34 -63 0
-11 47 75 0
-11 50 68 0
-11 53 96 0
-11 72 -75 0
-10 -67 82 0
-10 -18 75 0
-10 -16 -56 0
-10 -15 -25 0
-10 45 -77 0
-10 47 70 0
-10 54 -79 0
-10 86 -93 0
-9 -38 54 0
-9 -29 -57 0
-9 -27 -63 0
-9 -26 78 0
-9 -16 -45 0
-9 14 85 0
-9 19 -31 0
-9 59 70 0
-9 82 87 0
-8 -77 -79 0
-8 -37 -71 0
-8 9 82 0
-8 10 93 0
-8 43 -81 0
-8 65 -75 0
-8 72 84 0
-7 -64 -83 0
-7 -42 -79 0
-7 -30 -40 0
-7 57 95 0
-7 63 68 0
-7 80 -88 0
-7 87 98 0
-6 -91 95 0
-6 -63 -87 0
-6 -22 -68 0
-6 -19 94 0
-6 8 71 0
-6 12 -71 0
-6 17 -54 0
-6 31 36 0
-6 48 -79 0
-6 61 76 0
-5 -72 -100 0
-5 -61 66 0
-5 11 86 0
-5 16 18 0
-5 36 76 0
-4 -16 -65 0
-4 7 57 0
-4 13 -73 0
-4 14 -24 0
-4 19 50 0
-4 49 96 0
-3 -81 98 0
-3 -51 62 0
-3 -41 50 0
-3 -39 -72 0
-3 -25 66 0
-3 38 -91 0
-2 -50 -75 0
-2 -17 33 0
-2 -14 -49 0
-2 -12 -68 0
-2 -9 15 0
-2 -3 -13 0
-2 4 -86 0
-2 15 27 0
-2 16 50 0
-2 32 -42 0
-2 43 -83 0
-1 -95 98 0
-1 -54 -86 0
-1 -10 -33 0
-1 18 -78 0
-1 54 75 0
1 -86 91 0
1 -78 98 0
1 -54 -62 0
1 -16 -84 0
1 52 -57 0
1 60 -100 0
1 62 73 0
2 -16 51 0
2 -12 14 0
2 -6 -92 0
2 55 65 0
2 61 74 0
2 75 -85 0
2 78 -100 0
3 -48 89 0
3 -45 -65 0
3 -27 40 0
3 -23 -40 0
3 -18 -59 0
3 -5 76 0
3 15 23 0
3 17 97 0
3 56 -58 0
3 60 -79 0
3 67 94 0
4 -14 55 0
4 17 35 0
4 52 76 0
5 -58 100 0
5 -43 51 0
5 -29 -34 0
5 -18 -94 0
5 38 -98 0
6 -75 89 0
6 -66 -88 0
6 -61 64 0
6 -53 96 0
6 -22 88 0
6 -22 94 0
6 -7 98 0
6 23 86 0
6 47 -100 0
6 53 -95 0
6 57 -89 0
6 73 78 0
7 -65 -88 0
7 -40 89 0
7 -29 -65 0
7 17 95 0
7 43 -81 0
7 64 93 0
7 69 89 0
7 91 -95 0
8 -67 72 0
8 -56 -78 0
8 -51 -69 0
8 -44 -69 0
8 -32 62 0
8 -9 -71 0
8 -9 13 0
8 -9 50 0
8 35 52 0
8 46 -56 0
8 55 -72 0
8 61 83 0
9 -88 90 0
9 -70 -100 0
9 -64 -95 0
9 -57 -78 0
9 -54 97 0
9 -36 -79 0
9 -11 -97 0
9 16 45 0
9 60 -97 0
9 62 -87 0
9 86 94 0
10 -85 96 0
10 -68 85 0
10 -55 -57 0
10 -55 84 0
10 -52 -59 0
10 -44 -58 0
10 -42 -44 0
10 -38 54 0
10 -36 -64 0
10 -14 100 0
10 18 73 0
10 26 53 0
10 32 60 0
10 34 47 0
10 42 -71 0
10 69 87 0
11 -53 87 0
11 -36 89 0
11 20 -97 0
11 50 70 0
11 70 -88 0
12 -65 -94 0
12 -56 73 0
12 -20 -22 0
12 -19 80 0
12 -13 -44 0
12 21 61 0
12 27 -49 0
12 35 -59 0
12 51 93 0
12 77 94 0
13 -54 -90 0
13 -45 79 0
13 -44 -89 0
13 18 -98 0
13 18 33 0
13 19 64 0
13 20 -26 0
14 -64 94 0
14 -43 -79 0
14 -35 91 0
14 -20 48 0
14 -17 -40 0
14 39 99 0
14 56 -67 0
14 89 91 0
15 -61 -78 0
15 -33 -55 0
15 -17 -41 0
15 -16 -52 0
15 30 -99 0
15 43 -73 0
15 68 95 0
16 -79 80 0
16 -54 58 0
16 -46 69 0
16 -24 49 0
16 28 -65 0
16 33 -99 0
16 42 -89 0
17 -81 95 0
17 -66 -96 0
17 -46 70 0
17 -33 88 0
17 -20 -58 0
17 61 -95 0
18 -67 74 0
18 -63 -77 0
18 -43 -86 0
18 -24 -70 0
18 29 -52 0
18 36 94 0
18 40 -51 0
18 40 80 0
18 42 67 0
19 -37 -51 0
19 -36 -39 0
19 -20 40 0
19 25 51 0
19 46 70 0
20 -89 95 0
20 -49 90 0
20 -40 -49 0
20 -21 100 0
20 29 99 0
20 30 65 0
20 39 -63 0
20 81 87 0
20 85 -92 0
21 -76 90 0
21 -75 98 0
21 -40 -77 0
22 -64 -97 0
22 25 -82 0
22 32 88 0
22 52 90 0
23 -81 90 0
23 -76 -99 0
23 -37 61 0
23 -31 62 0
23 45 -95 0
23 61 94 0
24 -68 80 0
24 -66 89 0
24 -62 77 0
25 -50 -93 0
25 -49 88 0
25 -39 -47 0
25 -38 -86 0
25 -36 -62 0
25 -33 -39 0
25 31 47 0
26 -66 91 0
26 -59 -82 0
26 -52 78 0
26 -38 95 0
26 33 77 0
26 44 -90 0
26 45 -56 0
26 49 -80 0
26 58 -61 0
27 -48 99 0
27 34 -50 0
27 35 90 0
27 40 -99 0
27 80 92 0
28 -49 91 0
29 -38 57 0
29 44 -58 0
30 -94 -98 0
30 -35 -54 0
30 56 62 0
30 63 75 0
30 65 -87 0
30 66 -70 0
31 -64 -79 0
31 -45 -70 0
31 43 -78 0
31 70 -82 0
31 77 81 0
32 -46 -98 0
32 -42 66 0
32 -35 57 0
32 47 -60 0
32 73 78 0
32 85 -87 0
32 95 -100 0
33 -52 -81 0
33 -50 70 0
33 -38 78 0
34 -80 99 0
34 -68 95 0
35 -84 86 0
35 36 80 0
36 47 -61 0
36 55 -61 0
37 -89 -97 0
37 -77 -95 0
37 -57 -59 0
37 55 -88 0
38 39 70 0
38 44 -81 0
38 44 -74 0
38 92 -99 0
39 -59 91 0
40 -95 100 0
40 -64 84 0
40 -47 -88 0
40 42 58 0
40 52 -100 0
40 79 -96 0
41 -77 -89 0
41 -64 -98 0
41 -43 -84 0
42 -69 70 0
42 -49 -97 0
42 46 95 0
42 75 85 0
43 -45 69 0
43 56 72 0
44 -54 65 0
44 -47 -82 0
44 -45 -84 0
44 68 -96 0
45 -50 85 0
45 -46 -81 0
45 -46 51 0
45 53 -100 0
45 54 -85 0
45 76 -93 0
46 -92 97 0
47 -52 -59 0
48 92 100 0
49 69 -92 0
49 83 -96 0
50 -89 92 0
50 -57 -60 0
50 -51 -68 0
50 72 -88 0
50 81 95 0
51 -86 -89 0
51 -61 -82 0
51 -52 56 0
51 91 -92 0
52 -83 -89 0
52 -56 -79 0
52 62 78 0
53 65 69 0
53 70 -89 0
55 60 -71 0
56 -77 -89 0
56 80 86 0
57 -86 93 0
57 -73 -97 0
57 59 -93 0
57 67 -72 0
59 -73 -100 0
60 61 -88 0
60 88 -89 0
61 -72 95 0
61 69 95 0
61 80 -85 0
62 81 -94 0
64 65 -92 0
66 -83 91 0
67 -74 -76 0
68 -80 85 0
68 -79 -95 0
68 -70 -99 0
68 89 91 0
70 -79 -87 0
71 -81 85 0
71 -73 74 0
72 -80 -99 0
77 88 90 0
78 95 -98 0
79 -80 -86 0
85 -86 97 0
