p cnf 28 119
-23 24 -28 0
-22 24 -28 0
-17 20 23 0
-17 20 27 0
-16 -22 26 0
-15 -19 28 0
-15 16 -21 0
-14 -22 24 0
-14 -20 -25 0
-14 15 -24 0
-13 14 -18 0
-12 -15 -25 0
-12 15 -17 0
-11 25 28 0
-10 18 25 0
-9 -12 19 0
-9 10 -26 0
-9 20 -25 0
-9 23 26 0
-8 -18 22 0
-8 -16 -18 0
-8 -13 -28 0
-8 12 17 0
-7 -19 27 0
-7 -8 17 0
-7 9 -19 0
-6 9 26 0
-5 -20 23 0
-5 8 -17 0
-5 10 -26 0
-4 -17 27 0
-4 -13 -24 0
-4 -11 14 0
-4 5 -6 0
-4 7 -14 0
-4 7 10 0
-4 9 -13 0
-4 10 -21 0
-4 12 13 0
-4 18 -21 0
-3 -20 -24 0
-3 -17 22 0
-3 -9 16 0
-3 -7 -13 0
-3 9 -21 0
-3 9 21 0
-3 18 -25 0
-2 -20 -23 0
-2 -16 17 0
-2 -8 13 0
-2 -7 -19 0
-2 4 21 0
-1 -26 -28 0
-1 -21 24 0
-1 -17 -27 0
-1 -15 -22 0
-1 -12 15 0
-1 -10 24 0
-1 -6 -14 0
-1 -4 -7 0
-1 6 27 0
-1 8 23 0
-1 9 -20 0
-1 11 -19 0
1 -17 20 0
1 -14 18 0
1 -6 -14 0
1 9 20 0
1 10 -11 0
1 24 26 0
2 -7 -11 0
2 -6 28 0
2 -4 -14 0
2 6 -18 0
2 9 15 0
3 -21 26 0
3 -6 8 0
3 -4 25 0
3 10 -16 0
3 11 12 0
3 19 26 0
4 14 -24 0
5 -7 -10 0
6 -25 26 0
6 -14 18 0
6 -11 -28 0
6 8 -13 0
7 -14 -21 0
7 -14 18 0
7 8 27 0
8 -24 28 0
8 -12 25 0
8 10 23 0
8 17 -27 0
8 20 -27 0
8 20 27 0
8 23 24 0
9 -19 -28 0
9 -18 -28 0
9 -16 26 0
9 -13 17 0
9 -13 22 0
9 11 -25 0
10 -14 -27 0
10 12 13 0
10 22 -27 0
10 23 -25 0
11 -14 19 0
11 14 18 0
12 -18 26 0
12 -14 26 0
12 15 -20 0
12 18 -19 0
12 18 22 0
13 15 -24 0
19 23 -25 0
20 22 24 0
20 25 28 0
21 -24 -28 0
