p cnf 45 191
-36 39 -44 0
-31 34 36 0
-29 34 -45 0
-29 35 -41 0
-28 -35 -40 0
-27 35 -43 0
-26 -35 -37 0
-26 -32 44 0
-26 -30 31 0
-25 26 38 0
-25 28 -37 0
-24 26 39 0
-23 27 40 0
-23 32 -37 0
-22 32 -34 0
-22 37 -43 0
-21 -30 41 0
-21 33 -42 0
-20 -22 -36 0
-19 -21 -37 0
-18 -20 22 0
-17 -24 -28 0
-17 23 -31 0
-17 29 -39 0
-16 -42 -43 0
-16 -35 36 0
-16 -27 -31 0
-16 -24 31 0
-16 18 25 0
-15 -26 35 0
-15 -17 -44 0
-14 29 -32 0
-14 33 35 0
-14 37 41 0
-13 -40 -43 0
-13 -25 41 0
-13 -16 -37 0
-13 -15 43 0
-13 26 -33 0
-12 -27 34 0
-12 21 44 0
-11 22 23 0
-10 -28 -36 0
-10 -28 42 0
-10 -12 -43 0
-10 12 -30 0
-10 18 36 0
-10 25 -40 0
-9 -21 42 0
-9 14 42 0
-9 29 -44 0
-9 35 39 0
-8 -17 -18 0
-7 -33 41 0
-7 -27 -31 0
-7 -27 43 0
-7 -26 43 0
-7 -16 -22 0
-7 -8 39 0
-7 9 -28 0
-7 24 -35 0
-6 -26 -44 0
-6 -14 24 0
-5 -13 -45 0
-5 11 -42 0
-5 25 -30 0
-4 -14 41 0
-4 5 -32 0
-4 11 17 0
-4 12 -24 0
-3 -23 24 0
-3 -19 -24 0
-3 -13 -44 0
-3 -8 45 0
-3 -5 14 0
-3 5 29 0
-3 14 -24 0
-3 24 -40 0
-3 25 30 0
-2 -42 43 0
-2 -30 -43 0
-2 -25 40 0
-2 -16 38 0
-2 -6 8 0
-2 4 -8 0
-2 5 -43 0
-2 15 -16 0
-2 17 23 0
-1 -26 -43 0
-1 -24 -41 0
-1 -22 37 0
-1 -9 37 0
-1 5 8 0
-1 10 -25 0
-1 10 17 0
-1 21 -28 0
-1 40 45 0
1 -15 -36 0
1 -8 -26 0
1 -6 30 0
1 -4 11 0
1 3 -45 0
1 4 -6 0
1 6 -33 0
1 12 21 0
1 24 34 0
1 25 26 0
2 -44 45 0
2 -40 44 0
2 -25 -44 0
2 4 -30 0
2 36 44 0
3 -26 -36 0
3 -20 33 0
3 -6 24 0
3 18 -26 0
4 -16 34 0
4 -12 -45 0
4 -12 -13 0
4 -11 20 0
4 -10 21 0
4 -9 29 0
4 14 31 0
4 34 38 0
4 39 -45 0
5 8 11 0
5 17 -40 0
6 -20 -34 0
6 -20 -31 0
6 -13 26 0
6 -8 19 0
7 21 -39 0
8 -31 -36 0
8 -23 39 0
8 -15 -36 0
8 13 41 0
8 18 -26 0
8 25 -29 0
9 -33 -40 0
9 -24 38 0
9 -19 22 0
9 -14 -44 0
9 10 -23 0
10 -11 -45 0
11 -20 24 0
11 22 43 0
11 29 -42 0
12 -21 -32 0
12 14 28 0
13 -21 38 0
13 -20 32 0
13 14 -20 0
13 19 39 0
14 -34 45 0
14 -24 28 0
14 -17 -45 0
14 20 29 0
15 -28 41 0
15 -23 -45 0
15 -17 -27 0
15 17 -28 0
15 25 -32 0
15 29 36 0
16 36 -37 0
17 19 41 0
17 27 -36 0
17 35 -40 0
18 -37 -45 0
18 -19 -24 0
19 -22 -35 0
19 -21 -31 0
20 -21 42 0
20 26 45 0
20 33 40 0
20 34 -41 0
21 -28 -40 0
21 -23 32 0
21 42 -43 0
22 27 -29 0
23 29 -41 0
24 29 40 0
25 27 36 0
26 -29 45 0
26 35 36 0
28 31 -42 0
28 36 45 0
29 39 43 0
31 -37 39 0
31 40 -45 0
32 -34 -40 0
35 -36 -42 0
