p cnf 32 136
-25 -29 31 0
-25 -27 -28 0
-25 -26 -28 0
-22 23 -27 0
-22 26 -27 0
-21 -26 31 0
-20 -31 32 0
-18 -20 -29 0
-17 -22 25 0
-17 -21 22 0
-17 31 -32 0
-16 -23 -30 0
-16 23 24 0
-14 -20 27 0
-14 -16 -31 0
-13 -17 -22 0
-13 16 -32 0
-12 -25 31 0
-12 -14 25 0
-12 16 -27 0
-11 -22 25 0
-11 12 29 0
-11 15 -29 0
-10 18 -32 0
-9 -28 30 0
-9 -13 -21 0
-9 -11 26 0
-9 13 -22 0
-9 16 30 0
-8 -20 31 0
-8 -19 24 0
-8 -12 24 0
-8 13 -15 0
-8 13 16 0
-8 14 -30 0
-8 22 25 0
-7 -10 22 0
-7 8 25 0
-6 -31 -32 0
-6 -21 -24 0
-6 -8 27 0
-6 9 -10 0
-6 10 -25 0
-6 20 25 0
-5 -17 -27 0
-5 -11 14 0
-5 -8 -30 0
-5 7 17 0
-5 10 -29 0
-5 11 27 0
-5 16 -23 0
-5 19 25 0
-5 27 -30 0
-4 -29 31 0
-4 -28 -30 0
-4 -27 30 0
-4 -20 -22 0
-4 -14 -15 0
-4 8 -16 0
-3 -18 -27 0
-3 -12 -26 0
-3 23 -25 0
-3 25 -28 0
-2 11 17 0
-2 13 26 0
-1 -20 26 0
-1 -10 -13 0
-1 -5 32 0
-1 10 12 0
-1 10 16 0
-1 21 -30 0
-1 24 25 0
1 -26 32 0
1 -20 27 0
1 -14 -24 0
1 -3 24 0
1 2 31 0
1 18 -32 0
1 28 30 0
2 -9 16 0
2 3 -14 0
2 4 27 0
2 6 -18 0
2 11 12 0
2 23 32 0
3 -12 25 0
3 -7 -23 0
3 -7 23 0
3 4 9 0
3 8 -15 0
4 -15 20 0
4 -10 -25 0
4 -10 20 0
4 19 29 0
5 -6 -20 0
5 31 32 0
6 -18 29 0
6 -17 -31 0
6 8 -10 0
6 12 29 0
6 15 16 0
6 24 28 0
6 25 31 0
7 -14 -18 0
7 -13 -17 0
7 -12 19 0
7 8 24 0
7 11 -22 0
8 -27 -30 0
8 -25 -29 0
8 -21 -22 0
8 11 -26 0
8 17 -28 0
8 18 21 0
9 -11 -21 0
9 21 -27 0
10 13 -22 0
10 13 -20 0
10 19 -31 0
11 -16 30 0
11 13 18 0
11 26 -28 0
12 -13 17 0
13 17 29 0
15 -28 31 0
15 21 -29 0
16 -27 -29 0
16 -17 -20 0
16 24 32 0
17 -24 -26 0
18 20 26 0
19 23 -28 0
20 -25 28 0
20 23 -24 0
23 -26 -28 0
25 26 32 0
