p cnf 35 149
-30 -32 -34 0
-29 -30 -31 0
-26 28 34 0
-25 -33 34 0
-24 -28 -33 0
-23 27 32 0
-22 -24 35 0
-22 23 -26 0
-21 -26 31 0
-20 -29 31 0
-20 24 26 0
-20 24 28 0
-19 -28 -29 0
-17 -30 33 0
-16 18 -19 0
-16 20 30 0
-15 -27 -34 0
-15 -22 -24 0
-15 16 31 0
-15 19 28 0
-15 22 25 0
-13 -27 -31 0
-13 -14 24 0
-12 -13 20 0
-11 13 14 0
-11 21 35 0
-10 18 -26 0
-10 31 -34 0
-9 -12 23 0
-8 -17 -19 0
-8 10 -24 0
-7 -23 -31 0
-7 16 34 0
-6 -21 -28 0
-6 -13 -22 0
-6 9 22 0
-6 10 -17 0
-6 11 -20 0
-6 22 23 0
-6 27 -28 0
-6 28 -33 0
-5 -11 27 0
-5 -11 32 0
-4 -11 -18 0
-4 -6 30 0
-3 8 35 0
-3 9 -15 0
-3 10 -28 0
-2 -23 26 0
-2 -15 27 0
-2 -9 -35 0
-2 -3 16 0
-2 9 -24 0
-2 13 27 0
-1 -11 -13 0
-1 -3 5 0
-1 2 16 0
-1 3 34 0
-1 5 16 0
1 -6 25 0
1 -5 -25 0
1 -5 31 0
1 3 -23 0
2 -19 -21 0
2 -16 -35 0
2 -6 26 0
2 -4 11 0
2 -3 25 0
2 7 18 0
2 16 -30 0
2 17 -29 0
2 17 23 0
3 -25 26 0
3 -20 24 0
3 10 26 0
3 14 26 0
3 25 -29 0
3 28 32 0
4 -19 29 0
4 -16 -27 0
4 -12 -25 0
4 -11 21 0
4 -10 19 0
4 -9 16 0
4 -8 13 0
4 7 -21 0
4 7 11 0
4 27 -29 0
5 -31 -33 0
5 -11 20 0
5 -9 -29 0
5 -9 16 0
5 -6 -9 0
5 9 23 0
5 14 31 0
5 23 -29 0
6 -26 -30 0
6 -19 20 0
6 -15 19 0
6 -14 -17 0
6 7 -17 0
6 12 -22 0
6 34 -35 0
7 -9 -18 0
7 -8 -33 0
7 26 -29 0
8 -25 -34 0
8 14 -28 0
8 15 -20 0
9 -20 24 0
9 22 -24 0
10 -22 -27 0
10 -19 -25 0
11 -17 -35 0
11 -16 17 0
12 -13 -19 0
12 -13 -18 0
12 27 33 0
13 30 31 0
14 -23 28 0
14 15 32 0
14 16 -33 0
14 16 27 0
14 23 32 0
15 -29 -34 0
15 16 -35 0
15 28 34 0
16 17 -24 0
16 26 -28 0
17 -27 -32 0
17 18 -35 0
17 27 -29 0
18 21 -27 0
19 -34 35 0
19 -20 33 0
19 29 33 0
20 -24 29 0
20 25 33 0
21 -24 -26 0
21 22 -33 0
21 28 -31 0
22 -25 -28 0
22 -23 -30 0
23 -24 -35 0
23 25 35 0
24 31 35 0
25 29 -30 0
27 -30 31 0
30 -32 35 0
