p cnf 55 234
-44 -51 -54 0
-38 -49 -55 0
-38 -41 43 0
-34 47 54 0
-33 -45 54 0
-33 -41 52 0
-33 -37 -55 0
-33 35 44 0
-32 36 48 0
-32 49 -55 0
-30 -37 -39 0
-30 -36 38 0
-29 34 47 0
-28 -30 54 0
-28 40 -48 0
-26 -37 -40 0
-26 33 47 0
-24 -38 55 0
-24 37 -42 0
-24 37 46 0
-23 -25 29 0
-23 27 52 0
-23 35 -49 0
-23 44 53 0
-22 -31 51 0
-21 27 -32 0
-20 -50 -54 0
-20 -40 52 0
-20 25 -41 0
-20 46 -50 0
-19 -25 44 0
-19 31 39 0
-19 40 -54 0
-18 -21 -34 0
-18 29 38 0
-16 -37 55 0
-16 -19 29 0
-15 -25 38 0
-15 21 44 0
-14 -19 48 0
-14 -17 -46 0
-14 18 -45 0
-14 19 -42 0
-13 37 47 0
-12 15 -16 0
-11 -33 -37 0
-11 -27 36 0
-11 -24 46 0
-11 -21 -30 0
-11 18 -46 0
-11 31 -53 0
-11 42 44 0
-10 17 18 0
-9 -39 50 0
-9 -31 52 0
-9 -28 -43 0
-9 -28 -30 0
-9 -10 33 0
-9 13 22 0
-9 18 -43 0
-8 -40 44 0
-8 -26 40 0
-8 18 -43 0
-8 26 54 0
-8 40 50 0
-7 -19 -36 0
-7 -19 45 0
-7 -16 54 0
-7 -12 -23 0
-7 31 -45 0
-6 -42 54 0
-6 -12 25 0
-6 -8 -12 0
-6 11 -47 0
-6 13 -27 0
-6 15 -43 0
-6 37 38 0
-6 40 -47 0
-5 -18 -42 0
-5 -14 33 0
-5 -14 40 0
-5 -12 39 0
-5 -6 22 0
-5 11 -12 0
-4 -45 47 0
-4 -11 44 0
-4 -6 15 0
-4 8 -17 0
-4 21 28 0
-4 23 24 0
-4 25 39 0
-4 34 -46 0
-3 -24 -44 0
-3 -9 26 0
-3 12 45 0
-2 -33 43 0
-2 -27 48 0
-2 -18 -48 0
-2 -17 -50 0
-2 -4 41 0
-2 3 -36 0
-2 39 48 0
-1 -51 54 0
-1 -42 -50 0
-1 -34 -54 0
-1 -32 47 0
-1 -14 28 0
-1 -13 -14 0
-1 3 -54 0
-1 18 -19 0
-1 27 -30 0
-1 31 52 0
1 -38 -55 0
1 -23 -26 0
1 -20 -30 0
1 -10 15 0
1 15 27 0
1 23 55 0
1 32 -43 0
2 -25 33 0
2 17 -23 0
2 26 35 0
3 -39 -43 0
3 -33 -41 0
3 -7 31 0
3 24 52 0
3 26 -44 0
3 32 -51 0
3 34 -50 0
4 -31 34 0
4 -23 28 0
4 -22 -41 0
4 -20 30 0
4 -12 36 0
4 -9 26 0
4 33 41 0
4 35 36 0
4 44 -46 0
5 -30 51 0
5 -15 -50 0
5 14 -15 0
5 15 -51 0
5 17 -31 0
5 25 -40 0
6 -8 -25 0
6 14 38 0
6 18 24 0
6 20 -48 0
6 34 37 0
7 -12 -14 0
7 12 -17 0
7 38 -51 0
8 -38 -50 0
8 -11 30 0
8 -9 21 0
8 15 -24 0
8 22 43 0
9 -39 -45 0
9 -38 -39 0
9 10 -18 0
9 49 50 0
10 -45 -52 0
10 -43 -47 0
10 -43 49 0
10 -41 45 0
10 -33 -45 0
10 -20 38 0
10 17 -38 0
10 24 49 0
10 31 -52 0
11 -35 44 0
11 15 -36 0
11 25 -30 0
11 28 38 0
12 -39 52 0
12 -32 37 0
12 -22 44 0
12 17 -25 0
12 21 -28 0
13 -49 52 0
13 -18 -37 0
13 27 -29 0
13 40 -44 0
13 47 -54 0
13 49 53 0
14 -29 -44 0
14 30 -53 0
15 18 -40 0
15 25 -50 0
15 38 53 0
16 -35 45 0
16 -18 -39 0
16 30 43 0
17 -30 36 0
17 -26 27 0
17 -19 36 0
17 22 32 0
17 23 52 0
17 25 46 0
17 27 33 0
17 31 38 0
17 38 54 0
18 -46 -51 0
18 -25 -43 0
18 21 22 0
18 30 -47 0
19 -47 54 0
20 -27 48 0
20 35 52 0
20 39 -51 0
21 -42 -51 0
21 -34 53 0
21 -24 -32 0
21 32 54 0
22 -43 52 0
23 27 55 0
23 28 33 0
25 -41 -48 0
27 -35 46 0
27 50 -53 0
28 -37 39 0
30 32 45 0
30 36 39 0
30 36 50 0
30 38 -49 0
33 36 38 0
34 -42 -46 0
35 -41 55 0
35 43 -50 0
38 -46 54 0
39 42 -52 0
39 44 49 0
40 -41 42 0
49 -50 -53 0
