p cnf 160 704
-132 -134 149 0
-115 119 -146 0
-115 130 151 0
-114 -115 148 0
-112 -114 -135 0
-110 121 -145 0
-108 110 142 0
-102 133 150 0
-101 -121 129 0
-100 120 134 0
-99 -109 -115 0
-98 115 158 0
-97 140 -148 0
-95 -118 -120 0
-95 -107 153 0
-95 -96 99 0
-95 116 -149 0
-94 105 -139 0
-94 130 -146 0
-92 -96 -109 0
-91 -124 127 0
-91 -106 140 0
-91 -93 129 0
-90 139 -154 0
-89 -127 128 0
-89 124 137 0
-88 -102 124 0
-88 -93 -145 0
-87 -125 -130 0
-87 -107 -114 0
-87 94 -133 0
-87 126 142 0
-86 -126 140 0
-86 -114 -119 0
-86 150 152 0
-85 95 111 0
-85 109 110 0
-85 140 -152 0
-83 -113 149 0
-83 113 148 0
-82 -108 -153 0
-82 92 -96 0
-82 130 -136 0
-82 130 -134 0
-81 -97 -138 0
-81 -87 -132 0
-81 82 -138 0
-81 96 135 0
-81 98 -155 0
-80 -114 -122 0
-80 -107 116 0
-80 -96 111 0
-79 -82 155 0
-78 81 -135 0
-77 -97 -115 0
-75 -102 110 0
-75 88 -113 0
-75 130 134 0
-74 -145 -154 0
-74 -128 157 0
-74 88 -131 0
-73 -100 128 0
-72 -77 -81 0
-71 -127 -154 0
-71 81 -160 0
-71 111 -148 0
-70 -103 -148 0
-70 77 133 0
-70 93 132 0
-70 114 149 0
-69 -80 91 0
-69 75 -130 0
-69 134 -147 0
-68 -90 -140 0
-68 72 135 0
-68 117 142 0
-67 112 142 0
-66 -106 124 0
-66 -67 -154 0
-66 -67 80 0
-66 68 -126 0
-65 -73 -112 0
-65 -72 -117 0
-64 -129 141 0
-64 -85 -116 0
-64 -75 154 0
-64 76 -85 0
-64 106 -160 0
-64 140 158 0
-63 -112 -148 0
-63 -106 -148 0
-63 -95 142 0
-63 -88 157 0
-63 -74 -119 0
-63 77 -125 0
-62 -127 146 0
-62 -76 -89 0
-62 66 130 0
-62 87 145 0
-61 -102 -111 0
-61 62 -114 0
-61 80 -126 0
-60 -123 -128 0
-59 -127 159 0
-59 -87 -134 0
-59 -65 142 0
-59 66 -77 0
-59 99 103 0
-58 -111 -130 0
-58 -109 -131 0
-58 -81 94 0
-57 -91 -94 0
-57 71 -78 0
-57 81 154 0
-57 94 -122 0
-56 -74 -152 0
-56 -65 84 0
-56 -58 70 0
-56 -58 92 0
-56 -57 -82 0
-56 99 -141 0
-55 -127 -151 0
-55 109 -159 0
-54 -126 -153 0
-54 64 83 0
-53 -94 -160 0
-53 -87 89 0
-53 -71 -87 0
-53 -70 106 0
-53 72 126 0
-53 108 121 0
-52 105 -146 0
-52 115 -126 0
-52 120 -140 0
-51 -109 -144 0
-51 -82 90 0
-51 75 115 0
-50 -103 154 0
-50 73 132 0
-50 83 125 0
-49 -77 -89 0
-49 -67 -91 0
-49 115 -120 0
-48 -93 -114 0
-47 48 -94 0
-47 51 105 0
-46 -57 145 0
-46 -53 144 0
-45 -133 140 0
-45 -76 -103 0
-45 -52 133 0
-44 -134 -159 0
-44 -127 141 0
-44 -91 113 0
-44 -88 118 0
-44 49 64 0
-44 98 -133 0
-43 65 145 0
-43 100 148 0
-42 -98 160 0
-42 -95 155 0
-42 -89 -139 0
-42 64 78 0
-41 52 -100 0
-40 -128 154 0
-40 -53 -78 0
-40 -46 60 0
-40 49 -72 0
-40 74 -75 0
-39 61 -124 0
-39 80 135 0
-39 125 -147 0
-38 -84 132 0
-38 -46 108 0
-38 60 61 0
-38 65 138 0
-38 127 132 0
-37 -123 -147 0
-37 -65 115 0
-37 -38 65 0
-37 -38 133 0
-37 83 142 0
-36 -128 151 0
-36 -105 -116 0
-36 -62 -116 0
-36 40 60 0
-36 83 -145 0
-35 -80 -146 0
-35 -57 -146 0
-35 -42 79 0
-35 109 117 0
-34 -47 52 0
-34 -40 147 0
-34 55 117 0
-34 93 -156 0
-33 -107 -119 0
-33 -85 -126 0
-33 -85 -114 0
-33 -34 -155 0
-33 49 69 0
-33 56 -153 0
-33 57 -151 0
-33 57 115 0
-32 -100 -128 0
-32 -68 -153 0
-32 -61 66 0
-32 44 -159 0
-31 -86 149 0
-31 85 151 0
-31 99 124 0
-30 34 99 0
-30 48 -149 0
-30 83 -142 0
-29 -102 -157 0
-29 -92 93 0
-29 -40 -48 0
-29 -30 -133 0
-29 40 144 0
-29 55 56 0
-28 -40 -94 0
-28 -33 -36 0
-28 -32 -113 0
-28 47 -149 0
-28 51 115 0
-28 68 -77 0
-27 -54 121 0
-27 74 128 0
-26 66 -119 0
-26 119 139 0
-25 -49 52 0
-25 -27 -70 0
-25 112 138 0
-24 -62 -117 0
-24 -56 -65 0
-24 86 -153 0
-23 -72 121 0
-23 -32 -68 0
-23 -31 -92 0
-22 -94 112 0
-22 -81 100 0
-22 -73 119 0
-22 -58 106 0
-22 -23 130 0
-22 57 -61 0
-21 -76 -158 0
-21 -50 85 0
-21 -42 129 0
-21 38 117 0
-21 83 94 0
-21 142 -152 0
-20 -28 -48 0
-20 55 -141 0
-19 -124 126 0
-19 -112 -148 0
-19 -101 112 0
-19 -77 122 0
-19 -58 -154 0
-19 -53 -109 0
-19 -36 114 0
-19 -27 -146 0
-19 34 -159 0
-19 35 -139 0
-19 52 70 0
-19 97 111 0
-19 113 141 0
-18 -85 -88 0
-18 -74 103 0
-18 -51 139 0
-18 -27 49 0
-18 27 125 0
-18 42 -87 0
-18 68 -112 0
-18 107 -141 0
-17 -99 -136 0
-17 -77 -142 0
-17 -40 -43 0
-17 -29 157 0
-16 -33 -55 0
-16 19 -77 0
-16 76 -92 0
-16 92 -120 0
-15 -130 -140 0
-15 -56 -98 0
-15 -48 70 0
-15 -35 -126 0
-15 28 -99 0
-15 31 43 0
-15 34 -111 0
-15 39 143 0
-15 55 -100 0
-15 60 -84 0
-15 85 139 0
-14 -94 127 0
-14 -46 116 0
-14 -44 154 0
-14 -28 -76 0
-14 -19 125 0
-14 -17 60 0
-14 103 -155 0
-13 -55 109 0
-13 -42 -112 0
-13 -32 -135 0
-13 51 -69 0
-13 95 -160 0
-12 -57 -130 0
-12 -15 -148 0
-12 48 -123 0
-12 71 -142 0
-11 -22 -140 0
-11 31 72 0
-11 38 87 0
-11 58 107 0
-11 108 -129 0
-10 -59 141 0
-10 -42 152 0
-10 -18 -85 0
-10 -12 -96 0
-10 27 70 0
-10 57 -121 0
-10 96 157 0
-10 134 140 0
-9 -89 125 0
-9 -45 118 0
-9 -35 39 0
-9 -26 109 0
-9 -15 -111 0
-9 41 62 0
-9 59 -102 0
-9 96 -118 0
-9 106 125 0
-8 -24 -79 0
-8 17 -80 0
-8 32 -111 0
-8 41 -80 0
-8 79 -90 0
-7 -40 80 0
-7 9 -156 0
-7 10 -111 0
-7 92 116 0
-6 -65 85 0
-6 -40 116 0
-6 18 23 0
-6 24 -46 0
-6 40 -67 0
-6 119 131 0
-5 27 -91 0
-5 40 -81 0
-5 41 82 0
-4 -135 -147 0
-4 -6 -17 0
-3 -81 147 0
-3 -20 -64 0
-3 -5 70 0
-3 22 -160 0
-3 43 -133 0
-3 90 -117 0
-2 -71 -86 0
-2 -16 71 0
-2 18 35 0
-2 44 -149 0
-2 65 138 0
-2 92 125 0
-1 -79 -88 0
-1 -66 -136 0
-1 22 -65 0
-1 53 -69 0
-1 73 -93 0
-1 107 -109 0
1 -41 48 0
1 -34 82 0
1 -29 -96 0
1 -23 -110 0
1 -19 -81 0
1 2 -56 0
2 -46 82 0
2 -18 146 0
2 -10 -88 0
2 32 122 0
2 46 148 0
2 52 -100 0
3 -84 -107 0
3 -65 -108 0
3 -47 -81 0
3 -21 -126 0
3 -5 -154 0
3 24 -118 0
3 69 140 0
3 95 -101 0
3 117 -129 0
3 130 157 0
4 -61 -66 0
4 -56 -98 0
4 -47 -112 0
4 -26 -35 0
4 19 47 0
4 21 88 0
4 57 130 0
5 -82 -158 0
5 -41 -98 0
5 -19 67 0
5 -13 -40 0
5 11 108 0
5 24 -89 0
5 41 71 0
5 63 128 0
5 65 -140 0
5 118 -126 0
6 -111 -152 0
6 74 92 0
6 96 122 0
7 -80 -151 0
7 -59 -86 0
7 -34 109 0
7 -17 -59 0
7 20 -145 0
7 31 -36 0
7 54 -149 0
7 64 124 0
7 104 -114 0
8 -54 84 0
8 -41 118 0
8 22 -124 0
8 36 74 0
8 42 79 0
8 110 -124 0
9 -74 80 0
9 -49 51 0
9 -49 152 0
9 18 -85 0
9 44 -47 0
9 74 -121 0
10 -100 112 0
10 11 -28 0
10 45 58 0
10 89 141 0
10 133 156 0
11 -38 -139 0
11 -25 69 0
11 -16 71 0
12 -116 138 0
12 -87 112 0
12 -84 107 0
12 -52 141 0
13 -21 149 0
13 101 -155 0
13 129 156 0
13 133 -139 0
13 134 145 0
13 153 155 0
14 -76 89 0
14 -66 -117 0
14 -62 -63 0
14 17 -151 0
14 38 -96 0
15 -44 -118 0
15 -16 -74 0
15 36 62 0
16 -122 158 0
16 -69 -147 0
16 -48 -83 0
16 31 123 0
16 40 -86 0
17 -116 142 0
17 -71 -97 0
17 -33 45 0
17 -27 -154 0
17 87 -135 0
18 -65 149 0
18 90 -137 0
19 -60 152 0
19 -59 126 0
19 -51 157 0
19 72 141 0
19 76 -130 0
19 105 150 0
20 -79 -110 0
20 -36 -66 0
20 -31 119 0
20 43 66 0
20 47 63 0
21 -34 94 0
21 23 144 0
21 47 144 0
21 63 -107 0
22 -106 121 0
22 -48 61 0
22 -47 126 0
22 122 -159 0
23 -128 -157 0
23 -108 124 0
23 50 -153 0
23 56 135 0
24 -121 157 0
24 -78 -100 0
25 -92 129 0
25 -86 -111 0
25 -49 71 0
25 -38 -136 0
25 27 -116 0
25 27 -68 0
26 -114 138 0
26 -65 -89 0
26 -30 156 0
26 104 -144 0
26 111 158 0
27 36 126 0
27 49 -125 0
27 91 -134 0
28 -54 -136 0
28 -40 157 0
28 32 -65 0
28 34 125 0
28 72 -112 0
28 103 127 0
28 123 144 0
29 -111 145 0
29 -98 144 0
29 -58 -67 0
29 107 143 0
30 -55 126 0
30 45 56 0
31 -144 -158 0
31 -86 97 0
31 71 -84 0
31 90 151 0
32 -105 159 0
32 -90 116 0
32 -66 -105 0
32 -54 106 0
32 51 -133 0
32 85 131 0
32 99 136 0
34 -95 -111 0
34 74 109 0
34 78 126 0
34 92 146 0
35 -119 134 0
35 -84 -133 0
35 -58 -77 0
35 -49 137 0
35 61 139 0
35 68 -84 0
35 102 -105 0
36 -79 -152 0
37 55 -67 0
37 55 140 0
37 56 76 0
37 68 -130 0
37 94 151 0
38 -56 -109 0
38 43 -155 0
38 82 -140 0
38 147 153 0
39 -119 -157 0
39 -92 150 0
39 55 -129 0
39 92 -120 0
40 -115 119 0
40 -88 -150 0
40 -64 135 0
40 -44 -66 0
40 61 73 0
40 80 159 0
40 99 122 0
40 133 -153 0
41 -113 133 0
41 -108 -158 0
41 -84 98 0
41 44 -47 0
42 -104 -124 0
43 -72 128 0
43 -66 79 0
43 46 -61 0
43 76 -85 0
44 -105 111 0
44 53 135 0
44 65 -160 0
44 156 159 0
45 -48 104 0
46 -134 -152 0
46 -70 76 0
46 -51 -68 0
47 -100 123 0
47 -81 107 0
47 -68 114 0
47 48 -53 0
48 58 -83 0
48 78 114 0
48 106 -139 0
49 -69 116 0
49 -66 -159 0
49 58 135 0
49 92 -153 0
50 -126 -132 0
50 -57 59 0
50 -51 131 0
50 60 -113 0
50 74 -76 0
50 103 -142 0
50 119 139 0
51 -104 -115 0
51 90 -99 0
52 65 128 0
52 80 83 0
52 81 158 0
53 -86 -89 0
53 56 117 0
54 -104 -144 0
54 65 104 0
54 91 133 0
55 -115 -138 0
55 -95 124 0
56 103 -140 0
57 -75 -93 0
57 68 112 0
58 -109 -132 0
59 78 -159 0
59 78 141 0
59 134 156 0
60 67 -79 0
60 107 -154 0
61 92 -149 0
61 106 -136 0
62 -111 124 0
62 -107 112 0
62 -88 -140 0
62 124 -141 0
63 -94 -107 0
63 65 -107 0
63 95 -108 0
64 -117 -160 0
64 -98 139 0
66 -115 117 0
66 86 -122 0
68 135 -141 0
69 -91 -126 0
69 70 149 0
69 98 121 0
70 -125 -139 0
71 -130 -131 0
72 -79 123 0
72 82 -155 0
73 -82 -114 0
74 -82 -134 0
74 111 120 0
75 -76 -145 0
76 -83 -145 0
76 -81 139 0
76 -78 109 0
77 -97 125 0
78 -98 111 0
78 -96 -101 0
78 119 -142 0
79 -124 -130 0
79 -116 -119 0
79 -91 -110 0
80 -85 97 0
81 98 106 0
82 -145 -148 0
83 105 -150 0
83 137 144 0
84 -100 106 0
84 -90 106 0
85 109 -135 0
85 130 132 0
85 134 153 0
86 125 152 0
87 -123 -159 0
87 142 152 0
88 -101 -143 0
89 -107 129 0
89 135 147 0
91 -120 -150 0
91 -95 -143 0
91 111 123 0
92 -129 -142 0
92 108 -141 0
92 123 -133 0
94 99 -126 0
95 -143 -150 0
95 -98 155 0
95 98 111 0
98 -108 132 0
98 129 150 0
99 -126 143 0
99 -111 -126 0
99 124 125 0
101 -105 136 0
102 112 -151 0
103 -151 -158 0
103 108 117 0
103 112 153 0
106 134 150 0
107 -134 -137 0
107 137 146 0
111 114 115 0
112 120 -137 0
118 -129 -145 0
120 -134 154 0
120 -126 128 0
122 -125 151 0
122 131 -141 0
125 -126 -152 0
125 142 145 0
