p cnf 120 420
-97 -108 -118 0
-90 -109 -116 0
-90 111 -113 0
-89 -107 -119 0
-88 90 118 0
-87 97 115 0
-84 89 -119 0
-84 90 -92 0
-81 117 -118 0
-79 -91 -93 0
-79 86 91 0
-78 82 111 0
-76 -97 -106 0
-76 89 -111 0
-76 111 -120 0
-75 -89 99 0
-73 -77 84 0
-72 -83 115 0
-69 -74 -106 0
-69 105 109 0
-68 -78 93 0
-67 -97 -105 0
-66 67 74 0
-66 83 101 0
-66 93 -99 0
-64 -112 -120 0
-64 -88 110 0
-64 84 102 0
-61 76 98 0
-60 -63 68 0
-60 97 103 0
-59 96 104 0
-57 -67 -97 0
-57 64 103 0
-53 -93 -110 0
-53 -74 -79 0
-53 -63 -77 0
-53 -57 74 0
-53 66 75 0
-53 75 -108 0
-52 -89 -108 0
-52 -83 -85 0
-51 -88 -117 0
-51 -68 -120 0
-50 -75 -83 0
-50 73 81 0
-50 85 98 0
-49 -68 -86 0
-49 -63 68 0
-49 -60 107 0
-47 -82 -106 0
-47 66 96 0
-46 76 -93 0
-44 -90 -93 0
-44 -60 -68 0
-44 -47 -115 0
-44 62 -96 0
-44 78 -120 0
-43 -48 -96 0
-42 73 77 0
-41 -82 -112 0
-41 -75 -81 0
-41 -44 -85 0
-40 -63 -103 0
-40 -52 -112 0
-40 -51 82 0
-40 54 92 0
-40 88 107 0
-39 -64 -112 0
-39 -64 -82 0
-39 42 -118 0
-38 -82 -117 0
-38 -77 -97 0
-38 50 -114 0
-38 81 -88 0
-37 -64 84 0
-37 63 105 0
-36 81 -97 0
-35 -87 116 0
-35 -53 -105 0
-35 -47 64 0
-34 -42 46 0
-34 59 -84 0
-33 -70 101 0
-33 -35 96 0
-32 33 36 0
-31 -78 116 0
-31 76 86 0
-30 -40 50 0
-30 -39 45 0
-30 -31 97 0
-30 43 117 0
-30 64 -93 0
-29 -41 93 0
-29 63 75 0
-29 91 -101 0
-29 98 -105 0
-28 -90 120 0
-28 -37 64 0
-28 36 -55 0
-28 42 104 0
-27 -57 112 0
-27 -33 119 0
-27 38 66 0
-26 -53 71 0
-26 28 -31 0
-26 82 114 0
-25 -26 87 0
-25 32 114 0
-24 -79 98 0
-24 -50 84 0
-24 -47 57 0
-23 26 100 0
-22 -77 92 0
-22 -60 -79 0
-22 -40 72 0
-22 -26 -84 0
-22 28 -65 0
-22 50 62 0
-21 -48 104 0
-21 -41 117 0
-21 -29 -120 0
-21 38 -116 0
-21 45 86 0
-21 88 -106 0
-20 -66 -80 0
-20 34 86 0
-20 40 -60 0
-19 -77 -99 0
-19 27 -66 0
-19 99 -105 0
-18 -47 110 0
-18 -27 88 0
-18 -22 -69 0
-18 29 94 0
-18 31 -76 0
-18 67 -80 0
-18 72 102 0
-17 -67 -78 0
-17 -36 44 0
-17 39 -101 0
-16 -75 86 0
-16 -58 96 0
-16 -23 -110 0
-16 60 108 0
-16 81 -107 0
-15 -72 90 0
-15 28 -69 0
-15 90 107 0
-14 -72 110 0
-14 23 66 0
-13 -25 85 0
-12 -115 118 0
-12 -113 -118 0
-12 -64 82 0
-12 -15 -50 0
-12 69 99 0
-12 73 -99 0
-12 93 -99 0
-11 -105 118 0
-11 -58 -80 0
-11 83 109 0
-10 -92 -111 0
-10 -32 -75 0
-10 15 73 0
-10 18 -53 0
-10 48 94 0
-10 71 97 0
-9 -58 63 0
-9 -52 -109 0
-9 -17 -50 0
-9 51 82 0
-9 53 -92 0
-9 54 97 0
-9 61 -93 0
-8 -73 -77 0
-8 -50 117 0
-8 -49 99 0
-8 -12 77 0
-8 26 55 0
-8 69 70 0
-8 73 86 0
-7 -92 107 0
-7 -84 92 0
-7 -20 -116 0
-7 16 21 0
-7 23 100 0
-7 48 -80 0
-7 70 -106 0
-7 99 -117 0
-6 -80 116 0
-6 -58 -68 0
-6 -44 120 0
-6 -21 72 0
-6 13 20 0
-6 15 56 0
-5 -59 72 0
-5 -49 -55 0
-5 20 107 0
-5 70 -108 0
-5 71 -82 0
-5 72 75 0
-5 102 111 0
-5 106 110 0
-5 116 -118 0
-4 -63 80 0
-4 -57 -58 0
-4 -38 -106 0
-4 -38 -105 0
-4 -6 101 0
-4 92 106 0
-3 -61 -91 0
-3 -45 62 0
-3 -12 -13 0
-3 -9 92 0
-3 -5 60 0
-3 74 -93 0
-2 -63 -73 0
-2 -22 23 0
-2 -22 77 0
-2 -19 28 0
-2 36 -90 0
-2 42 92 0
-2 65 109 0
-2 79 -115 0
-2 110 -112 0
-1 -95 -102 0
-1 30 43 0
-1 100 117 0
-1 103 -108 0
1 -102 -114 0
1 -99 106 0
1 -58 75 0
1 -52 106 0
1 -21 -42 0
1 46 -75 0
1 107 -111 0
2 -4 101 0
2 61 91 0
2 67 68 0
2 71 -98 0
3 -34 -82 0
3 -32 118 0
3 -15 -81 0
3 11 112 0
3 33 41 0
3 36 107 0
4 -103 110 0
4 -61 64 0
4 -49 80 0
4 -37 71 0
4 5 -69 0
4 114 -119 0
5 -37 -89 0
5 69 113 0
6 -35 51 0
6 -10 -92 0
6 31 65 0
7 -43 -71 0
7 -29 -93 0
7 17 -120 0
7 76 -79 0
8 10 119 0
8 20 91 0
8 50 -85 0
8 95 -103 0
9 -90 109 0
9 -12 -85 0
9 20 86 0
10 -70 92 0
10 55 -111 0
11 -34 77 0
11 59 -83 0
11 114 117 0
12 -61 -111 0
12 -61 -108 0
12 -15 80 0
12 65 91 0
13 -82 98 0
13 66 -77 0
14 -79 -87 0
14 -66 -82 0
14 66 -80 0
15 -85 -93 0
15 48 -75 0
15 68 83 0
15 92 -98 0
16 -50 76 0
16 -26 84 0
17 -46 -75 0
17 -42 -83 0
17 54 -102 0
17 69 92 0
17 69 101 0
18 71 104 0
19 -64 76 0
20 -89 -111 0
20 -78 112 0
20 39 -93 0
20 66 71 0
20 84 117 0
21 -40 -59 0
21 -27 -101 0
21 79 -87 0
22 -66 104 0
22 36 -95 0
23 -70 -103 0
23 -69 84 0
23 -56 -57 0
23 -54 -69 0
23 -30 -66 0
23 66 -88 0
23 86 -99 0
24 -53 106 0
24 -36 -56 0
24 -29 -69 0
24 80 -118 0
25 -75 94 0
25 -30 -60 0
25 47 -92 0
26 36 110 0
27 -94 109 0
27 -54 63 0
27 32 -76 0
27 91 106 0
28 82 -108 0
29 -56 61 0
29 -49 -65 0
29 65 -94 0
30 64 94 0
30 83 -104 0
31 -37 -60 0
31 32 78 0
31 55 -96 0
32 -89 -101 0
32 60 -70 0
32 68 114 0
33 -39 85 0
33 48 -82 0
33 77 91 0
33 82 -115 0
33 87 107 0
34 -88 110 0
34 -64 -92 0
34 44 86 0
34 76 -112 0
35 -83 -104 0
35 88 -103 0
35 105 -117 0
36 -54 108 0
36 47 108 0
37 -81 111 0
37 -62 -97 0
37 -46 -102 0
37 61 74 0
37 64 111 0
38 -43 -50 0
38 52 -107 0
38 72 -83 0
39 -110 -111 0
39 -48 57 0
39 78 -116 0
40 73 -88 0
40 75 -78 0
41 -83 -94 0
41 -45 96 0
41 -44 -85 0
41 -42 52 0
41 60 -100 0
42 -71 114 0
42 -47 -54 0
42 52 88 0
43 -65 110 0
43 53 -94 0
43 101 -107 0
44 -57 77 0
44 83 -90 0
45 -94 -115 0
45 72 113 0
46 55 119 0
47 -78 95 0
48 -78 -107 0
48 116 120 0
49 -74 -110 0
52 91 -108 0
53 79 103 0
53 95 -114 0
54 -64 89 0
55 -64 -119 0
55 -58 -68 0
55 57 -102 0
55 64 75 0
56 67 -87 0
56 80 106 0
58 59 -94 0
58 90 112 0
59 -67 -94 0
59 65 -104 0
59 72 -118 0
61 -65 -92 0
61 -63 98 0
61 78 83 0
62 -92 -103 0
62 -70 -71 0
62 81 94 0
63 87 107 0
65 89 -90 0
67 70 85 0
68 -86 112 0
68 105 -115 0
72 -85 113 0
79 -93 -111 0
82 -84 110 0
82 -84 119 0
83 -108 116 0
85 97 113 0
86 -100 116 0
86 97 -114 0
88 -101 112 0
88 94 -102 0
