p cnf 150 525
-137 140 148 0
-122 130 147 0
-107 -135 149 0
-103 -113 117 0
-102 -116 135 0
-100 -106 148 0
-100 131 136 0
-99 -105 150 0
-99 101 139 0
-94 102 -122 0
-93 100 -140 0
-91 98 140 0
-91 118 -137 0
-90 -106 -141 0
-90 97 -141 0
-88 102 -111 0
-86 -97 143 0
-86 112 143 0
-85 -108 126 0
-85 92 127 0
-84 -92 123 0
-83 95 114 0
-83 118 -131 0
-83 129 141 0
-81 -91 92 0
-81 87 -131 0
-81 101 132 0
-81 105 -149 0
-80 -118 144 0
-80 -105 -118 0
-80 99 -137 0
-80 123 -147 0
-79 -137 -148 0
-78 -128 144 0
-78 -94 -121 0
-77 115 -123 0
-75 -94 147 0
-74 -119 -147 0
-74 -100 -141 0
-74 104 115 0
-73 -97 113 0
-73 -89 -106 0
-72 -80 146 0
-72 132 146 0
-71 -102 -123 0
-71 -89 100 0
-70 -81 -127 0
-70 122 -142 0
-69 -105 120 0
-69 -78 -134 0
-68 105 127 0
-67 -76 101 0
-66 -131 -136 0
-66 67 107 0
-66 76 -85 0
-65 -87 -121 0
-65 67 -85 0
-65 68 -133 0
-64 -114 149 0
-64 110 150 0
-64 116 139 0
-63 -104 130 0
-63 75 98 0
-63 124 128 0
-61 75 -139 0
-60 -63 83 0
-60 74 131 0
-60 92 -125 0
-59 -122 -138 0
-59 117 -126 0
-58 -95 131 0
-57 -60 -135 0
-57 71 123 0
-56 -98 -148 0
-55 57 116 0
-54 -86 98 0
-54 -80 -118 0
-53 76 103 0
-52 -55 -117 0
-51 69 -121 0
-51 115 128 0
-50 -90 118 0
-50 -79 134 0
-50 -61 -98 0
-49 -68 -122 0
-49 52 109 0
-48 -98 105 0
-48 -73 114 0
-48 49 -119 0
-48 92 105 0
-48 97 99 0
-47 -55 137 0
-47 63 -99 0
-47 122 140 0
-46 -132 140 0
-46 -86 -133 0
-46 59 -144 0
-46 85 137 0
-46 108 114 0
-45 -69 121 0
-45 -58 -59 0
-45 -50 100 0
-45 56 78 0
-45 88 113 0
-43 78 85 0
-43 97 -98 0
-43 105 135 0
-42 -59 -96 0
-42 -51 110 0
-42 -48 92 0
-42 51 97 0
-41 123 150 0
-40 41 62 0
-40 74 110 0
-39 -54 58 0
-39 107 114 0
-38 -73 -141 0
-38 -73 85 0
-37 -41 -147 0
-36 -68 135 0
-36 79 111 0
-35 -48 112 0
-35 -40 99 0
-35 -37 131 0
-35 -36 52 0
-35 55 131 0
-35 59 -150 0
-35 61 107 0
-35 73 135 0
-34 -63 93 0
-34 42 -92 0
-33 -94 -128 0
-33 -85 -138 0
-33 -41 -88 0
-33 58 126 0
-32 -135 142 0
-32 59 84 0
-31 -63 81 0
-31 97 104 0
-31 98 -143 0
-31 129 148 0
-30 -48 -59 0
-30 -47 129 0
-30 50 110 0
-30 62 98 0
-30 101 106 0
-29 -81 -89 0
-29 -54 -58 0
-29 -43 -150 0
-29 -35 -52 0
-28 -105 -123 0
-28 -68 -100 0
-28 -55 145 0
-28 -33 51 0
-28 36 -107 0
-28 46 76 0
-28 103 118 0
-28 114 137 0
-28 117 140 0
-27 35 -131 0
-27 56 -89 0
-26 -49 139 0
-26 40 -130 0
-25 76 -106 0
-24 102 -148 0
-23 -92 -130 0
-23 -46 113 0
-23 -30 148 0
-23 43 -108 0
-23 60 130 0
-23 91 -126 0
-23 108 -146 0
-23 111 125 0
-23 146 -148 0
-22 -50 -86 0
-22 -23 -110 0
-22 28 99 0
-21 -85 -143 0
-21 94 -133 0
-20 -144 146 0
-20 -108 -148 0
-20 -73 -96 0
-20 61 124 0
-20 90 -141 0
-20 90 -110 0
-19 -51 -68 0
-19 -28 -42 0
-19 25 61 0
-19 47 -106 0
-19 79 128 0
-19 103 -144 0
-18 32 -109 0
-18 61 122 0
-18 66 78 0
-18 71 -117 0
-17 -60 -141 0
-17 -40 -124 0
-17 -39 133 0
-17 55 -79 0
-17 117 -128 0
-16 -62 -98 0
-16 -51 132 0
-16 -46 95 0
-16 93 122 0
-15 -42 -109 0
-15 -37 -149 0
-15 -31 -104 0
-14 -113 135 0
-14 -111 116 0
-14 17 -88 0
-14 42 57 0
-14 44 -75 0
-14 73 88 0
-14 86 124 0
-14 95 116 0
-14 105 -124 0
-14 110 -115 0
-13 75 -90 0
-13 101 108 0
-12 -101 146 0
-12 -30 -38 0
-12 -23 -31 0
-12 83 103 0
-12 117 -125 0
-11 -36 46 0
-11 -18 77 0
-11 54 128 0
-10 -74 -147 0
-10 -64 75 0
-10 -56 -121 0
-10 19 105 0
-10 63 -117 0
-9 -52 136 0
-9 -18 27 0
-9 25 -94 0
-9 74 118 0
-9 78 148 0
-8 41 -97 0
-8 43 123 0
-8 79 137 0
-8 92 -99 0
-7 -84 136 0
-7 43 -106 0
-6 -68 77 0
-6 -48 88 0
-6 -47 133 0
-6 70 78 0
-5 -45 -112 0
-5 -28 44 0
-5 -13 -148 0
-5 39 -97 0
-4 29 44 0
-4 77 103 0
-3 -59 -109 0
-3 109 -111 0
-2 -104 149 0
-2 -80 -104 0
-2 35 -85 0
-2 38 53 0
-2 45 -97 0
-2 47 -57 0
-2 51 -68 0
-2 73 -134 0
-1 -76 -90 0
-1 -61 -113 0
-1 -55 -104 0
-1 -17 -124 0
-1 36 -37 0
-1 65 114 0
-1 67 149 0
-1 76 106 0
-1 78 86 0
1 -84 -96 0
1 -78 115 0
1 66 -120 0
1 138 148 0
2 -58 132 0
2 -10 29 0
2 -8 -68 0
3 -16 -80 0
3 -16 79 0
3 8 -150 0
3 21 -132 0
3 27 -129 0
3 36 124 0
3 98 -131 0
4 -116 121 0
4 -114 -117 0
4 -92 128 0
4 -89 -90 0
4 -74 -88 0
4 5 85 0
4 8 -126 0
4 13 87 0
5 -42 143 0
5 10 24 0
6 -41 132 0
6 -9 -115 0
6 48 -74 0
6 68 120 0
7 -60 -141 0
7 50 -62 0
7 58 134 0
8 -61 -137 0
8 -17 -142 0
8 25 -134 0
8 25 -111 0
9 -24 25 0
9 48 -55 0
10 -90 -110 0
10 -23 -137 0
10 -13 59 0
10 -11 127 0
10 13 -88 0
11 -112 137 0
12 -101 123 0
12 -93 110 0
12 114 119 0
13 -64 -82 0
13 -59 145 0
13 -30 -49 0
13 -24 -44 0
13 62 142 0
14 -76 -89 0
14 -70 135 0
14 39 68 0
14 47 123 0
14 66 139 0
15 -48 -73 0
15 -36 -134 0
15 -27 128 0
15 -18 104 0
15 23 -125 0
15 102 -127 0
16 -61 88 0
16 -61 138 0
16 78 83 0
16 144 -150 0
17 -68 -110 0
17 -18 47 0
17 27 69 0
17 52 -71 0
17 60 87 0
17 81 142 0
17 86 114 0
18 -60 100 0
18 -20 24 0
18 25 35 0
18 30 -98 0
19 -126 127 0
19 -50 99 0
19 -29 -78 0
20 -96 119 0
20 39 124 0
20 54 -118 0
20 58 -75 0
21 -119 -145 0
21 -78 -79 0
21 48 -145 0
21 53 71 0
21 62 99 0
22 -77 -124 0
22 -72 -87 0
22 -58 139 0
22 34 146 0
22 76 129 0
22 122 129 0
23 -55 -125 0
23 -47 -71 0
23 66 -113 0
23 75 -142 0
24 -101 112 0
24 37 -75 0
25 -131 147 0
25 -34 124 0
26 -75 -87 0
26 -44 -66 0
26 -32 -130 0
26 27 108 0
26 39 -59 0
26 42 -51 0
26 84 -100 0
27 -57 125 0
27 -48 -91 0
27 37 142 0
27 46 80 0
27 87 -106 0
28 -84 86 0
28 -65 -138 0
28 -60 -125 0
28 66 86 0
28 71 131 0
29 -93 -128 0
29 -34 144 0
29 130 -134 0
30 -87 -133 0
30 -68 91 0
30 -36 -81 0
30 -33 -90 0
30 59 136 0
32 -54 132 0
32 33 -39 0
32 91 -132 0
33 -86 121 0
34 118 125 0
35 -130 142 0
35 -104 -113 0
35 -97 116 0
35 56 108 0
35 57 93 0
36 -116 -133 0
36 -51 89 0
37 -71 142 0
37 42 77 0
37 51 -85 0
38 -122 150 0
38 -49 -126 0
38 -49 142 0
38 45 117 0
39 -120 128 0
39 -103 126 0
39 68 96 0
39 79 -110 0
40 87 88 0
40 111 131 0
41 43 111 0
41 92 143 0
41 106 -113 0
42 -55 -119 0
42 45 109 0
42 59 -74 0
43 -45 -51 0
43 -45 74 0
43 59 -148 0
45 -148 149 0
45 -60 86 0
45 88 149 0
46 48 -126 0
46 50 -101 0
46 88 -117 0
46 114 117 0
47 -60 108 0
47 -53 -103 0
47 66 -84 0
47 85 143 0
48 -99 109 0
48 -68 -105 0
48 -49 -51 0
49 -93 117 0
49 -88 127 0
51 -138 140 0
51 -106 110 0
51 -93 96 0
51 65 123 0
51 68 74 0
51 70 -72 0
52 99 115 0
53 -65 -84 0
53 54 111 0
53 74 103 0
53 144 -146 0
54 74 93 0
54 109 110 0
55 -61 -148 0
56 60 -87 0
57 112 -143 0
58 -110 123 0
58 75 140 0
58 133 142 0
59 -68 -120 0
59 -64 -81 0
59 68 147 0
59 72 -106 0
59 95 -142 0
60 -78 -138 0
61 -122 -137 0
61 66 138 0
62 -123 140 0
62 -67 -132 0
62 80 -106 0
64 -74 110 0
64 72 102 0
64 93 -109 0
65 -118 147 0
65 -80 -112 0
66 -99 125 0
66 107 143 0
68 92 -128 0
68 117 -141 0
69 -88 106 0
69 -76 95 0
69 112 -123 0
71 87 106 0
72 112 -142 0
73 118 147 0
74 77 118 0
74 85 -103 0
75 89 103 0
76 -108 128 0
78 -130 -138 0
78 -81 127 0
81 121 145 0
83 -117 -140 0
83 97 99 0
84 -101 -132 0
84 -99 119 0
84 93 -149 0
84 102 -132 0
84 106 -120 0
84 115 -119 0
89 105 126 0
91 -95 130 0
94 -132 -149 0
95 129 130 0
96 121 -129 0
99 -111 -141 0
99 -108 -121 0
102 -106 -130 0
102 113 146 0
108 -118 -142 0
110 -129 -149 0
119 -140 144 0
119 131 -141 0
123 144 147 0
132 133 139 0
