p cnf 90 383
-71 72 -78 0
-70 -74 -86 0
-68 69 -81 0
-67 71 -81 0
-63 -69 72 0
-63 65 -76 0
-63 76 88 0
-62 -80 82 0
-62 -64 -82 0
-61 -77 -81 0
-61 -70 84 0
-60 -89 -90 0
-60 71 -85 0
-60 77 83 0
-59 -83 86 0
-59 89 -90 0
-57 59 83 0
-56 -65 70 0
-56 -63 -65 0
-56 59 76 0
-53 -58 -86 0
-52 -88 -89 0
-52 -68 82 0
-52 -61 -69 0
-52 62 73 0
-51 56 86 0
-51 58 -71 0
-51 64 -77 0
-50 -56 -86 0
-50 -54 -65 0
-49 -70 -90 0
-49 -67 78 0
-49 50 -85 0
-48 -61 70 0
-48 54 -57 0
-45 46 -50 0
-45 46 89 0
-44 -78 85 0
-43 -63 -80 0
-43 64 -78 0
-42 -54 67 0
-41 -69 -87 0
-41 -69 89 0
-41 46 76 0
-41 80 -83 0
-40 -69 -77 0
-40 -64 -81 0
-40 -56 76 0
-39 61 70 0
-39 65 84 0
-38 -42 -50 0
-38 83 90 0
-37 -39 67 0
-37 85 -90 0
-36 38 57 0
-35 -67 -74 0
-35 -61 84 0
-35 -36 -85 0
-34 65 73 0
-33 34 -62 0
-33 60 82 0
-32 -40 -67 0
-32 -38 -60 0
-32 33 73 0
-32 43 -78 0
-31 -46 49 0
-31 -40 81 0
-31 63 -77 0
-31 78 -89 0
-30 -79 -90 0
-30 -73 -80 0
-30 -31 -75 0
-30 31 46 0
-30 37 50 0
-29 -85 -87 0
-29 -70 82 0
-29 -56 86 0
-29 35 47 0
-28 -59 -84 0
-28 -45 48 0
-28 -39 -51 0
-28 47 -71 0
-26 -50 87 0
-26 -32 -90 0
-26 -32 58 0
-25 -31 -81 0
-25 31 -38 0
-25 34 -80 0
-25 54 -64 0
-24 -72 -76 0
-24 -58 69 0
-24 -53 -73 0
-24 61 -63 0
-24 75 -79 0
-23 47 -78 0
-23 57 -76 0
-22 -24 29 0
-21 -68 81 0
-21 -64 -79 0
-20 -30 -77 0
-20 -29 -73 0
-20 23 62 0
-20 38 71 0
-19 -61 80 0
-19 -47 88 0
-19 -26 -29 0
-19 23 -47 0
-19 25 27 0
-19 26 29 0
-19 45 66 0
-18 -23 78 0
-17 58 73 0
-16 36 68 0
-16 37 -75 0
-15 -51 -54 0
-15 -18 -74 0
-15 38 -41 0
-14 -56 -85 0
-14 21 43 0
-14 62 73 0
-13 -27 -79 0
-13 35 72 0
-13 39 74 0
-13 46 -50 0
-13 51 -76 0
-12 -53 88 0
-12 -39 -63 0
-11 -46 -90 0
-11 -33 47 0
-11 44 50 0
-11 48 -76 0
-11 49 -55 0
-11 66 -73 0
-10 -15 -55 0
-10 54 -59 0
-9 -52 -70 0
-9 -31 -87 0
-9 -10 87 0
-9 40 -42 0
-9 42 85 0
-9 50 68 0
-8 -54 -65 0
-8 -37 47 0
-8 13 84 0
-8 22 -31 0
-8 71 73 0
-7 -34 79 0
-7 -31 84 0
-7 -22 -25 0
-7 -13 78 0
-7 30 72 0
-7 44 59 0
-7 49 68 0
-6 -59 68 0
-6 -14 -86 0
-6 11 77 0
-6 26 -58 0
-5 -11 -24 0
-5 13 39 0
-5 29 46 0
-4 -57 -73 0
-4 -46 -47 0
-4 -23 56 0
-4 -20 68 0
-4 17 -38 0
-4 42 -75 0
-4 45 55 0
-3 -39 -63 0
-3 -24 -46 0
-3 -17 -71 0
-3 -13 -26 0
-3 -12 -37 0
-3 6 -16 0
-3 14 76 0
-3 19 -30 0
-3 58 -65 0
-2 31 76 0
-2 46 -56 0
-1 8 72 0
-1 29 -35 0
1 -37 59 0
1 -31 70 0
1 2 -22 0
1 9 -90 0
1 29 40 0
2 -59 87 0
2 -55 59 0
2 -44 -66 0
2 9 -51 0
2 15 63 0
2 16 43 0
2 25 29 0
2 26 82 0
2 30 -49 0
3 -53 86 0
3 -32 -41 0
3 -30 -80 0
3 -16 -35 0
3 -11 -36 0
3 23 -89 0
3 28 89 0
4 -76 -84 0
4 -40 -46 0
4 -32 -71 0
4 -21 90 0
4 5 -73 0
5 -57 -77 0
5 -35 -79 0
5 -6 -26 0
5 12 54 0
5 23 -48 0
5 43 -87 0
6 -67 87 0
6 -41 -64 0
6 -38 -50 0
6 -15 29 0
6 13 56 0
6 16 -71 0
6 23 -45 0
6 87 -88 0
7 -70 -89 0
7 -60 74 0
7 -32 -66 0
7 31 80 0
7 41 -46 0
8 -75 -78 0
8 -32 72 0
8 21 -49 0
8 53 -80 0
8 79 87 0
9 -70 75 0
9 -59 81 0
9 -39 61 0
9 -29 60 0
9 47 -83 0
10 -30 36 0
10 -12 -29 0
10 67 -85 0
11 -71 -84 0
11 -48 82 0
11 -46 -72 0
11 -45 -90 0
11 -44 76 0
11 -27 34 0
11 12 83 0
11 39 59 0
11 55 73 0
12 -43 49 0
12 19 -60 0
12 68 -71 0
13 -59 81 0
13 -55 86 0
13 -21 54 0
13 -19 -39 0
13 -16 -27 0
13 45 82 0
14 -47 -62 0
14 -35 62 0
14 34 -56 0
14 43 -70 0
15 -53 -76 0
15 -34 53 0
15 -25 45 0
15 -18 29 0
15 20 47 0
15 27 -63 0
15 48 53 0
15 53 -66 0
15 53 62 0
15 60 76 0
16 -62 -70 0
16 -43 -86 0
16 51 73 0
17 -55 77 0
17 -28 78 0
17 19 40 0
17 52 -67 0
18 -61 64 0
18 -43 -78 0
18 -43 82 0
18 -38 79 0
18 -35 -67 0
18 45 58 0
18 71 -87 0
19 -53 -59 0
19 -22 53 0
19 23 -44 0
19 24 -90 0
19 27 -78 0
19 28 -76 0
19 33 -71 0
19 48 -62 0
20 -54 -56 0
20 -39 -80 0
20 23 -35 0
20 33 -34 0
20 46 58 0
21 -59 62 0
21 -51 89 0
21 46 -79 0
22 42 -86 0
23 -27 86 0
23 26 -35 0
24 -54 -89 0
24 59 -86 0
25 -77 88 0
25 39 -55 0
26 -36 -64 0
26 -32 -62 0
26 34 80 0
26 39 -48 0
27 -56 82 0
27 30 31 0
27 43 83 0
27 50 52 0
28 -48 -82 0
28 -45 -69 0
28 -31 55 0
28 83 -86 0
29 38 -72 0
29 55 -67 0
29 56 -74 0
29 64 74 0
30 54 63 0
31 -82 87 0
32 -41 52 0
32 52 90 0
33 40 76 0
34 -56 86 0
34 38 50 0
34 42 50 0
34 58 -68 0
34 59 -61 0
34 85 88 0
35 -61 -85 0
36 -73 -88 0
36 48 -74 0
36 53 62 0
37 -66 68 0
37 -38 84 0
37 54 86 0
38 -54 -90 0
38 39 -45 0
38 71 -76 0
39 -58 -89 0
39 74 90 0
39 78 -84 0
40 -72 -76 0
40 -47 89 0
40 -44 66 0
41 -74 -78 0
41 -45 -89 0
41 55 84 0
41 58 73 0
41 62 -82 0
41 66 88 0
41 67 -68 0
42 48 63 0
42 54 88 0
43 -70 90 0
43 -65 -71 0
43 -53 -82 0
43 49 -62 0
43 50 68 0
44 74 75 0
45 -48 -58 0
46 -54 90 0
47 77 -78 0
48 61 -68 0
49 64 -77 0
51 -72 -79 0
51 59 76 0
54 -59 63 0
55 -81 85 0
56 -57 -61 0
56 69 77 0
56 69 85 0
57 -65 -87 0
58 66 -80 0
60 -73 80 0
64 -69 87 0
66 -67 70 0
79 -83 -84 0
