p cnf 100 600
-84 86 -91 0
-77 81 -92 0
-73 -88 99 0
-71 -81 -83 0
-70 86 -91 0
-69 81 92 0
-68 -74 76 0
-66 71 -81 0
-66 75 -76 0
-65 68 85 0
-65 78 -81 0
-64 -73 90 0
-64 66 -92 0
-64 94 98 0
-63 90 100 0
-62 63 85 0
-61 -68 71 0
-60 67 -71 0
-60 71 -94 0
-59 63 -88 0
-58 -70 -100 0
-58 64 100 0
-58 89 93 0
-57 70 -87 0
-57 78 95 0
-57 94 95 0
-56 85 88 0
-55 -67 -99 0
-55 60 -68 0
-54 66 87 0
-53 -54 75 0
-52 83 -90 0
-50 -70 88 0
-50 -55 72 0
-50 -51 62 0
-50 90 96 0
-49 -87 99 0
-49 -76 -95 0
-48 -81 -99 0
-48 85 -94 0
-47 -71 89 0
-46 -92 -96 0
-46 -70 75 0
-46 -51 -94 0
-46 52 74 0
-46 73 -76 0
-45 -82 88 0
-45 -64 -78 0
-45 -58 60 0
-45 54 84 0
-45 57 73 0
-45 62 -82 0
-44 -76 -86 0
-44 -62 -70 0
-44 -58 -74 0
-44 45 -54 0
-44 48 -92 0
-44 78 -96 0
-44 85 -88 0
-43 -48 -61 0
-43 -47 93 0
-43 71 95 0
-42 -62 70 0
-42 -61 80 0
-42 -56 82 0
-42 51 78 0
-42 53 -68 0
-41 -71 -91 0
-41 -65 -94 0
-41 56 81 0
-41 73 -78 0
-40 -66 99 0
-40 -54 -84 0
-40 63 100 0
-40 68 -80 0
-40 78 -85 0
-39 65 -68 0
-38 -66 -85 0
-38 -54 -97 0
-38 46 -56 0
-38 86 94 0
-37 39 45 0
-37 62 92 0
-37 82 -87 0
-36 -85 -89 0
-36 -70 88 0
-36 57 70 0
-36 68 -74 0
-36 82 100 0
-35 -54 -57 0
-35 66 -81 0
-34 -44 -50 0
-34 -39 -95 0
-33 -63 -85 0
-33 -60 -88 0
-33 85 99 0
-32 -76 -95 0
-32 -75 -85 0
-32 33 -85 0
-32 41 76 0
-31 -59 -67 0
-31 34 75 0
-31 37 39 0
-30 -41 61 0
-30 38 86 0
-30 42 -88 0
-30 45 -72 0
-30 54 65 0
-30 79 -83 0
-29 -46 97 0
-29 38 -99 0
-29 50 -95 0
-29 62 99 0
-28 -69 -70 0
-28 -53 83 0
-28 55 -92 0
-28 74 100 0
-28 75 84 0
-27 -75 -90 0
-27 -61 -67 0
-27 -45 75 0
-27 -36 40 0
-27 30 -47 0
-27 56 70 0
-26 -57 -98 0
-26 -40 92 0
-26 -36 -72 0
-26 -34 83 0
-26 29 78 0
-26 34 -35 0
-26 38 67 0
-26 39 -62 0
-25 -41 65 0
-25 67 77 0
-24 -61 67 0
-24 -38 -52 0
-24 32 -84 0
-24 56 -75 0
-23 -80 -96 0
-23 -70 -77 0
-23 -42 84 0
-23 -38 75 0
-22 -63 80 0
-22 -42 75 0
-22 -40 47 0
-22 -24 -55 0
-22 50 64 0
-22 66 -70 0
-22 72 100 0
-22 79 -95 0
-21 -69 -92 0
-21 -55 -66 0
-21 31 97 0
-21 41 83 0
-21 67 -84 0
-21 88 100 0
-20 22 74 0
-20 44 -61 0
-20 58 -66 0
-20 59 82 0
-19 -64 86 0
-19 -56 85 0
-19 -55 71 0
-19 -51 77 0
-19 -46 -53 0
-19 22 86 0
-19 42 96 0
-19 65 100 0
-19 67 86 0
-19 78 82 0
-18 -44 51 0
-18 -44 87 0
-18 19 -31 0
-18 39 79 0
-18 42 -72 0
-18 65 81 0
-18 69 -90 0
-18 75 87 0
-18 90 -96 0
-17 -64 -86 0
-17 -62 -78 0
-17 -27 -30 0
-17 -27 89 0
-17 23 93 0
-17 77 -84 0
-16 -63 -97 0
-16 -62 -98 0
-16 -47 -54 0
-16 -47 58 0
-16 -18 -34 0
-16 40 75 0
-15 -60 -67 0
-15 -54 -88 0
-15 -45 71 0
-15 -26 -40 0
-15 -25 -35 0
-15 17 -73 0
-15 23 -59 0
-15 33 -79 0
-15 55 84 0
-15 59 72 0
-15 67 -72 0
-15 67 76 0
-15 73 -97 0
-15 79 -100 0
-15 81 -94 0
-14 -75 94 0
-14 -55 -65 0
-14 -39 74 0
-14 49 75 0
-14 50 -90 0
-14 53 66 0
-14 60 -93 0
-14 74 89 0
-13 23 99 0
-13 29 96 0
-13 80 92 0
-12 -63 73 0
-12 -44 65 0
-12 61 -79 0
-12 78 -94 0
-11 -37 -38 0
-11 -23 40 0
-11 15 73 0
-11 24 47 0
-11 29 63 0
-10 -32 -54 0
-10 -31 -79 0
-10 13 -49 0
-10 15 91 0
-10 35 -74 0
-10 68 78 0
-9 -85 95 0
-9 -79 87 0
-9 -43 -67 0
-9 -22 -56 0
-9 14 48 0
-9 26 -70 0
-9 65 75 0
-8 -15 -87 0
-8 -12 -90 0
-8 18 43 0
-8 26 35 0
-8 37 74 0
-7 -72 -93 0
-7 -56 -97 0
-7 -52 77 0
-7 -46 -99 0
-7 -44 100 0
-7 -35 -73 0
-7 -18 88 0
-7 18 -65 0
-7 19 -44 0
-7 35 -47 0
-7 80 -94 0
-6 -64 -71 0
-6 -54 86 0
-6 -52 61 0
-6 -33 73 0
-6 -23 71 0
-6 -15 -90 0
-6 -9 -77 0
-6 12 51 0
-6 83 -95 0
-5 -71 -88 0
-5 -56 91 0
-5 -39 78 0
-5 -24 40 0
-5 -15 -79 0
-5 30 -87 0
-5 50 62 0
-5 70 96 0
-4 -57 -78 0
-4 -19 -57 0
-4 -15 -32 0
-4 -10 -87 0
-4 -6 19 0
-4 13 -95 0
-4 17 -82 0
-4 33 45 0
-4 64 79 0
-4 67 -98 0
-4 88 -94 0
-3 -63 84 0
-3 -56 -79 0
-3 -20 96 0
-3 -16 45 0
-3 -5 48 0
-3 4 92 0
-3 13 78 0
-3 15 50 0
-3 17 -90 0
-3 22 -70 0
-3 26 98 0
-3 28 67 0
-3 31 74 0
-3 54 -76 0
-3 61 -76 0
-2 -75 -98 0
-2 -65 -70 0
-2 -26 -73 0
-2 -15 -19 0
-2 -15 20 0
-2 12 91 0
-2 13 38 0
-2 22 44 0
-2 24 -35 0
-2 51 -78 0
-2 70 -79 0
-1 -81 95 0
-1 -18 61 0
-1 -14 46 0
-1 -10 72 0
-1 3 -49 0
-1 6 31 0
-1 11 56 0
-1 22 73 0
1 -62 91 0
1 -59 -100 0
1 -34 92 0
1 -34 96 0
1 -31 -33 0
1 -24 -58 0
1 -6 33 0
1 -6 89 0
1 8 -99 0
2 -90 -93 0
2 -76 -88 0
2 -67 100 0
2 -56 75 0
2 -31 93 0
2 -20 52 0
2 -10 -58 0
2 -10 84 0
2 -5 20 0
2 13 -37 0
2 15 19 0
2 20 -54 0
2 47 -59 0
2 85 -100 0
3 -45 -59 0
3 -40 41 0
3 -7 29 0
3 21 75 0
3 24 -48 0
3 34 -39 0
3 34 91 0
3 65 75 0
3 92 -99 0
4 -87 -90 0
4 -59 82 0
4 -56 57 0
4 -41 -56 0
4 -25 34 0
4 -9 72 0
4 30 -38 0
4 31 -34 0
4 59 -63 0
4 70 -95 0
5 -59 -67 0
5 -56 -63 0
5 -52 -62 0
5 -52 -60 0
5 -42 69 0
5 -14 26 0
5 -7 -32 0
5 51 62 0
5 77 84 0
6 -79 -82 0
6 -56 60 0
6 -37 55 0
6 -19 -20 0
6 -9 100 0
6 20 -45 0
6 32 45 0
6 72 87 0
6 87 92 0
7 -77 -99 0
7 -23 62 0
7 -23 94 0
7 -11 47 0
7 9 83 0
7 51 -92 0
7 73 81 0
8 -47 89 0
8 -39 -76 0
8 23 66 0
8 54 -71 0
9 -47 -74 0
9 25 68 0
9 45 86 0
9 53 89 0
9 63 -79 0
9 66 -82 0
10 -54 86 0
10 -28 90 0
10 31 50 0
10 48 -71 0
10 77 78 0
11 -73 -81 0
11 -57 -97 0
11 -36 37 0
11 -12 84 0
12 -58 -86 0
12 -47 -71 0
12 -30 -72 0
12 -16 -55 0
12 34 -58 0
12 38 54 0
12 71 -87 0
13 -53 -54 0
13 -31 92 0
13 -29 80 0
13 20 88 0
13 35 91 0
13 38 -97 0
14 -28 91 0
14 -25 80 0
14 15 -41 0
14 16 -80 0
14 20 -83 0
14 56 -68 0
15 -55 67 0
15 -44 83 0
15 -43 60 0
15 -35 49 0
15 36 -85 0
16 -74 -89 0
16 -66 100 0
16 23 86 0
16 27 -94 0
17 -36 -74 0
17 -31 -76 0
17 -26 94 0
17 -18 -72 0
18 -28 35 0
18 -23 92 0
18 22 77 0
18 34 59 0
18 39 -93 0
19 -90 98 0
19 -85 90 0
19 -37 -78 0
19 -29 -90 0
19 -26 89 0
19 32 -96 0
19 42 -86 0
19 63 81 0
20 -42 -82 0
20 -40 75 0
20 -23 36 0
20 31 -56 0
20 47 -68 0
20 60 76 0
20 70 -89 0
21 -83 100 0
21 -71 -80 0
21 -43 -78 0
21 -34 46 0
21 -31 -44 0
21 -29 67 0
21 31 71 0
21 70 -80 0
22 -85 -89 0
22 -25 -87 0
22 60 73 0
23 -38 -45 0
23 -31 68 0
23 -26 98 0
23 27 55 0
23 31 -38 0
23 31 91 0
23 47 -92 0
23 81 93 0
23 83 -100 0
24 -73 -82 0
24 -44 98 0
24 -39 -93 0
24 -36 54 0
24 30 81 0
24 39 -53 0
24 68 90 0
24 71 93 0
25 -65 94 0
25 -55 -63 0
25 45 47 0
26 -69 92 0
26 -60 68 0
26 44 -84 0
26 69 72 0
26 76 89 0
27 -30 73 0
27 64 -87 0
28 -85 -89 0
28 -43 56 0
28 -29 -52 0
28 37 48 0
28 53 83 0
29 67 78 0
29 74 -90 0
30 -41 70 0
30 50 73 0
31 -76 -81 0
31 -75 -92 0
31 -58 68 0
31 -56 84 0
31 -37 72 0
31 34 68 0
31 58 67 0
32 -72 86 0
32 -51 93 0
32 33 87 0
32 45 -97 0
32 54 95 0
32 58 -81 0
33 -63 75 0
33 -37 98 0
34 -35 -57 0
35 -86 -99 0
35 -69 79 0
35 36 -66 0
35 55 94 0
35 70 -85 0
35 74 95 0
35 95 -96 0
36 -46 -54 0
36 -45 -46 0
36 -39 40 0
36 39 50 0
36 78 -84 0
37 -65 88 0
37 -61 76 0
38 -43 -83 0
38 79 -86 0
39 -74 77 0
39 -51 59 0
39 -43 53 0
39 44 -80 0
39 73 -84 0
39 73 83 0
40 -78 95 0
40 -50 72 0
42 -63 -95 0
42 -51 52 0
42 87 -98 0
43 -83 97 0
43 -51 52 0
43 -51 87 0
43 -48 53 0
43 52 65 0
43 57 74 0
44 -66 -84 0
44 -63 -83 0
45 -95 96 0
45 48 -61 0
45 69 89 0
46 95 99 0
47 -68 -80 0
48 -78 -97 0
48 65 -74 0
49 -57 -69 0
50 -70 -71 0
50 -64 88 0
50 78 -91 0
50 99 100 0
51 58 76 0
52 56 78 0
52 75 -82 0
53 -67 97 0
53 -55 71 0
54 -70 -84 0
54 -56 -80 0
54 63 83 0
55 65 -66 0
55 99 -100 0
56 -58 70 0
57 -68 -95 0
58 -60 -78 0
58 74 96 0
59 -86 88 0
59 -71 -81 0
59 63 -65 0
59 66 84 0
60 -67 78 0
62 72 -98 0
62 78 -88 0
62 88 97 0
63 92 93 0
64 86 -92 0
66 -77 83 0
66 -69 -74 0
66 76 81 0
68 -85 -92 0
72 -96 100 0
72 -77 87 0
72 88 98 0
73 87 88 0
79 88 -94 0
80 88 -100 0
88 91 96 0
