p cnf 100 600
-83 -98 -99 0
-77 -80 82 0
-76 85 -95 0
-76 92 -96 0
-74 81 -83 0
-73 -80 94 0
-70 85 100 0
-69 -74 -92 0
-69 71 85 0
-68 71 -75 0
-67 -77 85 0
-67 -69 -83 0
-67 71 75 0
-66 70 -86 0
-65 -71 -72 0
-64 66 -78 0
-63 -73 88 0
-63 81 87 0
-62 -63 91 0
-62 65 91 0
-60 84 -98 0
-59 -66 100 0
-59 85 93 0
-58 -59 -84 0
-58 86 -92 0
-57 91 96 0
-56 -70 -84 0
-56 58 97 0
-56 69 76 0
-56 76 -91 0
-55 -62 75 0
-55 73 -86 0
-54 -84 90 0
-53 -85 94 0
-53 56 99 0
-52 -76 -92 0
-52 -72 -88 0
-52 -56 67 0
-52 61 62 0
-51 -92 94 0
-51 -83 -89 0
-51 79 86 0
-51 86 92 0
-50 -61 86 0
-50 -58 -81 0
-50 52 -69 0
-50 67 -81 0
-49 -62 -82 0
-49 -52 94 0
-48 58 93 0
-48 61 89 0
-47 67 78 0
-47 68 85 0
-46 -88 94 0
-46 -84 92 0
-46 -82 -90 0
-46 -74 -81 0
-46 -67 -84 0
-46 -61 84 0
-46 -51 -62 0
-46 80 81 0
-45 46 94 0
-45 52 63 0
-44 46 66 0
-43 46 81 0
-43 49 -72 0
-43 74 -93 0
-43 83 -91 0
-42 -54 -56 0
-42 75 89 0
-41 -43 -55 0
-41 50 52 0
-41 76 93 0
-41 85 -99 0
-40 -83 87 0
-40 55 72 0
-40 93 -95 0
-39 -43 -87 0
-39 41 43 0
-39 48 -97 0
-39 61 72 0
-39 83 -99 0
-38 -78 -87 0
-38 -76 93 0
-38 -57 -73 0
-38 39 -89 0
-37 -62 98 0
-37 67 -74 0
-37 67 -71 0
-36 77 94 0
-36 81 -87 0
-35 -76 -79 0
-34 -71 -85 0
-33 -69 76 0
-33 -58 87 0
-33 -57 85 0
-33 41 -49 0
-33 46 98 0
-32 -85 87 0
-32 -54 -81 0
-32 46 74 0
-31 -56 -88 0
-31 -44 -94 0
-31 -33 61 0
-31 -33 91 0
-31 63 70 0
-31 67 -96 0
-30 -85 -89 0
-30 -50 70 0
-30 -48 74 0
-30 -46 83 0
-30 35 -73 0
-30 51 97 0
-30 64 94 0
-29 -35 93 0
-29 -33 -48 0
-29 34 -35 0
-29 39 -78 0
-29 44 -59 0
-29 72 -79 0
-29 80 -93 0
-28 -33 -75 0
-28 38 86 0
-28 57 86 0
-28 73 87 0
-27 -51 -54 0
-27 -38 99 0
-27 39 98 0
-25 -51 83 0
-25 -45 95 0
-25 -40 -57 0
-25 31 71 0
-25 35 97 0
-25 36 -47 0
-24 -43 -81 0
-24 -31 -73 0
-24 -27 31 0
-24 -26 -99 0
-24 38 70 0
-24 82 86 0
-23 -67 95 0
-23 -48 86 0
-23 -42 -43 0
-23 -36 96 0
-22 -46 -91 0
-22 -46 97 0
-22 23 -44 0
-22 33 42 0
-22 68 -85 0
-21 -53 -83 0
-21 75 85 0
-20 -62 78 0
-20 -58 91 0
-20 -57 62 0
-20 -33 68 0
-20 -33 90 0
-20 -31 69 0
-20 -28 -72 0
-20 41 99 0
-20 77 84 0
-19 -35 95 0
-19 -34 -60 0
-19 -34 79 0
-18 -76 -96 0
-18 -38 58 0
-18 -23 56 0
-18 -22 -65 0
-18 -19 -62 0
-17 -55 74 0
-17 20 77 0
-17 22 -62 0
-17 23 -77 0
-16 -26 -32 0
-16 -23 81 0
-16 -19 -81 0
-16 26 30 0
-16 33 -97 0
-16 40 -47 0
-16 83 -93 0
-15 -71 77 0
-15 -64 -65 0
-15 -46 -95 0
-15 -28 98 0
-15 -22 -94 0
-15 25 65 0
-15 28 -44 0
-15 38 -95 0
-15 63 85 0
-15 79 91 0
-14 -48 -61 0
-14 -35 69 0
-14 -33 -71 0
-14 -25 -27 0
-14 -22 -41 0
-14 15 -54 0
-14 18 -73 0
-14 39 -42 0
-14 42 -70 0
-14 69 -75 0
-14 75 -83 0
-13 -56 73 0
-13 -39 -76 0
-13 -23 -37 0
-13 18 -25 0
-13 25 -30 0
-13 25 58 0
-12 -65 81 0
-12 -64 -91 0
-12 -64 -85 0
-12 -59 -90 0
-12 -51 91 0
-12 -46 -96 0
-12 30 92 0
-12 84 89 0
-11 -80 -96 0
-11 -66 -80 0
-11 -63 75 0
-11 -51 98 0
-11 -42 84 0
-11 -28 -77 0
-11 -12 100 0
-11 12 14 0
-11 30 57 0
-11 47 -52 0
-11 64 -93 0
-10 -46 81 0
-10 -20 34 0
-10 -20 47 0
-10 -17 -31 0
-10 -15 -35 0
-10 30 -60 0
-10 49 -60 0
-9 -85 91 0
-9 -13 -45 0
-9 10 58 0
-9 22 100 0
-9 30 77 0
-9 38 71 0
-9 43 51 0
-9 65 92 0
-8 -38 43 0
-8 -14 -78 0
-8 18 36 0
-8 20 44 0
-8 21 55 0
-8 29 61 0
-8 59 62 0
-7 -59 -96 0
-7 -46 -69 0
-7 -44 -64 0
-7 -36 -95 0
-7 -13 -88 0
-7 22 97 0
-7 30 -33 0
-7 35 -73 0
-7 39 90 0
-6 -48 49 0
-6 -34 -89 0
-6 -33 -80 0
-6 -24 44 0
-6 13 84 0
-6 47 91 0
-6 50 69 0
-5 -31 44 0
-5 -29 54 0
-5 -19 60 0
-5 -7 -72 0
-5 17 -32 0
-5 48 -72 0
-5 49 -83 0
-5 79 -83 0
-5 79 82 0
-4 -44 -46 0
-4 12 28 0
-4 27 81 0
-4 40 55 0
-4 41 -53 0
-4 42 -90 0
-3 -73 -91 0
-3 -8 98 0
-3 -7 18 0
-3 -7 100 0
-3 23 77 0
-2 -47 97 0
-2 -30 69 0
-2 -30 71 0
-2 -12 34 0
-2 18 37 0
-2 23 -94 0
-2 39 54 0
-2 51 -84 0
-1 -74 83 0
-1 -68 -73 0
-1 -49 85 0
-1 -46 99 0
-1 -41 -53 0
-1 -31 40 0
-1 -26 76 0
-1 -12 69 0
-1 19 72 0
-1 69 84 0
1 -25 31 0
1 -18 -55 0
1 -15 34 0
1 4 -41 0
1 6 -13 0
1 11 -64 0
1 43 44 0
1 65 -89 0
2 -47 -56 0
2 -35 61 0
2 -9 -90 0
2 12 -50 0
2 50 -97 0
2 85 -91 0
3 -81 88 0
3 -47 -93 0
3 -43 83 0
3 -32 77 0
3 -26 32 0
3 8 98 0
3 39 -55 0
3 54 79 0
4 -43 -52 0
4 5 30 0
4 54 93 0
5 -93 97 0
5 -42 -95 0
5 -40 -93 0
5 22 -50 0
5 23 -45 0
5 25 -38 0
5 31 -45 0
6 -89 -91 0
6 -38 89 0
6 -21 -36 0
6 -14 -21 0
6 -10 96 0
6 -7 -51 0
6 -7 59 0
6 13 -60 0
6 25 72 0
6 30 54 0
6 42 -91 0
6 81 -91 0
7 -70 -80 0
7 -40 -56 0
7 -30 36 0
7 -14 -36 0
7 11 96 0
7 13 49 0
7 23 -35 0
7 41 -60 0
7 52 98 0
7 82 -83 0
8 -76 -79 0
8 -70 81 0
8 -37 -63 0
8 -32 56 0
8 9 26 0
9 -58 77 0
9 -41 69 0
9 -35 45 0
9 -16 80 0
9 29 -82 0
10 -75 95 0
10 -65 71 0
10 -59 -86 0
10 -57 61 0
10 -46 50 0
10 -43 -75 0
10 -42 61 0
10 -27 90 0
10 12 -54 0
10 15 78 0
10 51 90 0
10 65 69 0
11 -86 -99 0
11 -85 95 0
11 -64 85 0
11 -54 -76 0
11 -32 83 0
11 24 73 0
11 29 44 0
11 44 -57 0
12 -62 -90 0
12 -56 64 0
12 -53 -56 0
12 -28 58 0
12 -13 60 0
12 38 -70 0
12 50 -52 0
13 -88 100 0
13 -32 -98 0
13 -24 -63 0
13 -22 100 0
13 -15 81 0
14 -79 97 0
14 -64 -90 0
14 -53 60 0
14 -48 56 0
14 -47 -71 0
14 -40 87 0
14 -35 64 0
14 -22 -84 0
14 -19 56 0
14 44 -76 0
14 57 -67 0
15 -74 93 0
15 -55 67 0
15 33 -36 0
15 38 -78 0
15 44 -82 0
15 65 -70 0
15 79 80 0
16 -70 -80 0
16 -53 -60 0
16 -49 -84 0
16 -37 -51 0
16 -20 -86 0
17 -68 96 0
17 -48 79 0
17 22 -58 0
17 23 83 0
17 25 -34 0
17 25 99 0
17 38 52 0
18 -95 97 0
18 -72 95 0
18 -55 66 0
18 -52 92 0
18 -42 -47 0
18 -39 -80 0
18 -20 90 0
18 -19 -30 0
18 22 -56 0
18 28 -58 0
18 41 -54 0
18 41 70 0
18 70 87 0
19 -60 94 0
19 25 43 0
19 89 -90 0
20 -31 -41 0
20 -25 38 0
20 27 42 0
20 28 50 0
20 32 -82 0
21 -71 86 0
21 -56 -67 0
21 -22 49 0
21 25 58 0
21 28 70 0
21 44 100 0
21 46 -59 0
21 57 69 0
22 -69 -80 0
22 -67 97 0
22 -61 76 0
22 -48 -59 0
22 36 -59 0
22 37 -97 0
22 46 91 0
22 61 -81 0
23 -33 65 0
23 -26 70 0
23 60 99 0
23 62 93 0
24 -69 -94 0
24 -66 -90 0
24 -63 71 0
24 -39 -95 0
24 25 -100 0
24 43 -61 0
24 61 75 0
24 76 -92 0
25 -61 98 0
25 -58 93 0
25 -46 -50 0
25 39 82 0
26 -85 -88 0
26 -67 -70 0
26 -54 55 0
26 -33 -38 0
26 -29 41 0
26 59 -83 0
27 -68 -91 0
27 -34 -36 0
27 -31 -37 0
27 -29 77 0
27 36 67 0
27 59 85 0
28 -48 49 0
28 -44 -64 0
28 58 93 0
28 70 -77 0
29 -62 63 0
29 -55 -77 0
29 -55 79 0
29 32 64 0
29 37 -73 0
29 42 -97 0
29 48 57 0
29 58 -70 0
30 -88 96 0
30 -70 -72 0
30 51 96 0
30 78 79 0
31 -38 68 0
31 54 98 0
31 94 99 0
32 -68 90 0
32 37 -68 0
32 37 41 0
32 88 -98 0
33 -52 -98 0
33 -40 77 0
33 -36 -39 0
34 -62 -70 0
34 -58 -80 0
34 -46 -94 0
35 -77 95 0
35 -39 44 0
35 -36 85 0
35 46 -76 0
35 75 77 0
36 -56 58 0
36 -52 -70 0
36 39 50 0
36 43 -46 0
36 45 -49 0
37 47 -68 0
37 56 85 0
38 -78 99 0
38 -58 100 0
38 40 -100 0
38 51 90 0
39 -44 -99 0
39 80 99 0
40 -63 100 0
40 -61 69 0
40 -42 -52 0
41 -77 -93 0
41 61 -91 0
42 -86 94 0
42 -76 -79 0
42 74 94 0
44 -78 84 0
45 -94 -99 0
45 -64 -88 0
45 56 -86 0
46 -70 75 0
46 -53 55 0
47 -65 90 0
47 -60 -69 0
47 57 -91 0
48 -74 -85 0
48 58 81 0
48 68 80 0
48 96 -99 0
49 -51 68 0
49 83 -90 0
50 -83 -99 0
50 -68 77 0
51 -91 -97 0
51 -56 74 0
51 -54 61 0
51 58 -86 0
52 -71 76 0
52 54 -84 0
52 61 -95 0
52 91 99 0
53 -87 98 0
53 70 -95 0
53 80 -96 0
55 56 -93 0
55 97 -98 0
57 -70 -97 0
57 62 -75 0
57 63 -100 0
58 -87 88 0
58 -80 -99 0
58 59 75 0
58 83 87 0
60 -67 -90 0
60 75 94 0
61 69 -87 0
61 87 -98 0
62 -89 -94 0
62 -76 91 0
63 81 85 0
67 68 71 0
69 71 88 0
69 75 -89 0
69 90 94 0
69 97 100 0
74 -81 85 0
74 80 97 0
77 94 98 0
90 92 96 0
