p cnf 80 260
-66 -77 -79 0
-60 64 -80 0
-59 -64 70 0
-56 -68 69 0
-54 61 -77 0
-52 -71 75 0
-52 55 70 0
-50 54 76 0
-49 -55 77 0
-48 -50 -79 0
-47 -53 -54 0
-46 64 -65 0
-44 47 -80 0
-43 -52 53 0
-43 -48 59 0
-40 -57 76 0
-40 56 -59 0
-40 66 79 0
-39 51 -71 0
-38 -50 -73 0
-38 -47 54 0
-38 62 78 0
-37 -59 -61 0
-37 -42 75 0
-37 56 -66 0
-36 -67 73 0
-36 -53 -67 0
-36 38 -69 0
-36 43 68 0
-35 -60 78 0
-35 -42 -58 0
-34 -41 -51 0
-33 -72 74 0
-33 -35 70 0
-32 -48 73 0
-32 -37 -70 0
-31 -55 67 0
-31 -36 53 0
-30 46 53 0
-30 63 79 0
-28 69 -72 0
-26 -28 58 0
-26 -27 55 0
-26 34 67 0
-26 44 -57 0
-25 26 -36 0
-23 -43 56 0
-23 -38 53 0
-23 -27 -74 0
-23 31 32 0
-23 62 -65 0
-22 32 40 0
-22 42 47 0
-22 54 63 0
-21 26 36 0
-21 46 76 0
-21 47 62 0
-21 48 74 0
-20 -38 -66 0
-20 29 -40 0
-20 31 -53 0
-20 55 -74 0
-18 -55 -69 0
-18 -23 68 0
-18 25 -77 0
-18 47 48 0
-18 62 -64 0
-17 -60 -71 0
-17 30 47 0
-17 32 -47 0
-17 33 -74 0
-17 40 -67 0
-17 74 -80 0
-16 24 -65 0
-16 37 -53 0
-15 -43 58 0
-15 -38 59 0
-15 -24 -33 0
-15 24 -44 0
-15 48 -72 0
-15 55 -67 0
-14 -46 78 0
-14 -44 54 0
-14 -20 -32 0
-14 53 -54 0
-13 26 77 0
-12 -61 -71 0
-12 -58 70 0
-12 -13 55 0
-10 -63 79 0
-10 -24 32 0
-10 47 61 0
-9 10 -22 0
-9 14 -71 0
-9 18 -44 0
-8 -12 -39 0
-8 36 37 0
-7 9 -77 0
-6 -49 75 0
-6 37 -49 0
-6 38 72 0
-6 54 -68 0
-5 -47 -56 0
-5 -13 -67 0
-5 7 74 0
-5 45 -74 0
-5 53 -60 0
-4 -33 -60 0
-3 -53 -69 0
-3 -22 38 0
-3 31 69 0
-3 35 53 0
-2 22 -59 0
-2 64 67 0
-2 66 73 0
-1 -61 -78 0
-1 -40 -74 0
-1 -29 -47 0
-1 -26 71 0
-1 7 54 0
-1 11 -19 0
-1 19 59 0
-1 20 -52 0
-1 35 75 0
-1 45 -71 0
-1 48 68 0
1 -46 57 0
1 16 25 0
1 27 -41 0
1 46 63 0
2 -27 28 0
2 -7 -60 0
2 8 -14 0
2 29 -71 0
2 63 80 0
3 -20 -56 0
3 -14 -62 0
3 -7 -43 0
3 38 -78 0
3 41 -44 0
3 56 -69 0
4 -31 -45 0
4 -19 47 0
4 29 -53 0
4 59 68 0
5 -53 56 0
5 -49 62 0
5 -33 75 0
5 -20 -44 0
5 18 63 0
5 21 -58 0
6 -22 44 0
6 -10 -35 0
6 17 -33 0
6 20 31 0
6 44 -49 0
7 -34 57 0
8 -16 64 0
8 -13 -16 0
8 14 64 0
8 18 -24 0
8 51 -65 0
8 52 -70 0
9 -40 -67 0
9 -27 76 0
9 -25 49 0
9 -20 -39 0
9 19 -28 0
10 -47 -74 0
10 -34 80 0
10 -20 74 0
10 -11 59 0
10 19 -38 0
10 20 -57 0
10 25 51 0
10 46 -47 0
10 47 -55 0
10 48 57 0
11 49 59 0
12 -57 -68 0
12 -52 53 0
12 -41 64 0
12 39 75 0
13 -45 58 0
13 17 -28 0
13 55 -58 0
14 -58 80 0
14 -28 -37 0
14 41 -42 0
15 -31 55 0
15 -18 73 0
15 33 41 0
15 68 -76 0
16 -33 -43 0
16 -25 44 0
16 -23 -32 0
16 20 -58 0
16 21 -65 0
16 57 70 0
16 71 -75 0
17 -35 -76 0
17 -24 61 0
17 24 -57 0
17 64 76 0
18 29 -79 0
19 54 -55 0
20 -46 -56 0
20 -41 45 0
20 -26 40 0
20 44 63 0
21 37 -62 0
22 41 -76 0
22 48 55 0
22 58 -71 0
23 27 68 0
23 69 -73 0
24 -49 66 0
25 -53 -60 0
25 -51 58 0
25 57 79 0
26 -49 -79 0
26 -28 -45 0
27 -66 -78 0
27 45 -51 0
27 52 59 0
28 35 51 0
28 58 -59 0
29 -47 75 0
29 34 35 0
30 -66 72 0
31 -48 61 0
31 57 68 0
32 63 66 0
33 -58 70 0
33 64 -68 0
34 36 79 0
34 41 78 0
34 46 74 0
35 50 -59 0
35 62 -67 0
36 54 55 0
38 -61 71 0
38 -52 76 0
38 57 -66 0
38 58 -62 0
39 47 -58 0
40 -74 76 0
40 71 76 0
42 -58 -80 0
43 -68 77 0
44 -49 -61 0
45 -70 79 0
45 61 79 0
47 74 77 0
48 61 -71 0
51 56 -71 0
56 -72 -75 0
57 60 69 0
62 -69 78 0
62 71 76 0
