p cnf 60 255
-44 -54 -55 0
-43 51 -58 0
-42 51 -55 0
-40 43 -45 0
-38 44 -55 0
-38 45 53 0
-38 54 56 0
-37 -46 -54 0
-35 -49 -51 0
-34 -40 -55 0
-34 -40 47 0
-34 39 42 0
-32 -50 -57 0
-32 -36 -38 0
-32 43 -50 0
-31 -35 -48 0
-31 37 47 0
-30 46 47 0
-29 -39 56 0
-29 -38 -57 0
-29 43 -52 0
-29 48 51 0
-28 -38 42 0
-28 -33 48 0
-28 -30 60 0
-27 38 -49 0
-26 37 -56 0
-25 -50 -51 0
-25 26 -27 0
-24 25 -27 0
-24 48 -55 0
-23 -30 53 0
-22 33 36 0
-22 33 60 0
-20 27 -37 0
-19 -38 -39 0
-19 -34 -52 0
-19 -22 -51 0
-19 34 48 0
-18 -30 42 0
-18 -20 -59 0
-18 29 58 0
-18 39 57 0
-18 42 47 0
-17 -54 -58 0
-17 -30 55 0
-17 -29 -50 0
-16 -23 28 0
-16 -22 45 0
-15 -18 -36 0
-15 54 58 0
-14 -42 -57 0
-14 -32 -60 0
-14 46 -59 0
-14 52 -58 0
-13 -24 39 0
-13 17 28 0
-13 26 -39 0
-12 -43 -55 0
-12 -20 -58 0
-12 46 -47 0
-11 -12 14 0
-11 16 36 0
-11 23 -41 0
-10 -44 60 0
-10 13 -38 0
-10 25 -49 0
-10 29 34 0
-9 -16 46 0
-8 11 -37 0
-8 51 52 0
-7 21 -43 0
-7 23 26 0
-7 38 41 0
-6 -45 -59 0
-6 -28 -37 0
-6 -12 57 0
-6 16 54 0
-6 17 -52 0
-6 28 57 0
-6 35 53 0
-6 37 -50 0
-5 -40 52 0
-5 -21 -39 0
-5 -19 49 0
-5 -14 47 0
-5 -11 -59 0
-5 53 -56 0
-4 -39 58 0
-4 8 30 0
-4 26 50 0
-3 -27 57 0
-3 -24 -34 0
-3 12 -17 0
-3 19 41 0
-3 20 -34 0
-2 -37 -53 0
-2 -4 20 0
-2 5 -7 0
-2 36 40 0
-1 -43 52 0
-1 -31 59 0
-1 -28 -31 0
-1 -23 40 0
-1 -8 -50 0
-1 -7 47 0
-1 -5 -48 0
-1 -5 46 0
-1 3 52 0
-1 29 -45 0
1 -30 -44 0
1 -13 -41 0
1 -9 52 0
1 4 9 0
1 6 -56 0
1 9 30 0
1 10 31 0
1 16 -41 0
1 18 23 0
1 42 56 0
2 -40 49 0
2 -33 56 0
2 -16 -60 0
2 -4 47 0
2 5 46 0
2 18 -52 0
2 40 -57 0
3 -46 -54 0
3 -8 28 0
3 -4 -7 0
3 46 -57 0
4 -42 -55 0
4 -24 59 0
4 -13 -47 0
4 -6 -24 0
4 34 57 0
4 37 59 0
5 -35 -50 0
5 -19 -46 0
5 -10 51 0
5 18 -32 0
6 -44 -53 0
6 -16 24 0
6 33 37 0
7 -40 -51 0
7 -33 46 0
7 -21 32 0
7 24 46 0
8 -47 -55 0
8 -36 38 0
8 -13 -22 0
8 31 -54 0
8 34 55 0
8 36 41 0
8 47 55 0
9 -14 -46 0
9 11 -21 0
9 13 17 0
9 25 38 0
9 27 -59 0
9 35 47 0
9 43 -58 0
9 46 -60 0
10 -41 53 0
10 -24 51 0
10 14 -58 0
10 19 41 0
10 22 35 0
10 40 44 0
11 -54 -60 0
11 -50 60 0
11 -44 53 0
11 23 -56 0
11 42 -51 0
12 17 -57 0
12 17 35 0
12 25 -52 0
12 29 -59 0
12 36 42 0
13 15 32 0
13 18 -46 0
13 26 35 0
13 32 54 0
13 34 -35 0
13 41 -52 0
13 46 -57 0
13 54 -60 0
14 23 -32 0
14 41 -50 0
15 -16 17 0
16 -51 -56 0
16 -38 -56 0
16 -32 -43 0
16 -23 -25 0
16 -19 31 0
16 -17 -25 0
17 -53 -60 0
17 -40 -42 0
17 -37 -55 0
17 49 -55 0
19 -25 -28 0
20 -42 -55 0
20 -36 -51 0
20 -24 -34 0
21 -38 60 0
21 24 -27 0
21 34 -60 0
22 -53 -56 0
22 -39 43 0
22 28 46 0
22 33 41 0
22 34 48 0
23 -28 37 0
23 30 51 0
23 44 -57 0
24 -47 55 0
24 -39 52 0
24 -38 -60 0
24 -29 44 0
24 -25 45 0
24 43 54 0
25 -42 53 0
25 -33 -53 0
25 -32 42 0
25 54 59 0
26 -41 56 0
26 -38 47 0
26 -29 -60 0
26 -28 39 0
26 33 -56 0
26 35 52 0
26 42 55 0
27 -54 -59 0
27 -49 60 0
27 28 -37 0
28 43 -60 0
28 55 -57 0
29 -51 -59 0
30 -49 -56 0
30 33 56 0
31 -41 45 0
31 -37 55 0
32 36 -48 0
33 46 -51 0
34 -38 60 0
34 36 -43 0
34 42 -58 0
36 -38 -44 0
37 -48 59 0
37 43 45 0
40 41 52 0
41 56 58 0
42 -49 -54 0
44 -45 59 0
52 53 58 0
