p cnf 40 170
-28 29 36 0
-25 -30 -38 0
-25 -27 -29 0
-21 -28 30 0
-21 23 -24 0
-21 28 -29 0
-20 -29 -31 0
-18 -26 36 0
-18 -22 -33 0
-17 -31 36 0
-17 -20 39 0
-17 -19 38 0
-17 21 33 0
-16 -30 -40 0
-16 -28 -31 0
-15 -17 36 0
-15 16 31 0
-15 21 -30 0
-14 -18 -28 0
-14 16 -27 0
-14 38 -40 0
-13 -14 -34 0
-13 21 34 0
-12 -15 -22 0
-12 -14 -30 0
-12 16 29 0
-12 37 -39 0
-11 -18 39 0
-11 -17 25 0
-11 15 28 0
-11 18 -26 0
-10 -33 35 0
-10 -18 -39 0
-10 11 -17 0
-9 -14 -22 0
-9 10 11 0
-9 14 -25 0
-9 22 27 0
-9 22 32 0
-9 25 34 0
-9 26 -33 0
-9 27 -30 0
-8 -27 -32 0
-8 -17 18 0
-8 -11 -26 0
-7 -34 -38 0
-7 -24 -30 0
-7 -19 -22 0
-7 11 -26 0
-6 -9 -36 0
-6 13 -31 0
-6 18 27 0
-5 -34 40 0
-5 -29 -34 0
-5 -15 28 0
-5 15 -26 0
-4 14 -32 0
-4 18 -39 0
-4 19 30 0
-4 22 34 0
-4 33 34 0
-3 -7 -22 0
-3 -4 -12 0
-3 11 -13 0
-3 17 37 0
-3 23 -26 0
-2 -29 40 0
-2 -18 40 0
-2 -17 24 0
-2 -13 -26 0
-2 -5 6 0
-2 -3 16 0
-2 9 -39 0
-1 -30 -35 0
-1 -30 39 0
-1 -29 -30 0
-1 -14 -27 0
-1 -9 20 0
-1 13 -15 0
-1 15 -30 0
1 -8 -20 0
1 -4 -40 0
1 -4 33 0
1 -2 -3 0
1 -2 5 0
1 9 23 0
1 13 39 0
1 20 27 0
2 -20 21 0
2 -14 -35 0
2 -7 14 0
2 -7 33 0
2 19 38 0
2 24 29 0
3 -15 -19 0
3 7 -31 0
3 9 35 0
3 12 36 0
3 20 -36 0
3 23 -32 0
4 -22 29 0
4 -18 36 0
4 -17 39 0
4 -15 -25 0
4 -10 22 0
4 15 -24 0
5 -15 37 0
5 6 8 0
5 11 40 0
5 17 21 0
5 33 38 0
6 -16 37 0
6 -10 -14 0
6 -8 -20 0
6 -8 12 0
6 -7 -39 0
6 16 -39 0
6 23 26 0
7 -14 32 0
7 11 30 0
7 15 26 0
8 13 18 0
8 21 24 0
9 -19 -25 0
9 -16 -20 0
9 10 -19 0
9 19 -22 0
9 32 33 0
10 -19 22 0
10 -18 -35 0
10 -16 -27 0
10 15 19 0
10 21 -36 0
11 -24 40 0
11 -21 28 0
11 -16 28 0
11 -15 -31 0
12 -30 33 0
12 -15 37 0
12 22 -24 0
12 28 40 0
13 -22 -38 0
13 -22 -28 0
13 -17 31 0
13 17 21 0
14 21 -22 0
14 26 31 0
14 32 -37 0
15 18 28 0
16 24 -33 0
16 26 32 0
16 31 35 0
16 32 40 0
17 -30 -31 0
17 19 -25 0
20 -29 -38 0
21 -32 -36 0
21 25 -30 0
21 26 -30 0
22 -33 36 0
23 -31 -34 0
23 -26 -28 0
23 -24 -30 0
24 -33 37 0
24 26 32 0
25 -36 38 0
25 28 -39 0
26 -27 38 0
27 30 39 0
28 -29 38 0
