p cnf 32 136
-25 -26 -32 0
-22 26 -30 0
-18 -20 -29 0
-17 19 27 0
-17 27 29 0
-16 -24 -31 0
-15 16 -17 0
-15 21 -22 0
-15 22 24 0
-14 -16 26 0
-14 -15 17 0
-14 18 -23 0
-11 -27 -29 0
-11 -20 27 0
-11 -12 31 0
-10 -29 -30 0
-10 -17 29 0
-10 11 -16 0
-10 11 13 0
-10 15 16 0
-10 21 26 0
-9 -26 32 0
-9 -23 -30 0
-9 -22 -28 0
-9 -18 26 0
-9 20 -25 0
-8 -14 -17 0
-8 27 -32 0
-7 -14 23 0
-7 -9 27 0
-7 -8 -23 0
-7 -8 12 0
-7 25 -26 0
-7 26 -32 0
-6 -26 -27 0
-6 -21 -30 0
-6 12 -28 0
-6 19 31 0
-5 -24 26 0
-5 -22 26 0
-5 -10 -16 0
-5 9 10 0
-5 11 -31 0
-5 18 -22 0
-4 -28 -31 0
-4 -24 27 0
-4 -22 27 0
-4 -7 -20 0
-4 -5 -10 0
-4 11 -23 0
-4 14 17 0
-4 16 -23 0
-4 18 -29 0
-4 29 -30 0
-3 -14 -25 0
-3 7 -16 0
-3 9 11 0
-2 -12 23 0
-2 -5 30 0
-2 9 30 0
-2 17 -25 0
-2 18 25 0
-2 28 -32 0
-1 -20 32 0
-1 -9 16 0
-1 -2 -8 0
-1 2 24 0
-1 2 27 0
-1 3 5 0
-1 14 -29 0
1 -16 32 0
1 -3 -6 0
1 3 -31 0
1 4 -9 0
1 10 29 0
1 19 26 0
1 28 -32 0
2 -20 -22 0
2 -5 -25 0
2 8 -23 0
2 8 -9 0
2 13 -26 0
3 -18 -24 0
3 -13 -18 0
3 10 25 0
3 11 -27 0
3 12 18 0
3 27 32 0
4 -20 -29 0
4 -18 -25 0
4 -6 -9 0
4 15 -20 0
4 19 30 0
5 -24 31 0
5 -18 23 0
5 -15 -23 0
5 -12 18 0
5 -10 -31 0
5 -7 -23 0
5 -6 -24 0
5 9 -25 0
5 13 -20 0
5 16 32 0
5 25 26 0
6 -18 -29 0
6 -15 -20 0
7 -10 18 0
7 -8 24 0
7 8 22 0
7 12 -20 0
7 15 -19 0
8 -18 -21 0
8 -18 27 0
8 -17 -23 0
8 15 28 0
8 16 -19 0
9 -21 30 0
9 16 28 0
11 -12 31 0
11 19 32 0
12 13 -24 0
12 15 -23 0
13 22 30 0
14 18 28 0
14 21 -22 0
15 -27 29 0
15 -16 18 0
15 19 24 0
17 30 31 0
18 -27 -30 0
18 -21 31 0
19 25 -28 0
20 26 32 0
21 25 27 0
22 24 25 0
22 25 -28 0
