p cnf 24 102
-17 20 22 0
-16 21 24 0
-14 -18 -23 0
-14 15 16 0
-13 15 17 0
-13 17 -20 0
-12 14 -20 0
-11 -14 17 0
-11 12 -13 0
-11 22 -24 0
-10 19 23 0
-9 20 -24 0
-8 -10 -18 0
-8 11 -13 0
-8 23 24 0
-7 9 14 0
-7 9 20 0
-7 12 15 0
-7 14 -19 0
-6 -22 -23 0
-6 -15 -20 0
-6 -10 17 0
-6 11 -17 0
-6 16 17 0
-6 20 21 0
-6 21 -24 0
-5 13 17 0
-5 13 18 0
-4 -7 -22 0
-4 -7 -10 0
-4 -6 -23 0
-4 -6 11 0
-4 6 -22 0
-3 -16 -24 0
-3 -12 24 0
-3 -6 9 0
-3 4 11 0
-3 10 16 0
-3 11 -13 0
-3 16 18 0
-3 16 19 0
-2 -22 -23 0
-2 -16 -17 0
-2 -4 -11 0
-2 -3 11 0
-2 3 4 0
-2 8 -10 0
-2 8 12 0
-2 15 18 0
-1 -20 -22 0
-1 -6 12 0
-1 -5 15 0
-1 -2 14 0
-1 4 9 0
-1 5 -18 0
-1 6 19 0
-1 10 23 0
1 -17 21 0
1 -11 24 0
1 11 20 0
1 13 21 0
2 -7 -17 0
2 -5 16 0
3 -18 -19 0
3 -15 18 0
3 -12 -17 0
3 -12 23 0
3 -9 24 0
3 5 -11 0
3 11 -17 0
4 -22 24 0
4 6 19 0
4 10 -11 0
4 15 21 0
5 -20 -22 0
5 -14 -17 0
5 -11 19 0
5 -10 13 0
5 -6 22 0
6 -9 16 0
6 -7 15 0
6 7 -14 0
6 7 17 0
7 -21 23 0
7 -13 -23 0
7 -10 22 0
7 -9 -10 0
7 13 17 0
7 19 -23 0
8 -15 23 0
8 -12 -14 0
8 -9 -15 0
9 11 -20 0
10 11 13 0
10 14 -24 0
10 15 16 0
11 13 -20 0
11 20 -23 0
12 15 19 0
13 -16 24 0
16 -20 21 0
19 22 -23 0
