p cnf 60 180
-47 48 -55 0
-44 45 -46 0
-43 50 -51 0
-38 -49 -52 0
-37 49 -54 0
-36 -57 59 0
-34 39 -46 0
-34 55 59 0
-30 -34 -39 0
-29 -40 -58 0
-29 55 -59 0
-28 -42 59 0
-27 -38 44 0
-27 -37 53 0
-26 -29 -40 0
-26 47 -55 0
-26 52 -57 0
-25 -33 -41 0
-25 38 59 0
-25 41 49 0
-24 36 -41 0
-23 -41 42 0
-23 -24 38 0
-23 56 -59 0
-21 -42 -46 0
-21 24 48 0
-21 49 -60 0
-18 -45 -52 0
-18 -36 46 0
-18 -30 -56 0
-18 21 27 0
-18 22 32 0
-17 27 37 0
-17 48 -54 0
-16 -31 45 0
-16 20 -27 0
-16 26 -27 0
-16 31 -44 0
-15 28 -37 0
-15 40 45 0
-14 -44 -50 0
-13 -37 40 0
-13 -30 40 0
-13 15 33 0
-12 -53 60 0
-12 -33 -43 0
-12 28 -38 0
-11 -20 29 0
-11 -14 -15 0
-11 25 37 0
-11 35 -55 0
-10 -21 55 0
-9 -33 47 0
-9 12 20 0
-8 -48 -49 0
-8 19 30 0
-7 13 -19 0
-7 31 -53 0
-7 42 -48 0
-6 -20 23 0
-6 -16 51 0
-6 8 -60 0
-6 9 50 0
-6 18 -35 0
-5 -42 -59 0
-5 25 -48 0
-4 -14 45 0
-4 21 45 0
-4 23 -34 0
-3 -38 -49 0
-3 9 -21 0
-3 23 -58 0
-3 25 -49 0
-2 -45 60 0
-2 -38 -52 0
-2 -35 -56 0
-2 -12 -52 0
-2 -8 -12 0
-2 3 -21 0
-2 3 48 0
-1 -39 45 0
-1 -21 26 0
-1 -12 16 0
-1 3 39 0
-1 16 28 0
-1 16 52 0
-1 29 31 0
1 -51 59 0
1 -42 48 0
1 -24 41 0
1 23 -44 0
2 18 58 0
2 22 -34 0
2 44 -52 0
3 -25 -42 0
3 -8 46 0
3 -7 -45 0
3 -4 -48 0
3 -4 -13 0
3 4 49 0
4 -46 -57 0
4 13 -17 0
4 26 -43 0
4 26 56 0
5 -54 -60 0
5 -20 -35 0
5 -15 47 0
5 12 -15 0
5 25 -50 0
5 39 54 0
6 -42 -49 0
6 -29 53 0
6 13 31 0
6 24 31 0
6 30 -49 0
6 30 -45 0
8 -15 27 0
8 -11 -24 0
8 18 59 0
9 -15 34 0
9 15 45 0
10 -17 33 0
11 -13 24 0
11 30 -46 0
11 39 -54 0
12 -43 -52 0
12 -27 -31 0
12 -23 -29 0
12 13 -53 0
12 19 53 0
12 54 -58 0
13 -25 28 0
13 27 48 0
14 -44 -50 0
14 23 33 0
14 31 48 0
15 -23 51 0
16 -18 49 0
16 26 -39 0
17 -25 -44 0
18 -57 -58 0
19 -34 42 0
19 23 34 0
19 33 55 0
21 -36 -44 0
21 -25 -36 0
21 24 -37 0
21 26 39 0
22 -26 -35 0
22 25 -37 0
23 -35 57 0
23 54 58 0
24 -40 -48 0
25 27 34 0
27 -48 50 0
27 42 -50 0
27 43 -53 0
28 -31 -58 0
28 36 42 0
28 43 -46 0
28 55 -60 0
30 -33 -40 0
31 39 -40 0
31 44 -60 0
32 -46 56 0
33 -35 -43 0
33 48 -49 0
34 -35 41 0
34 43 -51 0
35 -36 -46 0
38 51 -56 0
39 -41 -42 0
40 46 57 0
40 49 -57 0
40 51 -60 0
41 -43 -46 0
44 -46 48 0
47 49 50 0
47 56 57 0
52 54 57 0
