p cnf 150 638
-139 145 -146 0
-131 -134 139 0
-127 -135 139 0
-124 129 150 0
-122 129 -134 0
-112 -113 124 0
-111 -132 -149 0
-107 -109 143 0
-106 -116 139 0
-105 -136 145 0
-105 -106 -128 0
-102 119 -126 0
-101 -108 147 0
-98 -100 146 0
-98 99 133 0
-98 132 -133 0
-93 -110 -125 0
-90 130 -135 0
-89 -109 -126 0
-89 95 -135 0
-89 119 147 0
-88 -109 -144 0
-88 -99 -118 0
-88 103 -121 0
-88 116 -123 0
-86 -121 -145 0
-86 -113 147 0
-84 87 118 0
-83 133 -142 0
-81 -134 138 0
-81 -118 -146 0
-81 88 -118 0
-81 130 -139 0
-80 -135 144 0
-80 -117 121 0
-80 93 136 0
-80 118 125 0
-79 -115 116 0
-79 -97 -113 0
-78 -95 116 0
-78 -85 -137 0
-78 107 144 0
-78 112 -122 0
-77 -88 114 0
-76 -83 111 0
-75 95 118 0
-75 97 -112 0
-75 115 118 0
-74 -86 123 0
-74 -84 140 0
-74 104 -118 0
-73 118 -150 0
-70 100 -127 0
-70 130 -135 0
-69 -106 119 0
-68 75 98 0
-68 81 -147 0
-68 88 111 0
-68 97 -133 0
-68 109 -131 0
-66 -116 145 0
-66 -104 128 0
-66 -75 82 0
-66 97 -115 0
-66 100 -124 0
-65 -80 -140 0
-65 71 126 0
-65 85 97 0
-65 105 109 0
-65 114 -138 0
-63 -112 125 0
-63 -71 97 0
-62 -97 149 0
-62 84 -113 0
-61 -113 126 0
-61 -69 95 0
-61 87 115 0
-61 122 148 0
-60 78 135 0
-60 99 134 0
-60 134 144 0
-59 -68 -128 0
-58 -117 148 0
-58 -60 134 0
-58 81 85 0
-58 88 -132 0
-58 121 143 0
-57 -136 150 0
-57 -98 -133 0
-57 67 -112 0
-57 85 -124 0
-56 -60 119 0
-56 64 73 0
-56 75 83 0
-56 80 -135 0
-56 82 -103 0
-56 102 115 0
-55 -94 103 0
-55 58 -91 0
-55 61 -70 0
-54 -88 -147 0
-54 -67 -97 0
-54 -55 -63 0
-54 108 -111 0
-54 130 147 0
-53 85 87 0
-53 89 -117 0
-53 129 -147 0
-51 107 -146 0
-50 -82 -136 0
-50 77 124 0
-49 -54 -68 0
-49 90 -145 0
-48 -99 -121 0
-48 51 -123 0
-48 76 145 0
-48 98 135 0
-48 117 120 0
-48 135 -140 0
-47 -59 -140 0
-47 124 -126 0
-46 -94 -96 0
-46 -63 126 0
-46 99 -115 0
-46 132 -142 0
-45 -144 149 0
-45 -77 94 0
-45 -63 115 0
-45 57 -79 0
-44 50 84 0
-44 94 112 0
-43 -53 68 0
-43 -52 -129 0
-43 -48 -56 0
-43 -48 113 0
-43 110 -121 0
-43 114 -139 0
-42 -61 -140 0
-42 51 104 0
-42 55 -132 0
-42 80 -118 0
-41 64 -113 0
-40 -70 105 0
-40 -56 77 0
-40 74 106 0
-40 81 114 0
-39 -67 127 0
-39 -55 91 0
-38 -63 -70 0
-38 54 -150 0
-36 60 -74 0
-35 -59 112 0
-35 -44 -80 0
-35 106 -150 0
-34 -50 -73 0
-34 36 46 0
-34 116 -137 0
-33 39 123 0
-32 -95 -118 0
-32 -48 119 0
-32 66 -67 0
-32 71 140 0
-32 107 150 0
-31 -73 -139 0
-31 -39 122 0
-31 -38 77 0
-31 44 -81 0
-31 47 -103 0
-30 -124 -133 0
-30 -74 123 0
-30 -63 -130 0
-30 56 92 0
-30 77 116 0
-30 91 -103 0
-29 -75 78 0
-29 65 -138 0
-29 95 115 0
-29 116 -123 0
-28 -139 146 0
-28 -81 100 0
-28 -63 71 0
-28 59 -82 0
-27 -60 126 0
-27 -33 77 0
-27 33 55 0
-27 44 -64 0
-27 77 118 0
-26 -48 -136 0
-26 -43 92 0
-26 -41 -110 0
-25 -93 114 0
-25 -61 -150 0
-25 -59 -134 0
-25 -33 102 0
-25 56 -64 0
-25 58 80 0
-25 63 -130 0
-24 -78 96 0
-24 -25 94 0
-24 29 31 0
-23 -79 -134 0
-23 -52 -119 0
-23 -45 -107 0
-23 28 -74 0
-23 33 135 0
-23 51 130 0
-23 67 117 0
-23 79 -107 0
-22 -42 -146 0
-22 -37 -96 0
-22 -27 -88 0
-22 -26 -101 0
-22 51 -87 0
-22 52 103 0
-22 97 -126 0
-22 105 111 0
-21 -120 123 0
-21 -79 110 0
-21 -50 -113 0
-21 -48 -147 0
-21 -44 -56 0
-21 27 115 0
-21 30 51 0
-21 104 106 0
-20 -37 -114 0
-20 23 113 0
-20 66 132 0
-19 -54 86 0
-19 -51 -119 0
-19 -46 83 0
-19 -34 -86 0
-19 36 -37 0
-19 59 -146 0
-18 20 127 0
-18 23 -52 0
-18 33 140 0
-18 36 -46 0
-18 40 -61 0
-18 45 148 0
-18 50 110 0
-17 -102 103 0
-17 -74 -118 0
-17 -34 142 0
-16 30 103 0
-16 39 73 0
-15 42 -102 0
-15 59 -88 0
-14 -64 97 0
-14 -17 -125 0
-14 46 -81 0
-13 -78 -92 0
-13 -70 -140 0
-13 -42 49 0
-13 -21 -57 0
-13 38 -55 0
-13 54 136 0
-12 -44 50 0
-12 30 -132 0
-12 30 83 0
-12 31 40 0
-12 34 70 0
-12 84 117 0
-11 -147 150 0
-11 -107 -136 0
-11 -106 135 0
-11 -50 -53 0
-11 77 108 0
-10 -68 139 0
-10 -18 141 0
-10 -13 48 0
-10 44 -122 0
-10 120 -141 0
-9 -11 -78 0
-9 54 123 0
-9 59 63 0
-8 -110 145 0
-8 -48 77 0
-8 -34 -57 0
-8 -26 142 0
-8 -23 75 0
-8 9 49 0
-8 20 -121 0
-8 67 109 0
-7 -86 93 0
-7 -59 -109 0
-7 -58 -84 0
-7 -23 86 0
-7 53 81 0
-7 80 -96 0
-6 -99 -116 0
-6 -56 98 0
-6 38 131 0
-6 51 57 0
-6 56 96 0
-6 79 85 0
-6 119 124 0
-5 -45 -133 0
-5 -24 113 0
-5 -21 -27 0
-5 87 134 0
-4 -92 -108 0
-4 -47 -138 0
-4 -40 123 0
-4 -16 -128 0
-4 30 58 0
-4 52 126 0
-4 92 119 0
-4 98 148 0
-3 -86 -141 0
-3 -9 26 0
-3 34 -91 0
-3 74 80 0
-2 -118 -127 0
-2 -79 -126 0
-2 -64 -100 0
-2 -27 73 0
-2 -8 73 0
-2 35 49 0
-2 45 -61 0
-2 71 -145 0
-1 -124 132 0
-1 -84 -137 0
-1 -81 -107 0
-1 -56 -82 0
-1 -41 -99 0
-1 54 -64 0
1 -54 -112 0
1 -36 90 0
1 -9 -113 0
1 -7 -27 0
2 -97 142 0
2 -70 -132 0
2 -62 -118 0
2 9 20 0
2 30 -89 0
2 56 -105 0
2 80 103 0
3 -87 -147 0
3 -40 54 0
3 -34 69 0
3 -27 142 0
3 14 59 0
4 -127 -147 0
4 -114 141 0
4 25 69 0
4 27 -46 0
4 37 44 0
5 -117 145 0
5 -16 56 0
5 32 -37 0
5 43 146 0
5 54 141 0
5 93 146 0
6 29 -63 0
6 33 142 0
6 80 -89 0
7 -98 -126 0
7 -9 -93 0
7 13 -87 0
7 31 -45 0
7 39 -54 0
7 104 -120 0
7 129 -149 0
8 -112 -114 0
8 -59 68 0
8 12 -48 0
8 32 34 0
8 47 -136 0
8 49 131 0
8 53 110 0
8 54 -103 0
8 99 149 0
9 -75 92 0
9 -28 111 0
9 36 92 0
9 114 147 0
10 -91 -117 0
10 -55 -150 0
10 14 -64 0
10 33 -76 0
10 48 -119 0
10 56 112 0
11 -111 -142 0
11 -62 -71 0
11 -51 -131 0
11 32 106 0
11 62 100 0
11 123 -132 0
12 -41 44 0
12 -38 -44 0
12 -38 140 0
12 -37 145 0
12 39 -59 0
12 50 -117 0
12 51 112 0
12 52 116 0
12 86 115 0
13 -88 119 0
13 -80 117 0
13 -78 -140 0
13 45 129 0
13 53 136 0
13 87 -113 0
14 -69 117 0
14 90 -132 0
14 98 -128 0
14 115 117 0
14 116 -129 0
15 -88 -119 0
15 -83 -126 0
15 -24 -62 0
15 -23 84 0
15 17 145 0
15 26 55 0
15 43 -127 0
15 58 -99 0
15 84 125 0
16 -19 114 0
16 39 -85 0
17 -97 -136 0
17 -68 69 0
17 -61 119 0
17 -36 46 0
18 -102 -111 0
18 -81 -112 0
18 -55 -105 0
18 -35 -85 0
18 23 117 0
18 25 -62 0
18 30 134 0
18 61 110 0
18 80 138 0
18 102 109 0
19 -66 -139 0
19 -29 -94 0
19 -28 -62 0
19 20 54 0
19 28 104 0
19 55 -64 0
20 -144 -148 0
20 -63 -65 0
20 58 81 0
21 23 79 0
21 27 -125 0
21 32 59 0
21 64 -97 0
21 71 125 0
21 72 85 0
22 -51 117 0
22 81 105 0
22 116 -145 0
23 -85 147 0
23 -72 133 0
23 -51 -132 0
23 -50 -69 0
23 51 101 0
24 -135 144 0
24 29 -66 0
24 96 -137 0
25 -73 -83 0
25 -34 -69 0
25 37 69 0
25 71 -92 0
26 -64 65 0
26 56 -125 0
26 61 -74 0
27 -113 115 0
27 -108 -135 0
27 -62 -102 0
27 -59 -122 0
27 -59 86 0
27 -31 66 0
28 -58 60 0
28 -53 149 0
28 110 132 0
29 -73 -91 0
29 39 -77 0
29 44 -146 0
29 50 -69 0
29 80 131 0
29 102 -121 0
30 -99 103 0
30 -76 115 0
30 56 103 0
30 76 -84 0
31 -88 -142 0
31 38 143 0
32 -111 138 0
32 -35 146 0
32 36 121 0
32 97 -101 0
33 -101 -140 0
33 -76 -128 0
33 34 -38 0
33 46 -89 0
33 47 -54 0
33 72 101 0
33 88 -127 0
33 94 -131 0
33 123 125 0
34 -55 99 0
34 -36 50 0
34 43 -63 0
34 70 83 0
34 95 138 0
35 -50 108 0
35 88 -97 0
35 120 -140 0
35 132 136 0
36 -139 -141 0
36 -63 -117 0
36 -52 -145 0
36 -47 -142 0
36 -47 -59 0
36 46 -61 0
37 39 -82 0
37 53 -84 0
38 42 113 0
38 57 -77 0
39 -116 129 0
39 -80 -141 0
39 -62 -130 0
39 99 123 0
40 -125 -133 0
40 -51 -118 0
40 108 114 0
41 -116 120 0
41 -52 -88 0
41 -50 73 0
41 121 -125 0
42 54 68 0
42 100 114 0
43 74 84 0
43 126 145 0
44 -99 -111 0
44 -93 -119 0
44 121 145 0
45 -116 -124 0
46 -69 101 0
46 -47 -107 0
46 82 96 0
46 100 -113 0
49 -61 84 0
49 87 -117 0
50 -84 116 0
50 80 -89 0
50 83 95 0
52 -74 87 0
52 -73 -150 0
52 56 -120 0
52 75 111 0
52 106 -136 0
53 -73 -96 0
53 -57 -92 0
54 -136 -148 0
54 -133 -145 0
54 -69 98 0
55 -92 109 0
55 102 112 0
56 -120 135 0
56 -66 97 0
56 59 124 0
56 74 143 0
56 82 -143 0
57 124 -147 0
59 61 146 0
60 -124 -142 0
60 66 -68 0
61 -111 124 0
61 -62 -107 0
62 -120 148 0
62 -119 132 0
63 -89 -127 0
63 70 -117 0
64 -81 -145 0
67 -113 -130 0
67 98 -147 0
68 -71 -103 0
68 -69 79 0
68 76 -115 0
69 -83 -87 0
69 89 107 0
69 104 -126 0
71 -75 94 0
71 94 -120 0
71 117 -127 0
71 132 -145 0
72 95 150 0
74 -143 145 0
74 -80 -148 0
75 -94 -107 0
75 89 130 0
75 91 -93 0
76 -141 145 0
76 -109 128 0
76 -101 -121 0
76 -91 121 0
79 83 116 0
80 -147 -148 0
81 -86 -135 0
81 110 -111 0
82 -110 146 0
82 -91 -120 0
83 -125 139 0
83 -90 -116 0
84 -90 127 0
84 103 -149 0
84 111 127 0
85 120 -126 0
86 -122 -135 0
87 -122 146 0
87 93 128 0
88 -107 -149 0
88 118 -146 0
90 -123 -133 0
92 -96 -141 0
92 98 -127 0
93 -130 141 0
94 -118 139 0
95 119 -143 0
96 123 -126 0
98 124 -131 0
99 -103 -116 0
99 -102 -141 0
99 136 -141 0
100 -119 144 0
101 121 142 0
102 -122 -137 0
107 127 129 0
107 135 -143 0
109 -116 -124 0
111 -119 -145 0
112 133 -145 0
113 -125 147 0
114 -126 -142 0
115 -136 -145 0
118 -120 145 0
124 -133 -134 0
