p cnf 70 298
-54 -57 68 0
-51 52 -67 0
-51 61 -65 0
-51 63 68 0
-45 -48 -57 0
-45 -46 -62 0
-45 46 -67 0
-45 50 -57 0
-45 64 66 0
-44 -58 62 0
-44 46 51 0
-43 46 -64 0
-40 -55 67 0
-40 -54 66 0
-39 -50 52 0
-37 -61 62 0
-36 -54 57 0
-36 41 -61 0
-35 -48 -59 0
-34 42 -45 0
-34 51 52 0
-32 -52 -66 0
-31 -38 42 0
-29 -46 -47 0
-29 -43 -56 0
-29 -31 -64 0
-29 59 -65 0
-28 36 65 0
-28 54 66 0
-27 -37 -56 0
-27 -28 -50 0
-27 35 41 0
-27 49 68 0
-26 -48 -56 0
-26 -35 -36 0
-26 -28 -57 0
-26 30 62 0
-26 39 48 0
-25 -47 -57 0
-25 26 36 0
-25 38 -56 0
-24 -39 53 0
-23 -26 -61 0
-22 -61 -64 0
-22 25 66 0
-22 35 -48 0
-22 38 54 0
-21 -32 35 0
-21 22 -31 0
-21 31 45 0
-21 35 -50 0
-21 47 -58 0
-20 -45 46 0
-20 -33 -60 0
-20 -27 -60 0
-20 37 -46 0
-20 40 -62 0
-20 49 -59 0
-19 47 -69 0
-19 68 -70 0
-18 -47 52 0
-18 -33 50 0
-18 29 -38 0
-18 29 44 0
-18 59 63 0
-17 -53 -63 0
-17 -31 -65 0
-17 43 48 0
-17 45 -53 0
-16 -35 65 0
-16 -29 -32 0
-16 28 29 0
-16 36 44 0
-15 -32 -35 0
-15 -29 -63 0
-15 41 -48 0
-14 -63 67 0
-14 -16 20 0
-14 22 53 0
-14 28 36 0
-14 53 -69 0
-13 -56 -65 0
-13 53 -61 0
-13 58 -63 0
-12 -53 -54 0
-12 37 -64 0
-11 -31 45 0
-11 -28 -52 0
-11 -24 -47 0
-11 -14 69 0
-11 24 28 0
-11 39 69 0
-11 42 -69 0
-10 47 -48 0
-10 58 59 0
-9 -54 -58 0
-9 -28 51 0
-9 17 45 0
-9 20 46 0
-9 24 30 0
-9 50 -51 0
-9 56 -63 0
-8 17 -49 0
-8 30 53 0
-7 -53 -69 0
-7 -32 68 0
-7 -12 -65 0
-7 13 -68 0
-7 13 -40 0
-7 15 -62 0
-7 17 -70 0
-7 35 -51 0
-7 39 65 0
-7 50 -64 0
-7 58 -66 0
-6 -21 -22 0
-6 -12 51 0
-6 8 -11 0
-6 12 30 0
-6 31 -63 0
-6 41 -47 0
-5 -15 26 0
-5 6 69 0
-5 12 -40 0
-5 16 -19 0
-5 18 -22 0
-4 9 61 0
-4 27 44 0
-4 45 -53 0
-3 -56 70 0
-3 -33 34 0
-3 -29 -66 0
-3 -24 -60 0
-3 -8 49 0
-3 -4 -56 0
-3 10 20 0
-3 14 -34 0
-2 -30 -54 0
-2 -7 -29 0
-2 15 30 0
-2 19 -56 0
-2 34 68 0
-1 -20 -69 0
-1 3 -60 0
-1 13 -33 0
-1 15 -33 0
-1 37 -65 0
-1 42 -68 0
1 -23 49 0
1 -14 34 0
1 21 38 0
1 35 62 0
2 -40 -55 0
2 -26 38 0
2 32 -63 0
3 -16 22 0
3 5 -39 0
3 21 -32 0
3 27 30 0
3 45 -55 0
4 -59 68 0
4 -28 -50 0
4 -24 53 0
4 7 -20 0
4 9 -22 0
4 13 -57 0
4 24 52 0
4 34 -36 0
4 38 -57 0
4 41 -57 0
4 57 66 0
5 -12 -29 0
5 7 29 0
5 13 -24 0
5 21 64 0
5 55 67 0
6 -37 55 0
6 -17 -64 0
6 14 35 0
6 18 66 0
6 34 -69 0
6 39 53 0
6 51 -66 0
7 -12 -57 0
7 18 -67 0
8 -45 49 0
8 -32 55 0
8 -31 -48 0
8 -23 -28 0
8 13 -46 0
8 23 50 0
8 46 66 0
9 -34 67 0
9 -33 55 0
9 10 -28 0
9 26 53 0
9 27 70 0
9 35 58 0
10 -23 -49 0
10 16 39 0
10 17 39 0
10 59 63 0
11 -30 44 0
11 13 -36 0
11 14 43 0
11 29 -64 0
12 -45 -63 0
12 -26 -62 0
12 -17 64 0
12 20 -68 0
13 -39 65 0
13 17 -40 0
13 36 -51 0
14 -56 69 0
14 -51 56 0
14 -40 -65 0
14 -33 58 0
14 -28 -31 0
14 30 52 0
15 -18 -23 0
15 -17 -20 0
15 17 -26 0
15 35 50 0
15 39 42 0
15 44 49 0
16 -24 -36 0
16 42 66 0
16 46 47 0
16 56 63 0
17 24 -44 0
17 24 -37 0
17 37 -63 0
19 -53 61 0
19 24 44 0
19 24 52 0
19 30 49 0
19 54 -59 0
19 64 -65 0
20 -46 -54 0
20 -30 46 0
20 21 -43 0
20 33 -50 0
21 -39 -60 0
21 -23 -24 0
21 48 -62 0
22 -58 65 0
22 -32 40 0
22 -30 -52 0
22 -23 -49 0
23 -30 -44 0
23 30 38 0
23 40 61 0
24 -52 62 0
24 -46 -66 0
24 -39 -40 0
24 -36 54 0
24 -34 55 0
24 43 -68 0
24 43 -59 0
24 47 58 0
25 34 -39 0
25 39 58 0
27 -28 29 0
28 -43 53 0
28 -37 45 0
28 -32 -52 0
28 36 67 0
29 -63 67 0
29 -33 65 0
31 -63 -68 0
31 -57 60 0
31 -43 -58 0
31 -38 65 0
33 -41 -67 0
34 -59 61 0
35 -60 61 0
35 -41 63 0
36 -46 52 0
36 -37 -58 0
37 -56 -59 0
37 51 65 0
38 -56 -67 0
38 -39 -57 0
39 50 -66 0
40 -41 58 0
40 43 51 0
41 44 48 0
43 -55 66 0
43 45 60 0
43 48 -52 0
43 54 -69 0
44 -60 62 0
45 48 62 0
48 -63 70 0
49 57 70 0
51 -61 -70 0
51 57 -68 0
57 61 -70 0
