p cnf 32 136
-25 -27 -30 0
-24 25 -28 0
-23 -25 26 0
-21 -22 -29 0
-21 24 29 0
-20 22 -24 0
-20 24 26 0
-19 -21 -22 0
-19 -20 29 0
-18 -22 30 0
-18 -19 27 0
-18 22 -25 0
-17 29 32 0
-16 -20 -32 0
-16 -20 22 0
-16 -19 -28 0
-16 26 -32 0
-16 27 -31 0
-15 -24 29 0
-15 -20 32 0
-15 17 27 0
-14 19 -28 0
-13 -29 30 0
-13 -16 20 0
-13 -15 -32 0
-13 15 -24 0
-12 -21 22 0
-12 -19 -23 0
-12 -18 -29 0
-11 -23 -31 0
-11 -22 30 0
-11 -19 27 0
-10 13 -14 0
-10 29 -31 0
-9 -20 -31 0
-9 -14 -21 0
-9 -11 30 0
-9 14 -19 0
-8 -14 -28 0
-8 -14 25 0
-8 20 22 0
-8 27 32 0
-8 30 -31 0
-6 -9 -25 0
-6 -8 32 0
-6 8 12 0
-6 9 31 0
-5 -10 -32 0
-5 9 -22 0
-5 9 31 0
-5 20 -26 0
-4 -16 30 0
-4 -5 23 0
-4 10 23 0
-4 27 -32 0
-3 -8 19 0
-3 -5 15 0
-3 -4 -30 0
-3 5 -22 0
-3 22 31 0
-3 28 -31 0
-2 -14 -27 0
-2 12 -26 0
-2 27 -28 0
-1 -3 -13 0
-1 2 31 0
-1 10 -25 0
-1 16 -29 0
1 -10 22 0
1 -8 -18 0
1 -7 -8 0
1 2 -27 0
1 3 21 0
1 4 27 0
1 8 26 0
1 10 -12 0
2 -21 -29 0
2 -19 -20 0
2 -12 -22 0
2 4 17 0
2 7 -21 0
2 12 -26 0
3 -16 -30 0
3 -5 8 0
3 6 27 0
3 11 -23 0
3 11 18 0
3 17 -23 0
3 22 30 0
4 -30 -31 0
4 -10 -28 0
4 10 -29 0
4 22 29 0
4 28 30 0
5 -31 32 0
5 -20 32 0
5 -11 -28 0
5 -10 18 0
5 -10 27 0
5 7 -30 0
6 -21 30 0
6 -11 -24 0
6 -11 13 0
7 -18 26 0
7 9 11 0
7 22 -28 0
8 -14 -19 0
8 -13 -20 0
8 -11 -22 0
8 -9 -27 0
8 13 23 0
8 16 -21 0
8 22 -26 0
8 24 -29 0
9 12 15 0
9 17 19 0
10 14 21 0
10 17 30 0
10 19 -31 0
11 16 32 0
11 18 -24 0
12 -18 22 0
12 17 -25 0
13 15 -19 0
14 -15 -21 0
14 -15 27 0
14 24 -27 0
16 -17 24 0
16 18 -32 0
16 26 -28 0
17 18 24 0
19 -25 -31 0
19 24 -28 0
21 -22 31 0
23 24 32 0
23 29 31 0
