p cnf 50 213
-45 -48 -50 0
-43 -49 50 0
-43 -44 49 0
-35 -39 -47 0
-34 -36 37 0
-33 -42 43 0
-33 -39 49 0
-33 43 -47 0
-33 45 50 0
-29 32 35 0
-28 -32 -44 0
-28 -30 37 0
-28 33 -37 0
-26 -27 50 0
-26 41 49 0
-25 -28 -34 0
-24 -34 -45 0
-23 -48 -49 0
-23 -32 40 0
-22 -38 -39 0
-22 -29 -39 0
-22 26 -28 0
-22 27 37 0
-21 -28 -32 0
-20 -44 47 0
-20 -26 -40 0
-20 -23 40 0
-20 25 -45 0
-20 33 -37 0
-20 35 -41 0
-19 -29 37 0
-19 -23 -45 0
-19 35 -49 0
-18 -41 45 0
-18 -31 38 0
-18 -25 30 0
-18 -20 41 0
-18 20 41 0
-18 25 -46 0
-18 37 49 0
-17 23 35 0
-16 -22 -31 0
-16 -17 50 0
-16 17 -42 0
-16 17 -30 0
-16 21 22 0
-16 27 41 0
-15 -26 45 0
-15 -25 -40 0
-15 16 45 0
-15 35 41 0
-14 -30 -41 0
-14 -22 -48 0
-14 -21 28 0
-14 15 -28 0
-13 -24 47 0
-13 -20 36 0
-13 -19 40 0
-13 -18 -22 0
-12 -42 -46 0
-12 -29 -31 0
-12 17 -28 0
-12 20 31 0
-11 -21 38 0
-11 15 -23 0
-11 22 25 0
-11 25 39 0
-10 -40 -42 0
-10 -12 -39 0
-10 15 22 0
-10 25 -36 0
-10 28 30 0
-10 30 50 0
-9 -24 25 0
-9 -17 -49 0
-9 11 37 0
-9 34 38 0
-9 37 46 0
-8 -24 -48 0
-8 42 -49 0
-7 -11 45 0
-7 8 -10 0
-7 9 -47 0
-7 19 -27 0
-7 23 -48 0
-7 27 -48 0
-6 -15 31 0
-6 -9 -25 0
-6 10 -49 0
-5 -31 45 0
-5 18 43 0
-5 21 -24 0
-4 -26 -36 0
-4 -24 -47 0
-4 -19 -37 0
-4 -11 -14 0
-4 -5 -14 0
-4 -5 36 0
-4 6 -11 0
-4 7 -45 0
-3 9 31 0
-3 25 -50 0
-3 34 43 0
-2 -16 27 0
-2 -8 50 0
-2 -5 19 0
-2 5 -38 0
-2 17 42 0
-2 31 -39 0
-1 -11 -25 0
-1 -10 31 0
-1 6 -16 0
-1 25 35 0
-1 37 42 0
-1 39 -43 0
1 -19 -33 0
1 -16 -44 0
1 -14 17 0
1 -3 38 0
1 4 -21 0
1 9 10 0
1 11 25 0
2 -15 -37 0
2 -10 -18 0
2 -4 -46 0
2 6 27 0
2 8 -35 0
2 14 24 0
2 19 24 0
2 20 22 0
2 22 -41 0
3 -18 -20 0
3 17 48 0
3 29 35 0
4 -22 45 0
4 -19 26 0
4 -9 41 0
4 10 -20 0
4 16 -50 0
4 31 47 0
4 38 -43 0
5 -27 28 0
5 8 23 0
5 23 38 0
6 -18 49 0
6 -13 -41 0
6 -13 23 0
6 8 -20 0
7 41 -50 0
8 -19 31 0
8 13 26 0
8 22 48 0
9 -42 48 0
9 -23 -26 0
9 -20 -41 0
9 22 -35 0
10 -41 -44 0
10 -32 -33 0
11 -31 -39 0
11 -18 -40 0
11 32 37 0
12 -27 -41 0
12 -14 42 0
12 13 -24 0
12 13 33 0
12 14 -23 0
12 45 -48 0
13 35 -37 0
14 -23 -44 0
14 16 49 0
14 28 -37 0
15 -16 28 0
15 19 29 0
15 23 45 0
15 36 -45 0
16 -35 -45 0
16 -24 -49 0
16 -18 -23 0
17 -35 40 0
17 49 50 0
18 -38 -43 0
18 43 47 0
19 -24 -43 0
19 -24 -27 0
20 -35 -37 0
20 -21 33 0
20 43 -48 0
22 -30 42 0
23 -34 -44 0
23 -33 50 0
24 -48 -50 0
24 -29 49 0
24 -25 44 0
24 37 -46 0
25 -36 -50 0
25 -35 36 0
25 -30 34 0
25 28 -32 0
26 36 -38 0
26 42 -43 0
27 -29 44 0
27 41 44 0
28 32 -40 0
29 -49 -50 0
29 -44 -46 0
29 33 46 0
29 45 50 0
30 -43 45 0
30 -32 -47 0
31 -41 -50 0
31 -39 -47 0
33 -41 -48 0
37 -45 46 0
