p cnf 30 128
-22 28 29 0
-21 23 28 0
-20 -21 -23 0
-20 25 -28 0
-20 26 27 0
-17 20 -23 0
-16 19 21 0
-15 -22 25 0
-15 -21 25 0
-15 -17 -19 0
-15 18 -30 0
-15 20 -28 0
-15 20 -27 0
-15 26 -28 0
-14 -20 -23 0
-14 -18 -25 0
-14 -18 25 0
-14 21 26 0
-13 14 20 0
-12 -23 26 0
-12 -15 -25 0
-12 14 -24 0
-12 14 -20 0
-11 12 15 0
-11 13 -17 0
-11 15 -29 0
-10 -19 29 0
-9 16 20 0
-9 17 -21 0
-9 18 -20 0
-8 -22 -29 0
-8 -14 -27 0
-8 13 -25 0
-7 8 -24 0
-7 10 11 0
-7 10 16 0
-7 18 -26 0
-6 12 -20 0
-5 -14 23 0
-5 7 10 0
-5 9 -28 0
-4 8 25 0
-4 9 -21 0
-4 14 22 0
-4 25 26 0
-3 -22 -29 0
-3 -19 -29 0
-3 -17 -23 0
-3 -9 -29 0
-3 5 21 0
-3 6 -27 0
-3 15 -26 0
-2 -17 -24 0
-2 -10 24 0
-2 -5 7 0
-2 10 23 0
-1 -19 29 0
-1 -10 -30 0
-1 13 -29 0
1 -8 12 0
1 -3 -12 0
1 3 -29 0
1 4 -5 0
1 12 -25 0
1 17 -24 0
1 17 -18 0
1 28 29 0
2 -13 30 0
2 4 -30 0
3 -23 -26 0
3 -19 29 0
3 -11 17 0
3 4 -20 0
3 8 -28 0
3 15 -30 0
4 -11 27 0
4 -5 26 0
4 10 -24 0
4 10 -19 0
4 11 -30 0
5 -14 -18 0
5 -9 17 0
5 8 22 0
5 10 23 0
5 13 -30 0
5 16 -25 0
5 19 28 0
6 -17 21 0
7 -13 22 0
7 13 -16 0
8 -18 23 0
8 -11 23 0
8 -10 22 0
8 13 -26 0
8 17 25 0
8 19 -23 0
9 -19 -29 0
9 16 -30 0
10 -20 -26 0
10 -13 26 0
10 -11 18 0
10 13 30 0
11 14 -19 0
11 14 27 0
11 16 -23 0
12 16 27 0
12 17 21 0
12 19 22 0
12 21 22 0
13 -26 -27 0
13 -20 25 0
13 20 26 0
14 -22 -27 0
14 -15 28 0
14 23 28 0
15 -24 -25 0
15 -19 27 0
16 21 -25 0
17 -27 -29 0
17 21 25 0
18 20 -28 0
19 20 24 0
20 24 -27 0
22 23 27 0
23 -24 25 0
23 24 -25 0
23 27 28 0
23 27 30 0
