p cnf 40 170
-35 -38 39 0
-30 -32 -35 0
-29 -34 -40 0
-29 -31 34 0
-28 -32 -33 0
-23 -29 -32 0
-23 31 -34 0
-20 34 -36 0
-19 -27 -30 0
-17 -19 22 0
-17 -18 -20 0
-17 30 35 0
-16 -36 -37 0
-16 -26 39 0
-14 -39 40 0
-14 -31 -39 0
-14 -24 -27 0
-14 21 -28 0
-14 21 24 0
-14 23 33 0
-14 28 -39 0
-13 19 21 0
-12 -30 -32 0
-12 -28 35 0
-12 32 34 0
-11 -26 40 0
-11 -16 29 0
-11 -12 27 0
-11 13 17 0
-11 21 23 0
-10 -29 40 0
-10 -11 24 0
-10 18 28 0
-9 -25 28 0
-9 -18 22 0
-9 -13 -38 0
-9 -10 -16 0
-9 -10 29 0
-9 10 -30 0
-9 22 -35 0
-8 13 -17 0
-8 29 36 0
-7 21 -37 0
-7 21 34 0
-7 24 27 0
-7 26 35 0
-6 -24 -36 0
-6 -19 -25 0
-6 -17 -26 0
-6 -14 -39 0
-6 18 -21 0
-6 18 27 0
-6 26 -27 0
-5 -14 36 0
-5 -7 -8 0
-5 9 -23 0
-5 10 34 0
-5 19 24 0
-5 26 -39 0
-5 32 36 0
-5 32 37 0
-4 -21 22 0
-4 -14 -30 0
-4 -14 22 0
-4 32 33 0
-3 -14 -20 0
-2 -36 -39 0
-2 -31 38 0
-2 -18 -29 0
-2 -14 -33 0
-2 -13 -19 0
-2 -5 -32 0
-2 -3 27 0
-2 8 -34 0
-2 20 -36 0
-2 30 37 0
-1 -33 -35 0
-1 -3 39 0
-1 2 -37 0
-1 12 14 0
-1 19 23 0
-1 19 32 0
-1 23 39 0
-1 29 -40 0
1 -24 -28 0
1 -11 40 0
1 -4 28 0
1 6 -32 0
1 7 -29 0
1 32 -34 0
2 -30 38 0
2 -15 37 0
2 -5 -24 0
2 9 17 0
2 21 -32 0
3 -29 -38 0
3 -19 -25 0
3 -6 -38 0
3 -4 10 0
3 10 25 0
3 18 33 0
3 20 37 0
4 -11 -38 0
4 6 38 0
4 9 37 0
4 15 -23 0
4 16 21 0
4 20 -23 0
5 -38 -40 0
5 -20 -26 0
5 -12 -24 0
5 -12 34 0
5 12 -32 0
5 22 39 0
5 23 37 0
5 31 35 0
6 7 -18 0
6 20 -33 0
7 -23 32 0
7 -11 -28 0
7 -11 -17 0
7 -9 -29 0
7 33 35 0
8 -30 -40 0
8 -25 -38 0
8 -16 -26 0
8 -16 33 0
8 9 22 0
8 15 -20 0
8 16 25 0
8 20 -40 0
9 -14 21 0
9 20 37 0
9 27 -36 0
9 28 30 0
10 -17 -28 0
10 -13 -35 0
10 -11 -34 0
10 14 30 0
10 18 -21 0
10 18 -20 0
11 -14 -17 0
11 12 -24 0
11 13 21 0
11 15 -35 0
11 21 25 0
12 27 38 0
12 28 34 0
13 -28 -39 0
13 -27 -32 0
13 -18 -32 0
13 16 29 0
13 39 40 0
14 -18 -21 0
14 36 40 0
15 -33 -40 0
15 -28 33 0
15 25 -28 0
17 20 -28 0
17 20 31 0
18 -25 -28 0
18 24 -40 0
18 28 29 0
20 -35 -38 0
21 -26 38 0
22 35 -37 0
23 -30 38 0
23 25 27 0
25 -38 39 0
26 36 39 0
