p cnf 140 595
-123 132 -138 0
-119 -131 -135 0
-117 -131 133 0
-117 118 120 0
-117 133 134 0
-112 113 126 0
-111 125 -127 0
-108 124 127 0
-106 113 -125 0
-104 111 127 0
-102 -110 117 0
-101 -124 127 0
-99 -113 -126 0
-99 -107 -114 0
-99 -105 -119 0
-98 100 114 0
-96 97 116 0
-93 -112 132 0
-92 105 -132 0
-90 -102 -105 0
-89 102 113 0
-88 90 138 0
-88 101 130 0
-87 -124 -138 0
-84 88 114 0
-82 -110 -112 0
-82 -92 123 0
-82 105 110 0
-81 88 114 0
-81 90 126 0
-81 136 137 0
-80 112 -118 0
-79 -121 123 0
-78 -117 120 0
-78 102 118 0
-77 101 -108 0
-76 87 119 0
-76 106 -121 0
-76 138 139 0
-75 -82 138 0
-74 -122 123 0
-73 -113 137 0
-73 83 132 0
-72 109 -127 0
-71 -117 131 0
-71 -108 -118 0
-71 -105 -139 0
-71 -74 -132 0
-70 -121 -140 0
-70 78 90 0
-70 88 -96 0
-70 88 -94 0
-69 75 131 0
-69 83 133 0
-68 -97 -119 0
-68 -92 -109 0
-67 -101 114 0
-67 -78 -111 0
-67 84 88 0
-66 92 96 0
-65 95 99 0
-64 -85 102 0
-64 73 110 0
-64 91 123 0
-63 -76 90 0
-63 85 101 0
-62 -113 119 0
-62 -105 132 0
-62 -65 68 0
-61 -82 -110 0
-61 88 -92 0
-60 -70 -105 0
-60 -64 96 0
-60 71 99 0
-59 64 105 0
-59 76 138 0
-58 -65 124 0
-58 68 -137 0
-58 86 114 0
-57 61 -87 0
-57 71 85 0
-57 98 -133 0
-56 -92 -126 0
-56 -91 133 0
-56 -89 -109 0
-56 115 -138 0
-55 -90 136 0
-55 -57 -105 0
-55 66 73 0
-55 110 -117 0
-54 -108 136 0
-54 -103 107 0
-53 -61 79 0
-52 -60 109 0
-52 -58 -119 0
-52 57 67 0
-52 67 117 0
-50 59 -124 0
-50 113 -122 0
-49 -97 132 0
-49 -56 140 0
-48 -93 -121 0
-48 -92 108 0
-48 -58 -91 0
-48 116 -138 0
-46 -109 -117 0
-46 -85 93 0
-46 -50 92 0
-46 49 95 0
-46 52 -123 0
-46 67 72 0
-44 -94 -123 0
-44 -93 110 0
-44 -74 123 0
-44 -57 -98 0
-44 46 52 0
-44 116 -118 0
-42 -67 96 0
-42 -43 118 0
-42 53 -114 0
-41 -103 117 0
-41 -44 -119 0
-40 -62 -130 0
-40 -45 55 0
-40 67 107 0
-39 -57 -126 0
-39 40 -123 0
-39 58 -104 0
-38 74 -140 0
-38 117 -123 0
-37 -97 108 0
-37 -80 91 0
-37 -63 -74 0
-37 48 107 0
-37 61 -123 0
-37 94 -134 0
-36 -106 108 0
-36 -68 99 0
-36 -41 46 0
-36 68 -101 0
-35 -109 135 0
-35 -53 -117 0
-35 -42 48 0
-35 90 -127 0
-35 93 104 0
-34 -115 122 0
-34 -65 -113 0
-34 -49 94 0
-34 38 90 0
-34 42 -86 0
-34 59 110 0
-34 67 128 0
-33 -96 -135 0
-33 -65 95 0
-33 -42 97 0
-33 -36 -103 0
-33 83 -103 0
-32 -97 -122 0
-32 -46 84 0
-32 -42 71 0
-32 -40 66 0
-32 43 127 0
-32 59 -68 0
-32 85 133 0
-32 85 134 0
-31 -80 -119 0
-31 35 139 0
-30 33 -67 0
-30 42 64 0
-30 59 100 0
-30 99 118 0
-29 -66 123 0
-29 -64 -125 0
-29 -62 76 0
-29 -47 -85 0
-29 30 -51 0
-29 61 138 0
-29 64 121 0
-29 67 -122 0
-29 89 -124 0
-28 -89 126 0
-28 45 -137 0
-28 86 115 0
-28 90 104 0
-28 96 -109 0
-27 -65 139 0
-27 -47 -72 0
-27 -45 -73 0
-27 71 94 0
-26 -123 -140 0
-26 -110 -122 0
-26 -89 97 0
-26 56 -65 0
-25 -103 -128 0
-25 31 -35 0
-24 -52 -116 0
-24 -28 -67 0
-24 31 35 0
-24 58 -137 0
-24 86 111 0
-23 -64 65 0
-23 33 -137 0
-22 -47 -53 0
-22 -42 -104 0
-22 43 -69 0
-22 68 -72 0
-22 105 -129 0
-21 -99 -128 0
-21 -33 -60 0
-21 66 -122 0
-20 -56 -127 0
-20 -39 -106 0
-19 -100 135 0
-19 -60 128 0
-19 -26 -47 0
-18 -66 105 0
-18 55 -82 0
-17 -56 -126 0
-17 81 -112 0
-16 -125 127 0
-16 -72 -111 0
-16 -68 78 0
-16 -57 112 0
-16 -27 108 0
-16 125 140 0
-15 -65 90 0
-15 25 -68 0
-15 81 122 0
-14 -49 -126 0
-14 -21 81 0
-14 -18 20 0
-14 56 130 0
-14 63 -138 0
-14 95 121 0
-13 -69 -133 0
-13 -52 134 0
-13 30 -56 0
-12 -92 -114 0
-12 -41 125 0
-11 14 68 0
-11 27 -116 0
-11 30 71 0
-11 49 -105 0
-11 61 88 0
-11 74 101 0
-10 -18 98 0
-10 16 21 0
-10 49 -52 0
-10 58 -113 0
-9 -54 -128 0
-9 54 -108 0
-9 57 -64 0
-9 69 -129 0
-9 73 -88 0
-8 -99 134 0
-8 -49 -62 0
-8 -45 -55 0
-8 -31 73 0
-8 34 75 0
-8 39 -131 0
-7 -88 129 0
-7 -31 -84 0
-7 12 -35 0
-7 32 -49 0
-7 96 126 0
-6 -36 105 0
-6 -14 -136 0
-6 32 -53 0
-6 77 -116 0
-6 81 129 0
-5 -76 124 0
-5 -74 -93 0
-5 -47 -92 0
-5 27 -32 0
-5 47 77 0
-5 60 -61 0
-5 78 -102 0
-5 86 138 0
-5 87 -88 0
-5 99 -119 0
-4 -41 -100 0
-4 -31 129 0
-4 -15 100 0
-4 -11 -94 0
-4 36 -37 0
-3 -35 -124 0
-3 -17 130 0
-3 -15 90 0
-3 -11 -130 0
-3 -4 -42 0
-3 72 -105 0
-3 78 90 0
-3 92 -116 0
-3 101 131 0
-2 -49 103 0
-2 -29 71 0
-2 -3 112 0
-2 21 -118 0
-2 36 -67 0
-2 44 -50 0
-2 112 -135 0
-1 -59 98 0
-1 -48 -66 0
-1 -43 104 0
-1 -33 81 0
-1 6 -16 0
-1 39 -47 0
-1 48 140 0
-1 66 -101 0
-1 88 134 0
1 -83 114 0
1 -61 -87 0
1 -19 75 0
1 -10 115 0
1 10 13 0
1 45 -96 0
1 57 64 0
2 -85 -97 0
2 -72 -139 0
2 -70 -135 0
2 -40 91 0
2 -19 30 0
2 71 -113 0
3 -19 -76 0
3 21 72 0
3 28 118 0
3 35 103 0
3 84 -115 0
4 -79 81 0
4 -68 99 0
4 -63 65 0
4 16 126 0
4 45 -140 0
5 -52 72 0
5 -40 75 0
5 -16 38 0
5 -7 66 0
5 43 54 0
5 55 91 0
5 57 111 0
6 -76 -112 0
6 -48 -111 0
6 -31 -63 0
6 -21 -117 0
6 82 122 0
7 -85 125 0
7 -65 107 0
7 -36 92 0
7 36 49 0
7 41 -102 0
7 134 -137 0
8 -91 -112 0
8 -71 128 0
8 -64 94 0
8 -55 -94 0
8 -21 93 0
8 9 -31 0
8 28 -59 0
8 109 121 0
8 117 -129 0
9 -71 -85 0
9 -53 -116 0
9 -40 115 0
9 -39 127 0
9 -25 114 0
9 36 38 0
10 -74 -128 0
10 -62 -119 0
10 -60 96 0
10 -44 65 0
10 -21 -62 0
10 -12 -31 0
10 14 104 0
10 34 104 0
10 103 116 0
11 -28 -88 0
11 -16 140 0
11 54 131 0
11 87 -88 0
12 37 -136 0
12 108 109 0
12 121 129 0
13 -107 -113 0
13 -91 -123 0
13 -54 60 0
13 42 -135 0
13 81 134 0
13 89 -104 0
14 -70 -102 0
14 -48 -85 0
14 -45 97 0
14 58 -131 0
15 -90 -108 0
15 -65 123 0
15 -30 108 0
15 -20 -129 0
15 28 -38 0
15 67 -90 0
15 99 -101 0
15 137 -140 0
16 -32 -105 0
16 -27 116 0
16 25 -115 0
17 -121 137 0
17 -56 90 0
17 -27 59 0
17 22 135 0
18 -91 125 0
18 -63 -69 0
18 -59 -98 0
18 -46 66 0
18 30 -91 0
18 56 -119 0
18 90 -136 0
19 -75 -105 0
19 -39 -103 0
19 35 60 0
19 58 -119 0
20 -88 90 0
20 -70 135 0
20 -22 -53 0
20 -21 -41 0
20 44 -133 0
20 48 53 0
20 57 135 0
20 71 -104 0
21 -80 -124 0
21 -45 -64 0
21 27 -140 0
21 42 99 0
21 49 55 0
21 100 -103 0
22 -88 -97 0
22 -28 110 0
22 27 -106 0
22 80 126 0
22 94 115 0
22 95 109 0
23 -56 66 0
23 36 122 0
23 66 -94 0
23 104 129 0
24 -75 -137 0
24 -56 70 0
24 116 -131 0
25 -27 -62 0
25 109 -110 0
26 -100 -129 0
26 -78 -85 0
26 -77 119 0
26 -54 -69 0
26 51 -126 0
26 71 115 0
27 -77 121 0
27 -45 78 0
27 -44 72 0
27 60 100 0
28 72 128 0
28 73 101 0
28 105 -132 0
28 108 114 0
29 -92 -127 0
29 -73 -76 0
29 32 -110 0
29 48 -65 0
30 -125 -128 0
30 -55 74 0
30 -54 58 0
30 131 -138 0
31 -86 130 0
31 -66 -104 0
31 -48 -105 0
31 -44 139 0
31 -33 -100 0
31 55 89 0
31 81 -110 0
32 -102 104 0
32 -93 118 0
32 -43 -89 0
33 48 133 0
34 -68 111 0
34 44 -81 0
34 46 -75 0
35 -81 -100 0
35 54 -128 0
36 -86 -118 0
36 48 102 0
36 58 65 0
37 -94 -106 0
37 -89 93 0
37 -40 58 0
37 57 -102 0
37 69 -88 0
37 87 -137 0
37 91 -99 0
38 -48 76 0
38 -46 96 0
38 50 77 0
38 55 -104 0
38 86 88 0
39 -97 -111 0
39 98 128 0
40 -101 109 0
40 43 44 0
40 107 121 0
41 -117 -137 0
41 -117 120 0
41 -111 130 0
41 73 116 0
44 -107 109 0
44 -106 127 0
44 50 132 0
45 -96 122 0
46 -60 75 0
46 70 138 0
46 75 101 0
46 109 111 0
47 -106 114 0
47 -56 -138 0
47 66 67 0
48 -78 -102 0
48 61 -72 0
48 72 80 0
48 87 -97 0
48 105 -124 0
49 -72 89 0
49 -51 83 0
50 -63 113 0
50 -62 107 0
50 63 -104 0
51 62 103 0
53 56 -77 0
53 73 110 0
53 76 -88 0
53 83 -93 0
54 -63 -113 0
56 -117 131 0
56 -94 107 0
56 -66 128 0
56 -64 105 0
56 81 120 0
57 -98 112 0
57 -60 111 0
57 64 124 0
57 79 93 0
59 -92 -113 0
59 -79 116 0
59 67 119 0
60 -95 -114 0
61 -69 -117 0
61 72 132 0
62 -77 128 0
63 -117 -119 0
63 -81 103 0
63 70 108 0
63 81 92 0
63 99 -109 0
64 -102 112 0
64 -74 95 0
66 -114 -116 0
66 77 -95 0
68 -130 -131 0
68 -93 140 0
68 96 -104 0
69 96 -103 0
69 115 136 0
71 -85 -103 0
71 118 133 0
72 -94 -140 0
75 -101 -130 0
75 109 -111 0
78 81 84 0
79 -95 112 0
80 -92 -134 0
80 -86 89 0
80 114 126 0
82 92 -128 0
84 108 -118 0
86 -110 123 0
86 -103 -136 0
89 108 130 0
91 -116 -119 0
92 97 107 0
95 -101 -112 0
97 -112 -129 0
100 -134 140 0
100 104 -132 0
101 107 -139 0
102 -113 -128 0
102 -105 106 0
106 113 -122 0
110 129 139 0
111 123 140 0
112 -121 -134 0
124 -128 -135 0
