p cnf 35 149
-29 31 32 0
-22 -30 32 0
-22 -24 29 0
-21 -31 -35 0
-21 30 35 0
-20 34 -35 0
-19 -22 24 0
-18 -28 34 0
-18 21 -22 0
-17 -23 -27 0
-17 22 28 0
-16 24 28 0
-15 25 -28 0
-14 -24 -27 0
-13 -32 -33 0
-13 -16 -31 0
-12 -29 34 0
-12 -18 -19 0
-12 -15 26 0
-12 20 25 0
-12 21 26 0
-11 -20 35 0
-11 12 -31 0
-10 -12 -21 0
-10 21 22 0
-10 23 25 0
-10 26 -28 0
-9 -25 33 0
-9 -22 34 0
-9 -20 -29 0
-9 -17 -18 0
-9 17 32 0
-9 30 -31 0
-8 -18 -35 0
-8 -9 15 0
-7 11 18 0
-7 16 28 0
-7 21 -27 0
-6 -17 23 0
-6 9 19 0
-6 10 29 0
-6 12 18 0
-6 12 26 0
-6 12 28 0
-6 13 -35 0
-5 -15 -26 0
-5 7 -12 0
-5 10 25 0
-5 13 -20 0
-5 15 -25 0
-5 20 33 0
-5 24 35 0
-4 -27 35 0
-4 -8 23 0
-4 7 -21 0
-4 8 -12 0
-4 18 24 0
-4 33 -34 0
-3 -13 14 0
-3 16 -22 0
-3 16 23 0
-2 -25 32 0
-2 -23 -31 0
-2 -21 34 0
-2 -14 20 0
-2 -10 -24 0
-2 8 33 0
-1 -7 -23 0
-1 24 25 0
1 -26 -33 0
1 -20 35 0
1 -19 -29 0
1 -8 32 0
1 4 -17 0
1 13 32 0
1 15 33 0
2 -18 -35 0
2 -17 20 0
2 -17 32 0
2 -15 31 0
2 -10 -15 0
2 -7 14 0
2 -3 -13 0
2 11 25 0
2 19 30 0
2 23 -27 0
3 -26 -35 0
3 -19 -23 0
3 -17 -26 0
3 -16 -28 0
3 -16 25 0
3 6 -13 0
3 7 -17 0
3 7 26 0
3 11 23 0
3 25 -26 0
4 -22 28 0
4 -18 25 0
4 -7 -15 0
4 -6 12 0
4 11 28 0
4 15 -35 0
4 28 34 0
5 -28 29 0
5 -14 27 0
5 -12 -21 0
5 7 22 0
5 8 -13 0
5 9 -24 0
5 12 23 0
6 -30 -31 0
6 -25 27 0
6 -12 17 0
6 -9 35 0
6 19 22 0
7 -26 -30 0
7 11 14 0
7 15 20 0
7 21 -35 0
8 -19 21 0
8 -13 32 0
8 18 -23 0
9 -10 18 0
9 -10 35 0
9 17 19 0
9 32 -34 0
10 -17 -24 0
10 11 14 0
10 18 24 0
11 -19 25 0
11 -18 29 0
11 -13 31 0
13 15 -32 0
13 20 -25 0
14 18 28 0
15 -17 20 0
15 -16 25 0
15 22 -28 0
15 25 -27 0
16 22 -35 0
17 22 -27 0
18 -19 -35 0
19 -20 -27 0
21 26 -35 0
23 -24 -34 0
23 27 31 0
25 -26 32 0
27 -32 -35 0
30 -31 -33 0
