p cnf 80 260
-57 60 -78 0
-55 -72 75 0
-52 -75 -79 0
-50 -67 -73 0
-50 75 -79 0
-49 -74 -77 0
-48 -51 -52 0
-47 66 75 0
-46 -50 52 0
-44 53 -68 0
-43 -62 -63 0
-43 -55 63 0
-43 -50 76 0
-41 56 79 0
-40 53 62 0
-39 -55 71 0
-36 -45 48 0
-36 -40 51 0
-36 45 -68 0
-35 -37 -69 0
-35 79 80 0
-34 39 60 0
-32 -45 -50 0
-32 -33 -65 0
-32 50 57 0
-31 60 68 0
-29 -39 72 0
-29 36 74 0
-29 42 -47 0
-29 59 -64 0
-29 74 -80 0
-28 -45 -72 0
-27 32 73 0
-27 53 58 0
-26 -47 -78 0
-26 -34 -46 0
-26 60 78 0
-26 61 -79 0
-25 -58 -70 0
-25 -36 -79 0
-25 -26 42 0
-25 26 66 0
-24 35 50 0
-24 48 -72 0
-22 -40 75 0
-21 -38 -47 0
-21 -32 34 0
-21 48 50 0
-20 -42 56 0
-19 61 76 0
-18 29 -47 0
-18 45 78 0
-18 55 -57 0
-18 58 77 0
-17 -58 73 0
-17 -52 -58 0
-17 -20 52 0
-17 18 -23 0
-17 50 -51 0
-16 -55 79 0
-16 -35 69 0
-15 26 -62 0
-15 36 -59 0
-14 -51 -71 0
-14 -20 58 0
-14 41 75 0
-14 61 79 0
-13 -38 -76 0
-13 -32 36 0
-13 59 -69 0
-12 -33 -67 0
-12 -28 73 0
-12 20 38 0
-11 -47 -79 0
-10 -56 -62 0
-10 -25 52 0
-10 -16 53 0
-10 21 -37 0
-10 23 -52 0
-10 27 -66 0
-9 33 -61 0
-8 -44 63 0
-8 13 -52 0
-8 30 -70 0
-8 30 53 0
-7 -48 50 0
-7 -39 61 0
-7 9 75 0
-7 22 55 0
-7 28 78 0
-7 69 79 0
-6 -12 76 0
-6 8 -62 0
-6 35 -43 0
-6 36 -46 0
-6 48 -66 0
-6 52 -64 0
-5 -13 -28 0
-5 30 64 0
-5 33 42 0
-4 -30 -80 0
-4 -29 -38 0
-4 5 -35 0
-4 14 -70 0
-3 -58 78 0
-3 -26 62 0
-3 -16 26 0
-3 -10 -29 0
-3 28 -79 0
-3 54 79 0
-2 -18 35 0
-2 -15 51 0
-2 -13 72 0
-2 3 70 0
-2 18 -42 0
-2 39 41 0
-1 -38 55 0
-1 -22 59 0
-1 -14 65 0
-1 13 -22 0
-1 18 -33 0
-1 22 55 0
-1 24 25 0
-1 32 63 0
1 -23 39 0
1 19 76 0
2 27 -34 0
2 35 -76 0
2 37 74 0
3 -57 63 0
3 -37 -60 0
3 22 -62 0
3 38 -63 0
3 53 60 0
4 -49 53 0
4 -40 -57 0
4 52 -64 0
4 59 80 0
5 -53 -76 0
5 -37 -62 0
5 -35 62 0
5 8 57 0
5 14 -64 0
6 -40 65 0
6 -17 40 0
7 -29 35 0
7 -27 -76 0
7 12 14 0
7 49 -60 0
8 -35 45 0
8 -28 -46 0
8 -23 55 0
8 23 47 0
8 29 -59 0
8 31 -44 0
9 16 27 0
9 25 71 0
9 28 32 0
9 33 -54 0
9 45 55 0
9 47 68 0
10 51 57 0
11 -52 56 0
11 -45 -78 0
11 -33 71 0
11 27 -29 0
11 37 77 0
11 59 -79 0
12 -71 79 0
12 -29 38 0
12 -15 -43 0
12 26 -31 0
12 40 -47 0
12 57 61 0
13 -24 31 0
13 17 -30 0
14 -43 -58 0
14 -35 70 0
14 -26 -45 0
14 -20 43 0
14 -18 -34 0
14 17 75 0
15 -32 54 0
15 -22 50 0
16 -35 72 0
16 61 -77 0
17 18 -31 0
17 33 77 0
18 65 -70 0
19 -41 -47 0
20 -48 51 0
20 -45 -52 0
20 22 45 0
20 28 -46 0
20 40 57 0
21 -68 -72 0
21 24 -51 0
21 24 -50 0
21 49 77 0
22 -37 -61 0
23 -65 -71 0
23 33 57 0
23 35 -74 0
23 61 74 0
24 -53 -71 0
24 -44 -46 0
24 -31 79 0
24 29 60 0
24 37 -58 0
25 -45 -55 0
25 31 -35 0
25 36 -52 0
25 59 -62 0
26 -45 61 0
26 65 79 0
26 68 77 0
27 30 -72 0
28 -61 -63 0
29 -38 50 0
29 60 78 0
30 -63 71 0
30 -44 74 0
30 53 72 0
32 33 -78 0
33 38 42 0
34 40 46 0
34 42 -74 0
34 47 -49 0
34 64 76 0
35 -42 70 0
36 -76 -78 0
36 48 -51 0
37 -48 52 0
37 -47 59 0
37 67 -76 0
38 -65 -75 0
38 -61 79 0
39 -65 -66 0
39 -58 -78 0
39 -45 -80 0
40 -46 -71 0
40 43 -60 0
40 56 76 0
41 -50 61 0
41 -47 76 0
42 45 -49 0
43 -71 73 0
43 49 62 0
45 -57 61 0
45 -47 -64 0
46 51 -73 0
47 57 -68 0
48 49 -55 0
49 -69 72 0
50 60 -64 0
52 -72 -75 0
52 -54 68 0
57 66 -77 0
60 -67 75 0
61 68 -79 0
