p cnf 150 525
-134 143 -145 0
-128 -142 -144 0
-118 136 141 0
-111 -112 113 0
-110 -136 -144 0
-110 121 132 0
-110 122 125 0
-110 124 147 0
-107 -120 -139 0
-106 -126 130 0
-102 -111 121 0
-98 -99 -116 0
-96 -144 -145 0
-94 -111 -138 0
-93 -114 148 0
-92 -104 112 0
-92 109 139 0
-92 116 -133 0
-91 96 147 0
-90 -91 -142 0
-90 123 148 0
-90 124 -127 0
-88 -132 147 0
-88 105 113 0
-88 117 119 0
-85 120 147 0
-84 -91 110 0
-83 85 -105 0
-82 89 -146 0
-81 -136 -150 0
-81 104 135 0
-80 83 -118 0
-80 110 -118 0
-79 -98 142 0
-77 87 -109 0
-76 83 -116 0
-76 139 147 0
-75 105 135 0
-75 117 -123 0
-74 85 131 0
-73 -86 149 0
-73 -78 -89 0
-71 -88 105 0
-71 73 132 0
-70 -110 -145 0
-70 74 -96 0
-69 -85 -110 0
-68 -94 125 0
-68 -75 128 0
-68 -70 83 0
-68 69 -139 0
-68 69 83 0
-67 99 128 0
-66 90 105 0
-65 101 -112 0
-64 -85 -113 0
-64 79 97 0
-64 136 -138 0
-63 72 150 0
-62 -104 -133 0
-61 69 145 0
-61 92 -124 0
-61 109 -114 0
-60 70 -83 0
-59 -96 108 0
-59 -90 -131 0
-59 -73 136 0
-59 67 140 0
-59 81 108 0
-57 69 -77 0
-56 -103 132 0
-56 62 -149 0
-54 129 -134 0
-53 90 -144 0
-53 105 111 0
-51 56 -110 0
-50 53 -69 0
-48 -86 -122 0
-48 -54 -137 0
-48 90 108 0
-47 -107 119 0
-47 129 -146 0
-46 -111 -150 0
-46 61 -74 0
-46 109 -148 0
-45 -79 137 0
-45 -47 -69 0
-45 -47 134 0
-44 -47 84 0
-44 103 122 0
-43 -73 -139 0
-43 -55 109 0
-43 67 107 0
-43 91 107 0
-43 115 -122 0
-42 -85 135 0
-42 -57 89 0
-41 96 -110 0
-41 127 131 0
-40 83 144 0
-39 -40 -41 0
-39 102 -126 0
-39 113 -142 0
-38 -78 139 0
-38 -52 131 0
-38 -45 -47 0
-38 66 88 0
-37 -72 74 0
-37 -62 -97 0
-37 39 -88 0
-37 69 -116 0
-36 42 143 0
-35 -88 120 0
-35 71 -121 0
-34 124 128 0
-34 136 -147 0
-33 -100 -130 0
-33 45 -63 0
-33 82 -116 0
-33 119 139 0
-32 -94 140 0
-31 -94 -150 0
-30 -82 -84 0
-30 50 -96 0
-29 -133 139 0
-29 44 95 0
-28 -48 -148 0
-28 -44 -59 0
-28 -32 52 0
-28 87 -110 0
-27 -75 -81 0
-27 -61 -81 0
-27 -47 85 0
-26 -95 -118 0
-26 -66 79 0
-26 37 -51 0
-25 107 134 0
-25 115 119 0
-24 -67 113 0
-24 58 -77 0
-24 102 115 0
-23 -105 130 0
-23 108 -111 0
-22 -128 148 0
-22 -68 -90 0
-22 71 111 0
-22 73 74 0
-22 120 139 0
-21 -100 121 0
-21 -41 -91 0
-21 -29 -117 0
-21 35 -84 0
-21 83 99 0
-21 96 97 0
-21 127 -137 0
-20 -56 106 0
-20 -25 90 0
-20 26 94 0
-20 33 -97 0
-20 43 51 0
-20 44 -68 0
-19 -46 -121 0
-19 -43 -140 0
-19 35 37 0
-19 56 -97 0
-19 84 125 0
-19 111 121 0
-18 -116 -138 0
-18 -38 -131 0
-18 -25 -108 0
-18 -20 -106 0
-17 -22 72 0
-17 142 147 0
-16 -70 -90 0
-16 -54 -94 0
-16 19 -105 0
-16 54 75 0
-15 -90 -119 0
-15 -62 -70 0
-15 34 114 0
-15 66 -141 0
-14 -41 -67 0
-14 -27 -97 0
-14 25 85 0
-13 -87 148 0
-13 -48 113 0
-13 102 126 0
-12 -47 -104 0
-12 -32 59 0
-12 17 -95 0
-12 20 -21 0
-12 37 -104 0
-12 94 -149 0
-12 96 -144 0
-11 -84 144 0
-11 -78 -132 0
-11 22 -82 0
-11 39 -117 0
-11 56 -58 0
-10 33 -131 0
-10 76 112 0
-9 -110 123 0
-9 -106 -124 0
-9 -19 -104 0
-9 -17 122 0
-9 58 95 0
-9 68 126 0
-9 70 -75 0
-8 -91 118 0
-8 -86 117 0
-8 -50 -149 0
-8 -40 134 0
-8 -30 -39 0
-8 -18 145 0
-8 19 135 0
-7 -48 -139 0
-7 -30 -61 0
-6 8 98 0
-6 11 -17 0
-6 42 -144 0
-6 67 -68 0
-5 -17 92 0
-5 15 68 0
-5 25 -69 0
-5 55 71 0
-5 75 105 0
-5 80 100 0
-5 83 -115 0
-4 17 -143 0
-4 121 143 0
-3 -118 -150 0
-3 -79 115 0
-3 -57 -101 0
-3 -40 124 0
-3 -19 -57 0
-3 9 -86 0
-3 11 -52 0
-2 -80 124 0
-2 -71 129 0
-2 -22 -31 0
-2 63 143 0
-1 -132 140 0
-1 -129 137 0
-1 -83 -112 0
-1 -74 -89 0
-1 -48 129 0
-1 -22 48 0
-1 -2 -133 0
-1 24 80 0
-1 61 -122 0
-1 76 -127 0
-1 108 -137 0
-1 112 118 0
1 -79 109 0
1 -17 -64 0
1 -9 -80 0
1 62 -80 0
1 100 -140 0
2 -71 85 0
2 -34 74 0
2 75 125 0
3 -74 -144 0
3 -67 -77 0
3 -64 106 0
3 17 -141 0
3 49 50 0
3 78 125 0
3 79 116 0
3 82 118 0
4 -129 134 0
4 -84 -105 0
4 -12 31 0
4 24 38 0
4 64 117 0
4 81 143 0
5 -89 110 0
5 -73 145 0
5 -47 -122 0
5 -30 -137 0
5 -24 -150 0
5 -20 -101 0
5 32 -68 0
5 32 63 0
5 106 135 0
5 117 120 0
6 -126 -135 0
6 -14 88 0
6 53 144 0
6 68 -81 0
7 -82 118 0
7 -49 -138 0
7 8 -59 0
7 20 137 0
8 -91 -112 0
8 -19 78 0
8 21 -108 0
8 48 -126 0
8 63 107 0
8 99 -116 0
8 100 -141 0
9 -43 -48 0
9 -20 33 0
10 -107 -132 0
10 -79 90 0
10 -63 125 0
10 50 -121 0
10 58 -77 0
10 72 112 0
11 55 88 0
11 79 131 0
12 -115 -144 0
12 18 -61 0
12 88 -131 0
13 -54 141 0
13 28 61 0
13 44 -71 0
13 97 -109 0
14 -101 120 0
14 -32 -115 0
14 24 108 0
14 29 83 0
14 111 -140 0
15 -24 -119 0
15 38 74 0
15 59 70 0
15 106 -128 0
16 -34 96 0
16 30 -72 0
16 52 144 0
17 -118 137 0
17 -111 -145 0
17 21 29 0
17 77 85 0
17 100 -105 0
18 -60 134 0
18 -36 87 0
18 -34 -40 0
18 112 -149 0
19 -53 100 0
19 48 91 0
20 -104 -140 0
20 -33 -49 0
20 -32 58 0
20 34 95 0
20 79 -112 0
20 102 141 0
21 -31 -94 0
21 28 36 0
21 81 -143 0
21 122 -132 0
22 -139 141 0
22 -56 -116 0
22 -41 -46 0
22 76 -144 0
22 90 130 0
23 -118 -150 0
23 73 -120 0
23 131 149 0
24 -56 86 0
24 33 101 0
25 31 -142 0
25 74 -114 0
26 -77 -140 0
26 -58 -113 0
26 -56 -144 0
26 69 -108 0
26 77 -98 0
27 -45 84 0
27 -39 -109 0
27 -33 102 0
27 45 94 0
27 85 134 0
27 90 144 0
27 112 -142 0
28 29 -70 0
29 -32 -78 0
29 44 -78 0
29 51 100 0
30 -50 -59 0
30 36 -58 0
30 41 -78 0
30 116 123 0
31 -127 -128 0
31 59 124 0
31 79 -128 0
32 -108 -139 0
32 -70 96 0
32 -46 -150 0
32 104 -133 0
33 64 110 0
33 75 -150 0
33 81 -118 0
33 130 -136 0
34 -107 142 0
34 -60 -92 0
34 -37 105 0
34 38 81 0
35 51 -100 0
36 -124 -125 0
36 -67 -81 0
36 -46 -138 0
36 40 -83 0
36 82 148 0
36 115 -127 0
37 -114 -125 0
37 -48 59 0
37 59 67 0
38 -45 54 0
38 40 -103 0
40 -96 135 0
40 -49 62 0
40 52 -53 0
40 57 -92 0
40 86 -145 0
40 121 -137 0
41 -52 66 0
42 -103 -141 0
42 45 81 0
42 70 97 0
43 -141 142 0
43 -122 -142 0
43 -54 57 0
43 91 100 0
43 102 -145 0
44 -79 146 0
44 50 -85 0
45 -110 143 0
45 -76 -122 0
45 -46 -73 0
45 60 80 0
45 81 -126 0
46 -54 -150 0
46 -54 -74 0
47 -111 120 0
47 49 132 0
48 -122 147 0
48 -111 -136 0
48 72 -133 0
49 -126 -141 0
49 -72 119 0
49 -68 -76 0
49 65 137 0
49 79 97 0
49 80 -95 0
49 82 -111 0
50 -67 111 0
51 -52 125 0
52 -74 86 0
52 54 57 0
52 65 -90 0
52 77 144 0
52 127 -143 0
54 -109 131 0
55 -65 -128 0
55 58 -114 0
55 77 100 0
55 89 -131 0
56 -96 138 0
56 57 119 0
57 -77 78 0
57 -60 102 0
59 78 -118 0
60 89 129 0
61 -67 148 0
61 90 -148 0
61 99 -103 0
62 -99 113 0
62 -68 -94 0
62 104 -141 0
63 -124 -147 0
63 -92 -118 0
64 -124 -141 0
64 82 111 0
64 85 -95 0
65 -87 -100 0
65 -82 -109 0
65 -66 -112 0
65 70 -96 0
65 105 -136 0
66 76 -88 0
67 -124 132 0
67 -77 94 0
67 82 101 0
68 -127 132 0
68 -96 -128 0
68 -69 -144 0
68 117 -123 0
69 99 -144 0
69 127 138 0
70 -81 90 0
70 -77 95 0
71 88 -116 0
71 137 -148 0
72 89 121 0
72 89 142 0
74 -81 114 0
74 -77 -135 0
74 81 -101 0
74 96 -111 0
75 134 -147 0
77 -121 -138 0
78 -105 110 0
78 100 110 0
79 120 148 0
81 96 144 0
84 85 96 0
85 108 -115 0
86 -115 122 0
86 -107 119 0
88 -96 -107 0
88 129 -146 0
90 -132 -134 0
90 -114 -116 0
90 -111 146 0
96 98 -146 0
99 -127 145 0
102 115 -149 0
109 131 147 0
109 138 143 0
113 114 146 0
113 129 140 0
124 -140 -143 0
124 125 132 0
124 144 -150 0
125 -132 137 0
