p cnf 60 180
-46 -59 -60 0
-46 49 55 0
-45 -46 54 0
-44 -55 60 0
-42 -43 59 0
-39 45 -59 0
-37 -50 53 0
-37 40 54 0
-36 -46 55 0
-36 45 -54 0
-31 -52 -53 0
-31 -42 43 0
-30 -37 60 0
-29 32 -53 0
-28 29 -39 0
-28 34 36 0
-26 -28 -49 0
-26 31 56 0
-25 -29 51 0
-25 42 -53 0
-24 -27 32 0
-24 31 39 0
-23 -49 52 0
-23 -40 52 0
-23 -39 45 0
-23 30 37 0
-22 -45 58 0
-22 -44 46 0
-22 30 59 0
-21 -52 -53 0
-21 29 -45 0
-20 -49 -51 0
-20 22 57 0
-20 46 56 0
-19 -25 -36 0
-19 54 -59 0
-18 -32 56 0
-18 -22 31 0
-18 26 45 0
-18 27 56 0
-18 47 56 0
-17 -24 41 0
-17 18 25 0
-17 24 28 0
-16 -48 59 0
-16 -40 46 0
-16 19 -44 0
-16 26 37 0
-15 22 -54 0
-13 -40 47 0
-13 19 32 0
-13 19 43 0
-13 28 58 0
-13 57 60 0
-12 -33 -51 0
-12 -32 -60 0
-12 -27 -32 0
-12 -22 45 0
-12 45 59 0
-11 -29 36 0
-11 15 -30 0
-11 26 -36 0
-10 -32 44 0
-10 23 32 0
-10 24 57 0
-9 -22 42 0
-8 -45 -46 0
-8 -32 47 0
-8 -27 -46 0
-8 -12 -27 0
-7 -15 25 0
-7 20 -21 0
-7 27 -31 0
-7 46 52 0
-6 -21 47 0
-6 32 -57 0
-5 -22 -36 0
-5 -15 33 0
-5 -7 39 0
-5 11 -24 0
-5 24 47 0
-5 26 -28 0
-5 35 51 0
-5 37 49 0
-4 -38 45 0
-4 -20 -27 0
-4 -12 44 0
-4 49 55 0
-3 -13 -37 0
-3 4 -39 0
-2 -24 -32 0
-2 -11 -54 0
-2 43 -58 0
-2 49 -52 0
-1 -15 22 0
-1 -3 -41 0
-1 3 -41 0
-1 4 -5 0
-1 6 -56 0
-1 18 29 0
-1 48 -54 0
1 -8 -57 0
1 -5 59 0
1 6 -44 0
1 12 -27 0
2 -46 59 0
2 -24 -33 0
2 3 29 0
2 9 -48 0
2 13 -23 0
2 34 42 0
3 6 59 0
4 -18 -26 0
4 -13 52 0
4 -6 -56 0
4 13 58 0
4 22 -39 0
5 -15 -20 0
5 7 52 0
5 45 -60 0
6 -18 53 0
6 -10 -38 0
6 23 55 0
6 26 -52 0
6 30 55 0
7 16 27 0
7 29 -33 0
7 43 51 0
8 -29 -30 0
8 17 -51 0
8 25 -54 0
10 -53 55 0
10 -40 -57 0
10 32 34 0
11 18 -30 0
11 28 -33 0
11 46 -54 0
12 14 -28 0
12 20 21 0
13 17 -29 0
14 -40 54 0
14 -31 -33 0
14 -20 35 0
15 36 47 0
16 -21 32 0
16 19 26 0
16 21 29 0
17 -55 -56 0
17 -44 52 0
18 -36 59 0
19 -41 54 0
19 -33 -50 0
20 -33 -55 0
20 25 60 0
22 26 31 0
22 30 -40 0
23 -34 -38 0
23 39 -48 0
23 47 -54 0
23 57 59 0
25 -36 -47 0
25 -28 42 0
28 29 34 0
28 54 57 0
29 -50 -55 0
30 -52 -59 0
31 -56 -57 0
31 39 51 0
32 50 -58 0
33 -37 -42 0
34 49 -60 0
36 -41 57 0
36 -38 -59 0
39 45 46 0
40 -48 57 0
41 -55 58 0
41 43 46 0
41 57 -59 0
42 -44 47 0
50 -56 -57 0
