p cnf 80 340
-63 -66 80 0
-62 -63 -75 0
-61 -63 -75 0
-58 71 -76 0
-57 -65 79 0
-56 75 78 0
-55 -58 61 0
-54 62 78 0
-53 -61 -67 0
-53 -55 57 0
-53 70 -80 0
-52 -71 75 0
-52 54 -64 0
-50 67 69 0
-49 -52 -68 0
-49 65 72 0
-48 -73 76 0
-47 -65 -77 0
-47 70 77 0
-46 -55 56 0
-45 -55 -66 0
-45 -47 63 0
-45 48 -58 0
-44 45 -61 0
-44 55 57 0
-43 -72 74 0
-43 -52 -56 0
-43 45 -53 0
-41 -63 66 0
-41 -43 57 0
-40 -58 -80 0
-39 57 68 0
-38 -61 63 0
-38 51 54 0
-38 64 67 0
-37 69 80 0
-37 73 76 0
-36 -68 -77 0
-36 -52 74 0
-36 46 56 0
-36 51 -54 0
-35 -50 -52 0
-35 37 68 0
-34 -47 50 0
-34 -36 57 0
-34 37 59 0
-34 45 54 0
-34 53 58 0
-33 -45 -76 0
-33 -44 -69 0
-32 -46 -79 0
-32 -36 58 0
-31 -45 -47 0
-31 62 -71 0
-30 -71 74 0
-30 -40 -44 0
-30 -37 -71 0
-30 -36 -65 0
-29 -65 -77 0
-29 -45 73 0
-29 38 66 0
-29 40 79 0
-29 66 78 0
-27 -39 64 0
-27 67 -79 0
-26 48 -64 0
-26 62 67 0
-25 48 56 0
-23 -63 -65 0
-23 -41 69 0
-23 -38 40 0
-23 -34 46 0
-23 24 51 0
-23 28 -74 0
-23 42 -62 0
-22 -39 67 0
-22 23 36 0
-22 37 63 0
-22 44 -70 0
-21 -63 -78 0
-21 -51 64 0
-21 24 -25 0
-21 27 -71 0
-21 32 -49 0
-21 34 58 0
-21 43 50 0
-21 49 -59 0
-20 -40 -75 0
-20 -22 54 0
-20 26 67 0
-20 31 -75 0
-19 -70 -80 0
-19 37 38 0
-18 -56 75 0
-18 -32 49 0
-18 36 -45 0
-18 36 79 0
-17 54 -61 0
-16 -58 -75 0
-16 -56 -67 0
-16 -43 -55 0
-16 -32 -60 0
-16 -20 -28 0
-16 19 39 0
-16 20 -78 0
-16 36 -71 0
-16 37 -63 0
-15 -32 67 0
-15 -31 44 0
-15 47 73 0
-14 -19 38 0
-13 29 -59 0
-13 31 34 0
-13 35 -50 0
-13 54 -59 0
-12 -46 -57 0
-12 -14 48 0
-12 16 -59 0
-12 58 66 0
-11 -76 -79 0
-11 15 31 0
-11 43 44 0
-10 -38 51 0
-10 -21 60 0
-10 25 -29 0
-10 44 60 0
-9 -53 54 0
-9 -48 -73 0
-9 -24 75 0
-9 10 12 0
-9 38 56 0
-9 43 -56 0
-9 43 78 0
-8 -67 -75 0
-8 -56 -78 0
-8 -39 49 0
-8 -28 -63 0
-8 -25 55 0
-8 -21 43 0
-8 42 47 0
-7 -45 -71 0
-7 -41 49 0
-7 -36 -52 0
-7 -18 -45 0
-7 14 24 0
-7 53 -75 0
-7 62 65 0
-6 -38 49 0
-6 -31 49 0
-6 -21 59 0
-6 -16 -43 0
-6 22 -72 0
-6 28 -55 0
-5 -38 46 0
-5 -21 29 0
-5 -10 -28 0
-5 -9 -60 0
-5 10 31 0
-5 16 35 0
-5 21 -44 0
-4 -31 -68 0
-4 -18 -59 0
-4 10 32 0
-4 26 46 0
-4 47 80 0
-4 53 -60 0
-4 54 -55 0
-3 -49 -60 0
-3 -26 -50 0
-3 -25 -73 0
-3 10 -71 0
-2 -46 61 0
-2 -34 57 0
-2 5 -31 0
-2 10 26 0
-2 15 34 0
-2 17 -78 0
-2 53 -62 0
-1 -24 -26 0
-1 5 76 0
-1 19 56 0
-1 48 -71 0
1 -52 -66 0
1 -35 52 0
1 -16 73 0
1 -8 28 0
1 14 41 0
1 30 77 0
1 49 76 0
1 51 -57 0
1 51 62 0
2 -55 79 0
2 -26 34 0
2 -20 77 0
2 -4 -64 0
2 22 -69 0
2 22 51 0
2 39 79 0
3 -47 56 0
3 11 68 0
3 40 72 0
4 -13 -24 0
4 -11 -58 0
4 -9 38 0
4 24 -60 0
4 45 -56 0
4 61 80 0
4 73 75 0
5 -23 -52 0
5 -15 -69 0
5 -14 68 0
5 -8 24 0
6 -59 71 0
6 -32 -50 0
6 -27 74 0
6 -20 71 0
6 -13 35 0
6 -10 62 0
6 72 80 0
7 15 -66 0
7 16 -78 0
7 16 51 0
8 -67 74 0
8 -44 -67 0
8 -29 55 0
8 -28 -32 0
8 -13 -42 0
8 -9 -11 0
8 9 48 0
9 -34 75 0
9 -28 73 0
9 -21 62 0
9 -21 74 0
9 -11 -23 0
9 -11 14 0
9 12 72 0
9 35 -67 0
10 -34 50 0
10 -25 44 0
10 -24 44 0
10 30 54 0
10 56 59 0
10 60 71 0
10 60 77 0
11 -15 -80 0
11 18 -56 0
12 -56 71 0
12 -41 72 0
12 -34 56 0
12 -32 45 0
12 18 67 0
13 -24 31 0
13 -23 68 0
13 29 -74 0
14 24 25 0
15 -37 53 0
15 21 -58 0
15 25 -70 0
15 25 68 0
15 44 -64 0
15 52 -55 0
16 -41 58 0
16 -33 59 0
16 -27 -45 0
16 53 -57 0
17 -57 79 0
17 -52 -61 0
17 -49 -66 0
17 -36 -57 0
17 -24 -67 0
17 -18 -26 0
17 21 -24 0
17 36 42 0
17 54 -68 0
17 57 74 0
18 -54 62 0
18 -26 72 0
18 -24 -68 0
18 56 -59 0
19 -39 57 0
19 -32 77 0
19 -23 75 0
19 21 33 0
19 66 78 0
20 -43 52 0
20 25 -48 0
20 28 -39 0
21 22 25 0
21 46 64 0
21 54 -72 0
21 68 -73 0
22 -40 -70 0
22 -35 51 0
22 -29 36 0
22 25 -32 0
23 53 -60 0
24 -49 -75 0
24 -31 64 0
24 41 -46 0
26 -68 70 0
26 41 -53 0
28 -45 58 0
28 37 44 0
30 -48 -64 0
30 -46 67 0
31 -52 -62 0
31 -39 -63 0
31 40 -75 0
33 -66 67 0
35 -53 66 0
35 -46 -55 0
37 -38 58 0
37 49 76 0
38 -68 69 0
38 79 80 0
39 -56 -65 0
39 42 52 0
39 45 -58 0
39 51 -69 0
40 -41 -42 0
40 53 60 0
41 49 66 0
42 65 -79 0
42 65 -69 0
43 -48 -55 0
47 -55 -73 0
48 -55 -80 0
50 -62 -64 0
50 -52 -70 0
50 53 -65 0
52 -59 70 0
53 -58 71 0
53 -58 74 0
56 -62 -76 0
58 65 69 0
60 -69 74 0
60 -63 -77 0
60 61 75 0
62 67 70 0
69 -72 73 0
