p cnf 120 420
-104 -114 115 0
-95 -116 117 0
-92 -102 110 0
-92 118 -119 0
-84 90 -103 0
-78 84 -90 0
-76 -89 106 0
-76 77 89 0
-71 -92 94 0
-71 -87 -118 0
-71 -84 -105 0
-70 76 -101 0
-70 78 118 0
-69 -95 109 0
-68 -83 -108 0
-68 95 -102 0
-64 -95 -108 0
-64 -70 116 0
-62 63 -77 0
-62 64 110 0
-60 83 -119 0
-56 -68 95 0
-55 80 115 0
-55 100 105 0
-54 -69 -109 0
-54 111 116 0
-52 -77 90 0
-51 -71 -96 0
-51 61 102 0
-50 60 -80 0
-49 -92 -112 0
-49 57 -69 0
-48 -86 102 0
-48 66 -81 0
-48 80 92 0
-47 -93 -114 0
-47 53 69 0
-46 -72 -89 0
-46 -56 71 0
-46 -47 72 0
-45 -62 119 0
-45 81 119 0
-44 -97 113 0
-44 -79 -98 0
-44 -59 -62 0
-44 -45 -47 0
-44 57 -59 0
-43 49 -111 0
-43 77 -119 0
-42 -86 -95 0
-42 -56 -93 0
-42 58 79 0
-42 63 115 0
-41 -111 119 0
-40 -103 -113 0
-40 47 54 0
-40 55 -77 0
-38 -88 -101 0
-38 -49 92 0
-38 49 109 0
-37 -81 89 0
-37 42 -95 0
-37 109 111 0
-36 -83 -89 0
-36 54 110 0
-36 68 -117 0
-36 69 -100 0
-36 72 -108 0
-36 89 -102 0
-35 -50 -57 0
-35 -42 52 0
-35 41 -56 0
-35 63 -115 0
-35 63 71 0
-35 85 102 0
-35 110 112 0
-34 -96 -109 0
-34 -54 -69 0
-32 67 101 0
-31 -50 94 0
-31 41 107 0
-31 57 101 0
-30 -111 113 0
-30 52 -76 0
-30 69 -75 0
-29 -77 82 0
-29 -75 -109 0
-29 -72 -107 0
-29 -45 -90 0
-28 63 -88 0
-28 77 -115 0
-28 82 112 0
-28 84 -100 0
-27 -84 -95 0
-27 -51 108 0
-27 48 -63 0
-27 48 112 0
-27 79 95 0
-26 -61 69 0
-26 -57 66 0
-26 39 55 0
-25 28 71 0
-25 34 110 0
-25 36 -59 0
-25 40 -112 0
-25 52 -120 0
-25 75 99 0
-25 102 109 0
-24 -39 91 0
-24 -38 115 0
-24 108 -109 0
-23 -90 -109 0
-22 -90 -93 0
-22 -74 -94 0
-22 -33 38 0
-22 -31 -33 0
-20 -96 -116 0
-20 -37 -75 0
-20 -36 -48 0
-20 96 -116 0
-19 -36 -46 0
-19 -32 -97 0
-19 50 -72 0
-19 54 -102 0
-18 -79 -110 0
-18 32 -100 0
-18 36 -94 0
-18 43 -74 0
-18 55 88 0
-18 72 114 0
-18 105 119 0
-18 106 -109 0
-17 -50 -59 0
-17 34 59 0
-16 -60 -77 0
-16 -34 -69 0
-16 -20 25 0
-15 -48 -52 0
-14 39 78 0
-13 -29 -93 0
-13 -16 102 0
-13 43 118 0
-13 92 -102 0
-12 -105 -116 0
-12 -56 -92 0
-12 -28 -34 0
-12 -15 -117 0
-11 61 -93 0
-10 -85 -99 0
-10 23 67 0
-10 53 -56 0
-10 100 103 0
-9 -28 109 0
-9 -23 -82 0
-9 -16 -59 0
-8 -50 59 0
-8 -45 79 0
-8 -33 -81 0
-8 -28 -53 0
-8 -22 -46 0
-8 21 68 0
-7 -93 -114 0
-7 -74 94 0
-7 -45 -90 0
-7 -30 -46 0
-7 21 -60 0
-7 42 -98 0
-6 -88 -107 0
-6 -79 114 0
-6 -43 82 0
-6 -13 120 0
-6 19 -75 0
-6 60 104 0
-6 63 85 0
-5 -88 -89 0
-5 -61 120 0
-5 -50 112 0
-5 -20 -59 0
-5 -8 59 0
-5 28 -110 0
-5 53 93 0
-5 70 -100 0
-4 -87 -102 0
-4 -38 48 0
-4 11 -53 0
-4 24 -69 0
-4 46 -117 0
-4 62 -87 0
-4 68 -80 0
-4 70 75 0
-3 11 -108 0
-3 96 113 0
-2 -52 -110 0
-2 -29 41 0
-2 -23 94 0
-2 -4 112 0
-2 4 -38 0
-2 32 67 0
-2 40 -79 0
-2 77 97 0
-1 -84 -117 0
-1 -25 -114 0
-1 20 -66 0
-1 54 -119 0
1 -71 -91 0
1 -39 -105 0
1 2 -16 0
1 4 107 0
1 65 -85 0
1 107 119 0
2 -36 -60 0
2 -14 -103 0
2 13 -89 0
3 -54 -100 0
3 -37 -104 0
3 17 -77 0
3 63 86 0
4 -108 -117 0
4 -41 87 0
4 -28 65 0
4 -22 -88 0
4 -21 27 0
4 29 -45 0
4 39 -81 0
5 -67 96 0
5 -41 118 0
5 -35 -108 0
5 56 -97 0
6 -46 -87 0
6 14 55 0
7 -37 59 0
7 -23 30 0
7 8 -61 0
7 15 -107 0
8 -60 71 0
8 -44 -117 0
8 43 -65 0
8 76 112 0
9 -30 62 0
9 109 -117 0
10 -102 112 0
10 -78 -85 0
10 -71 91 0
10 -44 71 0
10 -39 -77 0
10 -12 29 0
10 29 -94 0
11 -20 -113 0
11 -14 -41 0
11 51 104 0
11 84 -88 0
12 -56 83 0
12 -39 96 0
12 39 82 0
12 90 -112 0
13 -84 97 0
13 -69 74 0
13 -36 -91 0
13 17 -120 0
13 21 -68 0
13 24 -34 0
14 -87 93 0
14 -46 -101 0
14 -35 -109 0
14 -21 81 0
14 18 110 0
14 45 -61 0
15 -98 105 0
15 -48 117 0
15 43 -104 0
15 80 -81 0
16 -26 -48 0
16 -20 -62 0
16 40 52 0
17 -78 93 0
17 -71 -97 0
17 -31 33 0
17 20 24 0
17 24 -110 0
17 32 -94 0
17 52 -67 0
17 83 -89 0
17 110 117 0
18 -79 106 0
18 -75 113 0
18 -46 71 0
18 -43 90 0
18 -22 64 0
18 32 -106 0
18 32 -82 0
19 -80 103 0
19 -69 -82 0
19 -63 -106 0
19 -38 109 0
19 -34 -81 0
19 24 -82 0
19 29 -35 0
19 45 -53 0
19 66 101 0
20 -48 105 0
20 22 -47 0
21 -84 116 0
21 -58 -89 0
21 64 -109 0
22 -81 -88 0
22 -31 -95 0
22 -24 98 0
22 33 -39 0
22 83 111 0
23 -100 103 0
23 -77 -96 0
23 -42 -51 0
23 -31 -84 0
23 38 110 0
23 78 98 0
25 -52 54 0
25 68 105 0
25 118 120 0
26 -101 -120 0
26 -80 -88 0
26 -74 -81 0
26 -56 109 0
26 -27 -107 0
27 -62 73 0
27 -36 -116 0
27 33 -87 0
27 40 -71 0
27 59 105 0
28 33 -82 0
29 -46 58 0
29 43 83 0
29 73 79 0
30 -55 -105 0
30 -53 82 0
31 -53 99 0
31 49 87 0
31 83 110 0
31 84 -116 0
32 -81 -88 0
32 -65 -107 0
32 -47 -73 0
32 -41 -53 0
32 38 -107 0
33 -94 -95 0
33 51 -84 0
34 -43 -47 0
34 44 48 0
34 82 -119 0
34 98 108 0
35 -61 -92 0
35 45 -107 0
35 86 107 0
36 -94 -95 0
36 -60 -96 0
37 -76 93 0
37 -63 -105 0
38 -69 85 0
38 -61 -69 0
38 -58 -84 0
38 97 -101 0
39 -65 -75 0
39 -42 -54 0
40 -109 111 0
40 -87 104 0
41 114 116 0
42 48 -82 0
42 108 -118 0
44 -104 115 0
45 -68 69 0
45 -50 79 0
45 -49 78 0
46 -78 99 0
46 53 89 0
46 103 -104 0
47 -58 -75 0
47 57 -85 0
49 57 91 0
51 -97 -112 0
51 -82 -90 0
51 -66 -93 0
52 -62 -79 0
52 -56 105 0
55 113 -115 0
56 -65 66 0
56 66 75 0
57 -113 120 0
57 69 71 0
57 87 -102 0
58 -66 -73 0
58 -60 -107 0
59 78 118 0
59 81 114 0
60 68 -73 0
60 80 -104 0
61 -85 -91 0
61 68 72 0
61 69 102 0
62 80 120 0
63 86 -116 0
63 90 -105 0
65 -69 92 0
65 93 -117 0
66 88 -99 0
66 108 112 0
66 111 -118 0
68 81 83 0
69 100 104 0
70 -71 104 0
73 -76 114 0
76 111 112 0
78 -101 109 0
80 83 95 0
82 -85 104 0
86 93 116 0
93 -100 -120 0
94 -95 107 0
96 -104 -105 0
96 108 111 0
98 -105 115 0
103 -112 119 0
