p cnf 24 102
-20 21 -24 0
-19 -22 24 0
-16 20 24 0
-13 15 16 0
-13 16 -20 0
-13 18 -19 0
-12 -18 22 0
-12 -13 19 0
-12 19 -23 0
-11 -16 21 0
-11 16 -19 0
-9 -19 -23 0
-8 -16 23 0
-8 -9 -24 0
-8 11 -14 0
-8 15 18 0
-7 -16 19 0
-7 -15 -20 0
-7 -9 19 0
-7 10 -22 0
-7 10 20 0
-7 21 24 0
-6 -16 -23 0
-6 -12 -22 0
-6 10 22 0
-6 13 22 0
-5 -8 -9 0
-5 -7 16 0
-5 8 24 0
-5 13 21 0
-4 -13 19 0
-4 -5 -17 0
-3 -5 8 0
-3 4 -15 0
-3 6 7 0
-3 12 22 0
-3 20 -22 0
-2 -20 -24 0
-2 -17 21 0
-2 -7 18 0
-2 3 9 0
-2 7 14 0
-2 11 -23 0
-2 15 -21 0
-1 -23 -24 0
-1 -11 -17 0
-1 -7 -24 0
-1 -7 -9 0
-1 8 -13 0
-1 8 14 0
-1 14 24 0
-1 19 20 0
1 -5 14 0
1 -4 22 0
1 -2 5 0
1 4 -15 0
1 8 -10 0
1 12 -18 0
2 -19 22 0
2 10 -16 0
2 10 13 0
2 19 20 0
3 -8 11 0
3 -8 20 0
3 -7 -12 0
3 19 -20 0
4 -11 -18 0
4 -5 -23 0
4 18 -23 0
5 6 -12 0
5 6 15 0
5 9 -19 0
5 11 -22 0
5 13 19 0
6 -21 23 0
6 -12 14 0
6 -12 17 0
6 -11 15 0
6 -7 16 0
6 10 -20 0
7 -9 -24 0
7 -8 15 0
7 8 -11 0
7 8 16 0
7 9 14 0
8 13 16 0
9 -12 19 0
9 10 15 0
9 12 -23 0
9 22 -24 0
11 -18 -20 0
12 -19 21 0
12 -16 -18 0
12 -16 19 0
12 -15 17 0
12 -14 -17 0
13 16 -21 0
13 17 -21 0
13 19 -20 0
14 -19 21 0
14 15 18 0
15 17 -23 0
