p cnf 28 119
-22 23 -26 0
-20 24 -27 0
-19 21 -26 0
-18 21 23 0
-18 25 -28 0
-17 -19 -20 0
-15 -22 24 0
-15 -18 24 0
-13 -18 -24 0
-13 20 -27 0
-12 -18 -22 0
-12 19 23 0
-12 22 23 0
-11 -13 14 0
-10 -18 20 0
-9 -18 20 0
-9 11 -24 0
-9 14 17 0
-8 -15 28 0
-8 10 -14 0
-8 11 -17 0
-8 14 21 0
-7 -19 -27 0
-7 -15 -24 0
-7 -8 19 0
-7 8 25 0
-7 10 21 0
-7 21 28 0
-6 -25 27 0
-6 -16 -20 0
-6 -9 10 0
-6 7 17 0
-6 8 -16 0
-6 12 -22 0
-6 15 16 0
-5 -19 -21 0
-5 -11 22 0
-5 6 9 0
-5 16 -23 0
-4 -18 -27 0
-4 -6 26 0
-4 8 14 0
-4 17 23 0
-4 18 -27 0
-3 -16 -23 0
-3 -14 -18 0
-3 -13 20 0
-3 4 -25 0
-3 8 -28 0
-3 9 -20 0
-3 20 -21 0
-2 -16 27 0
-2 -11 -23 0
-2 -3 8 0
-2 4 5 0
-2 13 -23 0
-2 14 15 0
-1 -16 -17 0
-1 -10 26 0
-1 -6 -18 0
-1 -5 -28 0
-1 5 -25 0
-1 8 -28 0
-1 12 -28 0
-1 22 -23 0
1 -9 -27 0
1 -6 -27 0
1 -6 10 0
1 2 -27 0
1 12 23 0
2 -7 -17 0
2 -6 -9 0
2 4 -27 0
2 7 -10 0
2 13 15 0
2 15 -28 0
2 18 -27 0
2 25 27 0
3 -24 -28 0
3 -20 23 0
3 -4 5 0
3 7 -25 0
3 7 19 0
4 -16 23 0
4 -7 14 0
4 12 -18 0
5 -6 -27 0
5 8 24 0
6 -20 27 0
7 -15 23 0
8 -18 -19 0
8 -16 22 0
8 -11 14 0
8 -9 -17 0
8 9 -17 0
8 13 -16 0
8 18 19 0
10 -14 -26 0
10 -12 -27 0
10 -12 13 0
10 -11 17 0
10 15 16 0
10 18 -25 0
10 21 23 0
12 19 -22 0
12 19 23 0
13 -17 -22 0
13 19 20 0
14 15 -27 0
14 17 28 0
14 18 20 0
15 -19 24 0
15 17 25 0
15 22 -23 0
16 -20 24 0
18 19 -22 0
19 21 -22 0
20 21 23 0
25 -27 28 0
