p cnf 80 340
-60 -71 -74 0
-60 -65 67 0
-60 62 -69 0
-56 -65 77 0
-53 70 -76 0
-50 51 54 0
-50 58 69 0
-48 -53 55 0
-48 -52 -53 0
-48 -49 71 0
-48 67 -69 0
-47 -66 73 0
-46 47 77 0
-45 50 60 0
-44 49 56 0
-44 63 -72 0
-42 55 63 0
-41 -53 54 0
-41 46 -77 0
-40 48 61 0
-40 55 -75 0
-39 50 -68 0
-39 73 -80 0
-37 -60 -78 0
-37 48 59 0
-37 56 66 0
-36 69 -72 0
-35 -65 73 0
-35 -59 -68 0
-35 -54 -64 0
-34 61 77 0
-34 68 76 0
-34 74 76 0
-33 -51 -66 0
-33 55 -66 0
-32 -61 -77 0
-32 -41 -63 0
-32 -40 -65 0
-32 -40 -56 0
-32 34 68 0
-32 53 -66 0
-31 -46 -77 0
-31 -34 71 0
-31 -32 51 0
-30 -62 76 0
-30 -53 76 0
-30 37 51 0
-29 47 48 0
-29 51 74 0
-28 -37 67 0
-28 -37 79 0
-28 29 56 0
-28 30 71 0
-27 -54 66 0
-26 -42 -57 0
-26 -33 -64 0
-26 46 -58 0
-26 65 76 0
-25 -41 56 0
-25 -29 -48 0
-25 -28 29 0
-25 42 58 0
-24 -76 -80 0
-24 -38 -41 0
-24 29 -65 0
-24 33 58 0
-23 -31 35 0
-23 47 -48 0
-23 57 58 0
-22 -72 79 0
-22 -45 -63 0
-22 -44 -77 0
-22 -26 72 0
-22 24 -50 0
-22 29 32 0
-22 44 71 0
-21 -54 60 0
-21 -45 46 0
-21 -27 -38 0
-21 26 40 0
-21 39 45 0
-20 -74 78 0
-20 -58 70 0
-20 -28 60 0
-20 26 44 0
-20 28 71 0
-20 70 72 0
-19 -61 -64 0
-19 -61 71 0
-19 -46 -58 0
-19 -32 -54 0
-19 -31 -49 0
-19 64 71 0
-18 -38 58 0
-18 -34 69 0
-18 55 56 0
-17 -45 -73 0
-17 27 -73 0
-17 43 -65 0
-17 72 74 0
-16 -54 73 0
-16 -52 -78 0
-16 -52 -66 0
-16 -43 -71 0
-16 -27 -57 0
-16 -23 -65 0
-16 -18 32 0
-16 17 -79 0
-16 31 -43 0
-16 53 -78 0
-16 54 77 0
-15 -69 73 0
-15 -20 -47 0
-15 30 62 0
-15 49 58 0
-15 70 -78 0
-15 75 78 0
-14 -48 70 0
-14 -19 -31 0
-14 16 -26 0
-14 31 -50 0
-14 67 -70 0
-13 -55 77 0
-13 -50 64 0
-13 -21 45 0
-13 19 68 0
-13 20 36 0
-13 22 -48 0
-13 24 -30 0
-13 28 74 0
-12 -61 67 0
-12 -34 58 0
-12 13 53 0
-12 26 -59 0
-12 31 51 0
-11 -65 76 0
-11 -45 67 0
-11 -35 59 0
-11 -14 -58 0
-11 16 -40 0
-11 23 29 0
-10 -40 76 0
-10 -13 42 0
-10 23 -31 0
-10 32 54 0
-10 75 80 0
-9 -15 -25 0
-9 44 -66 0
-8 -28 46 0
-8 -10 64 0
-7 -48 -74 0
-7 -23 70 0
-7 -19 20 0
-7 -9 -63 0
-7 41 -72 0
-6 -40 -48 0
-6 -32 -58 0
-6 16 60 0
-6 19 -78 0
-6 21 78 0
-6 40 -45 0
-6 66 80 0
-5 -46 65 0
-5 -9 -17 0
-5 6 73 0
-5 20 -72 0
-5 26 44 0
-4 -53 -74 0
-4 -31 63 0
-3 -33 -53 0
-3 -13 -31 0
-3 -6 34 0
-3 -4 -79 0
-3 -4 -43 0
-3 11 25 0
-3 38 -76 0
-2 -41 58 0
-2 17 43 0
-2 21 -35 0
-2 22 -42 0
-2 26 -71 0
-1 -62 70 0
-1 -32 61 0
-1 -31 -72 0
-1 -6 -46 0
-1 32 52 0
1 -6 19 0
1 23 -79 0
1 23 68 0
1 40 -45 0
1 49 -67 0
2 -54 72 0
2 -23 52 0
2 -21 71 0
2 5 -59 0
2 5 74 0
2 11 -51 0
2 26 -69 0
2 30 -62 0
2 48 -65 0
3 -7 75 0
3 8 -42 0
3 8 -38 0
3 42 54 0
3 49 -52 0
4 -61 62 0
4 -43 59 0
4 -41 68 0
4 33 47 0
4 44 63 0
5 -44 -79 0
5 12 -41 0
5 12 72 0
5 20 39 0
5 61 -73 0
6 -47 68 0
6 -45 50 0
6 -37 78 0
6 -30 80 0
6 -27 -49 0
6 -24 -65 0
6 9 -43 0
6 24 -53 0
6 37 44 0
7 -56 -71 0
7 -50 -56 0
7 -41 -78 0
7 -37 -72 0
7 -34 -46 0
7 -10 -52 0
7 10 23 0
7 27 47 0
7 27 51 0
8 -13 -49 0
8 34 48 0
8 43 -46 0
8 53 70 0
9 21 74 0
9 64 75 0
10 -11 15 0
10 20 -24 0
10 39 47 0
11 -60 -63 0
11 -54 55 0
11 -54 66 0
11 -49 -62 0
11 -30 54 0
11 -19 -52 0
11 13 -63 0
11 32 -76 0
11 63 64 0
12 -59 -64 0
12 -56 -75 0
12 -42 62 0
12 -29 36 0
12 36 62 0
12 53 -79 0
14 -54 -65 0
14 -24 -62 0
14 19 63 0
14 35 60 0
15 24 -60 0
15 44 -62 0
15 58 -61 0
15 59 -74 0
16 -41 80 0
16 -30 67 0
16 34 -54 0
17 -32 47 0
17 19 60 0
17 27 -51 0
17 42 -75 0
17 45 -77 0
18 -66 -72 0
19 -48 -66 0
19 -30 45 0
19 -20 -45 0
20 22 -46 0
20 39 -52 0
20 60 -63 0
20 69 -71 0
22 -62 -71 0
22 -39 74 0
22 27 -47 0
23 50 -79 0
23 54 -80 0
24 69 72 0
25 -49 -69 0
25 -48 -59 0
25 -30 -43 0
25 -30 44 0
25 40 -72 0
26 -44 63 0
26 51 77 0
28 -55 79 0
29 45 -58 0
30 54 -72 0
32 -37 -80 0
32 36 52 0
32 37 -57 0
33 -69 -73 0
33 44 67 0
34 36 -42 0
34 38 62 0
35 38 50 0
35 42 -51 0
35 43 -60 0
35 56 75 0
36 -53 -67 0
36 -50 67 0
36 -44 -50 0
36 47 -76 0
36 47 49 0
37 -56 -72 0
38 53 -78 0
38 62 -65 0
38 64 -79 0
38 70 -76 0
40 -65 -73 0
40 -46 -72 0
41 44 -60 0
42 50 -74 0
44 -45 80 0
44 63 66 0
45 46 73 0
45 49 -72 0
45 55 -72 0
45 75 80 0
46 55 -58 0
46 65 -79 0
49 -67 78 0
49 -66 -71 0
49 58 59 0
50 51 -68 0
55 70 76 0
56 -61 66 0
57 68 72 0
58 78 80 0
67 70 -74 0
67 72 -75 0
