p cnf 70 298
-50 60 -69 0
-49 -61 62 0
-49 51 66 0
-48 -55 -63 0
-47 -56 59 0
-47 -53 64 0
-47 48 -53 0
-45 -67 70 0
-44 48 -51 0
-43 -54 -68 0
-41 56 -68 0
-41 58 64 0
-41 58 69 0
-40 42 -47 0
-40 45 46 0
-38 -39 53 0
-37 54 -64 0
-34 -36 -68 0
-34 51 70 0
-33 -45 -60 0
-33 -40 -44 0
-33 59 -69 0
-32 34 38 0
-31 55 -63 0
-30 -60 -67 0
-30 -49 -58 0
-30 -40 -64 0
-30 -38 69 0
-30 46 -57 0
-28 38 -65 0
-28 57 -65 0
-27 -51 62 0
-27 -30 42 0
-27 32 37 0
-27 46 68 0
-27 56 58 0
-26 54 58 0
-25 -37 -45 0
-25 34 58 0
-25 68 69 0
-24 -51 65 0
-23 25 54 0
-23 32 47 0
-22 -30 69 0
-21 -41 69 0
-21 -26 54 0
-21 22 32 0
-21 26 -65 0
-21 40 64 0
-20 -52 -63 0
-20 -49 -60 0
-20 26 -70 0
-19 -31 55 0
-19 -21 52 0
-19 51 53 0
-18 -62 66 0
-18 -26 31 0
-18 25 -62 0
-18 47 62 0
-18 48 -50 0
-17 -51 -53 0
-17 -47 49 0
-17 -26 -49 0
-17 -21 31 0
-17 24 35 0
-17 37 55 0
-16 -47 -51 0
-16 -29 59 0
-16 -23 54 0
-16 67 68 0
-15 -29 61 0
-15 -25 -31 0
-14 -37 39 0
-14 26 68 0
-14 29 64 0
-14 32 58 0
-14 41 -68 0
-13 -57 -60 0
-13 -56 64 0
-13 -40 -43 0
-13 -24 48 0
-13 -20 36 0
-13 -16 -54 0
-13 19 -45 0
-13 21 40 0
-13 56 -63 0
-13 64 -65 0
-12 -29 -52 0
-12 -19 58 0
-12 -18 61 0
-12 14 40 0
-12 20 68 0
-12 23 -33 0
-12 34 66 0
-11 -60 -70 0
-11 -50 52 0
-11 -26 -29 0
-11 -22 -41 0
-11 -15 39 0
-10 -57 -68 0
-10 18 -35 0
-10 25 -52 0
-10 29 35 0
-10 51 70 0
-9 -30 -42 0
-9 -17 -51 0
-9 -12 -19 0
-9 39 55 0
-9 56 62 0
-8 -60 -63 0
-8 -23 51 0
-8 12 60 0
-8 14 35 0
-8 25 49 0
-8 40 -55 0
-7 -33 61 0
-7 -27 -55 0
-7 -25 55 0
-7 11 -66 0
-7 39 -48 0
-6 -46 56 0
-6 -13 44 0
-6 37 41 0
-5 -38 52 0
-5 -13 55 0
-5 14 64 0
-5 19 -34 0
-5 23 30 0
-5 37 -40 0
-4 -48 -60 0
-4 -44 -54 0
-4 -23 38 0
-4 -15 33 0
-4 6 7 0
-4 30 -34 0
-4 33 -56 0
-4 36 -64 0
-4 38 60 0
-4 42 44 0
-4 57 63 0
-3 -51 70 0
-3 -38 70 0
-3 -32 59 0
-3 -24 -70 0
-3 -7 -41 0
-3 -4 43 0
-3 19 -41 0
-3 20 45 0
-3 61 62 0
-2 -24 43 0
-2 -18 -37 0
-2 -14 -55 0
-2 -12 -41 0
-2 -7 -30 0
-2 7 21 0
-2 10 24 0
-2 44 48 0
-2 57 69 0
-1 -25 50 0
-1 2 -48 0
-1 8 -46 0
-1 15 16 0
-1 43 -65 0
1 -43 -60 0
1 -26 64 0
1 -21 49 0
1 13 60 0
1 28 38 0
1 31 45 0
2 14 -22 0
2 34 54 0
3 -54 -58 0
3 -44 -54 0
3 -34 44 0
3 -31 33 0
3 -29 -33 0
3 -28 49 0
3 7 24 0
3 12 -42 0
3 17 67 0
4 -39 55 0
4 -5 56 0
4 8 30 0
4 27 -50 0
4 27 66 0
5 -35 70 0
5 -32 52 0
5 -15 -43 0
5 -12 -34 0
5 -6 -37 0
5 15 -20 0
5 40 42 0
5 41 -56 0
5 65 67 0
6 -30 -49 0
6 9 34 0
6 41 62 0
7 -52 67 0
7 -44 67 0
7 -24 31 0
7 35 39 0
8 -14 -26 0
8 11 70 0
8 20 59 0
8 21 66 0
9 -12 60 0
9 10 49 0
9 35 -58 0
10 -15 43 0
10 18 69 0
10 23 52 0
10 26 -34 0
10 46 62 0
10 48 -57 0
10 54 -61 0
11 -31 -36 0
11 -16 -46 0
11 26 36 0
12 -52 -63 0
12 14 -23 0
12 14 38 0
12 26 -29 0
12 54 -67 0
13 -51 58 0
13 -41 -43 0
13 -38 50 0
14 -36 -42 0
14 52 -70 0
15 -44 -45 0
15 -16 32 0
15 20 50 0
15 21 54 0
15 23 55 0
15 28 -42 0
16 -23 -29 0
16 21 -29 0
16 23 -30 0
17 33 -41 0
18 19 61 0
18 37 65 0
19 -50 -53 0
19 -20 21 0
19 48 55 0
20 -65 -68 0
20 -28 67 0
20 22 -25 0
20 41 58 0
20 61 70 0
21 22 36 0
21 44 66 0
21 48 59 0
23 -40 -65 0
23 -32 -49 0
23 29 67 0
23 36 -53 0
24 -37 -42 0
24 -35 -36 0
24 26 -52 0
24 47 55 0
25 -63 65 0
25 -36 40 0
25 -31 -33 0
26 -56 67 0
26 -42 44 0
26 -35 44 0
26 -27 67 0
26 28 -32 0
26 35 46 0
26 46 52 0
26 52 58 0
27 -40 -60 0
27 36 -66 0
28 34 -53 0
28 61 -63 0
29 -45 60 0
31 47 69 0
31 49 -63 0
31 51 -67 0
32 -49 -53 0
32 56 -57 0
33 -36 -67 0
33 40 -69 0
34 36 55 0
34 37 -58 0
35 -50 60 0
35 48 62 0
36 -39 65 0
37 46 -54 0
39 -41 58 0
40 -53 60 0
42 -51 -70 0
42 -43 -45 0
43 -44 45 0
43 51 -56 0
44 -61 -62 0
44 64 -65 0
51 -68 -70 0
61 64 -70 0
