p cnf 28 119
-18 19 -22 0
-17 21 28 0
-15 -20 26 0
-15 17 -20 0
-15 21 25 0
-14 -24 27 0
-13 15 20 0
-12 -18 -21 0
-12 -14 17 0
-12 16 28 0
-11 26 27 0
-10 26 -28 0
-9 -19 -25 0
-9 -17 27 0
-9 -13 25 0
-9 21 24 0
-8 -21 22 0
-8 -12 23 0
-8 26 -28 0
-7 -19 20 0
-7 -15 -25 0
-7 -14 -23 0
-7 9 19 0
-7 18 25 0
-6 12 19 0
-6 16 -19 0
-5 -14 -25 0
-5 -13 -22 0
-5 -9 24 0
-5 -6 13 0
-5 8 -22 0
-5 10 -26 0
-5 11 -22 0
-4 -27 28 0
-4 -13 24 0
-4 -9 -17 0
-4 8 28 0
-4 14 26 0
-3 -19 -28 0
-3 -18 -27 0
-3 -11 -24 0
-3 -5 -15 0
-3 6 -22 0
-3 7 -26 0
-3 7 -20 0
-3 8 -23 0
-3 11 16 0
-3 18 -21 0
-2 -12 -23 0
-2 -11 26 0
-2 -7 18 0
-2 -3 -16 0
-2 3 -16 0
-2 3 17 0
-2 5 -20 0
-2 5 -15 0
-2 5 17 0
-2 6 22 0
-2 7 -27 0
-2 13 -15 0
-2 16 17 0
-2 21 28 0
-1 -13 -23 0
-1 7 -19 0
1 -12 22 0
1 -12 26 0
1 -10 -23 0
1 -8 28 0
1 -3 9 0
1 7 9 0
1 9 26 0
1 23 -24 0
2 -17 -25 0
2 -7 15 0
2 -6 -15 0
2 6 17 0
3 -6 26 0
3 7 28 0
3 8 23 0
3 23 -24 0
4 -18 -20 0
4 -8 -14 0
5 -15 26 0
5 9 11 0
6 8 -12 0
6 14 21 0
7 -19 -27 0
7 23 27 0
8 -25 27 0
8 -19 -22 0
8 -17 -19 0
8 -16 28 0
8 -15 -25 0
8 -14 -20 0
8 -14 20 0
8 13 18 0
8 24 -25 0
9 -11 23 0
9 -11 24 0
9 -10 -24 0
9 11 23 0
9 12 -21 0
9 14 -16 0
9 16 -25 0
10 -15 -16 0
11 -15 -24 0
11 23 -24 0
12 14 -15 0
12 17 -26 0
12 19 23 0
13 -16 19 0
13 16 -17 0
14 -20 28 0
14 22 28 0
17 21 -22 0
17 21 27 0
18 -21 -24 0
18 21 -23 0
21 25 26 0
