p cnf 30 128
-22 24 26 0
-17 22 27 0
-17 26 -27 0
-16 17 -28 0
-14 -25 29 0
-14 19 -27 0
-14 20 -22 0
-12 19 -24 0
-11 -20 26 0
-11 22 -30 0
-10 -25 -30 0
-10 13 -28 0
-10 21 24 0
-9 -16 -19 0
-9 -11 23 0
-9 -10 -20 0
-9 14 24 0
-9 17 -26 0
-8 11 23 0
-7 -25 30 0
-6 -17 18 0
-6 -7 -23 0
-6 9 17 0
-6 12 25 0
-6 12 28 0
-6 13 14 0
-6 15 19 0
-5 -20 -24 0
-5 -20 -22 0
-5 -11 22 0
-5 7 -26 0
-5 9 12 0
-5 11 -21 0
-5 18 -19 0
-4 -16 19 0
-4 -10 -17 0
-4 -9 -16 0
-4 -7 16 0
-4 7 12 0
-4 9 16 0
-4 16 -23 0
-4 22 28 0
-3 -18 -22 0
-3 -11 -17 0
-3 -8 13 0
-3 11 23 0
-3 14 15 0
-3 15 24 0
-3 17 -30 0
-3 20 30 0
-2 -9 -16 0
-2 -8 -16 0
-2 3 -17 0
-2 16 27 0
-1 -9 21 0
-1 -8 -22 0
-1 -2 22 0
-1 5 -17 0
-1 5 30 0
-1 10 -16 0
-1 13 -26 0
1 -5 26 0
1 -4 17 0
1 2 20 0
1 6 20 0
1 11 15 0
1 12 -28 0
1 20 27 0
1 22 28 0
2 -13 29 0
2 -12 22 0
2 -7 8 0
2 4 11 0
2 8 14 0
2 11 24 0
3 -18 -22 0
3 -17 -24 0
3 -12 26 0
3 -5 -27 0
3 -5 13 0
3 8 -12 0
3 8 10 0
3 10 24 0
3 20 -30 0
4 -15 24 0
4 5 30 0
4 8 -20 0
4 14 27 0
5 -17 -27 0
5 -13 22 0
5 -10 -20 0
5 13 26 0
5 15 -19 0
5 18 -27 0
6 -13 25 0
6 7 13 0
7 -14 29 0
7 -13 26 0
7 12 -30 0
7 14 20 0
7 15 -29 0
7 18 -28 0
7 20 -25 0
7 28 -29 0
8 -29 -30 0
8 -18 20 0
8 9 -27 0
8 13 -26 0
8 20 -28 0
9 -20 -26 0
9 -16 23 0
9 10 -28 0
10 -19 -24 0
10 -18 23 0
10 11 24 0
10 14 -19 0
10 23 -30 0
11 17 -28 0
12 -14 23 0
12 -14 26 0
13 -16 -23 0
13 -15 29 0
14 -18 -22 0
15 -20 28 0
16 23 27 0
18 -26 -29 0
20 -24 27 0
20 22 27 0
