p cnf 20 85
-15 -16 18 0
-14 16 -18 0
-13 -17 -18 0
-13 15 -18 0
-12 15 -17 0
-11 -12 -17 0
-10 -18 -19 0
-9 -10 -12 0
-8 -17 18 0
-8 12 -19 0
-8 14 -20 0
-7 -14 -18 0
-7 8 -17 0
-7 10 15 0
-6 9 -17 0
-6 11 -19 0
-5 -13 -17 0
-5 9 -12 0
-5 16 18 0
-4 -12 20 0
-4 -7 -20 0
-4 5 10 0
-4 9 14 0
-4 12 -15 0
-4 13 20 0
-4 14 -20 0
-3 -13 16 0
-3 -4 8 0
-2 8 18 0
-2 16 -17 0
1 -14 -20 0
1 -13 -18 0
1 -12 -18 0
1 -8 -19 0
1 -8 -11 0
1 -3 -6 0
1 3 -13 0
1 4 -10 0
1 6 -8 0
1 7 -19 0
1 13 -20 0
2 -12 13 0
2 -12 15 0
2 -9 18 0
2 -7 11 0
2 3 -8 0
2 5 -12 0
2 5 14 0
2 8 14 0
2 14 -19 0
2 14 -15 0
3 -18 -19 0
3 -7 8 0
3 -5 -16 0
3 12 -14 0
3 14 16 0
4 -18 20 0
4 -16 18 0
4 -13 -20 0
4 -8 13 0
4 -5 14 0
4 6 7 0
4 7 -18 0
5 -14 15 0
5 -13 -20 0
5 -12 -18 0
5 -9 -11 0
5 9 -11 0
5 10 -14 0
5 11 19 0
5 15 18 0
6 -16 -19 0
6 9 14 0
6 14 -16 0
7 13 -15 0
8 -17 20 0
8 -15 17 0
8 11 16 0
9 -14 15 0
11 -14 17 0
12 -14 17 0
13 18 19 0
14 -16 19 0
16 17 -19 0
17 18 -20 0
