p cnf 150 525
-114 -132 -133 0
-113 -133 137 0
-108 -118 125 0
-102 109 -145 0
-102 124 -138 0
-98 -101 -102 0
-97 121 122 0
-96 -101 142 0
-95 -134 142 0
-95 -103 107 0
-94 -125 138 0
-94 -96 109 0
-94 111 -131 0
-93 95 -105 0
-91 -139 -147 0
-91 -122 -133 0
-91 -99 -104 0
-90 115 125 0
-90 117 -121 0
-89 -112 131 0
-88 109 121 0
-87 -92 133 0
-87 109 115 0
-86 -113 116 0
-84 100 -112 0
-82 -134 140 0
-82 -95 -121 0
-79 136 -138 0
-78 80 143 0
-76 114 115 0
-74 -141 -147 0
-73 -124 134 0
-72 -111 -145 0
-72 -96 -118 0
-72 -96 149 0
-72 112 140 0
-72 117 -127 0
-71 -114 -143 0
-71 -97 137 0
-71 -93 136 0
-70 -84 -121 0
-69 137 -138 0
-68 -112 -123 0
-67 -93 142 0
-67 110 127 0
-66 87 -93 0
-65 97 -142 0
-65 100 -117 0
-64 -107 -137 0
-64 -81 -87 0
-63 -72 -124 0
-63 -72 128 0
-63 65 90 0
-63 89 111 0
-63 105 145 0
-60 -104 -140 0
-60 106 -142 0
-60 123 132 0
-59 75 145 0
-59 76 -89 0
-58 -62 -131 0
-57 -64 90 0
-56 98 118 0
-56 112 -146 0
-55 -116 148 0
-55 80 141 0
-54 -94 -118 0
-54 -72 -119 0
-54 56 -149 0
-53 120 -136 0
-53 121 -147 0
-52 -93 -94 0
-50 -80 106 0
-49 135 -150 0
-48 -67 114 0
-48 -53 -77 0
-48 52 81 0
-48 108 130 0
-47 49 -149 0
-47 49 141 0
-47 101 121 0
-46 -68 133 0
-46 69 148 0
-45 -119 -142 0
-45 -64 -150 0
-45 -55 57 0
-44 -96 -125 0
-44 -79 -124 0
-44 47 77 0
-44 67 -143 0
-44 71 144 0
-44 118 125 0
-42 -111 -140 0
-42 -101 113 0
-42 -68 83 0
-42 -58 -136 0
-42 50 -74 0
-42 67 -85 0
-42 75 146 0
-41 -66 75 0
-41 -64 84 0
-39 71 -85 0
-38 -114 -150 0
-38 -44 -68 0
-38 81 -100 0
-37 -79 -124 0
-37 137 145 0
-36 -39 -63 0
-36 58 131 0
-35 -75 -136 0
-35 -41 117 0
-35 57 -103 0
-35 82 -141 0
-34 -135 149 0
-34 -52 -61 0
-34 39 136 0
-33 -74 -106 0
-33 -70 -135 0
-33 -41 -110 0
-33 34 91 0
-33 57 -64 0
-33 62 -80 0
-33 71 147 0
-32 -127 132 0
-32 -91 -132 0
-31 -73 139 0
-31 -52 -139 0
-31 -47 135 0
-31 -35 -75 0
-28 -65 134 0
-28 40 77 0
-27 -51 78 0
-27 -44 -56 0
-27 -41 130 0
-27 -33 68 0
-27 86 99 0
-27 86 102 0
-26 -63 87 0
-26 -45 112 0
-26 42 -63 0
-26 64 -68 0
-26 64 114 0
-25 72 97 0
-25 75 -105 0
-24 109 -112 0
-23 -98 -143 0
-23 -84 -145 0
-23 -46 -145 0
-23 -35 58 0
-22 -79 107 0
-22 -58 69 0
-21 -72 96 0
-21 -54 -122 0
-21 -33 -90 0
-21 27 79 0
-21 80 89 0
-21 96 -137 0
-20 -48 54 0
-20 -38 71 0
-20 -36 65 0
-20 -35 -38 0
-20 113 -140 0
-20 147 -149 0
-19 -99 -101 0
-19 -82 144 0
-19 -30 -49 0
-19 113 143 0
-18 -19 125 0
-18 85 144 0
-17 -113 -140 0
-17 -42 -133 0
-17 27 108 0
-17 65 -118 0
-17 110 115 0
-16 -86 129 0
-16 -47 -134 0
-16 19 41 0
-16 24 90 0
-16 29 -116 0
-16 56 -64 0
-15 -86 -135 0
-14 -18 -105 0
-13 -29 111 0
-13 45 137 0
-13 52 -115 0
-13 60 112 0
-13 113 122 0
-12 -67 123 0
-12 -61 91 0
-12 -52 -123 0
-12 -37 117 0
-12 27 85 0
-12 39 54 0
-12 68 105 0
-12 105 -143 0
-11 -91 112 0
-11 -64 66 0
-11 -60 119 0
-11 109 130 0
-10 65 -146 0
-10 125 146 0
-9 -40 -93 0
-9 62 114 0
-8 91 148 0
-7 37 -81 0
-7 51 -60 0
-6 -24 71 0
-6 51 88 0
-6 61 137 0
-6 78 -84 0
-6 91 -93 0
-6 106 -126 0
-5 -124 130 0
-5 -75 90 0
-5 -40 104 0
-5 64 78 0
-5 91 129 0
-5 103 141 0
-4 -135 136 0
-4 -91 -142 0
-4 -66 76 0
-4 -54 114 0
-4 -46 60 0
-4 -28 102 0
-4 -12 141 0
-4 24 -54 0
-4 87 -133 0
-4 87 136 0
-4 117 149 0
-3 -101 -115 0
-3 -77 -121 0
-3 -59 108 0
-3 23 -78 0
-3 62 -104 0
-2 -21 57 0
-2 -17 146 0
-2 -16 91 0
-1 -47 -107 0
-1 -27 -135 0
-1 17 117 0
-1 48 -110 0
-1 75 -96 0
-1 111 -147 0
1 -15 128 0
1 16 -55 0
1 137 -142 0
2 -77 -115 0
2 -61 86 0
2 -35 -75 0
2 -29 46 0
2 10 -57 0
2 23 58 0
2 52 -92 0
3 -71 -116 0
3 -30 -134 0
4 -136 -140 0
4 -117 132 0
4 -60 -113 0
4 -11 16 0
4 28 -145 0
4 30 -83 0
4 59 -68 0
5 -131 143 0
5 -60 119 0
5 -8 -39 0
5 12 -81 0
5 15 106 0
5 76 143 0
5 93 124 0
5 134 139 0
6 13 -132 0
6 62 103 0
6 137 -145 0
7 -113 133 0
7 -111 148 0
7 -78 -95 0
7 -18 -50 0
7 -8 -81 0
7 73 -91 0
7 76 90 0
8 -89 -132 0
8 -73 101 0
8 -31 116 0
8 66 -116 0
9 -43 84 0
9 -19 87 0
9 -11 17 0
9 60 -102 0
9 77 -93 0
9 136 -140 0
10 -82 -148 0
10 -20 119 0
10 30 131 0
10 31 127 0
10 145 146 0
11 -101 139 0
11 -19 -90 0
11 73 -146 0
11 94 136 0
12 -76 -105 0
12 -38 -56 0
12 -19 -20 0
12 13 36 0
12 70 90 0
12 88 -149 0
12 89 108 0
13 -92 -100 0
13 -86 104 0
13 -71 148 0
13 31 145 0
14 -128 -148 0
14 -59 -123 0
14 91 142 0
14 105 -111 0
15 -116 -144 0
15 -37 98 0
15 29 -58 0
15 30 117 0
15 35 -118 0
15 135 -142 0
16 -43 -67 0
16 -42 125 0
16 24 112 0
16 35 76 0
16 102 -112 0
17 -84 136 0
17 -52 -77 0
18 -56 64 0
18 26 -117 0
18 27 99 0
18 42 47 0
18 44 -120 0
18 49 85 0
18 51 138 0
18 65 -148 0
18 77 -89 0
19 -54 -119 0
19 -34 77 0
19 49 65 0
19 74 109 0
19 145 -146 0
20 -130 -140 0
20 52 -84 0
20 116 -139 0
21 -78 139 0
21 31 -75 0
21 46 -122 0
21 73 79 0
22 -109 146 0
22 -43 -89 0
22 -28 -140 0
22 75 145 0
22 133 143 0
23 -105 108 0
23 -75 82 0
23 54 75 0
23 81 -104 0
23 91 140 0
24 -73 85 0
24 -44 82 0
24 -25 129 0
24 41 -42 0
24 45 46 0
24 47 124 0
25 -63 -100 0
25 -45 146 0
25 -29 -112 0
25 77 86 0
25 117 149 0
26 -64 127 0
26 -36 76 0
26 75 92 0
27 -89 104 0
27 -41 -104 0
28 -98 116 0
28 -59 -69 0
28 120 140 0
29 -99 113 0
29 -66 135 0
29 -65 104 0
29 -42 112 0
29 33 -41 0
29 78 139 0
30 -77 -110 0
30 -46 -83 0
30 32 -116 0
31 -43 115 0
31 132 137 0
32 -105 135 0
32 -86 110 0
32 -61 130 0
32 -35 -86 0
32 67 79 0
32 76 -97 0
33 -111 -118 0
33 -64 -142 0
33 -59 77 0
33 44 99 0
33 97 -150 0
34 -118 -128 0
34 -113 -147 0
34 -64 -90 0
34 58 -130 0
34 98 127 0
34 145 -147 0
36 -68 88 0
36 -49 141 0
36 133 -138 0
37 95 102 0
37 105 127 0
38 -89 114 0
38 69 -145 0
38 149 -150 0
39 -67 -140 0
39 -62 -88 0
39 -56 -138 0
39 -40 138 0
40 -103 113 0
41 -65 -68 0
41 43 -141 0
41 110 -130 0
42 -107 117 0
42 -82 -99 0
42 47 -148 0
42 105 131 0
44 -122 -148 0
44 69 -77 0
45 -55 58 0
46 -117 148 0
46 -72 105 0
47 -63 147 0
47 79 -138 0
48 128 139 0
49 74 -133 0
49 87 98 0
50 -78 -138 0
50 52 -109 0
51 55 -117 0
51 107 -139 0
51 116 134 0
53 -125 129 0
53 -113 -121 0
53 -102 118 0
53 -58 141 0
53 76 124 0
54 102 -138 0
55 -125 -144 0
55 -93 116 0
55 90 -106 0
55 118 -142 0
56 57 62 0
56 102 -147 0
57 -103 116 0
57 92 107 0
58 -137 139 0
58 -87 -148 0
58 61 -98 0
58 65 138 0
58 82 113 0
59 -80 108 0
61 -117 -136 0
61 -104 119 0
62 -116 148 0
62 -102 -127 0
62 -81 -118 0
63 -77 -99 0
63 -64 81 0
63 70 -95 0
63 95 124 0
64 -65 -131 0
65 -89 124 0
66 -140 142 0
66 81 -129 0
67 -88 -134 0
67 94 -113 0
68 -110 -124 0
69 -113 115 0
69 117 123 0
70 -76 -94 0
70 77 -147 0
71 102 147 0
73 -74 -149 0
73 110 -137 0
73 115 -120 0
73 122 140 0
73 138 140 0
74 80 84 0
76 95 -118 0
77 -81 -99 0
78 -100 135 0
78 -96 -106 0
78 94 146 0
79 -100 115 0
79 -92 108 0
81 97 129 0
83 -91 106 0
83 93 121 0
84 -102 106 0
84 -96 -137 0
84 91 -106 0
87 -117 -130 0
87 -115 140 0
88 -127 -138 0
88 129 -138 0
89 -135 142 0
91 -120 -140 0
91 103 -118 0
91 133 -145 0
93 -100 -150 0
95 106 109 0
95 118 131 0
97 104 107 0
97 107 125 0
98 -130 -149 0
105 -129 -139 0
108 -127 130 0
112 -115 -124 0
112 119 147 0
113 -133 149 0
113 -118 137 0
113 140 145 0
118 -120 148 0
123 124 -131 0
124 -137 -140 0
132 133 147 0
