p cnf 80 340
-61 70 76 0
-58 -63 73 0
-53 -66 -73 0
-53 -57 80 0
-53 -56 -57 0
-52 -63 -74 0
-52 65 -74 0
-51 54 66 0
-51 67 77 0
-50 -60 73 0
-50 56 65 0
-49 66 -78 0
-49 69 75 0
-45 63 66 0
-44 -52 -62 0
-44 -52 -57 0
-43 -65 -71 0
-43 -64 -77 0
-43 -45 -69 0
-43 70 71 0
-42 -50 69 0
-42 55 61 0
-42 61 68 0
-42 63 -65 0
-41 -49 65 0
-41 -45 -65 0
-41 52 -73 0
-40 -55 62 0
-40 47 63 0
-40 59 -69 0
-39 -46 61 0
-39 59 -61 0
-38 69 72 0
-37 -45 -65 0
-37 38 -75 0
-36 -54 69 0
-36 -42 75 0
-36 79 80 0
-35 48 72 0
-35 50 -79 0
-34 53 69 0
-32 -47 51 0
-32 57 79 0
-32 62 64 0
-31 -35 80 0
-30 -34 -61 0
-29 -39 -55 0
-28 40 -45 0
-28 59 -67 0
-27 42 52 0
-26 -52 -67 0
-26 -48 74 0
-26 -34 64 0
-26 -27 41 0
-26 71 -79 0
-25 34 -49 0
-24 -65 67 0
-24 -31 61 0
-24 28 -44 0
-24 30 35 0
-24 72 -78 0
-23 -33 -48 0
-22 -26 31 0
-22 53 -75 0
-21 -65 -77 0
-21 -33 40 0
-21 -25 51 0
-21 27 46 0
-21 28 -32 0
-21 31 -43 0
-21 31 38 0
-21 32 -79 0
-21 36 -57 0
-21 75 -76 0
-20 -55 -63 0
-20 -32 -62 0
-19 -40 45 0
-19 -22 -48 0
-19 20 49 0
-19 31 -64 0
-19 31 77 0
-19 49 64 0
-18 -58 69 0
-18 -38 79 0
-18 -34 -54 0
-18 27 -39 0
-18 28 -62 0
-18 29 68 0
-18 30 52 0
-18 33 50 0
-18 43 -71 0
-17 -45 -66 0
-17 -45 63 0
-17 57 79 0
-16 -40 -70 0
-16 -23 -38 0
-16 22 -75 0
-16 35 62 0
-16 37 69 0
-16 59 -62 0
-15 -46 61 0
-15 -34 41 0
-15 25 -63 0
-15 46 58 0
-15 59 -77 0
-14 -64 -69 0
-14 -31 -79 0
-14 -27 -45 0
-14 -26 -31 0
-14 -17 -71 0
-14 17 -77 0
-14 39 -57 0
-14 42 68 0
-14 48 70 0
-14 56 -65 0
-13 -60 -68 0
-13 -27 -66 0
-13 22 -26 0
-12 -67 70 0
-12 -41 59 0
-12 -39 -44 0
-12 -39 80 0
-12 -37 63 0
-12 -31 -64 0
-12 -28 -55 0
-12 25 -78 0
-12 38 -60 0
-12 45 -57 0
-11 -37 64 0
-11 -27 57 0
-10 -19 43 0
-10 -11 -54 0
-10 19 -78 0
-10 20 -27 0
-10 31 73 0
-10 58 63 0
-9 -65 -78 0
-9 -39 -53 0
-9 -29 -74 0
-9 -29 -51 0
-9 42 -64 0
-9 54 -61 0
-8 -23 -28 0
-8 -19 -25 0
-8 -14 -18 0
-8 20 40 0
-7 -39 76 0
-7 37 62 0
-7 37 77 0
-6 -12 -38 0
-6 12 70 0
-6 50 76 0
-6 55 56 0
-5 22 -30 0
-5 25 55 0
-5 49 -68 0
-4 -41 -69 0
-4 -31 52 0
-4 -26 61 0
-4 -13 60 0
-4 6 67 0
-4 7 -19 0
-4 16 24 0
-3 -49 76 0
-3 -25 -71 0
-3 8 -21 0
-3 8 73 0
-3 33 -51 0
-3 37 79 0
-2 -24 66 0
-2 43 -47 0
-1 -72 -73 0
-1 -11 -52 0
-1 14 32 0
1 -67 69 0
1 21 68 0
2 -43 74 0
2 -37 -78 0
2 9 -72 0
2 9 -54 0
2 12 42 0
2 39 59 0
3 -40 73 0
3 -33 73 0
3 -25 63 0
3 -23 -57 0
3 -19 30 0
3 -15 16 0
3 7 53 0
3 8 29 0
3 8 57 0
3 18 -20 0
3 32 64 0
3 38 -46 0
4 -56 58 0
4 -44 -45 0
4 -27 57 0
4 -27 80 0
4 -15 -37 0
4 -9 38 0
4 -8 -20 0
4 -8 78 0
4 8 66 0
4 14 -61 0
4 27 -46 0
5 -10 19 0
5 24 70 0
5 33 40 0
5 40 -44 0
6 -47 79 0
6 -38 -47 0
6 -26 -34 0
6 14 -25 0
6 19 -69 0
7 -55 59 0
7 -49 76 0
7 -46 52 0
7 -41 -59 0
7 -32 -47 0
7 -20 -26 0
7 -17 -50 0
7 -12 -75 0
7 21 -35 0
8 -72 80 0
8 -29 -65 0
8 41 45 0
9 -28 35 0
9 27 72 0
9 37 -44 0
10 -13 -58 0
10 23 55 0
10 62 -64 0
11 -22 -48 0
11 25 -70 0
11 28 56 0
11 28 70 0
11 48 -56 0
12 -32 60 0
12 -26 58 0
12 17 -31 0
13 -65 -67 0
13 -56 72 0
13 -20 74 0
13 20 41 0
13 35 79 0
13 49 54 0
14 -36 -52 0
14 -30 -32 0
14 -24 27 0
14 44 -77 0
14 44 76 0
15 -26 54 0
15 -20 -75 0
15 -17 29 0
15 -16 46 0
15 42 54 0
15 50 -72 0
15 50 76 0
16 -55 60 0
16 -20 34 0
16 -17 69 0
17 -42 71 0
17 -22 33 0
18 -21 -28 0
19 -21 37 0
19 -21 80 0
19 22 43 0
19 30 35 0
19 45 -46 0
19 48 -71 0
20 -40 -47 0
20 45 48 0
20 52 -64 0
21 -48 55 0
21 -40 59 0
21 -27 58 0
21 -25 -73 0
21 33 50 0
21 34 75 0
22 -57 -70 0
22 -33 64 0
22 -27 -52 0
23 35 66 0
23 64 -74 0
24 -34 40 0
24 28 67 0
25 -58 -72 0
25 40 -43 0
26 -33 -43 0
26 43 -51 0
26 61 -73 0
27 -52 71 0
27 -49 56 0
27 -30 67 0
28 -63 -79 0
28 -49 -79 0
28 -42 -43 0
29 53 70 0
29 60 -74 0
30 -46 64 0
30 57 -64 0
30 62 69 0
32 -46 56 0
33 55 58 0
33 58 -60 0
34 -46 -78 0
34 -39 64 0
37 -57 -63 0
37 60 69 0
37 70 76 0
38 -46 -74 0
39 -52 -62 0
39 -50 78 0
39 50 -51 0
39 54 -62 0
40 -63 75 0
40 76 -78 0
42 -72 76 0
43 -69 -73 0
43 -69 80 0
44 58 -67 0
45 -64 77 0
45 -62 -64 0
45 68 -78 0
46 -47 63 0
47 51 -80 0
47 55 -78 0
48 -58 74 0
48 -51 -52 0
49 -55 72 0
49 -51 67 0
49 56 -68 0
50 -60 -66 0
54 59 -61 0
56 71 73 0
58 73 -75 0
59 61 80 0
64 68 -70 0
67 68 77 0
71 -78 -80 0
