p cnf 120 420
-101 -109 117 0
-98 -101 -108 0
-95 -109 -118 0
-92 106 -108 0
-90 94 118 0
-83 -91 -102 0
-76 -96 110 0
-73 83 -108 0
-72 -84 94 0
-71 -73 108 0
-71 74 -118 0
-71 81 93 0
-71 84 -98 0
-70 -80 -118 0
-69 -113 -119 0
-69 -74 97 0
-68 92 117 0
-67 92 103 0
-67 100 -116 0
-67 105 -120 0
-66 70 -104 0
-65 -80 112 0
-65 77 119 0
-62 -94 -96 0
-62 -63 81 0
-62 67 -115 0
-61 -66 117 0
-59 -105 116 0
-59 65 98 0
-57 -65 114 0
-57 95 113 0
-55 -57 -69 0
-55 56 -67 0
-55 69 -105 0
-54 56 76 0
-53 -61 -96 0
-52 95 -98 0
-49 -73 -77 0
-49 -71 -80 0
-49 56 -80 0
-49 62 -83 0
-48 -95 -118 0
-46 47 52 0
-45 -49 -108 0
-44 -88 -114 0
-44 -63 -73 0
-44 51 -98 0
-44 62 -101 0
-43 -61 72 0
-43 61 98 0
-43 93 102 0
-42 -106 -116 0
-42 -88 -97 0
-42 71 -116 0
-42 81 99 0
-41 -62 -73 0
-41 -52 -60 0
-41 69 79 0
-40 -74 98 0
-40 55 -107 0
-40 75 95 0
-39 -80 -87 0
-39 52 -71 0
-39 72 75 0
-38 -64 -68 0
-38 -61 -62 0
-36 -48 -53 0
-36 60 109 0
-36 66 -101 0
-35 42 116 0
-35 74 -107 0
-35 77 97 0
-34 -64 -111 0
-33 -41 106 0
-33 -34 -86 0
-32 59 -110 0
-31 -32 -112 0
-31 58 -98 0
-30 43 -76 0
-30 63 -111 0
-29 -39 102 0
-29 89 101 0
-29 94 -104 0
-28 -63 -113 0
-28 -50 91 0
-28 44 -89 0
-28 84 95 0
-27 -99 105 0
-27 -54 -99 0
-27 75 111 0
-25 -107 112 0
-25 -96 -109 0
-25 -43 52 0
-25 45 71 0
-25 67 -104 0
-24 47 92 0
-24 52 -83 0
-23 -65 -94 0
-23 46 76 0
-22 -78 84 0
-22 -76 -105 0
-22 -61 -77 0
-22 -29 -36 0
-22 -27 116 0
-22 23 -82 0
-22 27 -82 0
-21 -66 105 0
-21 -34 -81 0
-21 -32 95 0
-21 -28 -88 0
-21 51 -54 0
-21 63 117 0
-21 65 92 0
-21 99 114 0
-20 23 -36 0
-20 50 -104 0
-19 20 91 0
-19 56 70 0
-18 -51 -95 0
-18 -48 -104 0
-18 31 107 0
-18 64 -100 0
-18 72 -75 0
-18 111 117 0
-17 66 -93 0
-17 73 -91 0
-16 -19 -37 0
-16 32 115 0
-16 46 51 0
-16 90 -119 0
-15 -73 -104 0
-15 -34 86 0
-15 18 107 0
-15 49 109 0
-15 61 -82 0
-15 85 -89 0
-14 -64 116 0
-14 -62 68 0
-14 -60 -113 0
-14 -21 -91 0
-14 18 45 0
-14 96 -116 0
-13 -18 -67 0
-13 50 -86 0
-13 63 107 0
-13 85 -115 0
-12 -95 114 0
-12 -67 94 0
-12 -45 -51 0
-12 23 75 0
-12 41 86 0
-12 78 99 0
-12 94 100 0
-11 -102 -109 0
-11 -86 -119 0
-11 -70 -102 0
-11 -48 -92 0
-11 -27 -95 0
-11 -26 120 0
-11 -17 114 0
-10 -78 98 0
-10 58 112 0
-9 -64 77 0
-9 -18 110 0
-9 -10 84 0
-9 19 106 0
-9 35 -119 0
-9 48 94 0
-9 52 -86 0
-9 84 88 0
-8 11 47 0
-8 16 -19 0
-8 21 -95 0
-8 37 96 0
-7 -82 94 0
-7 -78 -113 0
-7 -67 -108 0
-7 -18 -44 0
-7 -13 -67 0
-7 92 100 0
-6 -77 78 0
-6 -52 -59 0
-6 -39 -75 0
-6 47 100 0
-5 -88 91 0
-5 -62 92 0
-5 -19 120 0
-4 -82 -99 0
-4 -78 -90 0
-4 -27 -96 0
-4 39 -118 0
-4 49 -77 0
-4 68 117 0
-3 -34 62 0
-3 -34 99 0
-3 -27 -103 0
-3 16 48 0
-3 23 47 0
-3 62 -75 0
-2 -41 108 0
-2 17 -56 0
-2 50 58 0
-2 67 -120 0
-1 -79 101 0
-1 -47 -49 0
-1 -9 -56 0
-1 -4 49 0
-1 3 -54 0
-1 39 118 0
-1 57 -77 0
1 -53 -94 0
2 -82 -103 0
2 -36 -81 0
2 -24 -76 0
2 -22 -79 0
2 18 -119 0
3 -103 -109 0
3 -69 -88 0
3 -51 -59 0
3 -34 36 0
4 -20 40 0
4 -14 -80 0
4 43 57 0
4 88 -101 0
4 109 -120 0
5 -50 -100 0
5 16 -88 0
5 55 56 0
6 -71 111 0
6 -69 -106 0
6 -9 57 0
6 7 -83 0
6 13 -62 0
6 14 47 0
6 38 54 0
6 51 105 0
6 75 110 0
7 -47 49 0
7 -40 -70 0
7 12 -74 0
7 41 80 0
7 64 87 0
8 -55 118 0
8 -30 97 0
8 18 -76 0
8 49 97 0
8 50 -110 0
8 51 87 0
9 -69 -120 0
9 -36 118 0
9 33 36 0
10 -100 -105 0
10 -89 -102 0
10 -58 79 0
10 -28 87 0
10 80 -89 0
10 84 -86 0
11 -77 90 0
11 -42 110 0
11 -24 -115 0
11 -14 20 0
11 15 -43 0
11 33 63 0
12 -48 -98 0
12 -29 -40 0
12 -19 89 0
12 25 -90 0
12 50 113 0
12 57 -78 0
13 -94 -106 0
13 -74 -91 0
13 -52 83 0
13 -31 70 0
14 -41 60 0
14 -34 -63 0
15 -28 -84 0
16 -80 88 0
16 -50 -98 0
16 48 -113 0
16 57 -106 0
17 -97 107 0
17 -41 -82 0
17 -20 119 0
17 22 -37 0
17 57 64 0
17 76 94 0
17 104 119 0
18 -83 106 0
18 -45 -78 0
18 -34 -67 0
18 55 -105 0
18 94 -105 0
19 -67 105 0
19 -29 84 0
20 -78 116 0
20 -67 69 0
21 -78 -115 0
21 -22 26 0
21 54 -63 0
22 58 -75 0
23 -75 -115 0
23 -72 75 0
23 -70 -93 0
23 -36 105 0
23 -35 -90 0
23 46 -59 0
24 -77 -120 0
24 -29 -92 0
24 56 -112 0
24 71 79 0
24 83 97 0
25 -51 109 0
25 -28 -58 0
26 -90 -116 0
26 -73 -112 0
26 -64 -85 0
26 -35 -110 0
26 89 114 0
27 -70 73 0
27 -50 99 0
27 -34 -54 0
27 38 107 0
27 87 -100 0
28 -58 115 0
28 -41 73 0
28 49 81 0
28 52 -119 0
28 60 -87 0
28 68 83 0
28 74 -75 0
29 -42 -96 0
29 58 110 0
30 -88 89 0
30 -77 -115 0
30 104 -116 0
31 -57 -83 0
31 -42 89 0
31 -39 -59 0
31 52 108 0
31 81 -88 0
32 -89 96 0
32 -79 94 0
32 -57 74 0
32 51 -115 0
33 -63 84 0
33 84 85 0
34 -68 -119 0
34 -68 -106 0
34 38 79 0
34 39 -81 0
35 -48 -59 0
35 36 -54 0
35 63 102 0
36 74 91 0
36 91 116 0
37 -83 104 0
37 54 -90 0
38 -74 -101 0
38 40 48 0
38 47 -61 0
38 68 82 0
38 113 -119 0
39 48 93 0
39 66 -86 0
40 -92 97 0
40 -75 -103 0
40 60 -89 0
41 -105 -116 0
41 -81 -84 0
41 57 -81 0
42 54 55 0
42 56 -106 0
43 57 107 0
44 -85 112 0
44 -63 -73 0
44 -50 113 0
44 -46 77 0
44 64 107 0
47 -65 -88 0
47 -54 99 0
47 73 100 0
47 85 -98 0
48 66 -96 0
48 116 -118 0
49 82 102 0
50 -82 116 0
51 -86 -114 0
53 -75 102 0
53 -70 -96 0
53 -62 -64 0
53 68 120 0
56 67 88 0
57 -59 -116 0
59 -62 -101 0
59 -61 92 0
59 91 -108 0
60 79 -82 0
61 -62 -106 0
61 90 96 0
64 -81 -114 0
64 86 -97 0
65 -76 105 0
67 -70 90 0
67 -68 118 0
67 89 115 0
67 106 120 0
68 -93 101 0
68 -79 -116 0
69 -92 -106 0
74 82 -118 0
75 -104 112 0
75 88 -96 0
78 -83 88 0
79 -89 101 0
81 116 -117 0
82 110 -117 0
86 -87 -109 0
88 -96 -119 0
106 -114 120 0
110 118 -120 0
