p cnf 70 298
-55 58 66 0
-48 -51 66 0
-47 -58 65 0
-46 52 -70 0
-45 -51 57 0
-44 -58 69 0
-43 45 56 0
-41 49 52 0
-40 -43 59 0
-40 41 -67 0
-40 41 56 0
-39 63 -70 0
-37 -55 65 0
-37 -47 63 0
-36 -38 63 0
-36 46 67 0
-36 60 -70 0
-35 -36 65 0
-34 44 45 0
-33 -53 -63 0
-33 -39 70 0
-33 43 46 0
-33 48 -55 0
-33 56 -63 0
-32 41 -52 0
-31 60 -63 0
-30 44 56 0
-30 45 52 0
-29 -57 61 0
-28 -40 -51 0
-28 31 -67 0
-28 35 64 0
-28 51 -58 0
-28 52 60 0
-27 35 40 0
-26 29 60 0
-26 47 -61 0
-25 -50 61 0
-25 -46 57 0
-25 32 -36 0
-25 34 -50 0
-25 40 -67 0
-24 -51 -56 0
-24 -34 49 0
-24 -32 -46 0
-24 42 -61 0
-24 42 -54 0
-23 -27 -33 0
-23 33 40 0
-22 -38 62 0
-22 33 41 0
-21 -29 -41 0
-20 -25 68 0
-19 -36 -46 0
-19 -20 -41 0
-18 -52 70 0
-18 21 -36 0
-18 44 -49 0
-17 -24 -53 0
-17 21 40 0
-17 35 -52 0
-16 -20 44 0
-16 -19 36 0
-16 26 56 0
-16 32 56 0
-16 42 -67 0
-16 42 56 0
-14 -61 62 0
-14 -45 69 0
-14 -35 -62 0
-14 -16 63 0
-14 19 -29 0
-14 38 68 0
-14 48 66 0
-13 -49 59 0
-13 19 -25 0
-12 -52 -55 0
-12 -43 -60 0
-12 -16 -33 0
-12 19 -35 0
-12 21 65 0
-12 34 42 0
-11 -20 -34 0
-11 23 64 0
-11 55 -64 0
-10 -38 -52 0
-10 -13 37 0
-10 20 42 0
-10 39 56 0
-10 54 68 0
-9 -42 69 0
-9 -33 57 0
-9 -21 -46 0
-9 10 -31 0
-9 14 -23 0
-8 -23 -40 0
-8 -16 -54 0
-8 27 -37 0
-7 -23 48 0
-7 -19 70 0
-7 -10 -31 0
-7 -8 26 0
-7 9 -29 0
-7 11 19 0
-6 -30 -60 0
-6 -14 -16 0
-6 -12 -24 0
-6 -10 60 0
-6 -9 48 0
-6 8 -15 0
-6 26 -65 0
-5 -20 -39 0
-5 -17 43 0
-5 8 -31 0
-5 9 -22 0
-5 10 46 0
-5 35 -64 0
-4 -36 -41 0
-4 -23 69 0
-4 7 45 0
-4 8 -49 0
-4 20 22 0
-4 41 -57 0
-3 -51 -68 0
-3 -34 -36 0
-3 -29 -65 0
-3 -22 -24 0
-3 -9 -38 0
-3 -8 -62 0
-3 13 -19 0
-3 30 -46 0
-2 -30 66 0
-2 -28 -53 0
-2 -28 -47 0
-2 -21 65 0
-2 -14 62 0
-2 -4 -58 0
-2 17 -62 0
-2 25 -35 0
-2 36 56 0
-1 -60 -65 0
-1 -36 44 0
-1 -31 60 0
-1 -27 -68 0
-1 -27 33 0
-1 -3 -59 0
-1 10 25 0
-1 31 51 0
-1 48 50 0
1 -29 34 0
2 -57 -59 0
2 -39 62 0
2 -22 31 0
2 -20 -62 0
2 -11 62 0
2 15 -51 0
2 19 -44 0
2 47 -63 0
3 -37 -42 0
3 -37 64 0
3 -33 53 0
3 -29 61 0
3 13 36 0
3 23 -38 0
3 33 -59 0
3 46 -47 0
4 -24 57 0
4 -23 -57 0
4 -23 67 0
4 7 -13 0
5 -47 57 0
5 -36 -68 0
5 -29 -32 0
5 -15 30 0
5 8 40 0
5 25 -26 0
5 39 60 0
5 54 67 0
6 -21 22 0
6 -12 67 0
6 14 35 0
6 18 -29 0
6 22 -27 0
6 26 64 0
6 31 -35 0
7 -68 70 0
7 -21 -38 0
7 -17 50 0
7 37 68 0
7 41 67 0
7 57 60 0
8 59 62 0
9 -42 46 0
9 -29 -44 0
9 -16 28 0
9 14 -31 0
10 -55 -66 0
10 -11 -27 0
10 41 -57 0
10 51 -59 0
11 -39 40 0
11 -34 65 0
11 -12 35 0
11 27 57 0
11 41 -48 0
11 42 55 0
11 49 66 0
11 51 53 0
12 -13 -65 0
12 39 41 0
12 43 -54 0
13 31 38 0
13 32 -40 0
13 50 61 0
13 51 -67 0
14 -50 51 0
14 -41 -56 0
14 -21 -41 0
14 -17 33 0
14 21 -39 0
14 22 28 0
15 -55 -66 0
15 -33 39 0
15 21 67 0
15 29 30 0
15 59 67 0
16 -44 70 0
16 -20 -43 0
16 -18 52 0
16 18 66 0
16 56 68 0
17 -46 -58 0
17 -24 -30 0
17 -19 -38 0
17 21 -29 0
17 46 70 0
18 -24 -51 0
18 39 53 0
19 -21 38 0
20 -33 68 0
20 -30 49 0
20 40 -43 0
21 -48 -66 0
21 -25 32 0
21 40 -64 0
22 -50 68 0
22 -30 40 0
22 23 57 0
22 25 70 0
22 40 -44 0
23 32 -43 0
24 -29 -39 0
24 29 59 0
24 57 -70 0
25 52 55 0
26 -53 60 0
26 -43 -52 0
27 -63 -67 0
27 -61 -70 0
27 -45 70 0
27 40 49 0
27 40 56 0
27 43 -62 0
29 30 -37 0
29 44 -70 0
31 -40 -55 0
31 42 58 0
32 -47 -58 0
32 -36 -44 0
32 43 -70 0
32 46 -67 0
32 48 -62 0
33 43 -57 0
33 43 61 0
35 58 60 0
36 37 -61 0
38 -46 49 0
39 -47 50 0
39 -45 61 0
39 52 -56 0
40 -62 -68 0
40 -45 50 0
40 49 64 0
43 -59 64 0
44 -53 66 0
45 -57 58 0
45 -47 -51 0
45 54 -67 0
46 -59 -60 0
48 55 63 0
48 62 68 0
53 -56 64 0
59 68 69 0
60 63 65 0
62 -64 70 0
63 67 -68 0
64 65 66 0
65 67 69 0
