p cnf 45 191
-35 -38 42 0
-33 -39 40 0
-31 32 -38 0
-29 -33 34 0
-29 34 -36 0
-28 -35 -41 0
-27 -36 -38 0
-27 -31 41 0
-27 -29 41 0
-27 39 42 0
-25 27 29 0
-24 30 -45 0
-23 31 33 0
-20 24 -35 0
-20 32 -38 0
-19 24 -38 0
-18 -23 29 0
-18 23 35 0
-18 24 -25 0
-16 -25 -30 0
-16 22 32 0
-16 23 33 0
-15 -21 -37 0
-15 -16 -35 0
-15 22 -44 0
-14 -28 44 0
-14 -16 37 0
-14 26 35 0
-14 33 -44 0
-13 -24 -35 0
-13 17 31 0
-13 34 -43 0
-12 21 -30 0
-12 22 -34 0
-11 -28 40 0
-11 -12 25 0
-11 13 25 0
-11 18 -34 0
-11 24 39 0
-11 30 -41 0
-10 -30 -42 0
-10 36 40 0
-9 -37 -38 0
-9 -24 -33 0
-9 19 -37 0
-9 20 25 0
-9 40 -45 0
-8 -36 -45 0
-8 -30 31 0
-8 -24 38 0
-8 -15 -19 0
-8 12 29 0
-8 20 -44 0
-8 26 -44 0
-7 -19 39 0
-7 -10 -13 0
-7 10 -31 0
-7 19 -40 0
-7 19 27 0
-7 21 -34 0
-6 -31 43 0
-6 -20 -28 0
-6 -17 18 0
-6 -9 -30 0
-6 11 -23 0
-5 -15 -44 0
-5 -7 25 0
-5 12 44 0
-5 14 -22 0
-5 21 -37 0
-5 31 -35 0
-4 -28 -42 0
-4 -22 -23 0
-4 -15 -33 0
-4 -14 25 0
-4 -8 -13 0
-4 12 -21 0
-4 15 -20 0
-4 35 -39 0
-4 35 41 0
-3 -31 -45 0
-3 -21 29 0
-3 -15 24 0
-3 -8 -31 0
-3 -6 20 0
-3 15 -45 0
-2 -23 37 0
-2 12 27 0
-2 36 43 0
-1 -27 36 0
-1 -6 -32 0
1 -37 38 0
1 -35 42 0
1 -13 -23 0
1 -10 -30 0
1 -8 14 0
1 32 -35 0
2 -27 30 0
2 -19 -22 0
2 -12 16 0
2 6 -12 0
2 15 36 0
2 18 -19 0
2 22 32 0
3 -18 36 0
3 6 -38 0
3 14 38 0
3 33 -43 0
4 -27 34 0
4 -7 26 0
4 10 17 0
4 11 -27 0
4 25 32 0
5 14 -42 0
5 16 -41 0
6 -16 37 0
6 -9 20 0
6 10 25 0
6 22 -33 0
6 24 -33 0
6 43 -44 0
7 -21 28 0
7 -17 45 0
7 -15 19 0
7 -9 -33 0
7 -9 -16 0
7 12 -37 0
7 16 21 0
7 34 -43 0
8 -13 38 0
9 -19 31 0
9 -13 -14 0
9 11 -30 0
9 11 21 0
9 23 38 0
10 -32 41 0
10 -24 -36 0
11 -30 -42 0
11 -22 -42 0
11 12 31 0
11 18 27 0
11 19 -40 0
11 23 -29 0
12 -32 -44 0
12 -21 -23 0
12 16 -41 0
12 17 -23 0
12 18 -40 0
12 26 29 0
13 -16 -40 0
13 -16 -36 0
13 -15 -36 0
14 -33 -37 0
14 -18 32 0
14 16 35 0
14 20 -34 0
15 -35 -45 0
15 -19 -44 0
15 17 18 0
16 -39 41 0
16 -32 -35 0
16 -23 42 0
16 -20 -38 0
16 29 30 0
17 -32 -45 0
17 -30 35 0
17 -28 -38 0
17 24 -40 0
17 32 -43 0
18 -28 -40 0
18 -25 43 0
18 20 38 0
18 22 -42 0
18 30 33 0
20 -23 -43 0
23 -32 -42 0
23 -28 44 0
23 27 35 0
24 35 38 0
25 -39 -45 0
26 -30 40 0
27 33 39 0
28 -34 -35 0
28 -33 44 0
28 38 44 0
29 -31 38 0
30 -42 -43 0
30 -41 42 0
30 -33 -42 0
32 -41 -44 0
37 40 -43 0
