p cnf 100 360
-87 90 -100 0
-86 -87 -100 0
-78 -83 -98 0
-76 -96 97 0
-74 -78 93 0
-71 80 -97 0
-69 -86 100 0
-69 71 81 0
-67 -69 -80 0
-67 83 -86 0
-66 -68 99 0
-63 -70 -79 0
-62 -74 94 0
-61 62 67 0
-58 72 75 0
-57 -69 98 0
-57 84 -96 0
-55 -64 -98 0
-54 -67 -73 0
-54 58 90 0
-52 -57 -80 0
-52 83 -96 0
-51 60 -82 0
-50 -61 86 0
-50 -59 -99 0
-49 58 -84 0
-48 -82 -90 0
-47 -81 98 0
-47 52 87 0
-46 -68 -86 0
-46 -65 -97 0
-45 -62 99 0
-43 98 100 0
-41 -54 99 0
-40 67 75 0
-39 -73 -85 0
-39 -43 53 0
-39 83 -91 0
-38 53 84 0
-36 -55 -88 0
-36 39 82 0
-36 64 -96 0
-36 64 -68 0
-36 78 79 0
-35 -42 -71 0
-35 46 -75 0
-35 56 69 0
-35 68 74 0
-34 -76 89 0
-34 -50 -53 0
-34 47 -55 0
-33 -36 -39 0
-32 -45 68 0
-32 45 -62 0
-30 82 -85 0
-29 -85 -87 0
-29 -65 81 0
-29 -63 70 0
-29 -51 52 0
-29 -51 77 0
-29 -44 -63 0
-29 37 96 0
-28 -74 93 0
-28 -49 98 0
-28 -44 78 0
-28 30 83 0
-27 -57 -100 0
-26 29 -78 0
-26 42 65 0
-26 81 -89 0
-25 -80 -82 0
-25 30 43 0
-25 34 -97 0
-25 46 -82 0
-25 75 -87 0
-24 -32 75 0
-23 -70 -71 0
-23 -51 -76 0
-23 -35 73 0
-23 37 -80 0
-23 56 -94 0
-21 -70 -79 0
-21 -46 -89 0
-21 25 50 0
-21 26 32 0
-21 27 61 0
-21 71 88 0
-20 -74 97 0
-20 -54 -97 0
-20 -44 -99 0
-20 -29 -84 0
-20 -26 -81 0
-20 29 -40 0
-20 48 87 0
-20 54 56 0
-20 60 88 0
-19 -77 -91 0
-19 -28 -95 0
-19 23 74 0
-19 38 98 0
-18 -42 -97 0
-18 -41 81 0
-18 -30 -69 0
-18 -20 49 0
-17 -54 -63 0
-17 -48 69 0
-17 -41 95 0
-17 -24 82 0
-17 42 93 0
-17 60 -99 0
-16 36 81 0
-16 75 -78 0
-16 94 -96 0
-15 -50 -60 0
-15 19 85 0
-14 -71 83 0
-14 -29 -88 0
-14 72 -75 0
-13 -33 -62 0
-13 -31 -82 0
-13 -17 92 0
-13 23 27 0
-13 32 40 0
-13 54 66 0
-13 57 93 0
-13 59 87 0
-12 19 -23 0
-12 23 26 0
-12 25 57 0
-12 60 -61 0
-11 -63 -91 0
-11 -29 81 0
-11 28 72 0
-11 35 47 0
-11 36 40 0
-10 -83 94 0
-10 -70 -87 0
-10 -39 87 0
-10 -30 -68 0
-10 -27 65 0
-10 26 92 0
-9 -32 -86 0
-9 -15 61 0
-8 -47 -64 0
-8 -37 -54 0
-8 -9 -43 0
-7 -73 -98 0
-7 -63 89 0
-7 -49 -69 0
-7 -14 88 0
-7 -12 -83 0
-7 33 -76 0
-7 67 -68 0
-7 75 -95 0
-6 -77 88 0
-6 -40 -77 0
-6 9 37 0
-6 30 93 0
-6 43 46 0
-6 68 88 0
-5 -49 -89 0
-5 -39 -69 0
-5 -20 88 0
-5 8 -98 0
-5 8 -21 0
-5 49 50 0
-5 57 -84 0
-4 -31 41 0
-4 12 -89 0
-4 27 100 0
-4 56 77 0
-3 -50 -64 0
-3 -31 -94 0
-3 -9 88 0
-2 -48 55 0
-2 -44 -59 0
-2 -28 -61 0
-2 -23 -72 0
-2 28 -49 0
-2 46 -50 0
-2 48 77 0
-2 56 -95 0
-2 68 -80 0
-1 -41 66 0
-1 -24 -100 0
-1 28 -68 0
-1 28 -37 0
-1 30 -64 0
-1 42 83 0
-1 57 -85 0
-1 74 80 0
1 -73 -81 0
1 -35 -83 0
1 -25 -89 0
1 25 -65 0
1 31 -60 0
1 32 -36 0
2 -49 83 0
2 -3 47 0
2 38 68 0
2 49 -98 0
3 -43 90 0
4 -64 74 0
4 -19 93 0
4 28 55 0
4 53 -63 0
4 78 -84 0
5 -88 -98 0
5 -56 -87 0
5 -54 -70 0
5 -36 51 0
5 -12 -96 0
5 30 89 0
5 34 -81 0
5 64 78 0
6 -16 -99 0
6 24 -67 0
6 48 65 0
7 -33 44 0
7 -20 52 0
7 -9 -44 0
7 18 77 0
7 24 -75 0
7 61 -92 0
7 63 64 0
8 -72 84 0
8 -53 -62 0
8 -51 -70 0
8 -48 81 0
8 16 -78 0
8 57 -89 0
9 -92 -94 0
9 -51 95 0
9 -42 -53 0
9 -23 48 0
9 -18 -100 0
9 28 -65 0
9 35 64 0
9 39 -74 0
9 47 96 0
9 52 71 0
9 61 -66 0
10 -78 -97 0
10 -24 54 0
10 -22 -57 0
10 11 -92 0
10 39 -66 0
10 49 -53 0
11 -80 -98 0
11 -60 97 0
11 -20 -91 0
11 -19 -93 0
11 -13 93 0
11 -12 -88 0
11 48 83 0
12 -39 63 0
12 23 31 0
12 49 50 0
13 -63 -64 0
13 -33 91 0
14 -24 -35 0
14 23 98 0
14 48 -83 0
15 -33 -78 0
15 -22 66 0
16 -57 -59 0
16 37 -84 0
16 37 39 0
17 35 89 0
17 65 73 0
18 23 24 0
18 48 89 0
18 74 -100 0
19 -22 59 0
19 37 -72 0
20 -54 72 0
20 -30 -95 0
20 36 38 0
21 -42 -67 0
21 35 -73 0
22 -36 -55 0
22 33 56 0
23 -40 -98 0
23 -40 72 0
23 58 -69 0
24 67 87 0
25 -56 90 0
25 -48 77 0
25 -43 -67 0
25 40 89 0
25 55 90 0
25 56 93 0
26 -62 -78 0
27 -83 -90 0
27 -61 78 0
27 -56 76 0
27 32 35 0
27 51 76 0
28 -37 -86 0
28 -32 68 0
29 40 -55 0
29 90 99 0
30 -55 -92 0
31 54 91 0
31 83 84 0
32 -46 -62 0
33 -50 76 0
33 -42 47 0
33 -36 -37 0
34 -88 -97 0
34 45 -100 0
34 48 -59 0
34 65 -81 0
35 -66 -96 0
35 -63 81 0
35 -51 69 0
36 73 87 0
37 -48 -94 0
38 -59 88 0
38 68 74 0
39 -68 -96 0
39 44 -83 0
40 46 -87 0
40 51 -69 0
40 52 61 0
40 54 90 0
41 47 57 0
42 57 82 0
43 -64 97 0
44 -87 90 0
44 48 -62 0
44 71 97 0
44 82 85 0
45 -64 78 0
45 71 77 0
46 47 -65 0
49 -77 -97 0
50 77 91 0
51 -56 -80 0
52 61 -72 0
52 72 -81 0
54 -58 70 0
55 60 -68 0
57 59 -86 0
58 -77 91 0
59 -62 -78 0
59 92 -96 0
60 73 81 0
61 64 71 0
62 -73 -94 0
62 -72 -84 0
62 -68 71 0
67 -91 98 0
68 -82 99 0
70 -72 -88 0
75 -77 94 0
82 -90 -94 0
87 -95 -97 0
88 89 -90 0
94 -95 -100 0
