p cnf 28 119
-19 -23 -26 0
-18 21 -22 0
-18 22 -25 0
-18 22 25 0
-17 23 25 0
-15 17 24 0
-14 -18 -19 0
-13 21 -25 0
-12 -20 22 0
-12 -20 28 0
-12 -18 -26 0
-12 -17 -20 0
-12 17 -27 0
-11 14 -22 0
-11 15 -18 0
-11 22 27 0
-9 -17 26 0
-9 -15 -21 0
-8 10 -21 0
-7 -20 22 0
-7 -19 25 0
-7 -15 22 0
-7 -9 -26 0
-7 -8 19 0
-7 24 -27 0
-6 -11 -14 0
-6 -8 19 0
-6 12 -25 0
-6 12 -23 0
-6 12 15 0
-6 13 -19 0
-6 15 24 0
-6 17 -23 0
-6 20 27 0
-5 -11 -13 0
-5 9 11 0
-5 20 -22 0
-4 -14 -17 0
-4 -7 19 0
-3 -20 27 0
-3 -14 22 0
-3 -12 -23 0
-3 -8 -13 0
-3 -7 -10 0
-3 -6 -24 0
-3 -5 13 0
-3 4 9 0
-3 19 -25 0
-3 24 28 0
-2 -12 16 0
-2 -3 19 0
-2 11 15 0
-1 -23 28 0
-1 -5 13 0
-1 -3 -28 0
-1 3 14 0
-1 4 14 0
-1 8 -18 0
-1 9 -16 0
-1 14 28 0
1 -17 -21 0
1 -9 -12 0
1 5 -9 0
1 9 -28 0
1 22 -26 0
2 -23 -25 0
2 -10 -22 0
2 -10 -16 0
2 -6 -28 0
2 3 -27 0
2 4 -11 0
2 4 9 0
2 5 26 0
2 8 -28 0
2 12 -23 0
2 18 -21 0
3 -6 -24 0
3 -6 15 0
3 10 19 0
3 14 22 0
4 -14 -16 0
4 -11 20 0
4 9 19 0
4 10 -22 0
5 -23 26 0
5 -6 10 0
5 8 15 0
5 10 -15 0
5 13 -14 0
5 15 -20 0
5 18 27 0
6 -23 -27 0
6 -19 23 0
6 -15 -26 0
6 15 27 0
7 -13 -20 0
7 9 -19 0
7 11 -27 0
7 11 14 0
7 17 -24 0
8 -9 -15 0
8 14 19 0
8 22 -26 0
9 12 28 0
9 14 -28 0
9 14 28 0
9 18 -24 0
9 24 -26 0
10 -21 22 0
10 -11 24 0
10 18 -25 0
10 18 20 0
10 22 -24 0
11 18 -23 0
13 -19 26 0
13 17 22 0
15 -23 -25 0
16 -23 -24 0
22 -23 -26 0
