p cnf 80 340
-62 -75 78 0
-61 63 -72 0
-60 -65 68 0
-59 63 65 0
-58 61 65 0
-55 -58 -70 0
-54 57 -73 0
-53 57 -80 0
-52 59 68 0
-51 52 74 0
-51 53 -54 0
-51 56 -68 0
-49 52 -70 0
-49 57 -79 0
-46 -49 -63 0
-46 56 -70 0
-46 56 65 0
-45 72 76 0
-44 -60 64 0
-43 -48 67 0
-43 48 -73 0
-43 69 70 0
-42 58 -60 0
-42 62 74 0
-40 46 -50 0
-40 65 75 0
-39 52 72 0
-38 -52 -55 0
-38 39 -44 0
-37 -51 -61 0
-37 -39 -46 0
-36 41 75 0
-36 56 -64 0
-35 44 75 0
-35 61 70 0
-34 50 -77 0
-32 -52 -54 0
-32 -42 53 0
-32 34 44 0
-31 -54 -72 0
-31 37 -74 0
-31 39 54 0
-31 71 79 0
-30 -59 72 0
-30 -45 56 0
-30 -38 -50 0
-30 45 -60 0
-29 -46 -56 0
-29 -37 -59 0
-29 -32 63 0
-28 -66 -67 0
-28 -33 48 0
-28 -32 -52 0
-28 29 -79 0
-28 65 -67 0
-27 -53 -61 0
-27 -28 35 0
-26 -53 -79 0
-26 58 76 0
-26 71 73 0
-24 -74 -77 0
-24 -50 -51 0
-24 46 67 0
-23 -71 78 0
-23 -67 -70 0
-22 -34 -47 0
-22 27 39 0
-22 47 71 0
-21 -51 59 0
-21 -34 -67 0
-21 -32 -79 0
-21 -26 -47 0
-21 24 39 0
-21 57 -77 0
-21 65 -79 0
-20 -45 -48 0
-20 38 -48 0
-19 66 76 0
-18 -21 77 0
-18 24 -60 0
-18 29 45 0
-18 31 66 0
-18 39 74 0
-18 59 63 0
-17 -39 -56 0
-17 32 37 0
-16 -45 -61 0
-16 -35 -68 0
-16 24 -76 0
-16 37 41 0
-15 -35 61 0
-15 -31 53 0
-15 -28 40 0
-15 -25 43 0
-15 18 59 0
-15 31 -75 0
-15 44 45 0
-15 45 65 0
-15 51 -53 0
-14 -63 71 0
-14 -23 -59 0
-14 -19 -71 0
-14 30 -69 0
-13 -21 25 0
-13 17 44 0
-13 44 54 0
-12 -63 77 0
-12 -52 -80 0
-12 -24 39 0
-12 -24 41 0
-12 -20 22 0
-12 -14 48 0
-12 13 -72 0
-12 49 -59 0
-12 68 -75 0
-12 69 79 0
-11 -62 65 0
-11 -42 77 0
-11 -39 -79 0
-11 -37 -75 0
-11 -12 -37 0
-11 52 -63 0
-10 -40 43 0
-10 19 77 0
-10 26 77 0
-10 46 -78 0
-10 53 -56 0
-9 -46 57 0
-9 -36 72 0
-9 -33 -73 0
-9 -26 54 0
-9 15 57 0
-9 29 -45 0
-9 35 70 0
-8 -69 70 0
-8 -28 44 0
-8 -26 -72 0
-8 -22 -52 0
-8 9 43 0
-8 53 -75 0
-7 -44 63 0
-7 -24 49 0
-7 -18 77 0
-7 -17 57 0
-7 -8 16 0
-7 18 69 0
-7 35 73 0
-6 -34 -47 0
-6 12 56 0
-6 17 80 0
-6 20 -52 0
-6 21 78 0
-6 23 50 0
-6 76 80 0
-5 -56 -68 0
-5 -47 61 0
-5 -42 80 0
-5 -37 66 0
-5 -34 -60 0
-5 -29 -49 0
-5 -29 -44 0
-5 -15 -17 0
-5 8 -10 0
-5 14 -80 0
-4 -51 75 0
-4 -41 -79 0
-4 -36 41 0
-4 -27 -73 0
-4 46 58 0
-3 -20 -27 0
-3 9 -15 0
-3 12 -56 0
-3 35 70 0
-3 39 48 0
-2 -19 76 0
-2 16 26 0
-2 48 -74 0
-1 -37 -68 0
-1 -23 -29 0
-1 7 47 0
-1 8 -29 0
-1 13 -78 0
-1 28 75 0
-1 46 73 0
1 -17 -37 0
1 -11 79 0
1 -10 68 0
1 3 -48 0
2 -30 45 0
2 3 9 0
2 9 -32 0
2 33 42 0
3 -51 78 0
3 -6 -35 0
3 15 78 0
3 26 69 0
3 69 -71 0
4 -71 -79 0
4 -43 -44 0
4 -34 63 0
4 -18 -22 0
4 -18 35 0
4 11 -15 0
5 -49 -76 0
5 -22 -52 0
5 66 -78 0
6 -31 -36 0
6 -15 -16 0
6 36 -65 0
7 -58 78 0
7 -43 -72 0
7 -12 50 0
7 10 50 0
7 18 -73 0
7 25 78 0
8 -44 -79 0
8 -30 69 0
8 -16 35 0
8 -9 36 0
8 18 -36 0
8 23 -29 0
9 -61 72 0
9 -29 -53 0
9 -24 42 0
9 16 -56 0
9 25 -60 0
10 -34 -39 0
10 19 -37 0
10 25 -58 0
10 52 -59 0
10 64 79 0
11 -39 -45 0
11 -30 70 0
11 -15 -56 0
11 -12 -48 0
11 17 -45 0
12 -70 77 0
13 -49 -57 0
13 -45 -63 0
13 -43 -79 0
13 -31 -36 0
13 -26 57 0
13 -18 52 0
13 15 -62 0
13 25 -76 0
13 35 67 0
14 22 -72 0
14 49 72 0
14 50 76 0
14 58 -66 0
14 62 75 0
15 -59 69 0
15 -20 26 0
15 -16 -70 0
15 19 55 0
15 24 43 0
16 -60 -79 0
16 -58 -69 0
16 -33 38 0
17 19 80 0
17 29 -39 0
19 -33 39 0
19 29 -60 0
19 47 -51 0
20 22 -69 0
20 29 72 0
20 33 -37 0
20 38 -66 0
20 45 -68 0
20 58 -62 0
21 -52 -54 0
21 -28 -37 0
21 50 -54 0
21 57 64 0
21 60 -78 0
22 -56 64 0
23 -60 -76 0
23 -42 -64 0
23 27 62 0
23 61 63 0
24 -72 73 0
25 -41 78 0
25 -35 -76 0
25 32 37 0
25 33 -77 0
25 33 44 0
26 -41 66 0
26 27 30 0
26 36 -60 0
28 -59 63 0
28 -39 74 0
28 -38 -59 0
28 -31 75 0
28 35 61 0
29 -39 -54 0
29 49 61 0
30 -39 54 0
31 35 39 0
31 37 -55 0
32 69 -80 0
33 -79 -80 0
33 -56 68 0
33 -41 79 0
33 38 53 0
33 47 67 0
34 -58 64 0
34 -53 62 0
34 -50 64 0
34 58 59 0
35 -45 74 0
35 47 61 0
35 51 -72 0
37 -42 59 0
37 -40 -52 0
37 63 -77 0
38 53 66 0
39 -45 76 0
41 -63 80 0
41 45 -46 0
42 -63 73 0
42 53 80 0
43 46 -76 0
44 46 -73 0
44 46 71 0
45 48 56 0
45 62 74 0
46 -51 -69 0
46 54 74 0
46 55 -80 0
48 -52 -59 0
50 57 -77 0
53 -75 -76 0
54 62 -73 0
57 65 77 0
59 -74 80 0
59 66 -76 0
60 -61 63 0
63 -66 69 0
66 68 70 0
70 -71 -78 0
