p cnf 140 595
-122 133 -135 0
-115 -126 -139 0
-113 -137 140 0
-112 123 132 0
-110 112 140 0
-107 -136 -140 0
-106 -118 138 0
-105 113 125 0
-104 -123 -138 0
-98 101 115 0
-97 -104 121 0
-97 108 -135 0
-96 120 126 0
-93 -118 -139 0
-92 -106 140 0
-91 94 120 0
-90 -105 -124 0
-89 -116 -133 0
-89 -112 -131 0
-89 99 -115 0
-88 -103 119 0
-87 -102 -107 0
-85 -93 124 0
-84 -88 100 0
-83 128 -138 0
-82 -119 -123 0
-82 -99 104 0
-81 -91 108 0
-80 -108 116 0
-79 -122 132 0
-78 -128 130 0
-78 81 98 0
-77 81 -114 0
-77 99 -110 0
-77 105 113 0
-77 112 136 0
-76 -115 131 0
-76 92 -97 0
-76 117 132 0
-75 80 -140 0
-75 93 -124 0
-74 -81 -109 0
-74 -80 -99 0
-74 76 81 0
-74 87 88 0
-70 72 -80 0
-69 -108 134 0
-69 71 -72 0
-69 110 -132 0
-68 107 117 0
-67 -107 131 0
-67 -92 -108 0
-67 99 -111 0
-66 -106 110 0
-66 -71 133 0
-65 109 -137 0
-65 122 -124 0
-64 -87 -134 0
-64 -85 -114 0
-63 66 -69 0
-63 89 -98 0
-62 77 -132 0
-61 116 138 0
-61 123 139 0
-60 -72 82 0
-60 88 98 0
-59 83 111 0
-58 -99 -120 0
-58 66 86 0
-57 64 -88 0
-56 -119 130 0
-55 -91 -125 0
-54 -107 112 0
-54 -86 118 0
-54 56 77 0
-53 -90 -129 0
-53 -70 -128 0
-52 -87 -140 0
-52 -87 -95 0
-51 69 -128 0
-49 -135 138 0
-49 58 -137 0
-49 62 134 0
-49 101 -136 0
-48 66 132 0
-47 69 94 0
-46 -92 -118 0
-46 -69 117 0
-45 -85 125 0
-45 -83 134 0
-44 -124 128 0
-44 -74 -136 0
-44 -68 114 0
-43 -92 -139 0
-43 -63 112 0
-43 -62 70 0
-43 -49 53 0
-43 44 -89 0
-42 -57 -130 0
-42 51 -106 0
-41 -63 -68 0
-41 70 96 0
-40 -66 -94 0
-40 -52 -125 0
-40 60 124 0
-40 75 -82 0
-39 56 -92 0
-39 56 -91 0
-39 111 -136 0
-39 115 -139 0
-38 52 56 0
-38 66 86 0
-38 67 -115 0
-37 -49 110 0
-37 63 94 0
-37 81 124 0
-37 117 135 0
-37 119 -123 0
-36 -43 -77 0
-35 -61 -65 0
-35 44 -102 0
-35 87 -91 0
-34 -126 137 0
-34 -85 128 0
-34 -69 136 0
-34 40 -136 0
-34 120 140 0
-33 -45 98 0
-33 -40 -116 0
-33 67 78 0
-33 84 -90 0
-33 96 -125 0
-33 103 140 0
-33 108 -131 0
-32 -110 -132 0
-32 -60 -81 0
-32 42 -68 0
-32 128 -140 0
-31 -55 93 0
-31 -52 -57 0
-31 -44 129 0
-31 49 -120 0
-31 61 -87 0
-30 -78 94 0
-30 -34 -89 0
-30 -33 -111 0
-30 48 -89 0
-30 76 -114 0
-30 115 116 0
-29 -86 104 0
-29 -33 -78 0
-29 78 -128 0
-28 -36 62 0
-28 35 -78 0
-28 88 -105 0
-27 -82 114 0
-27 -74 -131 0
-27 -46 136 0
-27 57 81 0
-25 -61 -127 0
-25 72 -75 0
-25 85 -97 0
-24 -113 125 0
-24 -44 -49 0
-24 63 -121 0
-24 65 -90 0
-24 85 125 0
-24 110 -116 0
-23 -74 -126 0
-23 -70 106 0
-23 -65 -93 0
-23 47 99 0
-23 65 -90 0
-23 84 91 0
-23 109 137 0
-21 -61 90 0
-21 39 54 0
-20 31 48 0
-20 98 -121 0
-19 -42 49 0
-19 -36 64 0
-19 29 -106 0
-18 -68 -83 0
-18 -36 136 0
-18 31 102 0
-18 32 122 0
-18 107 -134 0
-17 -127 -133 0
-17 -56 -96 0
-17 -49 83 0
-17 -47 -53 0
-17 -40 -74 0
-17 -32 99 0
-17 18 -92 0
-17 31 -118 0
-17 76 -117 0
-17 85 96 0
-16 -81 136 0
-16 -73 89 0
-16 -54 123 0
-16 75 120 0
-16 79 124 0
-15 -79 -108 0
-15 -65 129 0
-15 -57 105 0
-15 -32 106 0
-15 27 98 0
-15 59 -87 0
-14 34 -70 0
-14 43 -55 0
-14 46 99 0
-14 80 102 0
-13 -87 98 0
-13 -26 -28 0
-13 75 -109 0
-12 -79 122 0
-12 -52 -114 0
-12 -26 100 0
-12 -23 -100 0
-12 -17 -119 0
-12 72 -83 0
-11 -91 136 0
-11 -74 84 0
-11 -37 -46 0
-11 -31 -82 0
-11 -17 129 0
-11 74 -125 0
-11 84 -116 0
-11 94 113 0
-11 97 -121 0
-11 111 -138 0
-10 -90 -135 0
-10 -72 129 0
-10 -25 -32 0
-10 19 48 0
-10 49 70 0
-10 61 136 0
-9 -107 -137 0
-9 -74 105 0
-9 -28 122 0
-9 -19 -67 0
-9 -16 126 0
-9 22 -41 0
-9 22 70 0
-9 22 126 0
-9 26 -27 0
-9 26 75 0
-9 27 -53 0
-9 27 87 0
-9 42 -116 0
-8 -25 65 0
-8 38 139 0
-8 101 106 0
-7 -106 -109 0
-7 -54 -63 0
-7 -16 81 0
-7 14 68 0
-7 67 99 0
-6 -103 -122 0
-6 -72 -103 0
-6 -24 -35 0
-6 9 -96 0
-6 14 65 0
-6 38 99 0
-6 49 121 0
-6 107 111 0
-5 -70 116 0
-5 23 -113 0
-5 30 -31 0
-5 34 -63 0
-5 53 -121 0
-5 72 -131 0
-5 72 -92 0
-4 -135 -140 0
-4 -35 -76 0
-4 -19 -36 0
-4 -18 -138 0
-4 114 -132 0
-3 -66 -140 0
-3 45 -126 0
-3 84 -99 0
-2 -73 91 0
-2 -45 -121 0
-2 6 104 0
-2 12 -29 0
-2 17 87 0
-2 60 65 0
-2 82 93 0
-2 112 -133 0
-2 116 -123 0
-1 -32 57 0
-1 -30 53 0
-1 -4 -121 0
-1 -2 96 0
-1 5 -44 0
-1 10 -137 0
-1 29 -53 0
-1 35 -41 0
-1 45 120 0
1 -49 75 0
1 -12 53 0
1 26 -49 0
1 69 -105 0
2 12 108 0
2 12 132 0
2 17 -101 0
2 25 -121 0
2 43 -98 0
2 71 -90 0
2 72 -96 0
3 -67 -120 0
3 25 50 0
3 107 128 0
3 124 -130 0
4 -15 -87 0
4 51 -135 0
4 63 110 0
4 66 -85 0
5 -127 -131 0
5 -76 98 0
5 -37 60 0
5 -18 -47 0
5 53 -125 0
6 -55 101 0
6 -10 -23 0
6 -9 -119 0
6 17 -103 0
6 19 104 0
6 36 -54 0
6 47 50 0
7 -87 127 0
7 -27 106 0
7 -16 -117 0
8 -71 72 0
8 -19 -122 0
8 10 12 0
9 -50 82 0
9 -30 -126 0
9 -21 -65 0
9 63 -109 0
10 -102 124 0
10 -67 77 0
10 82 -116 0
11 20 30 0
11 33 -51 0
12 -96 124 0
12 63 -109 0
12 64 131 0
12 68 -133 0
12 68 135 0
12 72 -100 0
13 -94 -125 0
13 -78 133 0
13 -77 102 0
13 -60 -65 0
13 38 75 0
13 43 -131 0
13 84 132 0
14 -54 59 0
14 -30 -130 0
14 15 -135 0
14 21 86 0
14 66 -81 0
15 -121 122 0
15 -103 -117 0
15 47 -97 0
15 56 -86 0
15 97 -101 0
15 127 137 0
16 -104 -125 0
16 -38 130 0
16 -25 95 0
16 39 -61 0
17 -129 -140 0
17 -88 -110 0
17 -36 -50 0
17 -34 -42 0
17 32 -108 0
17 54 -129 0
18 -109 135 0
18 -61 -93 0
18 -23 138 0
18 32 80 0
18 33 54 0
18 63 -137 0
18 92 116 0
18 122 129 0
19 -86 97 0
19 -51 87 0
19 -43 -66 0
19 32 64 0
20 35 -52 0
21 -83 135 0
21 -77 119 0
21 -55 56 0
21 -32 97 0
21 29 34 0
21 51 113 0
21 112 -137 0
22 38 87 0
23 -94 107 0
23 -85 134 0
23 -38 55 0
23 -26 64 0
23 37 62 0
23 113 129 0
24 -112 123 0
24 -55 -59 0
24 34 73 0
24 38 -39 0
24 42 103 0
25 -57 71 0
25 -51 138 0
25 37 94 0
25 82 107 0
26 -60 -87 0
26 -28 48 0
26 32 89 0
26 53 70 0
27 -28 117 0
27 69 -92 0
27 78 118 0
28 -86 124 0
28 -30 112 0
28 -29 -50 0
28 59 130 0
29 -114 134 0
29 -37 59 0
29 66 -111 0
29 82 -99 0
30 -38 105 0
30 67 92 0
30 84 106 0
31 -84 -109 0
31 34 120 0
31 71 -137 0
31 116 119 0
32 -91 121 0
32 -44 79 0
32 -43 -67 0
32 -41 -96 0
32 34 96 0
32 61 -132 0
32 94 -124 0
33 -76 -133 0
33 -55 63 0
33 -53 82 0
33 87 -110 0
33 100 114 0
34 -124 -139 0
34 81 91 0
35 -51 74 0
35 -50 -115 0
35 53 59 0
36 -85 138 0
36 -44 -86 0
36 52 80 0
36 59 93 0
36 71 107 0
36 95 131 0
37 -69 107 0
37 -65 -114 0
38 -89 -132 0
38 -72 -95 0
38 -57 -116 0
38 -42 50 0
38 41 58 0
38 105 140 0
39 -98 128 0
39 -56 -128 0
39 -56 63 0
39 -50 -64 0
39 40 -69 0
39 65 -91 0
40 -136 139 0
40 -74 -135 0
40 43 116 0
40 53 -133 0
40 70 -98 0
40 71 -91 0
40 105 -107 0
41 -123 138 0
41 -96 -135 0
41 -83 -136 0
41 56 -127 0
41 56 -92 0
42 -99 -105 0
42 -83 -132 0
42 -72 -97 0
44 -50 -72 0
44 57 -123 0
44 94 140 0
44 106 -112 0
45 -68 -134 0
45 -60 88 0
45 61 -83 0
46 -92 -95 0
46 -68 126 0
46 -57 87 0
46 69 -86 0
46 102 128 0
47 -91 -138 0
47 67 -99 0
48 -104 129 0
49 -62 -102 0
49 77 -96 0
50 -99 -139 0
50 -86 -120 0
50 73 77 0
51 -71 110 0
52 -72 125 0
52 -54 -102 0
52 66 80 0
52 83 139 0
52 112 -120 0
53 64 -77 0
53 93 -138 0
53 98 -118 0
54 66 128 0
54 69 104 0
54 70 92 0
54 82 -101 0
55 -117 137 0
55 -82 117 0
55 68 -136 0
55 77 84 0
56 -97 -105 0
56 -87 95 0
56 -67 -134 0
56 64 -86 0
56 88 -130 0
57 -118 136 0
57 -96 -127 0
57 77 84 0
58 -70 128 0
58 -63 86 0
58 -59 92 0
59 -84 132 0
60 -80 -124 0
60 -74 -106 0
60 119 135 0
61 -83 118 0
61 -75 115 0
61 65 68 0
62 78 135 0
63 74 101 0
64 -127 131 0
64 -116 -126 0
65 -110 -121 0
65 -103 -140 0
66 -100 115 0
67 76 133 0
68 -77 134 0
68 107 137 0
69 90 -118 0
69 117 137 0
71 -89 -91 0
73 -93 110 0
73 -87 110 0
74 79 -97 0
75 86 -132 0
77 115 -129 0
78 -105 -125 0
79 -86 -135 0
79 -86 118 0
81 -84 -125 0
82 -93 -119 0
83 -84 116 0
83 106 -138 0
84 112 -133 0
86 -122 -140 0
86 -118 122 0
86 -112 -127 0
86 -93 -127 0
87 -93 94 0
88 -100 -101 0
88 110 -137 0
90 98 -119 0
91 -105 139 0
95 101 -138 0
96 -102 125 0
99 102 119 0
100 -101 -132 0
101 -125 -140 0
101 -108 -113 0
102 -108 -121 0
104 106 126 0
104 110 -119 0
105 127 128 0
107 -109 -133 0
108 -128 134 0
110 -120 135 0
115 133 138 0
117 -133 137 0
121 -134 -140 0
