p cnf 150 638
-136 147 -150 0
-126 -130 -149 0
-121 -132 139 0
-121 123 -144 0
-120 -136 139 0
-120 132 -149 0
-119 -133 -141 0
-114 132 -133 0
-112 141 -148 0
-111 -124 -138 0
-111 -123 134 0
-109 137 140 0
-108 -125 127 0
-107 136 -145 0
-106 116 139 0
-104 -145 -147 0
-104 124 139 0
-103 105 132 0
-102 -123 -128 0
-101 -134 -144 0
-100 115 -150 0
-100 116 137 0
-99 -134 142 0
-99 -129 147 0
-98 146 150 0
-97 -104 -121 0
-94 -100 -133 0
-92 113 140 0
-89 -92 -120 0
-89 97 100 0
-88 -100 142 0
-88 126 132 0
-87 -94 109 0
-87 122 -141 0
-86 -106 -143 0
-85 -106 -113 0
-85 -99 150 0
-82 -107 136 0
-82 126 -137 0
-81 -104 145 0
-81 111 -113 0
-80 -84 -117 0
-79 115 -137 0
-77 85 142 0
-77 111 127 0
-76 -117 127 0
-76 -111 116 0
-76 -90 -142 0
-75 -85 -104 0
-75 83 -103 0
-75 88 -127 0
-75 114 -146 0
-74 -119 143 0
-74 -97 -134 0
-72 -110 146 0
-72 -91 93 0
-72 -77 134 0
-71 -128 135 0
-71 -100 -119 0
-70 -111 127 0
-70 80 121 0
-70 105 114 0
-69 -88 134 0
-69 71 -93 0
-69 125 131 0
-68 -78 -140 0
-67 -81 93 0
-66 -145 150 0
-66 -133 -147 0
-66 -94 143 0
-66 82 99 0
-65 131 -141 0
-64 -101 -145 0
-63 -117 -138 0
-63 -69 -145 0
-63 -65 90 0
-62 -77 -114 0
-61 116 -136 0
-61 121 146 0
-60 67 104 0
-60 100 132 0
-60 107 -119 0
-59 68 128 0
-59 84 -145 0
-58 -103 137 0
-58 -66 80 0
-58 59 -133 0
-58 67 -143 0
-57 87 -138 0
-55 -124 137 0
-55 -108 111 0
-55 -98 145 0
-55 -96 -149 0
-55 74 -103 0
-55 77 -110 0
-54 -68 87 0
-53 -90 103 0
-53 61 113 0
-53 97 -102 0
-53 107 149 0
-52 -79 92 0
-51 -93 -97 0
-50 -120 142 0
-50 74 109 0
-50 111 112 0
-48 -92 105 0
-47 -102 -114 0
-47 -68 -119 0
-47 -54 -126 0
-46 -93 100 0
-46 84 -86 0
-46 99 -105 0
-45 -49 84 0
-45 80 -123 0
-45 89 101 0
-44 -64 80 0
-43 -56 -92 0
-43 -54 -148 0
-43 -49 -108 0
-43 44 140 0
-43 54 142 0
-42 -96 -133 0
-42 -91 -143 0
-42 -63 -112 0
-42 -58 125 0
-42 54 -94 0
-41 -74 -103 0
-41 -73 122 0
-41 49 -81 0
-40 -109 139 0
-40 -70 129 0
-40 -47 133 0
-40 60 -129 0
-40 71 -73 0
-39 -133 142 0
-38 -90 149 0
-38 -41 139 0
-38 101 -109 0
-38 105 124 0
-37 -111 147 0
-37 -74 136 0
-37 48 109 0
-36 -103 -142 0
-36 -94 -122 0
-36 -70 103 0
-36 -67 127 0
-36 91 -145 0
-35 -69 -119 0
-35 41 65 0
-34 -141 -145 0
-34 105 108 0
-33 58 -84 0
-33 70 -81 0
-33 106 -123 0
-32 -100 -115 0
-32 -91 -147 0
-32 -55 -81 0
-32 34 -93 0
-31 -64 98 0
-31 -59 124 0
-31 -55 -103 0
-31 -35 -78 0
-31 37 -123 0
-31 68 -74 0
-30 -43 107 0
-30 34 131 0
-30 59 -100 0
-30 75 120 0
-30 81 84 0
-30 89 -102 0
-29 -72 -74 0
-29 85 -96 0
-29 93 119 0
-29 95 145 0
-29 97 125 0
-29 98 -110 0
-28 -136 -147 0
-28 -100 140 0
-28 38 128 0
-28 68 90 0
-28 74 118 0
-28 100 138 0
-27 -125 149 0
-27 -53 -98 0
-27 -34 148 0
-27 39 49 0
-27 70 -99 0
-27 71 -147 0
-27 81 143 0
-26 -46 123 0
-26 86 129 0
-25 -75 107 0
-25 -26 -123 0
-25 54 100 0
-25 59 136 0
-24 -81 -104 0
-24 -62 -63 0
-24 55 -90 0
-24 67 -139 0
-24 71 82 0
-24 104 145 0
-23 -71 -95 0
-23 -45 -114 0
-23 -44 75 0
-23 64 -132 0
-23 86 96 0
-23 104 106 0
-22 -85 125 0
-22 -58 -68 0
-22 46 -50 0
-22 50 131 0
-22 111 127 0
-21 -39 79 0
-21 -29 -34 0
-20 -118 -126 0
-20 -73 99 0
-20 -32 -146 0
-20 -22 136 0
-19 -123 127 0
-19 -87 144 0
-19 -23 66 0
-19 35 67 0
-19 102 123 0
-18 -126 136 0
-18 -39 -104 0
-17 -129 -131 0
-17 -75 107 0
-17 -72 141 0
-17 -66 -67 0
-17 -22 -76 0
-17 81 -132 0
-16 -21 121 0
-15 -34 -109 0
-15 61 -67 0
-14 -57 -139 0
-14 -16 73 0
-14 59 -128 0
-14 69 79 0
-14 71 -81 0
-14 108 -150 0
-13 -110 149 0
-13 29 -123 0
-13 109 -150 0
-12 -124 150 0
-12 -47 128 0
-12 -34 -123 0
-12 22 147 0
-12 70 -89 0
-12 77 -102 0
-11 -68 118 0
-11 -32 53 0
-11 -25 -78 0
-11 31 -136 0
-11 51 -79 0
-11 88 -125 0
-11 101 -136 0
-10 -95 120 0
-10 -57 104 0
-10 -46 -77 0
-10 -12 40 0
-10 34 -128 0
-10 36 -57 0
-9 -96 -115 0
-9 -87 -149 0
-9 -72 -119 0
-9 -50 103 0
-9 -22 -57 0
-9 11 59 0
-9 57 91 0
-9 95 148 0
-8 -108 -114 0
-8 -108 127 0
-8 -92 -109 0
-8 -41 -46 0
-8 16 135 0
-8 17 69 0
-8 33 -95 0
-8 58 109 0
-8 69 -73 0
-7 78 103 0
-6 -60 115 0
-6 -57 82 0
-6 -19 40 0
-6 22 -131 0
-6 48 66 0
-5 -53 145 0
-5 -19 44 0
-5 41 -88 0
-5 81 118 0
-5 83 88 0
-4 18 142 0
-4 55 132 0
-4 67 75 0
-4 100 115 0
-3 8 -145 0
-3 62 -99 0
-2 -17 86 0
-2 -8 -101 0
-2 -5 -146 0
-2 17 -103 0
-2 23 -138 0
-2 32 -69 0
-2 81 87 0
-1 -126 138 0
-1 -46 124 0
-1 -35 72 0
-1 3 -110 0
-1 14 82 0
1 -79 82 0
1 -20 138 0
1 64 -132 0
2 -134 -140 0
2 -98 122 0
2 -86 -130 0
2 14 -31 0
2 16 -34 0
2 47 -65 0
2 52 -60 0
3 -142 -145 0
3 -116 -134 0
3 -103 146 0
3 5 -147 0
3 12 42 0
3 67 85 0
3 94 -121 0
3 106 146 0
4 -55 -101 0
4 -5 66 0
4 14 128 0
4 75 100 0
5 -6 -12 0
5 23 -46 0
5 25 -43 0
5 80 81 0
6 -86 137 0
6 -25 -150 0
6 -12 -16 0
7 10 18 0
7 105 112 0
7 118 119 0
8 -83 -115 0
8 -24 -76 0
8 11 100 0
8 24 77 0
8 39 119 0
8 113 131 0
8 123 -130 0
9 -71 -135 0
9 -71 146 0
9 -70 143 0
9 -50 82 0
9 -19 135 0
9 18 116 0
9 22 -127 0
9 23 -144 0
9 136 -146 0
10 -141 -149 0
10 -68 -96 0
10 -39 55 0
10 -11 122 0
11 -108 -134 0
11 -41 -78 0
11 -38 140 0
11 -33 -72 0
11 -28 142 0
11 -27 77 0
11 68 -141 0
12 -69 105 0
12 -54 101 0
12 -53 -62 0
12 33 99 0
12 76 -93 0
13 -83 -123 0
13 -67 -97 0
13 -60 124 0
13 -45 134 0
13 -39 114 0
13 19 -121 0
13 46 -54 0
13 53 -67 0
13 106 119 0
13 124 -137 0
14 -125 -145 0
14 30 -135 0
15 -77 146 0
15 -58 130 0
15 -47 -62 0
15 -19 65 0
15 38 58 0
15 95 -97 0
16 -115 117 0
16 -105 107 0
16 -59 82 0
16 -56 57 0
16 -26 -110 0
16 -23 -129 0
16 56 -118 0
16 107 147 0
16 122 -136 0
17 -73 -132 0
17 -34 -76 0
17 37 135 0
18 -132 -144 0
18 -50 -77 0
18 22 49 0
18 37 -82 0
18 104 -137 0
19 -135 146 0
19 -50 113 0
19 -23 47 0
19 21 -103 0
19 37 113 0
19 60 -133 0
19 63 -90 0
19 70 103 0
21 -58 101 0
21 -33 -68 0
21 -26 -72 0
21 140 -141 0
22 39 58 0
22 94 -123 0
22 102 -135 0
22 102 116 0
22 105 -128 0
23 -100 -132 0
23 -62 -104 0
23 -44 -141 0
23 28 -144 0
23 38 82 0
23 49 70 0
23 75 -131 0
23 97 150 0
24 -83 -139 0
24 -51 -140 0
24 35 86 0
24 35 94 0
24 39 -95 0
24 65 -73 0
24 115 -143 0
25 -147 150 0
25 -56 150 0
25 -53 -135 0
25 37 -48 0
25 41 70 0
25 48 -146 0
25 90 -119 0
25 97 -144 0
25 100 150 0
25 116 -135 0
26 -102 -132 0
26 -81 -139 0
26 -61 -132 0
26 -34 141 0
26 90 -103 0
26 137 144 0
27 -109 145 0
27 -83 130 0
27 -67 -142 0
27 -63 89 0
27 -48 -116 0
27 36 137 0
27 121 146 0
28 82 -123 0
28 105 125 0
29 -93 -113 0
29 -79 100 0
29 -78 -109 0
29 -63 -134 0
29 -45 118 0
29 -37 -79 0
29 -33 -137 0
29 39 -112 0
30 -90 -104 0
30 -78 -106 0
30 -70 -77 0
30 84 148 0
31 -77 -97 0
31 44 -70 0
31 47 122 0
32 -72 -130 0
32 -33 -34 0
32 61 -127 0
33 -73 -126 0
33 -71 124 0
33 -67 78 0
33 40 100 0
33 90 135 0
34 -67 -78 0
34 -50 140 0
34 -47 96 0
34 -44 -96 0
34 35 129 0
34 58 -150 0
34 62 109 0
34 76 80 0
34 107 -130 0
35 -56 100 0
35 39 -117 0
36 -96 120 0
36 -63 150 0
36 -60 100 0
36 -43 134 0
36 65 -75 0
36 135 136 0
37 -67 -96 0
37 65 -77 0
37 69 -119 0
37 69 -72 0
37 99 -100 0
37 104 -137 0
39 66 127 0
39 120 149 0
40 -93 113 0
40 -48 105 0
40 133 -142 0
41 -88 147 0
41 64 -88 0
42 -130 -131 0
42 -75 77 0
42 45 -93 0
42 100 -106 0
43 -121 -141 0
43 -84 129 0
43 46 50 0
43 69 -111 0
43 71 117 0
44 -60 110 0
44 73 -77 0
45 -49 -82 0
46 -57 -116 0
46 50 117 0
46 70 -110 0
47 -114 -126 0
47 65 -72 0
47 87 96 0
47 142 -145 0
48 -66 -112 0
48 67 -133 0
48 67 -129 0
48 92 -101 0
50 -65 -116 0
50 52 -134 0
50 55 144 0
50 85 -109 0
51 -102 -121 0
51 -81 -83 0
51 -72 111 0
51 62 84 0
51 64 -142 0
51 110 149 0
52 -119 120 0
52 -75 -104 0
52 -62 90 0
52 76 83 0
53 -111 -125 0
53 -78 -140 0
53 79 -80 0
53 83 143 0
53 95 96 0
53 110 -142 0
54 -129 -138 0
54 -121 140 0
54 127 130 0
54 130 -137 0
55 64 -126 0
55 121 122 0
56 -76 84 0
57 -69 -97 0
57 -58 -97 0
57 93 -100 0
58 -133 135 0
58 -96 108 0
58 87 143 0
58 98 147 0
59 -69 -105 0
59 -69 104 0
59 148 -149 0
60 91 -136 0
60 95 -114 0
60 118 -134 0
61 -78 -107 0
62 72 128 0
63 -67 136 0
63 81 89 0
65 -87 118 0
65 86 92 0
65 104 -146 0
66 67 71 0
66 91 -106 0
66 112 125 0
67 -117 135 0
67 -89 -96 0
67 -79 -136 0
67 94 134 0
69 -132 -148 0
69 -106 119 0
69 -99 -110 0
70 -95 -118 0
70 77 143 0
70 99 101 0
71 -91 135 0
71 -86 -142 0
72 -106 141 0
72 -94 -133 0
72 -80 103 0
74 103 119 0
74 116 136 0
75 94 146 0
76 -83 -110 0
76 -82 -124 0
76 -79 -139 0
78 -140 147 0
78 -116 -125 0
79 88 -109 0
80 97 130 0
81 -109 -141 0
83 -87 98 0
84 -125 -134 0
84 -94 -139 0
84 130 141 0
85 111 -127 0
87 117 -146 0
90 -107 -133 0
90 103 112 0
96 -129 147 0
97 -104 -110 0
103 -118 141 0
105 -121 145 0
105 -112 -114 0
105 106 107 0
105 111 -144 0
107 -134 138 0
111 115 138 0
113 -122 136 0
114 -128 135 0
127 -129 -139 0
132 -133 140 0
141 142 -144 0
