p cnf 30 128
-21 -22 25 0
-18 23 25 0
-17 -25 27 0
-16 22 -30 0
-16 23 29 0
-15 -24 30 0
-15 -22 -25 0
-15 -17 23 0
-15 22 -30 0
-15 27 29 0
-14 21 -22 0
-13 -14 -22 0
-13 16 25 0
-13 21 28 0
-12 14 -17 0
-12 23 28 0
-11 -20 -27 0
-11 20 -23 0
-11 20 27 0
-11 23 29 0
-10 14 23 0
-9 -20 -27 0
-9 20 26 0
-8 -17 19 0
-8 -9 22 0
-8 15 16 0
-8 24 -27 0
-7 -20 -27 0
-7 14 -15 0
-7 15 28 0
-6 -25 -27 0
-6 -16 -18 0
-6 -10 19 0
-6 15 -25 0
-5 -13 -30 0
-5 -9 13 0
-5 -8 15 0
-5 -6 -11 0
-5 15 -26 0
-5 17 -26 0
-5 22 26 0
-4 -13 19 0
-4 -9 -20 0
-4 -8 -22 0
-3 -11 20 0
-3 19 -20 0
-2 -15 -25 0
-2 -5 13 0
-2 6 -7 0
-2 7 -29 0
-2 25 26 0
-1 -5 14 0
-1 -3 -23 0
-1 5 27 0
-1 7 28 0
-1 10 29 0
-1 18 29 0
-1 19 21 0
1 8 25 0
1 18 -19 0
1 19 23 0
2 -13 28 0
2 -6 24 0
2 6 13 0
2 6 30 0
2 9 30 0
2 11 -28 0
2 17 -22 0
2 21 -27 0
3 -27 -30 0
3 -21 29 0
3 -20 27 0
3 -13 30 0
3 -4 30 0
3 6 -16 0
3 6 -14 0
3 20 26 0
4 -26 27 0
4 -17 19 0
4 -14 25 0
4 -12 -16 0
4 -10 25 0
4 6 13 0
4 9 -23 0
4 9 21 0
4 11 -25 0
4 13 -29 0
5 -17 -27 0
5 -13 -16 0
5 -10 -20 0
5 -10 30 0
5 8 -11 0
6 -10 27 0
6 -8 -20 0
6 -7 21 0
7 -21 -26 0
7 -11 -20 0
8 -15 17 0
8 -10 29 0
8 9 25 0
8 10 22 0
8 25 26 0
8 28 30 0
9 11 30 0
9 12 -19 0
9 22 -29 0
10 -25 28 0
10 -12 23 0
10 -11 22 0
11 15 16 0
11 21 26 0
12 -21 23 0
12 -18 -21 0
12 19 -28 0
13 -16 25 0
13 -15 -26 0
13 -15 19 0
13 -14 -22 0
13 17 -29 0
14 15 -26 0
15 -19 22 0
15 17 19 0
16 -18 -23 0
17 -25 -30 0
17 -21 29 0
17 -19 23 0
21 23 25 0
22 25 26 0
