p cnf 55 234
-43 44 -53 0
-41 -46 -54 0
-41 51 -52 0
-38 -45 -48 0
-37 42 -49 0
-36 -42 53 0
-34 38 -53 0
-34 40 51 0
-33 38 -50 0
-33 38 -47 0
-33 41 42 0
-31 -40 -54 0
-31 -33 46 0
-31 41 -43 0
-30 -42 54 0
-30 -39 -42 0
-29 38 -53 0
-28 -31 52 0
-28 48 -52 0
-27 -34 -43 0
-26 -30 39 0
-26 48 49 0
-25 30 -42 0
-25 33 -50 0
-25 34 44 0
-24 -49 -52 0
-23 -48 51 0
-23 -37 41 0
-23 -29 -53 0
-23 -29 -37 0
-22 -38 -46 0
-22 -37 -50 0
-21 -43 44 0
-21 -33 46 0
-21 22 23 0
-21 36 -45 0
-20 -29 40 0
-20 29 -42 0
-18 -24 -27 0
-18 21 23 0
-18 35 -39 0
-17 20 31 0
-16 -53 55 0
-16 -43 50 0
-16 -43 51 0
-16 37 38 0
-16 41 52 0
-15 -45 48 0
-15 49 -50 0
-14 -40 -45 0
-14 -28 -33 0
-14 -21 34 0
-14 24 27 0
-13 15 40 0
-13 28 37 0
-13 39 -40 0
-12 -34 51 0
-12 -18 54 0
-12 14 15 0
-11 -28 -54 0
-10 -45 53 0
-10 17 -36 0
-10 19 -36 0
-9 -27 44 0
-9 -24 41 0
-9 32 -52 0
-8 17 -29 0
-8 21 46 0
-7 -34 43 0
-7 -18 32 0
-7 10 45 0
-7 14 27 0
-7 38 -53 0
-7 42 -44 0
-6 -41 -47 0
-6 -19 -25 0
-6 11 51 0
-6 12 19 0
-6 28 -32 0
-5 -31 -38 0
-5 -28 51 0
-5 -27 50 0
-5 10 -28 0
-5 20 -27 0
-4 -8 47 0
-4 6 27 0
-4 21 -36 0
-3 -28 38 0
-3 -20 29 0
-3 -17 55 0
-3 -10 41 0
-3 -10 55 0
-3 8 -24 0
-3 16 -21 0
-2 -40 -41 0
-2 -37 54 0
-2 7 -36 0
-2 17 -51 0
-2 21 37 0
-2 33 -40 0
-2 42 55 0
-1 -20 -37 0
-1 -12 -51 0
-1 -10 -50 0
-1 -10 -30 0
-1 -9 30 0
-1 11 -38 0
-1 20 23 0
1 -26 27 0
1 -25 -31 0
1 -25 33 0
1 -11 16 0
1 42 -43 0
1 43 46 0
2 -15 48 0
2 17 35 0
2 20 -47 0
2 43 -48 0
3 -36 55 0
3 -24 -52 0
3 -19 27 0
3 9 -35 0
3 26 37 0
4 -5 -43 0
4 11 -29 0
4 14 26 0
4 17 -53 0
4 22 38 0
4 34 53 0
5 -40 -44 0
5 -37 47 0
5 -8 14 0
5 7 -51 0
5 28 -44 0
5 44 -47 0
6 -35 50 0
6 -34 -51 0
6 -21 -50 0
6 -10 35 0
6 -7 -52 0
6 13 -18 0
6 20 39 0
6 21 -33 0
6 22 -44 0
6 31 -50 0
7 -40 44 0
7 -37 50 0
7 -36 -48 0
7 -27 -43 0
7 14 33 0
7 20 -21 0
8 -17 55 0
8 -13 -50 0
8 14 42 0
8 17 -54 0
8 19 -24 0
8 20 -52 0
9 -20 -38 0
9 37 53 0
10 -29 -55 0
10 -12 16 0
10 14 15 0
10 18 23 0
10 21 36 0
10 42 49 0
11 -15 -43 0
11 13 39 0
11 15 -32 0
11 16 -41 0
11 17 -39 0
12 -34 41 0
12 -19 -29 0
12 21 -29 0
12 35 45 0
13 22 -46 0
13 42 44 0
14 -42 55 0
14 -37 49 0
14 -18 45 0
14 17 18 0
14 38 -55 0
14 41 42 0
14 49 -52 0
15 -37 -54 0
15 -22 -26 0
15 17 -18 0
15 18 30 0
15 33 -35 0
15 44 54 0
16 -32 46 0
16 -26 -54 0
16 41 -46 0
17 -20 27 0
17 19 25 0
18 -21 25 0
18 30 54 0
19 -45 -49 0
19 -41 -54 0
19 -40 46 0
19 -20 -53 0
19 26 -47 0
20 -45 48 0
20 37 49 0
21 -27 49 0
21 35 49 0
22 -31 -47 0
22 -29 34 0
22 -25 -26 0
22 -23 27 0
22 26 41 0
23 -28 -54 0
23 42 50 0
24 -27 -28 0
24 42 -47 0
25 38 43 0
25 39 55 0
26 -53 54 0
28 42 43 0
29 -38 55 0
29 39 40 0
30 35 -36 0
31 -36 51 0
32 -38 42 0
34 -40 -42 0
34 37 -50 0
35 -40 53 0
37 -39 42 0
37 40 49 0
38 -52 -54 0
38 44 -51 0
39 -53 55 0
41 -47 -54 0
44 -49 50 0
44 54 -55 0
