p cnf 32 136
-26 -27 -32 0
-25 29 -31 0
-24 -25 -28 0
-24 29 32 0
-22 -28 29 0
-20 -25 26 0
-20 26 30 0
-17 -22 -23 0
-17 -18 -29 0
-17 20 -25 0
-17 25 30 0
-14 -24 -26 0
-12 -14 22 0
-12 20 31 0
-12 23 25 0
-12 28 -30 0
-11 -28 -31 0
-11 -24 25 0
-11 12 23 0
-11 13 -25 0
-10 -21 23 0
-10 -14 27 0
-10 23 -31 0
-10 29 -30 0
-9 15 -27 0
-9 17 19 0
-8 -18 29 0
-8 17 -29 0
-7 -26 29 0
-7 -25 29 0
-7 -16 32 0
-7 -9 -30 0
-7 10 -25 0
-7 22 32 0
-6 -16 28 0
-6 14 -24 0
-5 -12 -20 0
-5 -8 15 0
-5 -6 -22 0
-5 8 31 0
-4 -27 -29 0
-4 -13 -14 0
-4 10 -26 0
-4 13 23 0
-4 14 16 0
-3 -24 -25 0
-3 -9 -11 0
-3 4 -31 0
-3 4 -7 0
-3 6 22 0
-3 10 -14 0
-3 14 -26 0
-2 -26 -30 0
-2 -16 25 0
-2 -8 25 0
-2 -5 -8 0
-2 -3 13 0
-2 -3 28 0
-2 5 -6 0
-2 5 20 0
-2 10 -22 0
-2 15 16 0
-1 -16 27 0
-1 -12 18 0
-1 -10 -14 0
-1 -7 20 0
-1 -3 -8 0
-1 3 -14 0
-1 3 16 0
-1 4 -13 0
-1 8 15 0
-1 21 25 0
1 -17 -30 0
1 18 29 0
2 -15 -20 0
2 -10 25 0
2 -8 -22 0
3 -27 -30 0
3 -10 -17 0
3 12 -30 0
3 19 26 0
4 -12 20 0
4 -8 -30 0
4 -6 14 0
4 -6 19 0
4 -5 -18 0
4 5 -10 0
4 17 32 0
4 18 23 0
5 -19 28 0
5 -10 -32 0
5 7 8 0
5 9 16 0
5 20 -30 0
6 -17 -20 0
6 -16 -22 0
6 11 26 0
7 -16 31 0
7 -9 17 0
7 17 31 0
7 21 26 0
8 -23 -28 0
8 10 -24 0
8 16 -19 0
9 -18 -20 0
9 10 22 0
9 12 -18 0
9 28 30 0
10 -15 25 0
10 11 -32 0
10 15 23 0
10 16 -28 0
10 17 -20 0
11 -13 -15 0
11 13 -15 0
11 19 -27 0
11 25 -31 0
12 -23 -27 0
12 14 24 0
12 18 -28 0
12 19 29 0
13 -24 -28 0
13 -23 30 0
13 18 19 0
13 21 -24 0
15 21 -31 0
16 -24 28 0
16 19 31 0
17 23 24 0
17 25 29 0
18 -29 -30 0
18 25 28 0
20 21 -29 0
24 -25 30 0
25 -27 -31 0
26 30 -32 0
