p cnf 120 510
-108 115 -116 0
-89 -116 -118 0
-89 106 -118 0
-88 115 119 0
-86 -107 -110 0
-85 -101 115 0
-85 -99 -109 0
-84 118 120 0
-81 -85 104 0
-81 89 -112 0
-80 -84 105 0
-80 84 85 0
-77 -102 -117 0
-77 86 -103 0
-75 101 -106 0
-73 77 -82 0
-73 105 -116 0
-73 113 -114 0
-72 97 -107 0
-71 89 118 0
-70 73 102 0
-69 -72 -110 0
-69 74 -110 0
-69 92 119 0
-66 -105 -114 0
-66 82 -115 0
-66 109 116 0
-64 -76 -111 0
-63 -93 -114 0
-62 -92 -111 0
-62 82 -91 0
-61 -105 -107 0
-60 70 114 0
-60 71 109 0
-59 66 -99 0
-58 60 105 0
-57 -63 87 0
-57 -62 -109 0
-57 -61 71 0
-57 -58 114 0
-57 61 -91 0
-57 100 -120 0
-54 -88 -110 0
-53 94 -97 0
-53 102 -108 0
-52 -61 -73 0
-52 -57 114 0
-52 65 -116 0
-52 77 78 0
-52 106 108 0
-51 -97 -100 0
-51 -73 119 0
-51 -61 75 0
-51 59 107 0
-49 80 -104 0
-48 -57 90 0
-47 -81 -85 0
-47 -53 109 0
-47 95 -96 0
-46 -49 -69 0
-46 99 -112 0
-45 -73 -90 0
-45 -71 -82 0
-45 85 105 0
-44 -59 -96 0
-44 -54 118 0
-43 -65 97 0
-43 55 -104 0
-43 98 -102 0
-42 -65 -86 0
-42 -56 -72 0
-42 55 -113 0
-41 -50 -84 0
-41 -46 55 0
-41 50 118 0
-41 73 -114 0
-40 -83 116 0
-40 -54 -120 0
-40 50 55 0
-39 -91 113 0
-39 -50 76 0
-39 69 -100 0
-38 47 -62 0
-38 60 114 0
-38 80 99 0
-38 102 -120 0
-37 -53 82 0
-36 -93 -110 0
-36 39 69 0
-36 64 -110 0
-36 100 -108 0
-35 -66 108 0
-35 75 112 0
-35 79 81 0
-35 103 -117 0
-34 46 90 0
-34 53 69 0
-34 57 70 0
-34 80 100 0
-34 81 100 0
-33 -101 -120 0
-33 -70 -82 0
-33 100 -102 0
-32 -58 111 0
-32 -54 -73 0
-32 -41 -53 0
-32 -40 109 0
-32 44 -98 0
-32 82 120 0
-32 86 -106 0
-31 -64 115 0
-31 95 113 0
-30 -81 88 0
-30 -48 -50 0
-30 46 -116 0
-30 59 -100 0
-29 -82 87 0
-29 -64 -75 0
-29 -50 117 0
-28 -54 -104 0
-28 -30 -74 0
-27 -73 -97 0
-27 45 -55 0
-27 45 -53 0
-26 -94 111 0
-26 -75 81 0
-26 -59 110 0
-26 67 119 0
-25 -87 90 0
-25 32 -73 0
-25 63 -107 0
-24 -85 -110 0
-24 -40 59 0
-24 27 85 0
-24 56 102 0
-23 49 65 0
-23 73 -99 0
-23 81 90 0
-22 -77 99 0
-22 -64 -102 0
-22 -42 95 0
-22 -30 -74 0
-21 -112 -119 0
-21 -104 -112 0
-21 -76 113 0
-21 -45 -48 0
-21 -35 -69 0
-21 26 58 0
-21 51 52 0
-21 59 -97 0
-20 21 -116 0
-20 28 -64 0
-20 30 76 0
-20 35 59 0
-20 42 -65 0
-19 -48 58 0
-19 -40 90 0
-19 32 -44 0
-19 77 -112 0
-18 -82 103 0
-18 -74 87 0
-18 -36 -92 0
-18 -20 -66 0
-18 47 98 0
-18 72 75 0
-18 107 111 0
-17 -68 110 0
-17 19 -39 0
-17 22 -117 0
-17 49 71 0
-17 69 118 0
-17 111 -120 0
-16 -77 98 0
-16 -59 105 0
-16 -42 -56 0
-16 -41 -90 0
-15 -66 -71 0
-15 -61 -106 0
-15 -28 -106 0
-15 76 -86 0
-14 45 -59 0
-14 71 113 0
-14 99 101 0
-13 -73 91 0
-13 -31 92 0
-12 -39 93 0
-12 -24 113 0
-12 16 72 0
-12 60 -93 0
-11 -57 96 0
-11 17 -112 0
-11 17 42 0
-11 32 -74 0
-11 35 54 0
-10 54 105 0
-9 -42 50 0
-9 -13 79 0
-9 33 -52 0
-9 42 75 0
-9 47 55 0
-9 76 -97 0
-8 -97 -114 0
-8 -81 -104 0
-8 -76 99 0
-8 -51 -90 0
-8 -17 19 0
-8 25 -81 0
-8 25 42 0
-8 26 45 0
-8 38 -93 0
-7 -69 95 0
-7 -63 -116 0
-7 -26 42 0
-7 -20 63 0
-7 19 -113 0
-7 81 116 0
-6 -56 73 0
-6 -25 45 0
-6 -22 83 0
-6 28 101 0
-6 49 -96 0
-5 -51 109 0
-5 -42 98 0
-5 24 54 0
-5 57 -91 0
-5 63 81 0
-4 -54 73 0
-4 9 99 0
-4 35 -116 0
-4 63 -88 0
-4 66 -104 0
-4 92 -103 0
-3 -62 -85 0
-3 -53 80 0
-3 -11 95 0
-3 5 -61 0
-3 11 -99 0
-3 21 44 0
-3 38 -108 0
-3 56 118 0
-3 77 119 0
-2 -85 120 0
-2 -69 -119 0
-2 -34 42 0
-2 19 95 0
-2 35 -82 0
-2 51 92 0
-2 88 100 0
-1 -69 102 0
-1 -50 -112 0
-1 -23 -87 0
-1 12 -113 0
-1 45 115 0
-1 54 94 0
-1 63 88 0
1 -38 -56 0
1 -25 96 0
1 -12 88 0
1 13 112 0
1 20 -47 0
1 44 71 0
1 60 -100 0
2 10 -28 0
3 -52 87 0
3 -44 66 0
3 -35 101 0
3 -34 -86 0
3 -19 86 0
3 -13 -114 0
3 -12 58 0
3 4 -55 0
3 41 72 0
3 110 -112 0
4 -19 -100 0
4 -5 -76 0
4 17 -79 0
4 34 45 0
4 54 -97 0
4 59 -119 0
5 -58 -70 0
5 -19 -96 0
5 29 38 0
5 58 -90 0
5 75 100 0
5 100 108 0
5 107 -119 0
6 -35 73 0
6 -28 98 0
6 15 -81 0
6 28 62 0
6 52 64 0
6 57 -104 0
6 70 -107 0
7 -91 97 0
7 -82 108 0
7 -47 97 0
7 -40 82 0
7 -36 -60 0
7 36 42 0
7 49 -87 0
7 80 82 0
8 -54 73 0
8 -49 -116 0
8 -27 79 0
8 -21 -47 0
8 -10 108 0
8 18 65 0
8 33 56 0
8 36 89 0
8 47 118 0
8 51 -99 0
9 -103 -117 0
9 -71 -84 0
9 -69 -90 0
9 -48 -81 0
9 -18 50 0
9 -17 64 0
9 10 -17 0
9 16 -85 0
9 25 -41 0
9 38 -99 0
10 11 56 0
10 49 79 0
11 -69 89 0
11 -62 63 0
11 -46 106 0
11 -45 -78 0
11 -30 96 0
11 16 54 0
11 29 34 0
11 72 -97 0
11 80 -110 0
12 -85 -87 0
12 -80 118 0
12 -31 45 0
12 55 104 0
13 -67 87 0
13 -46 -94 0
13 -36 -82 0
13 -35 -59 0
13 63 -109 0
14 -72 120 0
14 -44 113 0
14 -25 -100 0
14 35 75 0
14 98 99 0
15 -46 61 0
15 23 79 0
15 61 83 0
16 -51 77 0
16 -40 63 0
16 -25 -26 0
16 -21 53 0
16 28 67 0
16 36 99 0
16 40 67 0
16 71 111 0
16 104 119 0
17 -64 -65 0
17 -56 94 0
17 27 76 0
17 57 90 0
17 73 110 0
17 75 79 0
18 -88 110 0
18 -60 -80 0
18 -46 -116 0
18 -44 77 0
18 21 43 0
18 31 60 0
18 52 -80 0
19 -30 73 0
19 23 84 0
19 30 87 0
19 82 83 0
20 -82 97 0
20 22 -103 0
20 58 -59 0
20 58 98 0
21 -87 91 0
21 -26 -101 0
21 -24 95 0
21 33 70 0
21 65 -99 0
21 109 112 0
22 -42 -113 0
22 34 -111 0
22 42 -83 0
22 73 -105 0
23 -61 114 0
23 -52 -117 0
23 -42 -105 0
23 26 114 0
23 40 -60 0
24 32 -35 0
24 33 100 0
24 60 106 0
24 63 -103 0
25 -118 120 0
25 -47 53 0
25 87 -102 0
26 -36 84 0
27 -48 50 0
27 -41 -112 0
28 -62 -69 0
28 47 66 0
28 59 -109 0
28 76 109 0
30 -94 99 0
30 -82 -94 0
30 84 -111 0
31 -55 -74 0
32 48 -110 0
32 55 -84 0
32 91 -94 0
34 -82 85 0
35 -48 70 0
35 46 -61 0
35 50 -103 0
36 -77 80 0
36 -55 74 0
36 -46 115 0
36 40 -62 0
36 55 56 0
37 -86 95 0
37 -85 -96 0
37 -74 87 0
37 -55 -110 0
37 -48 101 0
37 69 92 0
38 -70 -112 0
38 -65 111 0
38 53 73 0
38 63 -70 0
38 68 -76 0
39 -79 96 0
39 -48 110 0
39 44 -50 0
39 66 -110 0
40 -65 -113 0
41 -106 -113 0
41 -102 119 0
41 60 75 0
41 92 104 0
42 -89 102 0
42 -79 92 0
42 -50 -89 0
42 55 -60 0
42 67 -114 0
43 -65 -70 0
43 55 -68 0
44 108 -117 0
45 -81 -107 0
45 -53 -70 0
46 -103 105 0
46 -82 110 0
46 -65 -93 0
46 -61 113 0
46 -55 88 0
46 48 54 0
46 79 -113 0
46 97 110 0
48 87 -119 0
49 -105 -109 0
49 58 -73 0
49 85 -105 0
50 80 -88 0
51 -88 -115 0
51 -75 105 0
51 -57 -68 0
51 60 84 0
52 -90 113 0
53 -79 100 0
53 -78 -83 0
53 58 -104 0
54 -100 -116 0
55 -66 -73 0
56 -87 -104 0
56 -81 107 0
56 65 115 0
57 -60 -82 0
58 -114 120 0
58 -81 113 0
58 89 -90 0
61 73 100 0
64 114 -116 0
66 88 -99 0
67 68 -92 0
68 -102 -108 0
68 -76 -105 0
68 106 -120 0
69 100 -102 0
72 -94 -118 0
72 73 92 0
74 -105 116 0
74 -102 111 0
74 80 111 0
75 -85 -105 0
75 85 117 0
77 -79 -109 0
77 104 -120 0
80 -86 -92 0
80 108 118 0
81 -110 115 0
81 87 -112 0
81 109 116 0
82 -85 -108 0
89 -92 -100 0
96 110 -114 0
105 -107 118 0
