p cnf 100 600
-91 92 -100 0
-88 -90 100 0
-79 -95 -99 0
-78 -88 -92 0
-78 84 97 0
-76 -83 -99 0
-74 -91 -93 0
-71 -91 98 0
-70 -81 -88 0
-69 -79 82 0
-67 -94 -96 0
-67 70 99 0
-66 -75 82 0
-66 76 -100 0
-66 96 98 0
-64 -86 92 0
-63 -64 -84 0
-63 66 -96 0
-63 77 -87 0
-63 82 -100 0
-62 79 -84 0
-62 84 98 0
-62 94 99 0
-61 96 -100 0
-60 -67 -72 0
-59 -70 -75 0
-57 -59 89 0
-57 -58 -99 0
-57 65 -100 0
-56 -63 -77 0
-55 58 83 0
-55 59 -98 0
-55 61 -87 0
-54 55 -99 0
-54 69 90 0
-53 -69 88 0
-53 -63 71 0
-52 -65 97 0
-52 60 -65 0
-51 75 79 0
-50 55 -69 0
-50 66 91 0
-49 -70 -78 0
-49 -69 -71 0
-49 -60 -84 0
-49 92 94 0
-47 -61 88 0
-47 -49 76 0
-47 49 89 0
-45 -72 95 0
-45 70 -74 0
-44 -51 -100 0
-43 -77 -99 0
-43 -62 96 0
-43 51 79 0
-43 60 -76 0
-43 70 71 0
-42 -66 80 0
-42 -63 -68 0
-42 70 -99 0
-41 -62 -96 0
-41 -61 86 0
-41 47 57 0
-41 57 -79 0
-41 65 -92 0
-41 98 -99 0
-40 -64 -89 0
-40 -58 -87 0
-40 -51 -66 0
-40 61 -67 0
-40 73 -87 0
-39 56 99 0
-39 63 87 0
-39 72 87 0
-38 -53 97 0
-38 -48 64 0
-38 70 74 0
-37 -38 44 0
-37 46 -79 0
-37 47 -60 0
-37 80 -89 0
-36 -67 -74 0
-36 -45 100 0
-36 55 -98 0
-36 67 96 0
-36 73 -90 0
-35 -73 -100 0
-35 36 -93 0
-35 40 -52 0
-35 49 -87 0
-35 92 96 0
-34 -82 -99 0
-34 60 100 0
-34 72 -77 0
-34 90 -99 0
-33 55 -88 0
-33 84 94 0
-33 87 90 0
-32 -80 90 0
-32 -56 72 0
-32 -54 57 0
-32 -47 69 0
-32 36 49 0
-31 -34 -56 0
-31 38 86 0
-31 50 85 0
-31 51 -77 0
-31 52 82 0
-30 -48 56 0
-30 -37 -95 0
-30 34 -57 0
-30 75 -98 0
-29 -41 -48 0
-29 53 78 0
-29 53 80 0
-29 68 95 0
-29 71 -82 0
-29 76 78 0
-28 -30 -100 0
-28 57 59 0
-28 61 -73 0
-28 80 82 0
-27 -93 -97 0
-27 -50 -71 0
-27 -45 58 0
-27 -44 57 0
-27 -34 -96 0
-27 31 -49 0
-27 36 -60 0
-27 44 -55 0
-26 -62 88 0
-26 -57 80 0
-26 -42 54 0
-26 -42 61 0
-26 56 81 0
-26 58 96 0
-25 -65 -89 0
-25 56 -69 0
-24 -76 -79 0
-24 -58 -95 0
-24 -47 -75 0
-24 -35 77 0
-24 33 86 0
-24 34 -73 0
-24 34 45 0
-23 25 85 0
-23 32 -76 0
-23 34 46 0
-23 42 75 0
-23 67 69 0
-23 82 -86 0
-22 -68 72 0
-22 -37 -51 0
-22 -33 96 0
-22 -30 83 0
-22 35 -94 0
-21 -55 -57 0
-21 -47 -99 0
-21 -22 86 0
-21 26 -76 0
-21 34 90 0
-20 -52 -65 0
-20 -31 -42 0
-20 -27 57 0
-20 23 39 0
-20 33 -35 0
-20 58 72 0
-19 -55 74 0
-19 -33 87 0
-19 22 100 0
-19 27 74 0
-19 40 94 0
-19 58 -84 0
-18 -92 -98 0
-18 -67 -70 0
-18 -48 -63 0
-18 -28 77 0
-18 63 -71 0
-17 -70 -99 0
-17 -55 70 0
-17 -41 55 0
-17 -25 -57 0
-17 21 -53 0
-17 31 33 0
-17 73 -86 0
-16 -65 86 0
-16 -60 87 0
-16 -45 -58 0
-16 -31 -99 0
-16 -31 91 0
-16 -19 33 0
-16 18 -36 0
-15 -48 -82 0
-15 22 72 0
-15 46 -58 0
-14 -79 -86 0
-14 -79 -82 0
-14 -58 -77 0
-14 -31 -85 0
-14 27 -76 0
-14 37 41 0
-14 37 86 0
-14 39 -64 0
-14 51 -77 0
-13 -48 -91 0
-13 -19 -50 0
-13 37 77 0
-13 82 95 0
-13 86 -100 0
-12 -45 71 0
-12 -26 -81 0
-12 50 68 0
-12 52 -81 0
-11 -89 100 0
-11 -55 -98 0
-11 -26 47 0
-11 64 78 0
-11 90 94 0
-10 -55 -62 0
-10 -27 28 0
-10 28 -45 0
-10 44 86 0
-9 -76 79 0
-9 -69 -99 0
-9 -66 93 0
-9 -61 -83 0
-9 -38 82 0
-9 11 -53 0
-9 34 -68 0
-9 35 38 0
-9 44 -94 0
-9 82 85 0
-8 -40 -85 0
-8 -27 -100 0
-8 -12 -86 0
-8 21 -53 0
-8 22 -31 0
-8 27 -80 0
-8 65 89 0
-7 -72 84 0
-7 -65 -95 0
-7 -34 -85 0
-7 -9 -81 0
-7 41 -94 0
-7 75 -91 0
-6 -58 -64 0
-6 -53 -72 0
-6 -36 -65 0
-6 -23 -39 0
-6 7 -50 0
-6 26 79 0
-6 28 41 0
-6 48 -84 0
-6 50 -54 0
-6 50 75 0
-5 -30 -37 0
-5 -24 46 0
-5 18 -76 0
-4 -55 -69 0
-4 -54 -86 0
-4 -12 -28 0
-4 9 -56 0
-4 28 -82 0
-4 36 -91 0
-4 41 85 0
-4 44 57 0
-3 -27 -73 0
-3 11 50 0
-3 18 67 0
-3 19 57 0
-3 34 65 0
-3 47 -99 0
-2 -66 88 0
-2 -24 42 0
-2 37 -98 0
-2 39 84 0
-2 48 -94 0
-2 56 60 0
-2 69 75 0
-1 -47 -84 0
-1 -40 54 0
-1 -30 58 0
-1 -30 88 0
-1 -27 60 0
-1 -21 92 0
-1 -9 12 0
-1 13 -90 0
-1 31 85 0
-1 35 75 0
-1 44 99 0
-1 45 -89 0
-1 46 86 0
-1 70 97 0
-1 79 91 0
1 -54 -59 0
1 -22 51 0
1 -18 91 0
1 -16 62 0
1 -2 -5 0
1 7 74 0
1 7 96 0
1 10 51 0
1 38 -63 0
1 72 -92 0
2 -72 -73 0
2 -51 91 0
2 -25 -75 0
2 -18 83 0
2 -8 10 0
2 -3 -59 0
2 13 -51 0
2 25 -69 0
2 52 -69 0
3 -82 96 0
3 -63 -100 0
3 -49 69 0
3 -36 40 0
3 -20 32 0
3 -16 89 0
3 -13 42 0
3 -11 74 0
3 4 -73 0
3 9 -89 0
3 18 44 0
3 34 -70 0
3 35 -97 0
3 42 -60 0
3 57 -74 0
4 -76 81 0
4 28 -91 0
4 44 -60 0
4 47 -79 0
5 -77 99 0
5 -14 -93 0
5 7 -94 0
6 -34 46 0
6 -31 70 0
6 -28 47 0
6 -26 28 0
6 -18 -38 0
6 -11 -78 0
6 46 -64 0
6 58 61 0
7 -66 76 0
7 -60 -80 0
7 -54 -81 0
7 -49 96 0
7 -32 53 0
7 -30 -36 0
7 -27 -48 0
7 -16 90 0
7 -15 -58 0
7 16 -40 0
7 25 -89 0
7 34 -84 0
7 45 -97 0
7 51 -75 0
8 -57 86 0
8 -50 63 0
8 -32 -54 0
8 -29 -44 0
8 -23 91 0
8 -21 44 0
8 18 -38 0
8 21 29 0
8 42 -85 0
8 57 64 0
9 -65 82 0
9 -13 -66 0
9 13 -44 0
9 24 -97 0
9 33 72 0
10 -34 61 0
10 -24 99 0
10 -21 -84 0
10 13 57 0
10 46 77 0
10 50 75 0
10 94 -97 0
11 -37 -69 0
11 -31 -51 0
11 -15 -97 0
11 15 97 0
11 22 56 0
11 36 -71 0
11 49 63 0
11 58 89 0
11 62 -74 0
11 99 -100 0
12 -56 -99 0
12 -42 -66 0
12 -32 -79 0
12 -31 41 0
12 -30 -75 0
12 -20 -35 0
13 -37 54 0
13 -21 27 0
13 35 73 0
13 38 -46 0
13 80 -82 0
14 -54 56 0
14 -33 -37 0
14 -20 27 0
14 35 78 0
14 79 -84 0
15 -33 -80 0
15 22 -78 0
15 36 -94 0
15 49 52 0
15 55 -67 0
15 64 -70 0
15 78 -92 0
16 -39 -50 0
16 -21 -72 0
16 -20 -81 0
16 20 -22 0
16 37 -86 0
16 42 -44 0
17 -78 99 0
17 -70 86 0
17 -68 -94 0
17 -54 -73 0
17 -33 -67 0
17 30 90 0
17 56 60 0
17 69 -84 0
18 -56 -57 0
18 -46 50 0
18 -25 65 0
18 37 48 0
19 -80 -88 0
19 -60 -89 0
19 -46 91 0
19 -43 94 0
19 -41 -63 0
19 -38 46 0
20 -65 99 0
20 -50 90 0
20 -48 -58 0
20 -48 -54 0
20 -45 86 0
20 -36 77 0
20 22 44 0
21 -84 -89 0
21 -80 93 0
21 -63 -95 0
21 -59 -70 0
21 31 -94 0
21 45 71 0
22 -45 56 0
22 -35 71 0
22 -29 59 0
22 -23 54 0
22 23 -75 0
22 47 -66 0
22 66 -68 0
23 30 -88 0
23 35 -83 0
23 57 -96 0
23 92 97 0
24 -55 92 0
24 28 -58 0
24 44 75 0
24 71 86 0
25 -65 -95 0
25 -47 -99 0
25 54 -79 0
25 76 95 0
26 -81 -87 0
26 27 -62 0
26 44 56 0
26 72 98 0
27 -81 84 0
27 -73 84 0
27 -65 77 0
27 -52 90 0
27 -37 79 0
27 -34 -47 0
28 -58 -69 0
28 -42 95 0
28 40 50 0
28 49 54 0
28 60 -82 0
28 70 -82 0
29 -80 86 0
29 -66 -100 0
29 -34 -86 0
29 30 73 0
29 61 -69 0
29 63 -91 0
30 -33 -35 0
30 31 52 0
30 36 98 0
30 62 -95 0
30 70 -99 0
31 -45 100 0
31 42 93 0
31 77 -83 0
31 91 -93 0
32 -82 86 0
32 -80 -84 0
32 -59 79 0
32 59 -90 0
33 -73 75 0
33 -65 -91 0
33 43 49 0
33 50 -75 0
33 51 75 0
33 65 -96 0
34 -59 87 0
34 -58 90 0
34 53 -90 0
34 68 -75 0
34 82 99 0
35 -48 53 0
35 37 77 0
35 52 -94 0
35 60 -90 0
36 -77 -98 0
36 -58 76 0
36 45 59 0
36 50 83 0
37 -49 -65 0
37 55 -78 0
37 58 95 0
38 -39 89 0
38 70 86 0
39 -56 -98 0
39 45 -61 0
40 -41 81 0
41 -50 63 0
41 43 -96 0
41 67 77 0
42 -71 76 0
42 -49 79 0
42 -44 -67 0
42 57 85 0
42 59 -99 0
42 69 76 0
43 -67 -89 0
43 54 87 0
45 -54 58 0
45 -50 -80 0
45 67 -99 0
45 75 -84 0
46 -75 91 0
46 57 90 0
47 77 -93 0
48 -51 74 0
50 -59 -99 0
50 67 81 0
50 68 98 0
50 87 -91 0
51 59 66 0
51 61 -73 0
52 -55 -87 0
52 54 93 0
52 68 -73 0
52 83 -87 0
53 78 96 0
53 84 86 0
54 -88 92 0
54 -64 95 0
54 -58 -100 0
54 69 95 0
55 -67 -82 0
55 61 -76 0
55 68 72 0
55 74 75 0
56 -64 -99 0
56 -62 -86 0
56 -61 -89 0
56 57 76 0
56 63 98 0
57 -63 -66 0
57 65 -84 0
59 79 -89 0
59 89 -96 0
60 66 71 0
64 -74 75 0
65 -82 -84 0
66 77 -97 0
66 78 -83 0
67 -91 -97 0
68 -78 -87 0
68 89 91 0
69 -82 -90 0
69 76 91 0
70 -79 -85 0
70 -72 -88 0
70 73 75 0
72 85 -100 0
73 95 -98 0
74 -78 -86 0
74 -75 -100 0
75 -84 90 0
76 80 -85 0
82 89 98 0
86 -96 -98 0
91 -93 98 0
