p cnf 80 340
-60 -65 -77 0
-59 -61 77 0
-54 -72 -79 0
-53 62 74 0
-50 -58 -67 0
-50 73 76 0
-47 -63 -69 0
-44 -45 -68 0
-43 71 78 0
-43 72 -73 0
-42 57 -67 0
-41 -76 80 0
-41 -55 -80 0
-41 69 -79 0
-40 -57 -60 0
-40 -41 -58 0
-40 45 64 0
-40 47 49 0
-40 72 74 0
-39 46 -76 0
-39 52 61 0
-38 43 -58 0
-37 -65 -72 0
-37 41 75 0
-36 -65 79 0
-36 -41 -66 0
-36 38 -77 0
-36 43 79 0
-35 -44 -58 0
-35 46 -71 0
-34 -61 67 0
-34 -37 -48 0
-34 39 64 0
-33 -55 -67 0
-33 48 58 0
-32 -57 -74 0
-32 41 43 0
-32 46 -69 0
-32 46 60 0
-30 -66 -80 0
-30 -48 -51 0
-30 -36 -59 0
-29 42 -49 0
-29 63 67 0
-27 -39 67 0
-27 -38 -63 0
-27 48 -61 0
-26 50 78 0
-25 -52 57 0
-25 30 -42 0
-25 34 -53 0
-25 49 66 0
-25 50 -77 0
-25 63 70 0
-24 -27 -72 0
-23 -62 64 0
-23 -41 -73 0
-23 -27 35 0
-23 35 -42 0
-22 -26 -66 0
-21 -39 43 0
-20 -54 -72 0
-20 -38 -75 0
-20 35 -40 0
-20 60 69 0
-20 69 -72 0
-19 -53 71 0
-19 -47 58 0
-19 -22 -55 0
-19 -21 -66 0
-19 59 -71 0
-18 -51 -69 0
-18 -32 60 0
-18 -24 -47 0
-18 -19 -25 0
-17 -50 73 0
-17 -26 -41 0
-17 -22 -76 0
-17 -20 66 0
-17 20 77 0
-17 38 72 0
-17 66 76 0
-17 74 79 0
-16 -48 72 0
-16 -26 -43 0
-16 -19 -66 0
-16 19 -42 0
-16 31 -46 0
-15 -70 78 0
-15 23 -40 0
-15 26 34 0
-14 -51 -79 0
-14 34 59 0
-14 43 61 0
-14 65 68 0
-13 -33 45 0
-13 -18 -47 0
-13 30 60 0
-13 42 71 0
-13 64 69 0
-13 68 -72 0
-13 71 76 0
-12 -50 66 0
-12 -26 46 0
-12 20 -63 0
-12 27 70 0
-12 33 48 0
-12 38 -70 0
-11 -35 40 0
-11 -33 58 0
-11 -23 75 0
-11 -22 73 0
-11 -19 -76 0
-11 12 -45 0
-11 13 -67 0
-11 15 73 0
-11 21 50 0
-11 35 -75 0
-11 36 52 0
-11 56 -79 0
-10 -71 -72 0
-10 -57 78 0
-10 -41 -73 0
-10 -23 55 0
-10 16 -36 0
-10 17 -57 0
-10 24 -68 0
-10 31 -38 0
-10 32 -43 0
-10 39 60 0
-9 -49 -59 0
-9 -30 64 0
-9 45 61 0
-9 48 -64 0
-8 -20 46 0
-8 -15 -44 0
-8 20 62 0
-8 21 26 0
-8 39 52 0
-7 22 -70 0
-7 30 -53 0
-6 -54 -69 0
-6 -35 -63 0
-6 -25 67 0
-6 -21 27 0
-6 -17 -73 0
-6 -16 46 0
-6 -15 -78 0
-6 -9 15 0
-6 66 -79 0
-5 -22 35 0
-5 -19 27 0
-5 26 -64 0
-5 32 49 0
-5 32 63 0
-5 55 80 0
-4 -38 39 0
-4 -6 31 0
-4 15 -21 0
-4 48 61 0
-3 -25 55 0
-3 13 70 0
-2 -50 -68 0
-2 -10 73 0
-2 -4 51 0
-2 45 80 0
-2 65 -68 0
-1 -8 -12 0
-1 2 -79 0
-1 17 49 0
-1 65 67 0
1 -41 68 0
1 -22 55 0
1 -6 -71 0
1 6 -78 0
1 21 28 0
1 28 -32 0
1 29 53 0
1 35 65 0
1 47 51 0
2 -36 -72 0
2 -29 -74 0
2 -10 -59 0
2 -4 -8 0
2 17 -45 0
2 22 50 0
3 -62 -73 0
3 -51 -79 0
3 -36 43 0
3 -34 58 0
3 -11 50 0
3 -6 -69 0
3 22 -26 0
3 23 -56 0
3 32 46 0
4 -11 -28 0
4 -5 -56 0
4 11 57 0
4 12 -27 0
4 26 -42 0
5 -41 49 0
5 -36 72 0
5 -17 -18 0
5 6 7 0
5 28 -34 0
5 39 60 0
6 -73 80 0
6 -10 61 0
6 9 -75 0
7 -22 24 0
7 -21 -25 0
7 18 -60 0
7 18 -34 0
7 46 69 0
8 -43 53 0
8 -38 57 0
8 9 -63 0
8 26 -80 0
8 33 -39 0
9 -43 -59 0
9 -24 47 0
9 21 26 0
10 -22 -45 0
10 -13 22 0
10 32 -48 0
11 -48 -67 0
11 -36 61 0
11 -12 46 0
11 31 -62 0
11 37 49 0
11 45 64 0
11 63 -68 0
12 -35 -66 0
12 -25 28 0
12 -22 67 0
12 29 -54 0
12 29 45 0
12 38 -58 0
12 53 -57 0
13 -70 -75 0
14 -52 75 0
14 -19 -41 0
14 19 -64 0
14 35 65 0
14 36 -42 0
14 42 -49 0
14 48 55 0
14 63 -78 0
15 -24 -52 0
15 -18 43 0
15 33 -52 0
16 -39 -57 0
16 38 59 0
16 58 66 0
17 -52 74 0
17 -24 44 0
17 -21 -65 0
17 20 -75 0
17 33 75 0
17 42 -50 0
17 57 -69 0
18 -35 62 0
18 21 -54 0
18 34 36 0
19 -24 -72 0
20 21 -31 0
20 26 74 0
21 -31 76 0
21 -27 -79 0
21 23 -33 0
22 -50 -77 0
22 -40 -55 0
22 -26 -48 0
23 -75 79 0
23 -70 78 0
23 59 62 0
23 79 -80 0
24 -61 68 0
24 -38 59 0
25 -64 69 0
25 43 -58 0
26 -56 -60 0
26 -40 -61 0
26 37 -71 0
26 51 -57 0
27 -66 -80 0
27 30 -66 0
27 33 -67 0
27 52 -70 0
27 61 -77 0
28 -33 -42 0
28 -31 -69 0
28 31 -42 0
28 39 64 0
28 41 54 0
28 64 -78 0
29 50 -77 0
30 43 58 0
30 44 62 0
31 -70 -75 0
31 -64 -80 0
31 -52 72 0
31 -43 -50 0
31 33 51 0
31 46 -63 0
32 -53 -73 0
32 -52 -69 0
32 -39 -52 0
33 -50 74 0
33 -45 48 0
33 -44 -79 0
33 -38 40 0
33 47 58 0
33 58 79 0
34 -62 68 0
34 42 -63 0
35 -53 -54 0
35 53 71 0
36 -40 -69 0
36 41 -53 0
36 43 -52 0
36 55 -72 0
36 71 -74 0
38 42 -50 0
38 66 68 0
39 47 -80 0
41 -74 -75 0
41 -67 78 0
41 -56 -72 0
41 54 -76 0
42 59 60 0
43 -54 -66 0
44 63 77 0
45 61 63 0
48 73 -77 0
49 71 76 0
50 -55 68 0
50 -52 66 0
50 62 74 0
54 61 -71 0
