p cnf 80 340
-67 71 -73 0
-65 -71 72 0
-63 73 -77 0
-62 -75 79 0
-60 72 80 0
-56 59 -76 0
-55 69 71 0
-54 -73 -75 0
-53 59 -71 0
-51 -56 68 0
-51 59 79 0
-51 75 80 0
-49 -61 -73 0
-49 -56 62 0
-48 63 73 0
-47 75 -79 0
-47 76 77 0
-46 53 -63 0
-42 -49 62 0
-42 45 79 0
-41 -55 62 0
-41 -43 -73 0
-41 54 -71 0
-41 78 80 0
-40 -43 -47 0
-40 42 76 0
-39 -67 76 0
-39 -44 -52 0
-39 -43 -62 0
-38 -70 -71 0
-38 -67 75 0
-38 -45 53 0
-38 40 -51 0
-37 -47 -52 0
-36 -41 49 0
-35 -58 -80 0
-35 -54 -68 0
-34 -38 64 0
-33 69 -72 0
-32 -55 75 0
-32 -47 61 0
-32 -38 -61 0
-32 -33 60 0
-32 55 66 0
-32 67 77 0
-31 -35 66 0
-30 -33 -78 0
-30 32 39 0
-30 36 -65 0
-30 58 78 0
-28 -61 72 0
-28 50 77 0
-28 54 73 0
-28 62 -70 0
-28 68 -74 0
-26 -67 -70 0
-26 -55 -70 0
-26 -55 71 0
-26 -30 -42 0
-26 37 -54 0
-25 -49 63 0
-25 -44 79 0
-25 29 47 0
-25 36 61 0
-25 41 -62 0
-25 43 -76 0
-25 45 -59 0
-25 54 65 0
-25 62 -63 0
-24 -33 -78 0
-24 -26 52 0
-24 34 56 0
-24 44 -76 0
-24 68 69 0
-23 -71 -78 0
-23 -38 -62 0
-23 55 -79 0
-22 -60 62 0
-22 -25 61 0
-22 30 74 0
-22 40 79 0
-21 -26 73 0
-21 29 49 0
-21 45 -60 0
-20 -68 -75 0
-20 42 -75 0
-20 49 67 0
-19 -33 -71 0
-19 -27 -67 0
-19 29 -67 0
-18 -31 40 0
-18 29 43 0
-18 33 74 0
-18 59 60 0
-17 -66 -69 0
-17 -54 67 0
-17 -26 -48 0
-16 -22 -32 0
-16 20 -73 0
-16 70 73 0
-15 -72 -77 0
-15 -41 -69 0
-15 28 79 0
-14 -19 -68 0
-14 -18 -48 0
-14 25 -40 0
-14 26 -57 0
-13 -57 -75 0
-13 -34 35 0
-13 -33 -51 0
-13 -28 34 0
-13 -16 -25 0
-13 27 -73 0
-13 42 -60 0
-13 43 -78 0
-12 -55 -63 0
-12 -23 -42 0
-12 30 35 0
-12 41 76 0
-11 -65 72 0
-11 -15 57 0
-11 31 65 0
-11 40 -42 0
-10 53 -57 0
-9 -61 -73 0
-9 -54 57 0
-9 -37 61 0
-9 -35 37 0
-9 -26 -34 0
-9 -15 32 0
-9 -12 53 0
-9 11 69 0
-9 30 -52 0
-9 31 38 0
-8 -20 53 0
-8 13 27 0
-8 14 -58 0
-8 51 71 0
-7 -36 -38 0
-7 8 59 0
-7 23 27 0
-7 38 64 0
-6 -64 -79 0
-6 -36 -39 0
-6 10 -55 0
-6 11 65 0
-6 37 -45 0
-6 50 55 0
-5 -47 53 0
-5 -35 58 0
-5 -9 72 0
-5 6 28 0
-5 7 34 0
-5 26 -61 0
-4 -40 -76 0
-4 -20 -73 0
-4 -13 -22 0
-4 22 -41 0
-4 47 52 0
-3 -51 74 0
-3 -38 42 0
-3 -17 32 0
-3 -13 -75 0
-3 5 -11 0
-3 36 -45 0
-2 -32 -73 0
-2 -22 -75 0
-2 -14 22 0
-2 -5 -57 0
-2 7 47 0
-2 10 -79 0
-2 22 29 0
-1 23 40 0
-1 37 -77 0
-1 56 -80 0
1 -70 79 0
1 28 64 0
1 44 79 0
1 47 -66 0
2 -34 48 0
2 -31 -41 0
2 -21 -69 0
2 -15 19 0
2 -8 -60 0
2 3 -6 0
2 3 58 0
2 6 -20 0
2 18 -36 0
2 45 -56 0
2 55 77 0
3 -53 55 0
3 -42 -67 0
3 -25 47 0
3 16 -53 0
3 33 -70 0
3 49 -76 0
3 59 64 0
4 -29 -51 0
4 -26 54 0
4 -22 64 0
4 -9 -49 0
4 14 27 0
4 20 -60 0
5 -72 73 0
5 -70 -75 0
5 -54 67 0
5 -43 51 0
5 -33 36 0
5 -27 31 0
5 -12 -43 0
5 29 -54 0
5 43 68 0
5 54 -65 0
6 -23 58 0
6 -12 15 0
6 -11 76 0
7 -46 49 0
7 -40 73 0
7 -36 -46 0
7 -9 -15 0
8 -58 -68 0
8 -49 -50 0
8 -41 44 0
8 -24 71 0
8 11 -18 0
8 11 59 0
8 25 44 0
9 -22 -44 0
9 -14 72 0
9 22 -24 0
10 -71 -72 0
10 -38 -57 0
10 -34 -62 0
10 -23 53 0
10 -11 -16 0
10 25 -79 0
10 29 72 0
10 69 -72 0
10 71 74 0
11 -20 78 0
11 -12 -45 0
11 60 69 0
12 -54 -66 0
12 -47 56 0
12 -46 -79 0
12 -43 79 0
12 26 -32 0
12 35 57 0
12 52 75 0
13 -56 -57 0
13 -26 -30 0
14 -44 76 0
14 -31 -42 0
14 31 -45 0
14 43 -76 0
14 61 -66 0
14 76 -79 0
15 -51 -65 0
15 -40 -56 0
15 25 45 0
15 32 -71 0
16 -47 61 0
16 -32 75 0
16 -24 34 0
16 34 80 0
17 -37 -52 0
17 -27 52 0
17 27 62 0
17 40 -64 0
17 62 64 0
18 -50 52 0
18 -28 -51 0
18 -27 35 0
18 -23 56 0
18 33 54 0
19 -37 -45 0
19 53 76 0
19 64 78 0
20 -37 44 0
20 38 -61 0
21 -25 -67 0
22 -47 -66 0
22 -46 -74 0
22 37 47 0
23 -60 72 0
23 25 -52 0
23 31 44 0
23 39 66 0
23 46 -51 0
24 -46 -63 0
24 -29 46 0
24 -25 -40 0
25 -50 53 0
25 31 -54 0
25 48 80 0
26 -54 60 0
26 -41 77 0
26 53 -65 0
27 54 -56 0
27 56 -80 0
27 63 -65 0
28 34 62 0
29 -50 -61 0
29 -38 -71 0
30 -31 52 0
31 -34 70 0
31 42 -66 0
31 44 -58 0
32 -65 77 0
32 -64 80 0
32 -47 56 0
32 37 -44 0
32 55 -63 0
32 63 76 0
33 -69 74 0
33 50 -62 0
34 54 -77 0
35 49 50 0
35 56 69 0
36 -65 76 0
36 -38 -58 0
37 -64 -67 0
38 58 -63 0
38 60 74 0
39 50 68 0
42 -46 65 0
42 46 -79 0
42 68 -75 0
43 57 75 0
43 67 76 0
43 76 78 0
47 -65 75 0
47 -51 -66 0
47 50 77 0
49 -63 67 0
52 64 -73 0
53 -56 59 0
59 64 -72 0
59 70 73 0
60 -73 80 0
