p cnf 40 170
-34 -37 -39 0
-33 37 -40 0
-32 35 36 0
-26 27 -32 0
-26 34 -39 0
-24 -38 -40 0
-22 -32 39 0
-22 -25 -33 0
-21 -32 34 0
-20 -30 -31 0
-20 -27 -33 0
-20 -21 -35 0
-19 -28 40 0
-19 -20 24 0
-19 24 -39 0
-18 -27 -38 0
-18 -20 21 0
-17 -34 39 0
-17 23 38 0
-16 24 26 0
-15 -35 36 0
-15 33 39 0
-13 26 37 0
-13 27 31 0
-13 33 -38 0
-12 -33 40 0
-12 -31 -36 0
-12 15 -37 0
-12 18 -24 0
-11 -17 -28 0
-11 -12 -38 0
-11 20 40 0
-10 16 40 0
-9 -18 -31 0
-9 -16 -38 0
-9 10 19 0
-9 12 19 0
-9 15 -34 0
-8 -20 -38 0
-8 -13 21 0
-8 -12 -33 0
-8 34 -38 0
-7 -18 36 0
-7 -12 -13 0
-7 -10 -39 0
-7 -9 -28 0
-7 -9 -23 0
-7 12 29 0
-7 13 23 0
-7 17 20 0
-6 -26 39 0
-6 -22 -26 0
-6 -19 -36 0
-6 -9 26 0
-6 14 -28 0
-5 -25 29 0
-5 -13 -15 0
-5 18 27 0
-5 21 28 0
-5 29 37 0
-4 -35 -40 0
-4 -29 38 0
-4 -12 -39 0
-4 -7 36 0
-4 -6 14 0
-4 5 20 0
-3 -23 28 0
-3 -8 36 0
-3 -7 -11 0
-3 4 -30 0
-3 5 -32 0
-3 17 -27 0
-3 26 -35 0
-3 29 -38 0
-3 35 40 0
-2 -12 19 0
-2 -8 -38 0
-2 37 -39 0
-1 12 25 0
1 -28 32 0
1 -11 -34 0
1 -10 16 0
1 -3 11 0
1 -3 30 0
1 15 -40 0
2 -10 -37 0
2 13 28 0
2 35 40 0
3 -16 17 0
3 -8 -38 0
3 -6 -30 0
3 4 -26 0
3 4 39 0
3 6 9 0
3 23 37 0
4 -20 -29 0
4 11 24 0
4 18 -20 0
4 26 -40 0
4 26 -29 0
4 27 -34 0
5 -32 -35 0
5 -6 -39 0
5 7 -10 0
5 11 28 0
5 17 -39 0
6 -10 -13 0
6 12 35 0
6 14 15 0
6 16 25 0
6 18 -33 0
6 25 40 0
6 29 -38 0
7 -23 37 0
7 -17 31 0
7 -13 25 0
7 -13 33 0
7 11 -16 0
7 17 -37 0
8 -21 -22 0
8 -19 -28 0
8 -19 30 0
8 -17 -24 0
8 10 -17 0
8 13 14 0
8 21 33 0
8 34 36 0
9 -12 25 0
9 26 38 0
9 28 -35 0
10 -17 31 0
10 11 -38 0
10 13 25 0
10 18 30 0
10 29 -32 0
11 15 -22 0
12 -17 -25 0
12 -13 -27 0
13 -23 -27 0
13 -23 37 0
13 -21 -40 0
13 -19 -34 0
14 -31 -35 0
14 -25 28 0
14 -16 -38 0
14 -16 -29 0
15 -34 40 0
15 -21 -22 0
15 -19 -30 0
15 22 30 0
16 -19 -32 0
16 19 20 0
16 22 29 0
17 -32 34 0
18 -23 -32 0
18 19 23 0
19 -21 29 0
22 36 39 0
23 -27 32 0
24 -30 -31 0
24 25 40 0
24 26 30 0
26 -32 -37 0
26 -28 -36 0
27 29 -38 0
29 30 32 0
29 31 -36 0
29 32 36 0
32 -35 -38 0
33 34 38 0
