p cnf 50 213
-40 44 -48 0
-40 45 -48 0
-39 -47 50 0
-37 -39 41 0
-35 -37 -47 0
-34 -38 45 0
-32 -36 -39 0
-30 37 -39 0
-29 -44 47 0
-28 -34 43 0
-27 28 47 0
-26 -40 49 0
-26 36 38 0
-25 -31 -36 0
-24 -33 37 0
-23 -30 -46 0
-22 -24 -37 0
-21 -40 -43 0
-21 -27 34 0
-19 -30 31 0
-18 37 -43 0
-17 -21 -33 0
-17 -19 44 0
-16 -25 -36 0
-15 -44 47 0
-15 -39 42 0
-15 -26 27 0
-15 -21 37 0
-15 18 -32 0
-15 24 -26 0
-15 26 -39 0
-14 -37 -50 0
-14 22 -34 0
-14 27 37 0
-13 -40 -44 0
-13 -33 34 0
-13 -24 -28 0
-13 31 -43 0
-12 -29 41 0
-12 -25 -27 0
-12 24 -48 0
-11 -34 -36 0
-11 -25 50 0
-11 -23 -31 0
-11 16 -39 0
-10 -36 -40 0
-10 -26 -41 0
-10 14 28 0
-10 23 46 0
-9 -15 -47 0
-9 13 26 0
-9 21 -35 0
-9 24 -44 0
-9 43 -45 0
-8 -38 43 0
-8 -33 -40 0
-8 -13 46 0
-7 -30 38 0
-7 -21 48 0
-7 -12 -33 0
-7 -10 -50 0
-7 -9 -18 0
-7 22 -50 0
-6 -46 -47 0
-6 -23 -25 0
-6 -18 37 0
-6 8 -48 0
-6 11 -14 0
-6 35 36 0
-6 38 -39 0
-6 41 43 0
-5 -23 28 0
-5 -20 -29 0
-5 -19 -29 0
-5 -17 -37 0
-5 -10 35 0
-5 9 -36 0
-4 -35 38 0
-4 -15 49 0
-4 -5 49 0
-4 5 10 0
-4 15 -27 0
-4 27 32 0
-3 -11 21 0
-3 -7 -10 0
-3 -7 18 0
-3 20 -33 0
-2 -16 39 0
-2 -14 25 0
-2 -13 43 0
-2 7 16 0
-2 9 46 0
-2 13 -19 0
-2 21 41 0
-1 -32 47 0
-1 -21 -44 0
-1 -13 27 0
-1 -4 -7 0
-1 4 -31 0
-1 7 9 0
-1 8 11 0
-1 14 -49 0
1 -45 -48 0
1 -33 -45 0
1 -3 -38 0
1 -2 -33 0
1 31 35 0
1 33 38 0
2 -46 -49 0
2 -12 -49 0
2 -3 39 0
2 12 39 0
2 15 -40 0
2 17 -42 0
3 -16 -38 0
3 5 -45 0
3 8 44 0
3 16 44 0
4 -36 45 0
4 -30 33 0
4 -24 30 0
4 -24 50 0
4 -21 30 0
4 -17 -18 0
4 -14 46 0
4 -5 -41 0
4 13 -39 0
4 29 50 0
5 -34 35 0
5 -29 37 0
5 -10 -20 0
5 -6 41 0
5 29 -47 0
6 -29 -49 0
6 -19 -26 0
6 -13 -22 0
6 7 -15 0
6 14 24 0
7 -24 26 0
7 11 12 0
7 14 -20 0
7 21 -36 0
7 34 -43 0
8 -27 38 0
8 -15 22 0
8 9 32 0
8 36 40 0
9 -16 18 0
10 -19 -44 0
10 13 34 0
10 23 -44 0
10 33 38 0
11 -26 -43 0
11 -25 -38 0
11 -22 -35 0
11 -12 -25 0
11 15 -23 0
11 24 -42 0
12 -32 -33 0
12 -15 -19 0
13 -31 33 0
13 -25 -49 0
13 22 -39 0
13 28 43 0
14 -19 -34 0
14 16 -42 0
14 37 50 0
15 -20 49 0
15 26 -39 0
15 36 38 0
16 -20 -50 0
16 17 -24 0
17 37 -41 0
18 -27 37 0
18 -21 35 0
19 -31 45 0
19 26 45 0
19 33 -37 0
20 -34 36 0
21 -48 -50 0
21 -26 -39 0
21 23 -40 0
21 31 43 0
21 34 -35 0
21 35 44 0
21 43 -49 0
22 -32 44 0
22 -26 -32 0
22 38 45 0
23 -26 -45 0
23 32 -33 0
23 32 49 0
24 -27 36 0
24 40 -46 0
25 37 -50 0
26 -43 48 0
26 -34 45 0
26 27 -35 0
27 -28 44 0
27 29 -31 0
27 31 42 0
28 -38 46 0
28 -34 -46 0
28 -34 -41 0
28 40 42 0
30 31 49 0
33 -40 -43 0
34 -39 -44 0
35 -44 -50 0
36 -41 46 0
36 37 -50 0
37 -42 -43 0
43 44 -49 0
