p cnf 20 85
-16 -17 20 0
-16 18 20 0
-14 -18 20 0
-14 -15 16 0
-13 14 16 0
-12 14 20 0
-11 12 13 0
-10 15 19 0
-9 -13 -19 0
-9 -12 20 0
-9 11 -12 0
-9 13 15 0
-9 14 -17 0
-7 -16 20 0
-7 -8 10 0
-7 8 10 0
-6 -9 -17 0
-6 15 20 0
-5 -13 16 0
-5 -10 -12 0
-5 -9 -12 0
-5 8 -18 0
-5 9 -16 0
-4 -9 10 0
-4 -9 20 0
-4 -6 -8 0
-4 -5 -7 0
-4 -5 11 0
-4 8 -10 0
-3 -19 20 0
-3 -16 19 0
-3 -15 19 0
-3 -13 -15 0
-3 -12 15 0
-3 5 9 0
-3 10 -12 0
-3 12 20 0
-2 9 16 0
-1 -17 18 0
-1 -10 14 0
-1 9 -11 0
-1 9 15 0
-1 17 19 0
-1 18 19 0
1 -12 -14 0
1 -9 -19 0
1 -2 -5 0
1 5 -17 0
1 7 16 0
1 9 -10 0
1 14 19 0
2 -17 19 0
2 -11 19 0
2 -8 9 0
2 -4 10 0
2 -4 11 0
2 -4 12 0
2 7 -13 0
2 10 19 0
2 14 -16 0
2 16 19 0
3 -9 15 0
3 -5 16 0
3 -4 -15 0
3 12 -15 0
4 -16 -17 0
4 -11 -15 0
4 5 -19 0
4 14 -19 0
5 -11 16 0
5 7 -19 0
6 10 -19 0
6 10 -15 0
6 11 -13 0
7 -17 -18 0
7 10 17 0
8 -15 19 0
8 11 -19 0
8 18 19 0
9 10 11 0
9 12 17 0
10 11 -19 0
12 15 -16 0
13 -17 20 0
13 15 18 0
