p cnf 150 638
-126 133 -136 0
-122 -128 149 0
-113 -126 141 0
-111 145 -148 0
-109 -111 116 0
-108 -124 139 0
-108 122 129 0
-106 -122 -139 0
-103 -130 -150 0
-103 -125 -143 0
-103 112 113 0
-102 -115 -119 0
-102 141 -145 0
-100 -108 137 0
-99 128 -137 0
-97 -131 -132 0
-97 100 145 0
-96 -100 -106 0
-94 -111 -112 0
-94 95 106 0
-93 -118 -150 0
-91 93 137 0
-91 115 -124 0
-89 -126 -150 0
-88 -92 -118 0
-88 121 -146 0
-86 143 146 0
-85 -107 121 0
-85 -88 -134 0
-84 -105 111 0
-82 99 109 0
-82 110 -118 0
-81 -89 91 0
-81 94 -128 0
-81 103 -128 0
-77 -125 -138 0
-75 108 113 0
-74 -106 -111 0
-74 82 -125 0
-74 99 135 0
-73 94 139 0
-72 -135 141 0
-72 -88 -147 0
-72 -79 -89 0
-71 -136 149 0
-71 -74 94 0
-71 81 138 0
-70 89 114 0
-70 97 110 0
-70 107 -129 0
-69 -103 117 0
-69 -90 -124 0
-69 -73 87 0
-69 70 -78 0
-67 -104 108 0
-67 -68 -144 0
-67 70 97 0
-67 103 -115 0
-67 110 121 0
-65 -140 149 0
-64 -101 131 0
-64 116 -148 0
-64 128 -142 0
-63 -79 102 0
-63 81 -116 0
-63 97 119 0
-63 117 145 0
-62 -79 -92 0
-61 -94 -99 0
-59 -99 113 0
-59 -81 107 0
-59 91 -97 0
-59 93 -135 0
-58 -99 111 0
-57 -113 -149 0
-56 -85 -89 0
-56 111 -127 0
-55 -123 128 0
-55 -77 -120 0
-55 59 -110 0
-55 70 97 0
-54 -67 142 0
-54 97 98 0
-54 121 -122 0
-53 -100 -133 0
-53 -68 -111 0
-53 -59 70 0
-53 70 -111 0
-53 97 -150 0
-52 -129 137 0
-52 -81 -125 0
-52 60 85 0
-51 -56 -118 0
-51 -55 -57 0
-51 -54 130 0
-51 57 79 0
-50 -143 -145 0
-50 -85 -141 0
-50 -51 -63 0
-50 117 145 0
-48 -74 -80 0
-48 -49 -82 0
-48 53 66 0
-48 89 -116 0
-46 73 -133 0
-46 105 -132 0
-46 117 142 0
-46 128 -137 0
-45 -121 135 0
-45 -80 114 0
-45 48 -125 0
-45 102 -126 0
-45 116 125 0
-45 117 -118 0
-43 -121 -130 0
-43 -104 130 0
-43 -83 -134 0
-43 -45 70 0
-43 79 -99 0
-42 -130 -136 0
-42 -117 128 0
-42 -63 -82 0
-42 -50 62 0
-42 77 -103 0
-41 58 -101 0
-41 67 -150 0
-41 105 -127 0
-40 -107 136 0
-40 -91 99 0
-40 107 127 0
-39 -111 -136 0
-39 -101 132 0
-39 85 -102 0
-38 -81 119 0
-38 45 -128 0
-38 46 101 0
-38 82 -117 0
-38 82 85 0
-38 105 -149 0
-37 -46 64 0
-37 -38 56 0
-37 82 -116 0
-36 48 120 0
-36 53 -113 0
-36 56 -85 0
-36 72 -128 0
-35 -64 -93 0
-35 -63 89 0
-35 -44 92 0
-35 48 137 0
-35 69 111 0
-34 -48 -69 0
-34 36 -132 0
-34 55 72 0
-34 67 -124 0
-34 104 -139 0
-33 -52 -69 0
-33 -39 69 0
-33 49 -63 0
-32 -142 -146 0
-32 -115 -140 0
-32 -110 -129 0
-32 -84 -126 0
-32 -72 -99 0
-32 -41 115 0
-32 99 -126 0
-32 132 149 0
-31 -74 149 0
-31 76 -104 0
-31 141 -148 0
-30 -91 -135 0
-30 83 112 0
-30 99 -150 0
-29 -99 -145 0
-29 -92 -98 0
-29 -86 -131 0
-29 -84 -144 0
-29 36 43 0
-29 135 139 0
-28 -50 137 0
-28 32 45 0
-28 43 85 0
-28 65 85 0
-27 -53 81 0
-27 -42 -115 0
-27 -29 82 0
-27 112 -138 0
-27 131 137 0
-26 -103 132 0
-26 77 90 0
-25 -44 55 0
-25 -34 40 0
-25 -28 56 0
-25 31 -78 0
-25 46 -57 0
-25 95 147 0
-24 50 145 0
-24 79 147 0
-24 85 92 0
-24 108 -125 0
-23 -58 144 0
-23 -41 145 0
-23 -27 121 0
-23 36 -110 0
-23 72 -76 0
-23 104 -135 0
-22 -74 126 0
-22 -50 -88 0
-22 -48 -99 0
-22 44 -47 0
-22 49 138 0
-22 77 81 0
-22 100 -140 0
-21 -89 -123 0
-21 -40 -112 0
-21 32 47 0
-21 51 128 0
-21 52 95 0
-21 68 -129 0
-20 125 130 0
-19 -61 87 0
-19 48 -118 0
-18 -85 138 0
-18 -72 -128 0
-18 71 90 0
-18 81 121 0
-18 85 131 0
-17 -51 -93 0
-17 -22 83 0
-17 30 127 0
-17 74 -134 0
-16 -65 142 0
-16 -27 -94 0
-16 22 121 0
-16 52 115 0
-16 66 97 0
-16 69 -140 0
-15 -65 145 0
-15 -60 -100 0
-15 22 -98 0
-14 -105 -121 0
-14 -91 130 0
-14 -84 150 0
-14 -71 93 0
-14 -32 108 0
-14 29 78 0
-13 -69 82 0
-13 -41 93 0
-13 -36 74 0
-12 -24 -110 0
-12 82 -102 0
-12 97 -126 0
-11 -38 106 0
-10 -95 135 0
-10 -59 125 0
-10 -47 54 0
-10 -27 58 0
-10 39 -57 0
-9 -109 122 0
-9 -39 -67 0
-9 31 -34 0
-9 32 -57 0
-9 43 -57 0
-9 48 -90 0
-8 -113 148 0
-8 -49 140 0
-8 25 -34 0
-7 45 129 0
-7 56 85 0
-7 65 150 0
-7 121 142 0
-6 -121 141 0
-6 -35 112 0
-6 -24 -62 0
-6 25 37 0
-5 -116 120 0
-5 -86 -87 0
-5 76 100 0
-4 -129 137 0
-4 -65 126 0
-4 -55 -105 0
-4 -45 -147 0
-4 -44 -76 0
-4 6 -112 0
-4 22 -63 0
-3 -64 -123 0
-3 8 96 0
-3 22 130 0
-3 104 -109 0
-2 -109 -141 0
-2 -78 147 0
-2 -68 -73 0
-2 -19 129 0
-2 6 118 0
-2 8 -76 0
-2 24 32 0
-2 61 -65 0
-1 -68 -124 0
-1 -60 -64 0
-1 -50 -77 0
-1 -34 90 0
-1 -31 88 0
-1 48 118 0
-1 80 -144 0
1 -99 121 0
1 -64 -68 0
1 -47 112 0
1 -2 78 0
1 17 118 0
1 47 -63 0
1 83 103 0
2 -112 -131 0
2 -65 -85 0
2 -44 129 0
2 -39 40 0
2 -32 -144 0
2 -19 -22 0
2 -16 18 0
2 -16 51 0
2 36 115 0
2 46 71 0
2 104 133 0
3 -77 -81 0
3 -73 82 0
3 -40 126 0
3 -27 28 0
3 -18 42 0
3 -17 47 0
3 20 50 0
4 -112 -130 0
4 -111 145 0
4 -65 -148 0
4 -48 -105 0
4 75 117 0
5 -134 -149 0
5 -108 126 0
5 -73 -133 0
5 -27 -59 0
5 -26 -99 0
5 -6 -39 0
5 15 108 0
5 22 35 0
5 96 -105 0
5 119 144 0
6 -33 76 0
6 47 106 0
6 84 143 0
7 -94 -150 0
7 -40 147 0
7 85 129 0
7 90 113 0
8 -66 137 0
8 -56 86 0
8 -48 112 0
8 -33 -41 0
8 -26 46 0
8 57 -96 0
8 72 137 0
8 75 -111 0
8 83 -128 0
9 -146 150 0
9 -81 83 0
9 -77 -118 0
9 -22 -93 0
9 20 142 0
10 -114 -128 0
10 -97 -105 0
10 -24 149 0
10 37 -85 0
10 42 128 0
10 51 142 0
10 52 -75 0
10 55 124 0
11 -50 122 0
11 -32 -129 0
11 -28 112 0
11 -27 54 0
11 14 -144 0
11 105 127 0
12 -106 138 0
12 -91 114 0
12 -83 128 0
12 -54 78 0
12 31 -102 0
12 44 111 0
12 78 117 0
13 -69 -127 0
13 -45 -115 0
13 -45 91 0
13 -37 132 0
13 -28 132 0
13 24 50 0
13 27 -73 0
13 39 -60 0
13 68 -146 0
13 78 -140 0
14 -88 -137 0
14 -50 52 0
14 -29 -47 0
14 -18 77 0
14 33 -130 0
14 75 116 0
14 98 130 0
15 -51 109 0
15 -48 -135 0
15 26 -93 0
16 -17 -78 0
16 33 37 0
16 54 150 0
17 -112 126 0
17 -60 -77 0
17 -57 -131 0
17 -21 86 0
17 62 120 0
18 46 -69 0
18 59 66 0
19 -100 138 0
19 -67 148 0
19 -40 -78 0
19 -28 41 0
19 103 -104 0
20 66 98 0
21 -114 140 0
21 -75 78 0
21 -67 80 0
21 -41 -63 0
21 -30 36 0
21 24 58 0
21 51 -141 0
21 58 -130 0
21 129 134 0
21 135 140 0
22 -24 63 0
22 33 -48 0
23 -123 -148 0
23 -85 117 0
23 -39 -66 0
23 34 116 0
23 46 -147 0
23 94 104 0
24 -69 -116 0
24 66 137 0
25 -36 -52 0
26 -90 -113 0
26 -88 -120 0
26 -85 -108 0
26 -66 -145 0
26 -52 128 0
26 -51 81 0
26 32 -145 0
27 -107 -145 0
27 -69 -97 0
27 -63 -67 0
27 43 -100 0
27 45 134 0
28 -68 109 0
28 -31 -76 0
28 78 -88 0
28 79 -128 0
29 -45 128 0
29 126 139 0
30 -61 -103 0
30 -41 -82 0
30 72 120 0
31 66 -95 0
31 85 116 0
31 88 -121 0
32 -84 99 0
32 -37 117 0
32 -37 142 0
33 -126 -149 0
33 -65 -124 0
33 -65 -114 0
34 -102 105 0
34 -91 -144 0
34 -60 94 0
34 58 92 0
34 66 -145 0
35 -127 135 0
35 -37 60 0
35 60 70 0
35 80 -120 0
35 87 115 0
36 -99 -147 0
36 52 -96 0
36 52 -72 0
36 52 85 0
37 -132 -150 0
37 -120 -130 0
37 -74 138 0
37 43 135 0
38 -113 145 0
38 -87 91 0
38 -74 107 0
38 -49 -146 0
39 -54 -55 0
39 -41 104 0
39 54 86 0
39 54 100 0
40 52 -100 0
40 58 -72 0
40 87 126 0
41 91 -121 0
41 93 119 0
42 -130 -150 0
42 -54 74 0
42 50 130 0
43 -118 122 0
43 47 -129 0
43 75 128 0
44 48 -108 0
44 54 -55 0
44 59 -145 0
45 -118 -139 0
45 -88 95 0
45 -84 -149 0
45 -78 143 0
45 -76 95 0
45 -62 -120 0
45 58 110 0
45 75 -86 0
45 141 147 0
46 -101 113 0
46 -84 141 0
46 51 -54 0
47 -78 80 0
47 -67 117 0
47 84 -148 0
47 136 -143 0
48 -89 -102 0
48 -54 138 0
48 74 144 0
48 76 143 0
48 87 105 0
49 -77 -116 0
49 78 -130 0
49 94 -120 0
50 -82 102 0
50 111 146 0
51 -75 -141 0
51 55 -70 0
51 62 -104 0
51 75 -78 0
52 -95 117 0
52 -75 -91 0
52 104 136 0
53 -118 120 0
54 -74 110 0
55 -75 124 0
55 -69 134 0
55 66 -90 0
55 120 146 0
55 133 142 0
56 -62 84 0
56 97 131 0
57 -115 -145 0
57 -115 -120 0
57 -85 102 0
58 -99 -121 0
58 134 -140 0
59 -92 -120 0
59 -82 115 0
59 98 147 0
60 -100 121 0
60 -92 -134 0
60 -76 -131 0
60 138 -140 0
61 -107 136 0
61 -65 101 0
61 -64 150 0
61 119 -121 0
62 -134 -147 0
62 67 104 0
62 91 127 0
62 126 -135 0
63 -101 -143 0
63 -88 -134 0
63 -87 130 0
63 90 144 0
64 65 -107 0
65 -93 -122 0
65 -88 138 0
65 -68 -88 0
65 66 -130 0
66 -95 -106 0
66 -71 132 0
66 -68 -98 0
66 68 -104 0
66 99 -140 0
67 81 -135 0
67 84 111 0
67 92 -129 0
68 75 -90 0
69 -78 124 0
70 -97 -104 0
70 -86 -105 0
70 -76 -149 0
70 146 147 0
71 80 120 0
72 -107 136 0
72 -97 -117 0
72 -76 118 0
72 125 -138 0
73 92 -102 0
74 -111 120 0
74 95 -117 0
75 -90 -141 0
75 -88 120 0
75 -79 141 0
78 104 130 0
80 109 -115 0
81 -125 -136 0
81 85 111 0
82 -98 146 0
83 -136 -148 0
83 140 150 0
84 -127 -149 0
84 -119 -138 0
84 -109 146 0
84 134 143 0
85 -96 143 0
85 115 -139 0
86 100 141 0
87 -120 -147 0
87 -104 140 0
89 -112 -145 0
91 -125 -138 0
91 109 118 0
93 122 146 0
95 -98 -147 0
101 -123 131 0
104 -116 -126 0
114 -125 -137 0
116 132 -141 0
119 -126 -127 0
119 -124 -140 0
127 -129 -130 0
133 -135 146 0
