p cnf 20 85
-12 13 17 0
-11 13 19 0
-10 -15 19 0
-8 9 10 0
-8 11 -14 0
-7 -15 -18 0
-7 -11 -12 0
-7 -11 16 0
-7 9 -18 0
-7 13 -18 0
-6 -8 9 0
-5 -15 16 0
-5 7 8 0
-4 -17 -19 0
-4 -7 9 0
-4 -6 -15 0
-4 5 13 0
-4 5 18 0
-4 13 -15 0
-3 -8 9 0
-3 -7 -17 0
-3 -7 20 0
-3 4 -8 0
-3 5 11 0
-3 6 -10 0
-3 9 12 0
-3 10 -16 0
-3 15 16 0
-2 -16 20 0
-2 -15 -18 0
-2 -4 19 0
-2 7 16 0
-1 -12 -14 0
-1 -4 14 0
-1 2 17 0
-1 4 -13 0
-1 8 -20 0
-1 11 -14 0
-1 11 19 0
-1 14 18 0
1 -14 -18 0
1 -8 18 0
1 -7 12 0
1 -7 14 0
1 -2 11 0
1 7 -16 0
1 9 -17 0
1 10 12 0
2 -14 -18 0
2 -11 13 0
2 -11 17 0
2 -6 -19 0
2 -6 19 0
2 -4 -7 0
2 -4 5 0
2 3 6 0
2 5 11 0
2 7 13 0
3 7 18 0
3 11 -16 0
4 -11 15 0
4 -11 20 0
5 -8 20 0
5 6 -12 0
5 7 -19 0
5 8 11 0
5 11 -13 0
6 -11 15 0
6 8 16 0
7 -14 15 0
7 -13 -16 0
7 -8 -15 0
8 -13 15 0
8 -12 -15 0
8 -12 20 0
8 14 -15 0
9 -18 20 0
9 -14 18 0
9 -11 -14 0
9 -10 -20 0
10 11 -16 0
10 11 19 0
11 16 20 0
12 -13 18 0
16 -18 -20 0
