p cnf 55 234
-45 -51 52 0
-45 46 -47 0
-42 46 -49 0
-42 49 -55 0
-38 -43 -54 0
-38 40 -43 0
-38 42 -48 0
-36 -47 48 0
-36 39 40 0
-36 41 -49 0
-36 50 55 0
-35 -37 -53 0
-33 -44 54 0
-32 33 -40 0
-31 32 -43 0
-30 -44 49 0
-29 30 39 0
-29 46 -49 0
-28 -40 46 0
-28 32 -38 0
-28 46 -54 0
-27 -30 -44 0
-27 37 -52 0
-25 34 -44 0
-24 43 47 0
-23 41 48 0
-22 35 43 0
-21 -44 -51 0
-21 -27 -41 0
-21 -22 48 0
-21 24 -27 0
-21 27 -29 0
-21 46 -52 0
-20 -39 44 0
-20 -28 46 0
-20 -24 53 0
-20 36 53 0
-18 -43 -50 0
-18 27 -31 0
-18 47 -52 0
-17 26 -47 0
-17 39 51 0
-15 -27 -29 0
-15 -24 -55 0
-15 -23 45 0
-15 24 53 0
-14 -35 -39 0
-14 16 -21 0
-14 21 -30 0
-14 40 42 0
-13 17 -20 0
-13 36 41 0
-12 -21 -45 0
-12 35 48 0
-11 -46 -51 0
-11 37 -45 0
-11 39 -43 0
-11 42 -43 0
-10 -19 -46 0
-10 30 38 0
-9 -35 -42 0
-9 -19 28 0
-9 26 -47 0
-9 27 -47 0
-8 15 42 0
-8 16 49 0
-8 31 47 0
-7 -30 40 0
-7 -10 40 0
-7 -9 17 0
-7 -9 24 0
-7 26 47 0
-7 28 -33 0
-7 37 51 0
-6 -33 -34 0
-6 -22 34 0
-6 -9 -35 0
-6 21 -33 0
-5 -19 24 0
-5 -18 -52 0
-5 -14 33 0
-5 32 42 0
-4 -13 29 0
-4 -7 36 0
-4 15 43 0
-3 -45 -49 0
-3 -36 54 0
-3 -19 -44 0
-3 18 43 0
-2 -41 -46 0
-2 -14 -42 0
-2 16 -22 0
-1 -20 -28 0
-1 -14 -20 0
-1 -14 27 0
-1 -10 37 0
-1 2 43 0
1 -35 39 0
1 -21 -45 0
1 2 -36 0
1 9 50 0
1 33 42 0
1 36 -50 0
2 -29 -51 0
2 -22 -55 0
2 -20 54 0
2 4 46 0
2 15 -32 0
2 22 27 0
2 25 -41 0
3 -40 43 0
3 -26 46 0
3 4 22 0
3 5 -52 0
3 5 -14 0
3 9 16 0
3 11 -13 0
3 13 33 0
3 16 -53 0
3 17 50 0
3 19 -50 0
3 26 -33 0
3 27 33 0
3 40 49 0
4 -11 -38 0
4 12 -20 0
4 17 -28 0
4 28 54 0
5 -16 -42 0
5 8 36 0
5 9 33 0
5 10 -22 0
5 14 39 0
5 14 44 0
5 36 -43 0
6 -33 -55 0
6 -31 -35 0
6 -7 8 0
6 16 50 0
6 21 50 0
7 -19 -36 0
7 9 36 0
8 -34 -50 0
8 -9 15 0
8 17 30 0
8 19 53 0
8 28 -44 0
9 -20 -26 0
9 -11 -45 0
9 19 -40 0
9 48 -53 0
10 -45 -52 0
10 -19 39 0
10 -16 -19 0
10 -16 30 0
11 -37 40 0
11 -32 -44 0
11 -32 45 0
11 -29 32 0
11 -14 29 0
12 -35 -46 0
12 -27 48 0
12 -16 -38 0
12 -15 37 0
12 16 -23 0
12 17 -34 0
12 25 34 0
13 -25 -42 0
13 -18 -47 0
13 -18 24 0
13 -17 26 0
13 17 -21 0
13 39 -52 0
14 -42 54 0
14 -30 36 0
14 -25 45 0
14 22 47 0
14 28 31 0
14 33 -34 0
14 46 -48 0
15 -42 51 0
15 -40 -52 0
15 -37 -54 0
15 -36 -42 0
15 25 -50 0
15 34 39 0
15 36 -49 0
16 -25 44 0
16 17 -50 0
16 21 32 0
17 -39 43 0
17 -30 -37 0
17 24 55 0
18 -43 -45 0
18 -29 33 0
20 -39 -47 0
20 -33 -39 0
20 26 -46 0
20 34 44 0
21 -50 -53 0
21 -26 32 0
21 22 -28 0
22 24 -29 0
23 -40 -50 0
23 -31 -52 0
23 33 -46 0
24 -28 -39 0
24 41 -44 0
25 32 33 0
26 -30 33 0
26 -28 -48 0
26 -28 34 0
26 34 55 0
27 -48 52 0
27 -41 48 0
27 -38 -51 0
27 33 -49 0
27 53 -54 0
31 -39 -46 0
32 -37 46 0
32 -36 -38 0
32 40 -44 0
32 54 -55 0
33 35 -38 0
33 38 45 0
35 -51 -55 0
35 38 41 0
35 49 -55 0
37 -53 -54 0
37 -38 -48 0
37 44 -54 0
38 -40 -54 0
38 46 55 0
41 -49 -51 0
