p cnf 120 510
-105 107 120 0
-93 -97 -111 0
-88 115 -118 0
-87 -103 117 0
-87 99 -105 0
-84 -112 114 0
-84 -103 117 0
-81 -104 -118 0
-80 87 104 0
-79 -85 -95 0
-77 -87 112 0
-77 -79 -91 0
-76 -102 -113 0
-75 102 107 0
-74 94 -112 0
-73 80 110 0
-73 85 -104 0
-72 80 95 0
-72 118 120 0
-71 97 114 0
-69 70 102 0
-69 76 -114 0
-68 69 94 0
-67 82 -86 0
-67 105 -107 0
-66 -77 -107 0
-66 103 -108 0
-66 114 -118 0
-65 78 81 0
-64 65 118 0
-63 -88 96 0
-62 67 118 0
-61 72 75 0
-60 -79 -95 0
-59 -90 -109 0
-59 -60 114 0
-58 65 78 0
-58 108 -119 0
-57 -73 75 0
-57 90 -93 0
-56 -67 117 0
-55 116 -120 0
-54 -85 -86 0
-54 -62 -86 0
-53 -77 -82 0
-53 63 93 0
-51 -84 -89 0
-51 -79 120 0
-51 -78 89 0
-51 -75 -78 0
-51 52 -84 0
-51 61 -91 0
-51 67 70 0
-50 59 113 0
-50 67 71 0
-48 -52 100 0
-48 83 -88 0
-46 -49 90 0
-45 -96 -104 0
-45 -80 -99 0
-45 -78 -92 0
-45 51 55 0
-45 76 87 0
-45 95 -104 0
-44 -54 -76 0
-44 -53 61 0
-43 -65 -76 0
-43 70 93 0
-42 -70 74 0
-42 -46 58 0
-42 57 -66 0
-41 -70 83 0
-41 -46 -82 0
-40 -78 -114 0
-40 -65 81 0
-40 69 85 0
-39 -40 59 0
-39 94 103 0
-38 -62 -65 0
-38 -51 58 0
-38 63 65 0
-37 -78 105 0
-37 56 81 0
-36 -80 -113 0
-36 -73 -83 0
-35 -43 67 0
-35 41 -52 0
-35 68 -116 0
-35 70 81 0
-35 72 -76 0
-35 101 -115 0
-34 -93 -110 0
-34 -85 -89 0
-34 -50 63 0
-34 -45 -120 0
-34 -35 -41 0
-34 35 -94 0
-34 35 84 0
-33 -60 106 0
-33 -52 58 0
-33 85 97 0
-32 36 -115 0
-32 58 105 0
-31 -50 -69 0
-31 -33 81 0
-31 74 -117 0
-30 -83 -112 0
-30 -60 -90 0
-30 -32 55 0
-30 85 -102 0
-29 -63 86 0
-27 -40 -73 0
-27 31 -108 0
-27 43 -70 0
-27 44 -62 0
-27 62 -101 0
-26 -37 -107 0
-26 35 -114 0
-25 -73 -78 0
-25 -62 74 0
-25 -49 57 0
-25 28 -108 0
-25 59 68 0
-25 108 -114 0
-24 -57 107 0
-24 -33 35 0
-24 88 103 0
-23 37 115 0
-22 -77 109 0
-21 -81 84 0
-21 -79 118 0
-21 -49 55 0
-21 -35 65 0
-21 -29 -63 0
-21 30 43 0
-21 113 -118 0
-20 -43 -99 0
-20 -27 37 0
-20 -21 -56 0
-19 -80 115 0
-19 -44 -58 0
-19 -42 -111 0
-19 -35 59 0
-19 -22 37 0
-19 27 -98 0
-19 45 118 0
-19 47 78 0
-19 49 56 0
-19 64 -113 0
-19 79 -88 0
-18 -98 113 0
-18 -53 65 0
-18 53 78 0
-18 63 105 0
-17 -46 58 0
-17 39 84 0
-17 58 -72 0
-16 -69 115 0
-16 25 97 0
-16 33 35 0
-16 39 51 0
-16 41 92 0
-16 49 -76 0
-16 64 -109 0
-15 -75 84 0
-15 -66 -89 0
-15 -66 -68 0
-15 -58 -91 0
-15 -16 -104 0
-15 46 100 0
-15 48 70 0
-15 67 -112 0
-14 -54 112 0
-14 -38 -45 0
-14 18 -36 0
-14 25 -47 0
-13 -87 104 0
-13 -52 71 0
-13 -21 34 0
-13 29 -36 0
-13 69 -79 0
-13 94 -117 0
-13 98 107 0
-12 -27 116 0
-12 45 -103 0
-11 -86 97 0
-11 -48 51 0
-11 -22 -30 0
-11 65 116 0
-10 -61 111 0
-10 -35 -62 0
-10 -27 43 0
-10 25 37 0
-10 26 -109 0
-10 49 86 0
-10 59 119 0
-9 -67 72 0
-9 -61 77 0
-9 -24 -100 0
-9 -24 -96 0
-9 26 -65 0
-9 28 -60 0
-9 60 -67 0
-8 -99 118 0
-8 -67 110 0
-8 -30 103 0
-8 -9 -14 0
-8 9 -102 0
-8 57 83 0
-7 19 -46 0
-6 -61 112 0
-6 -46 88 0
-6 -43 -84 0
-6 -17 -35 0
-6 -15 69 0
-6 -13 -116 0
-6 34 94 0
-6 96 108 0
-5 -84 -116 0
-5 -82 -100 0
-5 -35 -58 0
-5 10 67 0
-5 29 70 0
-5 61 -104 0
-5 70 74 0
-4 6 -8 0
-4 72 -89 0
-3 -41 50 0
-2 34 65 0
-2 49 84 0
-1 -78 93 0
-1 -68 -104 0
-1 9 -47 0
-1 13 120 0
-1 16 -19 0
-1 28 117 0
-1 36 116 0
1 2 -85 0
2 24 108 0
2 39 81 0
2 61 -103 0
3 -59 -100 0
3 -9 -74 0
3 -4 -90 0
3 33 -85 0
3 70 102 0
3 71 114 0
3 75 -113 0
4 -12 72 0
4 -8 -42 0
4 15 113 0
5 -110 -117 0
5 -47 118 0
5 -37 -52 0
5 -27 -91 0
5 -26 51 0
5 27 103 0
6 -38 -96 0
6 -19 102 0
6 45 118 0
6 56 -101 0
6 56 -75 0
7 -91 97 0
7 -45 -72 0
7 -31 -78 0
7 -14 28 0
7 36 104 0
7 37 -95 0
8 -26 81 0
8 -10 -21 0
8 15 -114 0
8 24 55 0
8 84 113 0
9 -48 -56 0
9 -29 -77 0
9 -29 90 0
9 11 -61 0
9 23 -43 0
9 36 -39 0
9 52 -84 0
9 56 80 0
9 60 -106 0
9 72 -98 0
9 103 -108 0
10 -18 113 0
10 -15 116 0
10 30 33 0
11 -65 -78 0
11 -62 -116 0
11 -16 66 0
11 13 74 0
11 16 71 0
11 39 103 0
11 78 109 0
11 82 98 0
11 96 -113 0
12 -65 -112 0
12 -49 -90 0
12 23 -36 0
12 57 -112 0
12 86 -93 0
13 -90 -111 0
13 -90 104 0
13 -49 -80 0
13 -47 51 0
13 -39 46 0
13 -27 -93 0
13 18 -47 0
13 35 62 0
13 49 74 0
13 92 111 0
14 -59 -64 0
14 -41 -86 0
14 25 -117 0
15 -48 -97 0
15 -37 101 0
15 -25 50 0
15 -21 -102 0
15 28 -92 0
15 40 66 0
15 42 111 0
16 -64 77 0
16 -62 118 0
16 -21 -94 0
16 34 -108 0
16 42 -91 0
16 69 -102 0
17 -66 -82 0
17 77 -91 0
17 78 -92 0
17 103 112 0
18 -81 -89 0
18 -59 80 0
18 -57 114 0
18 -45 108 0
18 -25 -46 0
18 19 56 0
18 49 63 0
18 77 -120 0
18 83 95 0
19 -73 -101 0
19 -55 -76 0
19 -49 -78 0
19 -41 93 0
19 56 -110 0
19 106 117 0
20 -107 120 0
20 -94 -120 0
20 -73 108 0
20 -64 92 0
20 -56 -102 0
20 -42 57 0
20 -40 115 0
20 -38 -52 0
20 51 -74 0
20 100 -110 0
21 -106 -110 0
21 -65 95 0
21 40 -76 0
21 40 51 0
21 51 -56 0
22 47 108 0
22 57 74 0
23 -48 68 0
23 85 100 0
23 100 110 0
24 -37 -89 0
24 -25 63 0
24 38 -51 0
24 72 80 0
24 84 111 0
24 90 -92 0
25 -72 94 0
25 -50 76 0
25 -43 -115 0
25 45 -66 0
25 70 -105 0
25 82 96 0
26 -98 110 0
26 39 54 0
26 43 -62 0
26 43 48 0
26 53 117 0
27 -74 -101 0
27 33 -89 0
27 42 -47 0
28 -56 -104 0
28 -32 67 0
28 -31 -75 0
29 -104 108 0
29 -51 -66 0
29 -44 63 0
29 80 84 0
30 -45 -80 0
30 61 -103 0
31 -79 108 0
31 -52 107 0
31 -43 45 0
31 -39 87 0
32 -72 -95 0
32 98 113 0
33 -51 54 0
33 -38 42 0
33 73 85 0
34 -74 92 0
34 88 -107 0
34 91 118 0
34 100 108 0
35 -79 117 0
35 -43 -82 0
35 -42 90 0
35 36 96 0
35 45 103 0
35 46 57 0
35 60 -65 0
36 -64 -94 0
36 68 -104 0
36 82 89 0
37 -95 -113 0
37 -68 91 0
37 51 -66 0
37 52 -90 0
37 79 117 0
38 -68 74 0
38 69 -116 0
38 83 -113 0
39 -67 118 0
39 -61 -115 0
40 -74 -116 0
40 -46 -75 0
40 -41 -110 0
40 44 -98 0
40 85 112 0
41 -95 -108 0
41 -88 101 0
41 -53 72 0
41 -50 -117 0
41 -45 91 0
42 43 -98 0
43 -57 98 0
44 50 107 0
44 67 -71 0
44 81 -103 0
44 83 100 0
45 -48 -69 0
45 87 -91 0
45 113 -120 0
46 -106 -119 0
46 -47 104 0
46 52 -75 0
46 70 -89 0
47 58 94 0
47 60 -83 0
48 53 -80 0
48 58 -84 0
49 50 -109 0
50 -77 87 0
52 -63 93 0
52 61 -82 0
53 79 -83 0
53 98 116 0
54 62 -118 0
54 62 106 0
55 -78 -97 0
55 58 -107 0
55 68 -120 0
55 80 -118 0
56 -80 -98 0
57 -84 -99 0
57 61 -114 0
58 -69 -71 0
59 -66 -117 0
59 89 -93 0
59 100 -116 0
60 -103 -109 0
60 -64 102 0
61 -94 114 0
61 -78 100 0
61 -64 -109 0
61 77 -113 0
63 -103 104 0
63 75 84 0
63 77 -82 0
65 -70 98 0
65 -69 -100 0
66 107 115 0
67 -92 -105 0
67 -87 -101 0
68 82 -90 0
68 89 100 0
69 -92 -110 0
70 -91 -117 0
71 93 -96 0
72 -82 -118 0
72 77 -110 0
72 89 105 0
75 76 85 0
76 -114 120 0
76 -89 -94 0
79 -102 112 0
79 -88 114 0
80 100 114 0
83 -93 -103 0
83 -90 95 0
84 -114 116 0
86 92 98 0
86 108 -118 0
90 -104 -107 0
96 100 -105 0
98 -99 -105 0
