p cnf 50 213
-41 -46 50 0
-40 41 48 0
-34 -37 -44 0
-34 35 39 0
-33 -44 50 0
-32 42 44 0
-31 -39 -47 0
-31 -35 -45 0
-30 -49 -50 0
-30 -41 44 0
-29 -32 -49 0
-28 37 -45 0
-25 -33 -34 0
-24 31 49 0
-23 25 -50 0
-22 26 -44 0
-22 29 43 0
-21 -28 37 0
-21 -27 -49 0
-21 36 -41 0
-19 -25 45 0
-19 -24 28 0
-19 20 -29 0
-19 25 -27 0
-19 33 44 0
-19 35 -48 0
-19 35 48 0
-19 38 -48 0
-18 -31 -39 0
-18 20 -40 0
-18 25 30 0
-18 33 -39 0
-17 -24 34 0
-17 -23 -39 0
-17 35 44 0
-16 -21 -50 0
-16 -17 -48 0
-16 18 -19 0
-15 -28 33 0
-15 -18 -25 0
-15 25 26 0
-15 29 -50 0
-15 30 -36 0
-14 43 -50 0
-13 16 -22 0
-13 23 -48 0
-13 24 33 0
-13 33 -35 0
-12 -26 48 0
-12 -22 -39 0
-12 13 26 0
-12 41 -48 0
-11 12 -23 0
-10 -36 44 0
-10 -35 50 0
-10 -27 32 0
-10 -24 31 0
-10 -11 24 0
-10 15 -28 0
-9 -39 -42 0
-9 -26 -30 0
-9 -14 34 0
-9 29 -30 0
-9 36 -41 0
-9 45 -46 0
-8 -30 -32 0
-8 -28 -29 0
-8 -20 -30 0
-8 -13 -19 0
-7 -35 49 0
-7 -14 22 0
-7 22 -42 0
-6 -16 -25 0
-6 26 35 0
-6 29 -33 0
-5 -40 -46 0
-5 -12 41 0
-5 -11 -25 0
-5 -10 -46 0
-5 -8 17 0
-5 6 -31 0
-5 12 -45 0
-5 37 -49 0
-4 -26 28 0
-4 -22 -24 0
-4 -11 -42 0
-4 6 23 0
-4 12 27 0
-4 14 -39 0
-4 25 -48 0
-3 -23 25 0
-3 14 35 0
-3 25 -38 0
-3 28 39 0
-3 29 -35 0
-3 32 -44 0
-2 -20 47 0
-2 3 -43 0
-2 7 -28 0
-2 21 37 0
-2 22 -47 0
-2 29 -30 0
-1 -42 -43 0
-1 -35 41 0
-1 -24 -44 0
-1 -14 24 0
-1 -8 -31 0
-1 -3 -4 0
-1 -3 42 0
-1 4 49 0
-1 7 -14 0
-1 36 48 0
1 -21 34 0
1 8 43 0
1 37 38 0
2 -27 -39 0
2 -26 43 0
2 -19 -50 0
2 -6 -12 0
2 7 33 0
2 8 -35 0
2 8 48 0
2 22 42 0
2 31 42 0
3 -36 -44 0
3 -28 -37 0
3 -7 -17 0
3 4 -41 0
3 4 32 0
3 24 -41 0
3 37 44 0
3 45 -50 0
4 -36 45 0
4 -29 -47 0
4 -19 -35 0
4 -14 -18 0
4 -8 39 0
4 -6 -17 0
4 -6 28 0
4 6 24 0
5 -31 -40 0
5 -16 46 0
5 -12 31 0
5 -7 47 0
5 6 -28 0
5 25 -46 0
5 45 -50 0
6 -18 -24 0
6 8 -50 0
6 22 32 0
7 -28 35 0
7 -8 12 0
7 10 -32 0
7 10 35 0
8 -28 40 0
8 -26 34 0
8 -18 25 0
8 21 -45 0
9 -13 -42 0
9 -10 -48 0
9 19 36 0
9 29 39 0
10 -25 42 0
11 20 -34 0
11 25 -45 0
11 36 -38 0
12 -27 42 0
12 -22 -32 0
12 -19 44 0
12 -15 21 0
12 18 -34 0
12 18 46 0
12 27 -34 0
13 -42 49 0
13 17 43 0
13 41 49 0
15 -31 37 0
15 -22 -41 0
15 18 25 0
15 20 -38 0
15 34 50 0
15 39 -40 0
16 -26 37 0
16 -24 -48 0
16 -24 -46 0
17 -22 39 0
17 -20 23 0
17 21 -36 0
18 -29 -30 0
19 -20 -36 0
19 36 -47 0
20 -36 39 0
20 24 47 0
21 -43 -44 0
21 -31 49 0
22 -36 -42 0
23 -39 -47 0
23 25 -26 0
24 26 -37 0
24 43 47 0
25 -34 -42 0
26 -35 -48 0
26 -32 46 0
26 32 38 0
27 32 41 0
28 -42 -44 0
28 31 44 0
29 34 -38 0
29 48 -49 0
33 43 -48 0
34 -35 -48 0
39 -48 50 0
40 -42 -47 0
