p cnf 40 170
-33 -34 35 0
-28 -34 36 0
-27 -36 -37 0
-27 35 36 0
-24 36 -37 0
-22 -33 -37 0
-20 -23 -36 0
-20 31 -37 0
-19 21 25 0
-19 27 39 0
-19 29 -35 0
-16 -26 29 0
-16 33 -40 0
-15 -28 -39 0
-15 -18 29 0
-14 -23 -34 0
-14 -18 -25 0
-14 20 -31 0
-14 22 -31 0
-14 22 39 0
-13 34 36 0
-12 -24 37 0
-12 27 32 0
-12 32 37 0
-11 -31 37 0
-11 -23 32 0
-11 13 22 0
-10 -26 -38 0
-10 -23 -24 0
-10 -16 -31 0
-9 -27 -39 0
-9 -24 28 0
-9 -16 25 0
-9 -12 15 0
-9 11 16 0
-9 13 38 0
-9 13 39 0
-9 33 -40 0
-8 -26 -36 0
-8 -15 25 0
-8 26 35 0
-7 -27 -30 0
-7 -18 33 0
-7 -17 32 0
-7 28 33 0
-6 -15 20 0
-6 -10 21 0
-6 -8 -18 0
-6 -7 21 0
-6 11 -15 0
-6 19 -40 0
-6 20 38 0
-6 22 -38 0
-5 -36 -39 0
-5 -19 29 0
-5 -17 -20 0
-5 -16 40 0
-5 -11 -21 0
-5 -10 -20 0
-5 -9 35 0
-5 9 -20 0
-5 18 35 0
-5 23 -37 0
-5 24 35 0
-5 30 39 0
-4 -10 31 0
-4 -5 -24 0
-4 8 -27 0
-3 -18 29 0
-3 -11 -16 0
-3 -7 -36 0
-3 5 -35 0
-3 8 -27 0
-3 10 33 0
-2 -7 -32 0
-2 -6 37 0
-2 3 24 0
-2 7 -28 0
-2 11 22 0
-2 13 -39 0
-1 -18 25 0
-1 -15 -27 0
-1 -12 -27 0
-1 -5 -19 0
-1 -4 -26 0
-1 -2 22 0
-1 6 30 0
-1 6 36 0
1 5 25 0
1 9 18 0
1 15 -16 0
1 34 -36 0
2 -31 -40 0
2 -7 -25 0
2 -5 -20 0
2 5 23 0
2 8 20 0
2 28 -40 0
3 -11 25 0
3 -10 -35 0
3 -9 -38 0
3 4 -10 0
3 7 9 0
3 9 -25 0
3 21 39 0
3 25 -35 0
4 -21 -36 0
4 -12 -40 0
4 6 12 0
4 18 -23 0
4 24 -33 0
4 30 38 0
5 12 -28 0
6 -31 35 0
6 -17 -36 0
6 10 19 0
7 -22 23 0
7 -18 -25 0
7 -14 -40 0
7 8 14 0
8 -16 -22 0
8 -9 -20 0
8 16 -40 0
8 35 40 0
9 -19 28 0
9 -18 -38 0
9 12 32 0
10 -27 28 0
10 11 -39 0
11 -23 -36 0
11 16 17 0
11 18 34 0
11 19 -30 0
11 21 34 0
12 -27 37 0
12 -24 40 0
13 -15 40 0
13 19 -30 0
14 19 35 0
14 22 38 0
15 17 37 0
15 29 -34 0
15 31 -33 0
15 33 39 0
16 18 36 0
17 -30 -32 0
18 -30 -37 0
18 19 34 0
18 22 29 0
20 -28 30 0
20 -21 -28 0
20 23 31 0
20 29 37 0
21 -26 -38 0
21 25 38 0
22 -32 -36 0
23 27 -37 0
24 -25 -40 0
24 26 -37 0
25 -32 -40 0
25 32 -37 0
26 -28 30 0
26 27 -28 0
27 -30 33 0
27 28 -32 0
27 34 -37 0
30 34 37 0
30 35 -40 0
32 -33 35 0
35 38 40 0
