p cnf 70 298
-59 -63 70 0
-53 -56 -70 0
-50 -52 -56 0
-45 59 69 0
-42 59 69 0
-40 47 59 0
-39 49 -53 0
-38 -62 -66 0
-38 -59 -60 0
-38 -56 -61 0
-37 -43 70 0
-37 42 -67 0
-36 -39 49 0
-34 -54 55 0
-34 52 -54 0
-33 -54 64 0
-33 45 -56 0
-32 -63 66 0
-32 42 -66 0
-31 -42 46 0
-31 -35 51 0
-31 52 53 0
-31 55 -64 0
-31 55 56 0
-30 33 46 0
-29 -48 -68 0
-29 -47 54 0
-29 41 -45 0
-29 50 57 0
-27 -32 -52 0
-27 29 61 0
-26 30 32 0
-25 -29 -48 0
-25 33 56 0
-25 51 64 0
-24 -33 -46 0
-23 -60 65 0
-23 -31 46 0
-23 -26 -39 0
-22 25 -55 0
-22 31 49 0
-22 51 54 0
-21 22 -63 0
-20 45 51 0
-19 -54 59 0
-19 -36 40 0
-19 30 -66 0
-19 33 35 0
-19 39 -48 0
-19 44 62 0
-18 21 -33 0
-18 31 42 0
-18 35 63 0
-18 40 -55 0
-18 49 -50 0
-17 -51 63 0
-17 -21 47 0
-17 23 34 0
-17 24 59 0
-16 -56 -69 0
-16 -33 -35 0
-16 -17 -68 0
-16 17 -45 0
-16 30 -62 0
-16 30 -55 0
-16 37 -52 0
-15 -49 -63 0
-15 -21 -58 0
-15 27 47 0
-15 30 52 0
-14 -37 38 0
-14 23 44 0
-14 28 -60 0
-14 32 69 0
-13 -46 65 0
-13 -45 -49 0
-13 -26 49 0
-13 -20 38 0
-13 -15 -16 0
-12 -27 58 0
-12 18 61 0
-12 24 59 0
-12 47 -51 0
-11 -46 -56 0
-11 -21 -26 0
-11 23 -24 0
-11 36 -50 0
-11 56 60 0
-11 61 -69 0
-10 -49 -53 0
-10 -31 -56 0
-10 -13 22 0
-10 15 -43 0
-9 -33 -50 0
-9 -11 17 0
-9 18 -23 0
-9 43 -56 0
-9 50 -66 0
-8 -58 65 0
-8 -46 64 0
-8 -40 -60 0
-8 -36 -68 0
-8 -36 57 0
-8 -15 -66 0
-8 33 63 0
-8 56 68 0
-7 -38 40 0
-7 -30 56 0
-7 -25 36 0
-7 10 -58 0
-7 12 56 0
-7 31 45 0
-6 -48 -59 0
-6 -44 64 0
-6 -25 44 0
-6 -16 -57 0
-6 -16 67 0
-6 20 29 0
-6 41 -65 0
-5 -25 35 0
-5 -14 -29 0
-5 6 -48 0
-5 10 -25 0
-5 17 -33 0
-5 28 -42 0
-4 -50 51 0
-4 -40 -53 0
-4 -6 -56 0
-4 18 23 0
-4 19 36 0
-4 59 -61 0
-3 -24 -31 0
-3 -14 -50 0
-3 -9 -32 0
-3 21 37 0
-2 -32 -51 0
-2 -18 36 0
-2 -8 18 0
-2 16 -31 0
-2 27 59 0
-2 29 61 0
-1 -55 61 0
-1 -47 -61 0
-1 -29 61 0
-1 -13 -66 0
-1 4 11 0
-1 9 -31 0
-1 28 -44 0
-1 36 -66 0
-1 41 65 0
1 -46 -60 0
1 -39 46 0
1 -3 -57 0
1 -3 -24 0
1 -2 24 0
1 6 -34 0
1 8 -17 0
1 13 47 0
1 48 69 0
2 -44 55 0
2 -26 57 0
2 -25 34 0
2 -8 20 0
2 3 15 0
2 21 -57 0
2 49 51 0
2 67 68 0
3 -21 -35 0
3 -19 -59 0
3 -14 -64 0
3 8 -69 0
3 19 23 0
3 26 -64 0
3 27 -65 0
3 57 -59 0
4 -34 69 0
4 -32 -54 0
4 -26 62 0
4 -8 32 0
4 7 23 0
4 28 70 0
4 57 66 0
4 61 65 0
5 30 39 0
5 41 -58 0
5 44 -64 0
5 47 49 0
6 -19 43 0
6 26 -70 0
6 27 68 0
6 39 -53 0
7 -26 -43 0
7 50 -55 0
8 -40 -53 0
8 55 63 0
8 56 -70 0
8 59 -60 0
8 63 -64 0
9 -43 -54 0
9 -23 27 0
9 -15 -47 0
9 11 -24 0
9 29 -42 0
10 -47 -50 0
10 -24 -29 0
10 -15 24 0
10 12 41 0
10 19 28 0
10 27 -52 0
10 36 49 0
11 -33 37 0
11 39 43 0
12 -57 68 0
12 -27 60 0
12 13 22 0
12 37 59 0
12 47 -48 0
12 63 -70 0
13 -40 69 0
13 -31 67 0
13 -24 69 0
13 -15 19 0
13 39 -47 0
14 -60 -64 0
14 -16 64 0
14 19 -60 0
14 23 -43 0
15 -62 63 0
16 -18 64 0
16 31 70 0
17 -29 -61 0
17 18 33 0
17 24 -31 0
18 -42 66 0
18 -21 -67 0
18 40 -44 0
18 54 69 0
19 20 24 0
19 20 70 0
19 33 -50 0
19 51 62 0
20 -41 -58 0
20 31 45 0
21 -48 49 0
21 44 -45 0
21 54 58 0
21 66 -67 0
22 -23 -38 0
22 49 -68 0
22 57 -66 0
23 49 64 0
24 -50 -67 0
24 -41 -65 0
24 35 -54 0
25 29 -36 0
26 -53 54 0
26 -41 -58 0
26 -39 -46 0
26 -27 -40 0
26 33 -51 0
27 30 58 0
27 37 41 0
27 40 64 0
28 -30 -46 0
29 -64 -70 0
29 -32 -61 0
29 39 -69 0
30 57 -66 0
32 37 -45 0
32 59 -63 0
33 -49 -70 0
34 -53 65 0
34 -44 59 0
34 43 55 0
35 -61 65 0
35 -50 -54 0
35 -42 -50 0
35 43 -59 0
35 57 -66 0
35 60 -63 0
36 58 65 0
37 40 59 0
38 -39 -51 0
38 51 59 0
38 61 70 0
39 -58 -59 0
40 -61 63 0
40 57 59 0
41 42 -68 0
41 66 67 0
42 -50 -53 0
42 -45 57 0
42 44 -52 0
43 50 56 0
44 57 -63 0
46 -51 -69 0
46 48 -66 0
60 64 69 0
