p cnf 30 128
-24 25 30 0
-22 -23 -24 0
-20 -27 -29 0
-20 -27 29 0
-20 -27 30 0
-18 -23 -24 0
-18 19 20 0
-18 23 24 0
-17 -22 -23 0
-16 -18 23 0
-15 17 29 0
-15 20 22 0
-13 17 24 0
-12 18 25 0
-11 -14 27 0
-10 25 26 0
-9 -11 24 0
-9 -10 -24 0
-9 11 -21 0
-9 12 19 0
-9 17 18 0
-8 -25 29 0
-8 -22 29 0
-8 -21 -29 0
-8 -10 -18 0
-8 11 -13 0
-8 13 20 0
-8 27 -28 0
-7 -14 17 0
-7 8 -29 0
-7 9 29 0
-7 10 16 0
-7 20 -21 0
-6 14 22 0
-5 -23 -24 0
-5 10 -25 0
-5 10 30 0
-4 -7 -10 0
-4 14 -30 0
-3 -18 23 0
-3 -16 -28 0
-3 -4 7 0
-3 17 22 0
-2 -13 29 0
-2 -9 -25 0
-2 -9 -20 0
-2 -5 27 0
-2 3 -11 0
-2 6 29 0
-2 15 24 0
-2 20 -21 0
-2 21 -26 0
-1 -24 26 0
-1 -17 -20 0
-1 2 -8 0
-1 2 7 0
-1 6 -11 0
-1 10 -23 0
-1 20 -22 0
1 -2 11 0
1 8 -18 0
1 9 13 0
1 9 22 0
1 9 28 0
1 12 21 0
1 15 -19 0
1 19 20 0
2 -13 27 0
2 -9 -10 0
2 -8 -13 0
2 -6 20 0
2 -5 12 0
2 6 11 0
2 7 18 0
3 -19 27 0
3 -14 19 0
3 -7 15 0
3 -6 11 0
3 -4 9 0
3 6 28 0
3 9 30 0
3 12 -14 0
3 14 -30 0
3 15 -18 0
4 -6 28 0
4 15 -28 0
5 -18 -23 0
5 -15 -25 0
5 -13 -30 0
5 12 -28 0
6 -28 30 0
6 -17 -29 0
6 -16 -23 0
6 -12 14 0
6 -11 17 0
6 -10 -19 0
7 9 -29 0
8 -19 -23 0
8 -19 21 0
8 -11 -24 0
8 24 -28 0
9 -20 -30 0
9 13 -25 0
9 13 20 0
9 17 -27 0
9 17 -19 0
10 -19 24 0
10 16 -27 0
10 17 29 0
10 21 25 0
10 25 29 0
11 -20 25 0
11 -15 29 0
11 15 -30 0
12 -29 30 0
12 25 -29 0
13 -22 23 0
13 16 23 0
13 18 30 0
15 16 -30 0
15 19 -28 0
16 -23 24 0
16 -21 -24 0
16 -17 21 0
16 21 -29 0
17 22 30 0
18 21 22 0
21 22 25 0
