p cnf 90 383
-70 75 78 0
-70 82 83 0
-68 -87 88 0
-63 86 -87 0
-62 71 -86 0
-58 64 74 0
-57 65 -86 0
-57 72 77 0
-56 -65 -86 0
-55 -61 85 0
-54 -55 -81 0
-53 -66 -71 0
-53 55 70 0
-52 -60 -89 0
-52 -55 73 0
-52 -54 57 0
-52 -53 -73 0
-51 -52 -76 0
-51 58 -60 0
-49 -72 -74 0
-49 -61 89 0
-49 74 79 0
-48 49 84 0
-47 -84 -87 0
-47 -68 79 0
-46 -62 -87 0
-46 87 89 0
-45 -71 -73 0
-45 -53 58 0
-45 -47 54 0
-44 48 58 0
-44 61 85 0
-42 44 88 0
-42 64 66 0
-41 -87 -88 0
-41 -81 88 0
-40 -54 -88 0
-40 51 78 0
-39 -46 -80 0
-38 -67 82 0
-38 61 85 0
-37 -57 -75 0
-37 62 72 0
-35 -83 -86 0
-35 -53 66 0
-35 -46 49 0
-35 36 65 0
-35 39 84 0
-34 -54 90 0
-34 -42 -78 0
-34 40 -65 0
-33 -57 60 0
-33 -51 78 0
-33 -36 64 0
-33 38 68 0
-33 42 69 0
-31 -37 -58 0
-31 -34 -87 0
-31 63 71 0
-30 35 -65 0
-29 -69 -75 0
-29 -41 62 0
-29 -39 -83 0
-29 -37 52 0
-29 -31 -90 0
-29 30 46 0
-28 -72 -75 0
-28 -53 55 0
-28 -29 75 0
-27 29 -69 0
-27 32 63 0
-27 34 77 0
-27 43 -71 0
-26 -42 78 0
-26 63 -90 0
-25 -34 -72 0
-25 45 78 0
-24 -27 -71 0
-24 28 -39 0
-23 -71 83 0
-23 -33 -35 0
-23 40 -43 0
-22 -45 -73 0
-22 -29 59 0
-22 32 78 0
-22 36 -63 0
-21 -25 75 0
-21 49 -80 0
-20 -53 -86 0
-20 -43 -66 0
-20 25 89 0
-19 -47 -80 0
-19 43 83 0
-18 -39 83 0
-18 45 -70 0
-17 23 51 0
-17 40 64 0
-17 46 -57 0
-17 49 88 0
-16 -18 -85 0
-16 37 50 0
-16 51 69 0
-16 62 -88 0
-16 66 78 0
-16 70 82 0
-15 -32 -70 0
-15 17 -68 0
-14 -79 -83 0
-14 -57 -80 0
-14 -52 81 0
-14 -28 -37 0
-14 15 -68 0
-14 47 -79 0
-14 72 83 0
-13 -63 -76 0
-13 -51 -52 0
-13 -41 -54 0
-13 -31 33 0
-13 -26 43 0
-13 -23 -78 0
-13 20 55 0
-12 -27 -84 0
-12 -23 -87 0
-12 13 -79 0
-12 22 81 0
-12 23 -74 0
-11 -73 89 0
-11 -32 88 0
-11 -15 36 0
-11 -13 -50 0
-11 21 76 0
-11 26 43 0
-11 33 48 0
-10 -67 86 0
-10 -12 89 0
-10 -11 81 0
-10 22 -90 0
-10 33 42 0
-10 36 -64 0
-10 36 37 0
-10 72 -89 0
-10 77 -89 0
-9 -36 -41 0
-9 -27 50 0
-9 16 68 0
-9 21 -58 0
-9 24 -90 0
-9 53 -64 0
-8 -37 40 0
-8 -17 45 0
-8 53 -57 0
-7 -61 -66 0
-7 -47 51 0
-7 -17 68 0
-7 14 -54 0
-7 23 -43 0
-6 -54 -61 0
-6 -35 -58 0
-6 -31 -60 0
-6 -19 56 0
-6 -8 -9 0
-6 9 40 0
-6 38 -88 0
-6 60 84 0
-5 -59 -69 0
-5 -29 32 0
-5 10 -78 0
-5 21 62 0
-5 31 81 0
-5 34 -44 0
-5 67 70 0
-4 -77 -85 0
-4 -46 -66 0
-4 -10 79 0
-4 17 56 0
-4 35 53 0
-3 -32 34 0
-3 36 39 0
-3 60 -79 0
-3 66 -70 0
-2 -65 77 0
-2 -12 -28 0
-2 -4 -65 0
-2 10 -62 0
-2 11 -75 0
-2 16 35 0
-2 38 46 0
-2 43 83 0
-2 50 80 0
-1 -45 -85 0
-1 -37 72 0
-1 -15 -51 0
-1 7 -11 0
-1 25 47 0
-1 39 82 0
-1 53 66 0
1 -55 -78 0
1 -34 -81 0
1 6 26 0
1 55 70 0
2 -51 -63 0
2 -24 -45 0
2 -21 79 0
2 18 -86 0
3 -27 87 0
3 -8 70 0
3 15 -66 0
3 37 -84 0
3 42 89 0
3 76 88 0
4 5 -84 0
4 35 72 0
4 51 -78 0
4 51 87 0
4 67 90 0
5 -46 -47 0
5 -41 79 0
5 -12 -38 0
5 29 60 0
6 -44 73 0
6 -20 74 0
6 -12 48 0
6 7 -50 0
6 7 79 0
6 11 -22 0
6 16 88 0
6 74 -80 0
7 -21 44 0
7 -13 -73 0
7 -12 -23 0
7 38 -60 0
7 41 58 0
7 68 77 0
8 -73 -83 0
8 -55 -64 0
8 27 -56 0
9 -32 -55 0
9 -28 -41 0
9 -25 87 0
9 -11 -12 0
10 -64 -77 0
10 -32 51 0
10 -29 -47 0
10 -15 50 0
11 -84 -86 0
11 27 -58 0
11 27 -55 0
11 77 -83 0
12 -79 80 0
12 80 87 0
13 -61 66 0
13 -56 -88 0
13 -47 64 0
13 -31 -60 0
13 -26 -65 0
13 15 47 0
14 -21 -75 0
14 37 53 0
14 53 86 0
15 -17 -49 0
15 16 -29 0
15 33 -55 0
16 -75 86 0
16 32 79 0
17 -55 -88 0
17 -21 57 0
17 24 52 0
17 33 -74 0
17 61 85 0
18 -35 -76 0
18 -31 56 0
19 -61 -76 0
19 -52 55 0
19 -37 69 0
19 -33 -36 0
19 24 45 0
19 38 79 0
19 44 86 0
20 -65 74 0
20 -46 89 0
20 -36 -74 0
20 44 -53 0
21 -43 -70 0
21 -39 71 0
21 -38 63 0
21 -26 56 0
21 71 89 0
22 -60 61 0
22 -30 81 0
22 25 -62 0
22 34 83 0
23 -56 -72 0
23 -33 35 0
23 44 60 0
23 49 82 0
23 64 -65 0
24 -39 86 0
24 44 71 0
24 59 -66 0
25 -70 74 0
25 -34 41 0
26 -66 -89 0
26 -46 -74 0
26 82 89 0
27 -79 -85 0
27 -45 -87 0
27 35 -81 0
27 44 71 0
27 51 -68 0
28 -55 -81 0
28 -36 47 0
28 30 35 0
28 33 50 0
28 38 -67 0
28 48 55 0
29 -49 83 0
29 -31 41 0
29 31 42 0
29 55 -82 0
30 -63 70 0
30 -59 82 0
30 39 -87 0
31 -62 82 0
31 45 52 0
32 -57 -65 0
32 -51 73 0
32 -46 -57 0
33 -61 -70 0
33 -59 61 0
33 54 -87 0
33 64 -67 0
33 76 -84 0
35 -77 85 0
35 -54 -59 0
35 -40 41 0
35 43 -85 0
35 69 82 0
36 -48 -88 0
36 58 85 0
37 -43 88 0
39 -70 75 0
39 -51 57 0
39 -46 90 0
40 -83 89 0
40 45 76 0
41 -71 -78 0
41 -68 -71 0
41 -53 -82 0
41 -45 87 0
41 47 -68 0
41 55 -79 0
42 -52 85 0
42 49 -53 0
42 71 80 0
43 -72 -79 0
43 53 78 0
43 64 -68 0
44 -60 -69 0
44 -57 70 0
44 -53 66 0
44 -48 -74 0
45 -69 -72 0
45 52 -70 0
45 63 66 0
46 -53 -73 0
46 -51 57 0
47 -70 -87 0
49 -60 -74 0
49 68 78 0
49 77 -89 0
51 70 88 0
52 82 85 0
54 -66 70 0
55 -67 88 0
55 84 85 0
56 61 74 0
58 64 -65 0
61 74 85 0
62 -74 89 0
62 76 -89 0
65 -78 81 0
67 71 -88 0
68 -69 85 0
