p cnf 150 638
-127 -137 -140 0
-117 121 139 0
-106 -116 126 0
-106 144 145 0
-105 113 -115 0
-102 115 118 0
-101 105 -106 0
-99 -129 -130 0
-98 128 -144 0
-94 -118 120 0
-94 -99 -122 0
-93 119 -124 0
-92 120 -131 0
-91 -108 129 0
-91 109 128 0
-90 98 -135 0
-89 -125 -146 0
-87 -90 -111 0
-86 -123 -149 0
-86 132 -145 0
-85 -121 139 0
-83 86 -148 0
-82 114 131 0
-81 96 117 0
-80 -112 120 0
-79 -100 -101 0
-79 97 -123 0
-78 -108 127 0
-78 -105 126 0
-78 -100 119 0
-78 95 -109 0
-76 -92 -144 0
-75 -120 129 0
-74 -107 -136 0
-73 102 -117 0
-72 -128 -150 0
-72 -93 149 0
-72 -80 113 0
-70 -98 118 0
-70 -92 127 0
-69 -89 -129 0
-69 101 138 0
-69 119 -124 0
-67 -136 148 0
-67 -131 137 0
-67 70 -139 0
-67 76 147 0
-67 93 -97 0
-67 123 130 0
-66 -122 137 0
-65 -131 -139 0
-65 -72 102 0
-64 -93 127 0
-64 -80 117 0
-64 -76 -134 0
-64 -74 -90 0
-64 77 84 0
-63 -94 142 0
-63 -77 110 0
-63 68 131 0
-62 -71 89 0
-62 83 145 0
-62 110 -148 0
-61 -80 138 0
-61 -75 149 0
-60 69 -92 0
-59 62 -147 0
-59 117 -139 0
-58 -124 -146 0
-58 -66 127 0
-58 66 -83 0
-57 -104 149 0
-57 136 -150 0
-56 60 108 0
-56 78 -106 0
-56 122 -134 0
-55 -62 87 0
-54 -65 -114 0
-54 -55 150 0
-54 99 -111 0
-53 -85 130 0
-53 57 71 0
-53 94 -150 0
-52 -108 -139 0
-52 -54 -110 0
-52 110 -120 0
-51 -97 -139 0
-51 67 124 0
-51 99 -143 0
-50 -52 -102 0
-49 93 -112 0
-48 -142 143 0
-48 -91 134 0
-48 -63 121 0
-48 119 -122 0
-48 130 141 0
-47 -106 126 0
-47 -94 135 0
-47 -56 87 0
-47 90 -150 0
-46 -84 113 0
-46 -69 115 0
-46 59 95 0
-45 -115 147 0
-45 -55 84 0
-45 -50 -85 0
-45 -49 -67 0
-44 -97 -114 0
-44 -73 -82 0
-44 95 110 0
-43 -120 124 0
-43 62 138 0
-43 102 -105 0
-42 -91 -149 0
-42 -51 -110 0
-42 55 70 0
-41 -85 -86 0
-41 -45 91 0
-41 76 94 0
-40 -106 138 0
-40 -41 -146 0
-39 -55 76 0
-39 -55 98 0
-39 65 -120 0
-39 77 114 0
-38 -92 -99 0
-38 -56 146 0
-38 -50 -139 0
-38 45 55 0
-38 79 -141 0
-38 105 -129 0
-37 -82 -112 0
-36 56 -147 0
-36 63 -94 0
-35 -84 -86 0
-35 -54 -133 0
-35 39 -49 0
-35 132 145 0
-34 -102 103 0
-34 -47 -122 0
-34 -43 70 0
-33 -68 72 0
-33 60 -64 0
-33 88 -93 0
-32 -99 -147 0
-32 -61 128 0
-32 -51 112 0
-32 46 92 0
-32 50 111 0
-32 90 93 0
-31 -52 117 0
-31 64 -138 0
-31 65 107 0
-31 86 106 0
-31 107 -142 0
-31 107 144 0
-30 -39 -65 0
-30 34 104 0
-30 45 57 0
-30 52 132 0
-30 55 117 0
-30 74 84 0
-29 -105 111 0
-29 -101 -131 0
-29 -88 99 0
-29 72 -117 0
-29 75 -90 0
-29 75 150 0
-29 88 115 0
-29 116 -130 0
-28 -94 121 0
-28 -34 99 0
-27 -69 -124 0
-27 -53 -135 0
-27 -47 -85 0
-27 46 77 0
-27 85 -86 0
-27 106 -139 0
-26 -39 78 0
-26 106 -149 0
-25 -122 -126 0
-25 -55 -88 0
-25 39 70 0
-25 41 52 0
-25 63 -120 0
-24 -42 136 0
-24 -26 117 0
-24 37 48 0
-24 42 83 0
-24 74 129 0
-24 96 -135 0
-23 -126 147 0
-23 -61 133 0
-23 -42 -50 0
-23 -32 -74 0
-23 38 -101 0
-23 54 -123 0
-23 55 -115 0
-23 64 -135 0
-23 85 141 0
-23 111 -114 0
-22 -118 -132 0
-22 -113 119 0
-22 -93 150 0
-22 64 -122 0
-22 138 146 0
-21 -63 83 0
-21 -43 -78 0
-21 -42 -49 0
-21 91 -132 0
-20 -88 116 0
-20 39 -92 0
-20 39 -83 0
-20 57 -139 0
-19 20 -101 0
-19 20 -25 0
-19 27 -133 0
-19 31 -119 0
-19 97 135 0
-19 109 -136 0
-18 -86 115 0
-18 -69 138 0
-18 -35 80 0
-18 95 141 0
-18 101 -106 0
-18 102 -121 0
-17 -132 -140 0
-17 -92 -138 0
-17 -53 -95 0
-17 32 -64 0
-17 57 -141 0
-16 -52 70 0
-16 19 26 0
-16 20 -146 0
-16 79 99 0
-16 105 127 0
-15 -95 -105 0
-15 -65 -92 0
-15 -61 90 0
-15 -59 -96 0
-15 -56 -90 0
-15 -19 -112 0
-15 -19 71 0
-15 16 -57 0
-15 78 118 0
-15 92 -105 0
-14 -88 -98 0
-14 -50 -138 0
-14 23 -145 0
-14 107 141 0
-13 -22 65 0
-13 32 -62 0
-13 39 -74 0
-13 68 129 0
-12 20 36 0
-12 70 -138 0
-11 -99 101 0
-11 -57 -117 0
-11 -49 -101 0
-11 -22 33 0
-11 69 -95 0
-11 119 -140 0
-11 125 127 0
-10 -88 150 0
-10 -87 95 0
-10 -45 -88 0
-10 65 88 0
-9 -94 113 0
-9 -26 -89 0
-9 29 -51 0
-9 52 90 0
-8 88 136 0
-7 -73 127 0
-7 -69 -107 0
-7 -28 -135 0
-7 -12 80 0
-7 52 -111 0
-7 118 -145 0
-7 122 -126 0
-6 37 39 0
-5 -17 -97 0
-5 12 -27 0
-5 32 59 0
-5 38 -40 0
-5 68 -131 0
-4 -106 144 0
-4 -48 131 0
-4 -46 -102 0
-4 -27 -66 0
-4 15 82 0
-4 19 -143 0
-4 36 -100 0
-4 48 85 0
-4 51 73 0
-3 -133 -142 0
-3 -69 -76 0
-3 4 -132 0
-3 54 -138 0
-3 73 -101 0
-3 91 105 0
-3 101 -136 0
-2 -118 148 0
-2 -98 -136 0
-2 -76 81 0
-2 -61 135 0
-2 -54 -105 0
-2 -51 -149 0
-2 22 -124 0
-2 74 -136 0
-2 92 -128 0
-1 -117 -136 0
-1 -113 136 0
-1 -92 114 0
-1 -29 119 0
-1 -6 -108 0
1 -21 -28 0
1 -19 141 0
1 -17 120 0
1 26 -51 0
1 39 103 0
1 52 -77 0
1 64 -146 0
1 72 148 0
2 -86 144 0
2 -81 106 0
2 -57 -95 0
2 6 56 0
2 24 134 0
2 28 -59 0
3 -73 -123 0
3 -10 -64 0
3 6 -128 0
3 36 -99 0
3 43 -98 0
3 71 -77 0
3 85 -141 0
4 -52 -106 0
4 -38 -143 0
4 -15 -53 0
4 -7 142 0
4 19 -79 0
4 30 -134 0
4 42 -134 0
4 58 113 0
4 83 104 0
4 90 120 0
5 8 12 0
5 22 -24 0
5 57 136 0
5 93 131 0
6 -38 -91 0
6 -18 -107 0
6 28 -55 0
6 36 -39 0
6 85 98 0
7 -61 113 0
7 -41 75 0
7 -24 -49 0
7 -21 -33 0
7 24 140 0
7 24 146 0
8 28 96 0
8 50 84 0
9 -66 76 0
9 -17 72 0
9 -16 -47 0
9 17 105 0
10 -129 148 0
10 -38 147 0
10 -30 -52 0
10 -24 99 0
10 37 -89 0
10 41 -56 0
10 55 -104 0
10 106 -139 0
10 143 -146 0
11 -83 -118 0
11 -62 -78 0
11 -61 -109 0
11 71 109 0
11 94 -111 0
11 99 137 0
12 -104 118 0
12 -99 124 0
12 -68 -89 0
12 -68 121 0
12 -56 92 0
12 -34 49 0
12 20 82 0
12 22 -134 0
12 27 -113 0
12 30 93 0
12 94 -138 0
12 106 -136 0
13 -135 141 0
13 -98 -122 0
13 -83 96 0
13 -52 80 0
13 -50 138 0
13 -29 -51 0
13 -23 138 0
13 15 -148 0
13 25 -68 0
13 37 48 0
13 101 103 0
14 29 -48 0
14 52 -125 0
14 59 -140 0
14 73 95 0
14 95 108 0
14 99 100 0
15 -133 141 0
15 -21 -28 0
15 29 -77 0
15 70 -138 0
15 92 -95 0
15 96 -148 0
16 -113 -135 0
16 -82 -88 0
16 40 127 0
16 43 -103 0
17 -29 39 0
17 48 -57 0
18 -135 143 0
18 -36 -43 0
19 29 -81 0
19 52 81 0
19 108 133 0
20 -64 132 0
20 -50 -77 0
20 36 65 0
20 99 -123 0
20 149 -150 0
21 -90 -138 0
21 -67 -90 0
21 -52 111 0
21 -42 114 0
21 36 -125 0
22 -49 119 0
22 -37 -105 0
22 -23 87 0
22 110 132 0
22 112 -119 0
22 119 -135 0
23 -108 -139 0
23 34 53 0
23 38 -82 0
23 136 -137 0
24 -64 71 0
24 -49 79 0
24 -33 -141 0
24 112 -129 0
25 -103 -150 0
25 -65 120 0
25 -50 57 0
25 33 -103 0
25 52 120 0
25 68 -133 0
25 90 -134 0
25 107 113 0
25 120 -125 0
25 142 -146 0
26 -50 71 0
26 -28 -46 0
26 59 149 0
27 -59 75 0
27 -34 103 0
28 -45 -51 0
28 -38 -149 0
29 -78 -95 0
29 -44 -67 0
29 -39 -62 0
29 60 112 0
29 64 108 0
29 68 -139 0
29 68 -100 0
29 102 131 0
29 103 -140 0
30 83 -122 0
31 -55 -93 0
31 62 -129 0
31 109 -142 0
32 -115 -148 0
32 -88 -129 0
32 -75 -122 0
32 -66 84 0
32 -37 -111 0
32 52 -62 0
33 -52 148 0
33 -39 -116 0
33 39 74 0
33 42 96 0
33 47 49 0
33 78 -82 0
34 -85 -94 0
34 43 81 0
34 45 -70 0
36 -110 140 0
36 -84 125 0
36 -70 83 0
36 -69 103 0
36 -61 -126 0
37 -111 121 0
37 69 79 0
37 116 -150 0
38 -99 126 0
38 -84 136 0
38 117 -134 0
38 123 127 0
39 -86 -96 0
39 42 -133 0
40 -72 -99 0
40 -42 46 0
40 70 -149 0
41 -100 -132 0
41 -97 -108 0
41 117 -146 0
41 119 123 0
41 123 -148 0
42 -102 -103 0
42 -102 133 0
42 -48 103 0
42 44 -113 0
42 49 -119 0
43 -92 -93 0
43 83 -145 0
44 -108 -131 0
44 -72 105 0
44 -50 -74 0
44 67 91 0
44 109 150 0
44 113 135 0
45 -74 -98 0
46 -90 130 0
46 51 150 0
47 -48 122 0
47 49 -103 0
48 -136 147 0
48 -103 133 0
48 -56 75 0
48 77 -139 0
48 113 136 0
49 -63 -79 0
49 58 96 0
49 59 67 0
49 65 -94 0
49 108 -122 0
50 -82 138 0
50 59 69 0
50 74 136 0
50 75 82 0
51 -85 99 0
51 65 -100 0
51 85 91 0
52 -82 97 0
52 -81 110 0
52 -77 106 0
52 55 69 0
52 115 121 0
53 -60 -80 0
53 87 127 0
53 99 129 0
54 -99 -115 0
54 116 -119 0
55 -88 -107 0
55 -72 135 0
55 -64 -124 0
56 -116 133 0
56 -113 137 0
56 72 133 0
57 103 115 0
57 126 -136 0
58 -105 -107 0
58 59 -72 0
59 119 131 0
60 -92 -117 0
60 -65 142 0
60 -61 -145 0
60 82 133 0
60 94 97 0
60 133 -136 0
61 -117 150 0
61 -77 143 0
61 87 149 0
62 -137 150 0
63 -73 148 0
64 -66 75 0
65 -80 -100 0
65 67 128 0
66 97 -111 0
67 -115 -127 0
67 -69 129 0
67 99 -120 0
67 103 -139 0
67 104 130 0
68 -76 89 0
69 -109 -110 0
69 95 135 0
69 122 -123 0
72 -109 123 0
72 92 -129 0
73 89 141 0
73 100 -126 0
75 -109 -122 0
75 -77 118 0
75 118 -148 0
76 -104 -129 0
76 80 113 0
77 -100 -121 0
78 -121 -129 0
78 -104 -107 0
79 93 -138 0
80 83 -131 0
80 94 115 0
81 131 -142 0
82 -115 -122 0
83 -95 102 0
84 -91 141 0
84 105 -142 0
85 -92 117 0
87 -117 144 0
87 -105 -109 0
90 123 137 0
91 -133 140 0
92 -142 -150 0
96 -106 -134 0
98 -113 143 0
100 -127 146 0
100 -113 -121 0
102 -111 -138 0
102 103 -114 0
102 140 146 0
105 137 142 0
112 117 -135 0
120 -128 133 0
126 134 148 0
130 133 -135 0
137 -143 -144 0
