p cnf 60 255
-53 -55 -60 0
-43 48 -57 0
-43 48 -52 0
-42 54 56 0
-38 52 -54 0
-36 -45 59 0
-35 -36 -46 0
-34 -46 -60 0
-34 -44 -53 0
-34 54 -57 0
-33 42 -48 0
-31 -36 58 0
-31 50 60 0
-29 34 48 0
-27 -39 48 0
-27 50 -59 0
-26 -30 46 0
-26 -28 -50 0
-26 48 53 0
-25 43 -51 0
-25 47 50 0
-24 31 59 0
-24 38 -40 0
-24 38 49 0
-23 -29 34 0
-23 -25 36 0
-23 44 52 0
-23 45 -49 0
-22 31 -50 0
-22 32 51 0
-21 -46 49 0
-21 -33 -39 0
-21 -30 32 0
-21 -22 30 0
-20 -25 -41 0
-20 36 38 0
-20 49 -54 0
-19 -52 -59 0
-19 -30 41 0
-19 -22 51 0
-18 -50 -55 0
-18 -19 38 0
-18 33 51 0
-18 40 -58 0
-18 43 -47 0
-17 -25 45 0
-17 19 48 0
-16 -24 -56 0
-16 19 59 0
-15 -44 60 0
-15 42 58 0
-14 41 44 0
-13 30 -49 0
-12 -21 -38 0
-12 13 52 0
-12 23 30 0
-12 30 41 0
-12 37 57 0
-12 42 54 0
-11 -29 57 0
-11 -22 -46 0
-11 -13 21 0
-11 48 56 0
-10 -38 45 0
-10 -38 50 0
-10 -25 60 0
-10 -20 -54 0
-10 -19 -37 0
-10 -13 -27 0
-10 14 -49 0
-10 18 52 0
-9 -17 -22 0
-9 22 37 0
-9 27 -54 0
-9 31 -34 0
-8 -19 -30 0
-8 -17 -44 0
-8 -10 52 0
-8 10 53 0
-8 11 -14 0
-8 44 51 0
-7 8 -58 0
-6 -43 -50 0
-6 -31 -52 0
-6 -14 -34 0
-6 -12 -39 0
-6 8 -17 0
-6 11 33 0
-6 21 29 0
-6 27 -39 0
-6 46 -55 0
-5 -42 46 0
-5 -34 49 0
-5 -27 35 0
-5 7 57 0
-5 41 -45 0
-4 -39 -56 0
-4 -37 56 0
-4 -26 -36 0
-4 -12 -31 0
-4 -10 37 0
-4 7 49 0
-4 19 58 0
-4 20 33 0
-4 23 -47 0
-4 25 -33 0
-4 33 35 0
-4 38 -44 0
-4 48 -58 0
-3 -22 -24 0
-3 -13 -59 0
-3 -8 51 0
-2 -33 52 0
-2 -15 43 0
-2 -8 -42 0
-2 17 -37 0
-2 28 -58 0
-1 -20 -26 0
-1 -17 52 0
-1 13 43 0
-1 23 29 0
-1 24 42 0
-1 27 -31 0
1 -46 -54 0
1 -34 41 0
1 -32 34 0
1 -27 -34 0
1 -21 -59 0
1 -14 50 0
1 2 59 0
1 7 55 0
1 25 -36 0
1 29 54 0
2 -46 -58 0
2 -40 -57 0
2 -38 43 0
2 -29 47 0
2 -17 55 0
2 -4 9 0
2 11 -37 0
3 -50 -56 0
3 -42 -45 0
3 -20 -41 0
3 -20 -25 0
3 -10 -38 0
4 -18 -51 0
4 -5 29 0
4 14 -56 0
4 32 43 0
5 -50 -54 0
5 -35 39 0
5 -15 30 0
5 25 30 0
6 7 -45 0
7 -43 -51 0
7 -31 -33 0
7 -29 58 0
7 -23 -36 0
7 10 38 0
7 15 -58 0
7 23 55 0
7 36 -44 0
8 -44 57 0
8 9 27 0
8 15 17 0
8 22 -60 0
8 22 45 0
8 49 -53 0
9 -29 53 0
9 -28 -48 0
9 25 -43 0
10 -40 -52 0
10 -12 44 0
10 14 20 0
10 14 49 0
10 25 -49 0
11 -19 -33 0
11 32 -35 0
11 38 -50 0
11 57 -58 0
12 -41 -51 0
12 -24 36 0
12 -17 44 0
12 -13 -17 0
12 20 45 0
13 -41 -52 0
13 -22 31 0
13 38 56 0
13 52 55 0
14 -23 -28 0
14 -19 53 0
14 29 56 0
14 40 -45 0
15 -28 33 0
15 -28 56 0
15 28 29 0
15 30 -50 0
15 40 58 0
16 -48 52 0
16 23 39 0
17 25 -48 0
17 34 -58 0
18 -26 -46 0
18 42 -54 0
19 22 43 0
19 23 -33 0
19 23 39 0
19 25 27 0
20 -33 35 0
20 -27 56 0
20 -26 60 0
20 23 -55 0
20 28 60 0
20 31 -47 0
20 38 -59 0
21 -39 57 0
21 47 -59 0
22 -34 -53 0
22 -25 45 0
23 24 -30 0
23 32 52 0
24 -39 46 0
24 34 57 0
25 -31 37 0
25 35 -51 0
26 -43 -44 0
26 29 -41 0
26 29 47 0
27 -33 44 0
27 28 -36 0
27 32 -59 0
28 30 44 0
28 47 55 0
29 58 59 0
30 -40 49 0
30 -34 -46 0
30 -32 -48 0
30 32 -33 0
30 42 46 0
32 34 40 0
32 34 45 0
32 49 55 0
33 -40 -44 0
33 -37 -47 0
34 -37 -40 0
34 38 58 0
34 47 53 0
37 47 54 0
38 -39 43 0
39 56 -60 0
40 50 57 0
42 -45 49 0
44 -48 -57 0
46 -47 50 0
48 -50 -58 0
