p cnf 60 180
-52 56 57 0
-50 56 57 0
-48 52 53 0
-42 -52 56 0
-41 -53 57 0
-39 -45 54 0
-38 -53 -59 0
-38 51 56 0
-36 -46 49 0
-35 36 -38 0
-33 39 -44 0
-32 -44 45 0
-32 37 41 0
-31 -33 52 0
-30 -40 50 0
-30 38 58 0
-28 -52 54 0
-28 -46 -52 0
-28 35 -59 0
-27 -41 -54 0
-27 -35 42 0
-27 40 -42 0
-25 39 54 0
-25 42 43 0
-24 31 -54 0
-23 -39 -42 0
-22 -29 38 0
-22 35 -56 0
-22 39 -47 0
-21 28 -45 0
-21 31 50 0
-20 -34 45 0
-20 -29 47 0
-19 -21 28 0
-19 41 60 0
-19 53 -57 0
-18 22 36 0
-18 34 -41 0
-17 -40 -57 0
-17 -21 35 0
-17 20 23 0
-17 26 55 0
-16 -46 -55 0
-16 -46 -52 0
-16 -36 -55 0
-15 -31 -42 0
-15 -24 47 0
-15 -17 40 0
-15 21 -48 0
-15 29 57 0
-14 -35 46 0
-14 24 -27 0
-14 27 30 0
-12 -24 31 0
-12 -15 50 0
-12 30 35 0
-12 32 -54 0
-11 -51 58 0
-11 28 -50 0
-11 42 -45 0
-10 -45 -52 0
-10 -36 -55 0
-10 15 28 0
-9 -47 -55 0
-8 -12 58 0
-8 22 -43 0
-8 50 -58 0
-7 -29 -60 0
-7 -21 50 0
-7 -12 -25 0
-6 -11 19 0
-5 23 30 0
-4 -36 -41 0
-4 -16 36 0
-4 -15 27 0
-4 -5 25 0
-4 41 -47 0
-3 -38 -53 0
-3 -20 34 0
-3 16 -48 0
-3 26 -47 0
-2 -44 52 0
-2 -43 51 0
-2 -19 53 0
-2 14 31 0
-2 26 54 0
-2 49 -60 0
-1 -16 -50 0
-1 -9 -57 0
-1 8 52 0
-1 13 26 0
-1 15 -24 0
-1 31 43 0
1 -48 -59 0
1 -47 -56 0
1 10 23 0
1 55 59 0
2 -32 43 0
2 -29 54 0
3 -30 -31 0
3 -8 -43 0
3 -4 21 0
3 8 -40 0
3 9 21 0
3 31 40 0
4 -15 49 0
4 -5 17 0
4 43 -51 0
5 -35 60 0
5 -33 53 0
5 -9 46 0
5 -8 -56 0
6 -17 42 0
6 -10 57 0
6 17 35 0
6 20 41 0
6 36 51 0
7 -12 -25 0
7 35 41 0
7 45 58 0
8 -30 -36 0
8 -30 49 0
8 16 -30 0
9 -23 -35 0
9 13 -15 0
9 34 48 0
10 -33 -56 0
10 -14 -29 0
10 43 -60 0
12 -43 -46 0
12 -33 58 0
12 -16 55 0
12 -15 45 0
14 -45 -53 0
14 -31 45 0
14 -19 29 0
14 56 58 0
15 48 53 0
16 44 48 0
17 18 -60 0
17 27 -47 0
17 43 54 0
18 -28 -31 0
18 25 -56 0
18 50 60 0
19 21 -32 0
19 36 -51 0
19 43 45 0
19 49 -54 0
19 56 58 0
20 -33 49 0
20 -31 -37 0
20 -23 -38 0
21 28 52 0
23 -42 -49 0
23 -24 -48 0
23 46 -54 0
24 42 49 0
25 34 52 0
25 43 -45 0
27 52 -54 0
28 -42 -54 0
28 -31 -55 0
28 -30 40 0
28 45 -55 0
29 40 -44 0
30 -42 45 0
33 -50 -55 0
33 -36 -51 0
34 39 -60 0
35 -47 48 0
35 44 59 0
36 -43 -58 0
36 39 -60 0
36 44 -59 0
39 40 44 0
40 -53 58 0
41 45 -52 0
49 -58 -59 0
50 53 -60 0
