p cnf 120 510
-115 118 119 0
-103 -111 114 0
-99 -104 -115 0
-97 -110 112 0
-94 112 -117 0
-90 101 -112 0
-89 91 -107 0
-86 -107 117 0
-86 -103 -111 0
-86 107 113 0
-84 -99 -116 0
-82 -87 -112 0
-81 -89 -97 0
-79 99 -114 0
-77 -82 -98 0
-75 -82 101 0
-75 80 -114 0
-72 75 80 0
-71 112 114 0
-70 -88 -99 0
-69 -76 -108 0
-69 95 102 0
-69 98 -108 0
-68 -104 -108 0
-67 95 -107 0
-66 -100 101 0
-65 -97 -109 0
-64 -80 120 0
-64 73 -102 0
-62 -110 119 0
-62 71 -111 0
-62 100 -106 0
-61 -99 110 0
-59 72 -82 0
-59 82 -107 0
-59 110 -111 0
-57 87 -96 0
-56 -84 -109 0
-56 74 84 0
-56 93 105 0
-55 61 108 0
-55 70 109 0
-55 78 -91 0
-54 77 100 0
-53 57 95 0
-53 69 104 0
-52 -78 94 0
-52 57 -100 0
-52 80 86 0
-51 -96 -98 0
-50 -75 89 0
-50 55 -76 0
-50 75 -105 0
-50 92 -98 0
-50 100 -115 0
-49 -111 -117 0
-49 -67 102 0
-49 53 99 0
-49 99 -118 0
-48 -76 -116 0
-47 63 -86 0
-46 -65 116 0
-46 47 -102 0
-46 58 -71 0
-46 88 -109 0
-45 -79 119 0
-45 -59 61 0
-45 -55 104 0
-45 50 -65 0
-45 84 -97 0
-45 98 116 0
-44 77 106 0
-43 -89 118 0
-43 90 107 0
-42 -56 89 0
-41 -93 97 0
-41 -90 -100 0
-41 -42 -100 0
-41 91 92 0
-40 -58 79 0
-40 -47 66 0
-39 -73 -107 0
-39 -55 80 0
-39 52 113 0
-39 57 74 0
-39 97 -116 0
-38 -47 -118 0
-38 -40 73 0
-38 67 99 0
-38 104 112 0
-37 52 -103 0
-37 57 81 0
-37 105 119 0
-36 -46 116 0
-36 44 -73 0
-36 66 -105 0
-35 -103 -114 0
-35 -103 113 0
-35 -89 -116 0
-35 40 -92 0
-35 100 113 0
-34 -71 82 0
-34 49 95 0
-33 -49 97 0
-32 52 -87 0
-32 55 84 0
-32 57 119 0
-32 68 -79 0
-32 77 115 0
-31 55 94 0
-31 77 -100 0
-31 80 -100 0
-30 -73 117 0
-30 45 -54 0
-30 48 90 0
-30 57 80 0
-29 31 88 0
-28 35 -45 0
-28 95 -114 0
-27 -105 -110 0
-27 58 -82 0
-26 62 83 0
-26 93 101 0
-25 -64 -77 0
-25 -58 118 0
-25 -45 55 0
-25 -37 -57 0
-25 -26 -64 0
-25 40 97 0
-25 47 102 0
-25 53 -103 0
-24 -27 -71 0
-24 61 -111 0
-23 -67 -111 0
-23 -46 -117 0
-23 -44 -68 0
-23 -34 86 0
-23 30 108 0
-23 48 102 0
-22 -46 109 0
-22 -23 110 0
-22 46 -66 0
-21 -43 -114 0
-21 -40 112 0
-21 -39 81 0
-21 34 -105 0
-21 49 -55 0
-21 67 69 0
-21 92 -102 0
-20 -45 -48 0
-20 -31 40 0
-20 45 103 0
-20 48 -115 0
-19 20 28 0
-19 22 43 0
-19 41 -114 0
-19 85 -111 0
-18 -79 97 0
-18 -73 -97 0
-18 -53 -69 0
-18 -38 74 0
-18 -30 -71 0
-18 -26 -114 0
-18 35 97 0
-17 -21 -43 0
-17 19 37 0
-17 56 66 0
-17 79 118 0
-16 -66 79 0
-16 -44 -98 0
-16 -35 49 0
-16 31 -43 0
-16 34 72 0
-16 72 -84 0
-15 -68 95 0
-15 -56 -69 0
-15 -50 -100 0
-15 16 -70 0
-15 67 -106 0
-14 -39 -57 0
-14 52 -88 0
-14 71 74 0
-14 73 80 0
-14 84 -95 0
-13 -51 103 0
-13 -24 43 0
-13 -20 100 0
-13 17 60 0
-13 44 -91 0
-13 69 -118 0
-13 90 -113 0
-12 -54 107 0
-11 -22 31 0
-11 16 -57 0
-11 40 -92 0
-11 76 -85 0
-10 -66 117 0
-10 -58 -89 0
-10 17 -97 0
-10 51 -109 0
-10 56 118 0
-10 90 112 0
-9 -69 -111 0
-9 -30 118 0
-9 31 -85 0
-9 41 82 0
-9 43 63 0
-9 81 111 0
-8 -39 -90 0
-8 -10 -35 0
-8 31 65 0
-8 36 66 0
-7 -95 104 0
-7 20 -108 0
-7 30 33 0
-7 46 -110 0
-7 80 100 0
-7 88 117 0
-7 105 116 0
-6 -70 -109 0
-6 -31 39 0
-6 -26 -70 0
-6 15 -73 0
-6 24 -51 0
-5 -57 100 0
-5 -45 -74 0
-5 6 -74 0
-5 82 100 0
-4 -88 -110 0
-4 -37 -43 0
-4 -12 102 0
-4 -8 -97 0
-4 84 111 0
-3 -107 110 0
-2 -31 85 0
-2 -21 -57 0
-2 -19 -33 0
-2 4 61 0
-2 18 91 0
-2 48 53 0
-1 -43 -119 0
-1 -42 -69 0
-1 -28 -55 0
-1 -23 26 0
-1 -20 63 0
-1 -17 -62 0
-1 -8 52 0
-1 -2 82 0
-1 5 102 0
-1 17 68 0
-1 64 -69 0
1 -106 107 0
1 -11 -58 0
1 3 68 0
1 11 -108 0
1 58 -82 0
1 74 -92 0
2 -86 115 0
2 -34 -41 0
2 7 -58 0
2 21 78 0
2 38 88 0
2 47 -113 0
2 53 -85 0
3 -69 -80 0
3 -47 -111 0
3 -15 63 0
3 19 -64 0
3 24 -37 0
4 -105 -107 0
4 -93 -113 0
4 -81 -107 0
4 -80 -81 0
4 -56 -103 0
4 -29 -118 0
4 13 -35 0
4 79 106 0
4 85 -120 0
5 -58 -68 0
5 -21 -103 0
5 -8 36 0
5 35 108 0
5 74 -88 0
6 -71 72 0
6 -55 102 0
6 7 9 0
6 59 -65 0
7 -76 -85 0
7 -36 84 0
7 -34 116 0
7 10 14 0
7 39 51 0
7 104 120 0
8 -37 -46 0
8 -33 103 0
8 -30 -40 0
8 -19 -113 0
8 46 92 0
8 55 -106 0
9 -32 48 0
9 18 -66 0
9 27 58 0
9 73 -119 0
10 -62 68 0
10 -53 -61 0
10 -51 84 0
10 -46 -72 0
10 -43 65 0
10 35 -49 0
11 -69 99 0
11 -37 69 0
11 38 -57 0
11 47 -94 0
12 -65 112 0
13 14 -108 0
13 33 116 0
13 36 -43 0
14 -95 111 0
14 25 -44 0
14 33 40 0
15 -40 67 0
15 -32 -112 0
16 -52 -89 0
16 25 -115 0
16 26 117 0
16 81 92 0
17 -67 112 0
17 -53 61 0
17 39 -82 0
17 90 114 0
18 -102 119 0
18 -83 84 0
18 -45 -58 0
18 37 55 0
18 79 -89 0
18 90 102 0
19 -96 -110 0
19 -82 113 0
19 -65 67 0
19 -64 -104 0
19 -60 78 0
19 -46 -48 0
19 -21 103 0
19 25 40 0
20 -86 89 0
20 -30 110 0
20 -22 89 0
20 59 -110 0
20 95 110 0
20 100 108 0
21 43 117 0
21 51 -119 0
22 -78 -97 0
22 73 -91 0
23 26 93 0
24 -29 49 0
24 26 -93 0
24 67 -119 0
25 -91 -110 0
25 49 -91 0
26 -117 118 0
26 -98 -115 0
26 60 90 0
26 86 99 0
27 -52 -65 0
27 35 41 0
27 43 105 0
28 -84 -117 0
28 -84 111 0
28 -47 -93 0
28 -33 50 0
28 36 -97 0
28 83 94 0
28 88 -92 0
29 -58 -113 0
29 -42 71 0
29 31 -38 0
29 49 101 0
29 51 119 0
30 -31 -50 0
30 60 90 0
31 -97 -116 0
31 36 -103 0
31 55 -109 0
31 63 -120 0
32 -104 -110 0
32 -87 -119 0
33 -109 116 0
33 -84 -100 0
33 -65 -87 0
33 70 94 0
34 -59 -67 0
34 -49 52 0
34 -35 -76 0
34 44 -50 0
34 48 -105 0
34 66 96 0
34 97 107 0
35 -81 94 0
35 -43 -86 0
35 50 104 0
35 59 -83 0
35 74 86 0
36 -37 -40 0
36 67 -85 0
36 71 -116 0
36 101 115 0
36 107 -114 0
36 115 -118 0
37 -69 73 0
38 -73 -101 0
38 43 -67 0
38 59 -87 0
39 42 67 0
39 68 114 0
40 -62 63 0
40 54 110 0
41 -67 74 0
41 50 61 0
41 56 -103 0
41 80 108 0
41 83 102 0
42 -89 102 0
42 -85 90 0
42 -74 -91 0
42 51 -104 0
42 68 97 0
43 -49 50 0
43 -45 -115 0
43 75 104 0
44 -71 -92 0
44 56 -104 0
44 64 -82 0
44 64 95 0
44 88 90 0
45 -99 117 0
45 64 -84 0
45 103 117 0
46 93 -114 0
46 105 -106 0
47 69 -116 0
48 -66 103 0
48 -56 -113 0
48 -53 -79 0
48 78 -117 0
49 -77 -112 0
49 52 -79 0
49 90 108 0
51 -84 -111 0
51 -52 100 0
51 58 66 0
51 87 111 0
51 92 94 0
52 -92 98 0
52 57 -104 0
52 83 -92 0
52 90 -111 0
53 55 -80 0
53 58 -62 0
54 -77 -93 0
54 70 109 0
55 -109 119 0
55 69 -110 0
55 69 89 0
58 -94 107 0
58 -59 -108 0
58 59 66 0
58 95 -106 0
58 97 109 0
58 103 -106 0
59 -99 -119 0
59 74 95 0
60 -68 72 0
60 100 -116 0
61 -98 -120 0
61 -69 103 0
63 -77 -100 0
63 -67 -102 0
64 -80 108 0
65 -95 104 0
65 93 98 0
66 -67 -109 0
67 -78 -116 0
67 79 -80 0
68 -94 100 0
68 -78 -120 0
69 -72 -92 0
69 92 97 0
70 93 -103 0
71 -74 113 0
71 -73 110 0
73 -97 -113 0
74 85 -95 0
77 -87 -92 0
77 -84 97 0
78 -118 -119 0
78 -108 -110 0
79 92 -94 0
80 -97 -99 0
80 85 114 0
82 97 -105 0
84 -90 -118 0
86 101 -104 0
89 -110 115 0
92 100 -102 0
93 97 -119 0
94 103 -119 0
95 108 -112 0
96 102 106 0
106 -110 111 0
