p cnf 90 383
-74 80 81 0
-70 80 -82 0
-69 70 -74 0
-67 74 79 0
-60 -62 90 0
-58 -71 -78 0
-58 64 -85 0
-54 55 -84 0
-53 63 89 0
-53 69 88 0
-52 -61 -64 0
-51 -63 86 0
-50 -80 -84 0
-49 -52 70 0
-49 53 74 0
-48 -70 88 0
-48 -58 -69 0
-48 63 71 0
-47 52 -83 0
-47 55 89 0
-46 47 70 0
-44 -61 90 0
-44 -51 61 0
-43 -59 73 0
-43 -45 74 0
-43 64 -71 0
-43 65 -75 0
-41 56 76 0
-41 62 -84 0
-41 67 90 0
-40 -64 -76 0
-40 51 59 0
-39 -69 76 0
-39 -60 -89 0
-39 45 78 0
-38 -48 -56 0
-37 -43 -90 0
-36 -59 -62 0
-36 45 86 0
-34 -47 -68 0
-34 -38 -50 0
-34 51 -76 0
-33 42 60 0
-33 48 49 0
-33 76 -78 0
-33 79 83 0
-31 -67 85 0
-31 -48 -55 0
-31 42 68 0
-30 -58 90 0
-30 -52 -57 0
-30 -37 82 0
-30 -32 34 0
-29 -55 -72 0
-29 -41 -66 0
-28 -61 -83 0
-28 -41 -78 0
-28 29 33 0
-28 31 -54 0
-28 58 65 0
-27 -37 -59 0
-27 -31 -51 0
-27 31 64 0
-26 27 38 0
-26 30 -49 0
-26 59 84 0
-25 -55 85 0
-25 26 -75 0
-25 63 83 0
-25 67 74 0
-24 -63 68 0
-24 -27 67 0
-24 25 88 0
-24 41 66 0
-23 27 83 0
-23 28 -37 0
-23 35 77 0
-22 -39 -66 0
-22 -23 -49 0
-22 38 86 0
-21 -22 26 0
-21 24 -25 0
-21 27 80 0
-21 51 73 0
-20 -69 -87 0
-20 -25 61 0
-20 32 80 0
-20 36 -76 0
-20 49 -73 0
-20 51 -61 0
-20 59 75 0
-20 64 -88 0
-20 67 -70 0
-19 -36 40 0
-19 -22 66 0
-19 -20 -33 0
-19 30 56 0
-18 -66 74 0
-18 -37 -64 0
-18 -36 -65 0
-18 -32 43 0
-18 36 -87 0
-18 49 88 0
-17 -73 77 0
-17 -70 78 0
-17 73 87 0
-16 -54 -84 0
-16 -47 -79 0
-16 -47 -64 0
-16 -37 89 0
-16 -21 -67 0
-16 38 57 0
-15 -38 -45 0
-15 -29 41 0
-14 -36 53 0
-14 -28 -59 0
-14 19 76 0
-13 -39 -87 0
-13 -30 -81 0
-13 -24 -25 0
-13 -22 50 0
-13 44 -88 0
-13 61 -71 0
-12 -50 -84 0
-12 -31 -54 0
-12 -19 44 0
-12 18 -86 0
-12 18 -52 0
-12 41 -61 0
-11 -43 63 0
-11 -32 -37 0
-11 -32 87 0
-11 -27 38 0
-11 -16 84 0
-11 19 76 0
-11 34 -52 0
-11 36 -46 0
-11 68 83 0
-10 -54 -78 0
-10 -31 -44 0
-10 25 59 0
-10 67 81 0
-9 -72 -89 0
-9 -60 -87 0
-9 -41 -88 0
-9 -16 32 0
-9 13 41 0
-9 68 -86 0
-8 -64 -79 0
-8 -47 69 0
-8 65 -80 0
-7 -59 71 0
-7 41 44 0
-6 -86 88 0
-6 -66 70 0
-6 -7 -72 0
-6 37 -50 0
-6 47 -51 0
-6 49 -55 0
-5 -66 -82 0
-5 -64 83 0
-5 -21 -59 0
-5 -21 64 0
-5 -14 -60 0
-5 8 12 0
-5 15 71 0
-5 18 66 0
-4 -55 -74 0
-4 -20 -61 0
-4 -18 -43 0
-4 -8 78 0
-4 -6 -33 0
-4 -5 -30 0
-4 19 -50 0
-4 29 35 0
-4 37 83 0
-4 43 -86 0
-3 -50 69 0
-3 -29 87 0
-3 -12 -19 0
-2 -56 70 0
-2 -36 54 0
-2 -11 62 0
-2 65 -70 0
-1 -46 -68 0
-1 -44 53 0
-1 -27 83 0
-1 -15 50 0
-1 -4 6 0
-1 16 50 0
-1 25 81 0
-1 29 39 0
-1 31 -42 0
-1 39 52 0
-1 41 77 0
1 -45 77 0
1 -31 37 0
1 -8 35 0
1 11 -54 0
1 11 34 0
1 17 -49 0
1 26 -89 0
1 42 -62 0
1 43 47 0
2 -65 -83 0
2 -63 90 0
2 -58 61 0
2 -17 83 0
2 -14 25 0
2 -6 64 0
2 14 -58 0
2 31 -57 0
2 44 -86 0
3 -36 -82 0
3 -29 78 0
3 7 50 0
3 12 26 0
3 16 63 0
3 23 -31 0
4 -55 67 0
4 -19 42 0
4 18 -50 0
4 20 72 0
4 36 -81 0
4 47 48 0
5 -74 77 0
5 16 50 0
5 32 -49 0
5 57 66 0
6 -65 87 0
6 -34 81 0
6 -9 -88 0
6 18 -86 0
6 64 68 0
7 -65 -83 0
7 -27 -79 0
7 11 -16 0
7 22 -60 0
7 26 78 0
7 73 88 0
8 -82 -85 0
8 -19 46 0
8 31 50 0
8 53 -73 0
9 -39 -53 0
9 -37 -51 0
9 54 60 0
9 54 78 0
10 -55 67 0
10 -25 -65 0
10 11 -64 0
10 25 -58 0
10 26 -54 0
11 -54 -87 0
11 -17 43 0
11 18 -88 0
11 33 38 0
11 66 -77 0
11 75 87 0
12 -74 -78 0
12 -29 53 0
12 17 -43 0
12 19 26 0
12 53 67 0
12 57 72 0
13 -67 -70 0
13 -60 74 0
13 -34 -60 0
13 28 48 0
13 56 -89 0
14 -50 -54 0
14 -26 75 0
14 -21 -47 0
14 18 51 0
14 38 65 0
15 -28 -79 0
15 69 -78 0
16 -60 -66 0
16 38 77 0
17 48 82 0
18 -54 -77 0
18 -30 81 0
18 28 -90 0
19 -38 -88 0
19 28 -32 0
19 47 -86 0
19 62 -71 0
20 72 -88 0
21 -83 -89 0
21 -42 -88 0
21 26 61 0
21 33 -59 0
21 49 66 0
22 -45 47 0
22 28 77 0
22 57 -83 0
23 -66 -80 0
24 -54 57 0
24 -53 -72 0
24 -28 -55 0
24 33 -75 0
24 43 -63 0
24 52 86 0
24 56 -67 0
24 61 77 0
25 27 38 0
25 27 71 0
25 59 -72 0
26 31 -54 0
26 43 -57 0
26 51 -53 0
27 38 -73 0
27 38 63 0
28 -48 54 0
28 -38 44 0
28 -35 -58 0
28 35 87 0
28 38 -56 0
28 45 -69 0
28 61 -83 0
29 -55 82 0
29 -47 89 0
29 -42 65 0
29 -34 77 0
30 -42 -46 0
30 41 80 0
31 -45 52 0
31 -34 54 0
32 -70 -76 0
32 -52 58 0
32 -35 80 0
34 59 85 0
35 55 -66 0
36 -59 90 0
39 -66 -87 0
39 -53 -81 0
40 -69 72 0
40 -68 70 0
40 -45 60 0
40 83 87 0
41 44 -69 0
42 43 79 0
42 57 67 0
43 -46 -76 0
43 -44 60 0
43 45 59 0
44 -76 85 0
44 -64 -85 0
44 52 54 0
45 -66 68 0
45 46 88 0
46 -58 -89 0
46 -55 -89 0
46 -49 -66 0
46 -47 84 0
46 52 -80 0
47 48 -52 0
47 52 -90 0
47 61 -63 0
50 -62 -63 0
50 52 -81 0
50 79 90 0
51 -64 -84 0
51 56 86 0
51 59 88 0
52 -57 -85 0
53 -76 79 0
53 71 -85 0
54 -62 -89 0
55 -69 73 0
55 -63 -89 0
56 -67 -70 0
56 -58 -69 0
57 -70 83 0
58 -78 -89 0
59 76 -80 0
60 65 -70 0
63 -68 -86 0
65 -68 -76 0
67 -76 -84 0
67 77 85 0
73 -83 86 0
75 -76 83 0
