p cnf 150 525
-131 137 143 0
-113 124 -131 0
-110 112 -132 0
-109 -146 148 0
-107 114 -129 0
-102 -126 -136 0
-98 99 105 0
-97 103 112 0
-93 -117 126 0
-90 -105 -131 0
-90 -99 132 0
-90 106 107 0
-87 102 142 0
-86 -101 -131 0
-84 -85 -106 0
-83 98 -104 0
-81 -134 137 0
-81 -93 131 0
-80 -130 -143 0
-80 -97 145 0
-80 90 149 0
-79 99 113 0
-78 80 83 0
-76 79 -133 0
-75 -134 -140 0
-74 104 134 0
-74 105 -128 0
-74 132 -136 0
-74 132 150 0
-73 -133 -134 0
-73 -125 -146 0
-72 -89 125 0
-70 -115 142 0
-70 -72 -80 0
-69 -129 -137 0
-69 -117 -150 0
-69 79 133 0
-69 122 -136 0
-68 -74 -125 0
-67 -71 106 0
-67 95 -114 0
-66 -70 -124 0
-65 -96 121 0
-64 -129 150 0
-64 -101 -121 0
-64 -65 142 0
-64 126 131 0
-63 -64 138 0
-63 109 -149 0
-62 64 -133 0
-62 111 132 0
-61 -105 -115 0
-61 123 145 0
-60 -130 -136 0
-59 -93 145 0
-59 -62 -97 0
-59 104 -122 0
-58 138 -139 0
-56 -105 -144 0
-56 -102 -116 0
-55 -57 128 0
-54 -77 -85 0
-54 -63 137 0
-54 -58 105 0
-54 99 -108 0
-53 -95 107 0
-53 -59 -115 0
-53 56 68 0
-53 75 -149 0
-53 75 98 0
-52 116 -150 0
-51 -93 134 0
-51 -66 -113 0
-51 102 -122 0
-50 -73 141 0
-50 72 102 0
-50 74 -132 0
-49 -102 -117 0
-49 81 117 0
-48 -92 126 0
-48 105 -146 0
-47 -82 111 0
-47 85 97 0
-46 -108 144 0
-46 -93 -117 0
-46 -71 138 0
-46 -55 -112 0
-46 58 -112 0
-45 -133 -140 0
-45 -84 112 0
-45 -73 100 0
-45 -69 -79 0
-45 81 -140 0
-45 114 -121 0
-44 -104 126 0
-44 -97 122 0
-43 -134 -139 0
-43 -105 -116 0
-43 -47 69 0
-43 52 139 0
-42 -63 64 0
-42 -53 121 0
-41 -54 123 0
-41 47 142 0
-41 70 -126 0
-41 83 109 0
-41 88 144 0
-40 -133 142 0
-40 -83 95 0
-40 -63 -148 0
-40 -61 66 0
-40 74 98 0
-39 -52 88 0
-38 115 123 0
-37 -119 -140 0
-37 -104 -127 0
-37 -91 97 0
-37 -91 148 0
-37 82 -140 0
-37 85 131 0
-36 -77 122 0
-36 100 124 0
-36 104 -142 0
-35 -49 -63 0
-35 -42 -75 0
-35 103 110 0
-34 86 127 0
-33 -124 -141 0
-33 -48 114 0
-33 93 125 0
-32 -59 94 0
-32 -38 77 0
-31 -59 105 0
-31 47 133 0
-31 72 78 0
-30 36 99 0
-30 96 -114 0
-30 104 -137 0
-30 116 127 0
-30 119 -143 0
-30 134 143 0
-29 -98 115 0
-29 -87 -146 0
-29 30 104 0
-28 -119 150 0
-28 -66 88 0
-28 51 -84 0
-27 -62 -140 0
-27 -52 -60 0
-27 -33 -60 0
-27 100 -143 0
-27 105 116 0
-26 -61 -80 0
-26 -34 -88 0
-26 74 -93 0
-26 87 148 0
-26 136 145 0
-25 -115 129 0
-25 -109 112 0
-25 -46 57 0
-25 -28 -64 0
-25 33 -63 0
-25 64 123 0
-24 -41 47 0
-24 -35 138 0
-24 54 84 0
-24 65 86 0
-23 -108 -147 0
-23 -84 -129 0
-23 -64 -141 0
-22 -48 121 0
-21 -55 -97 0
-21 86 113 0
-21 123 147 0
-20 -81 130 0
-20 -59 93 0
-20 -57 148 0
-20 25 28 0
-19 -125 -128 0
-19 -23 81 0
-19 26 66 0
-19 55 104 0
-18 -41 147 0
-18 24 -79 0
-17 -94 106 0
-17 -69 -119 0
-17 -30 55 0
-16 -70 76 0
-16 -68 111 0
-16 27 112 0
-16 64 66 0
-15 -38 63 0
-15 -21 -142 0
-15 62 -73 0
-15 68 119 0
-15 98 136 0
-14 -92 100 0
-14 -68 -150 0
-14 54 143 0
-14 110 -123 0
-13 -16 32 0
-12 -30 36 0
-12 20 76 0
-12 56 -144 0
-12 57 -140 0
-12 142 -143 0
-11 -67 -124 0
-11 -61 97 0
-11 -47 118 0
-11 18 -26 0
-11 59 -77 0
-10 -64 -139 0
-10 -26 149 0
-10 19 -63 0
-10 57 -124 0
-10 72 79 0
-9 43 124 0
-9 50 144 0
-8 -97 -116 0
-8 -59 -145 0
-8 -58 103 0
-8 28 72 0
-8 38 -133 0
-8 76 129 0
-7 -90 -125 0
-7 -78 90 0
-7 -46 -112 0
-7 23 -85 0
-7 41 83 0
-6 -56 83 0
-6 -16 50 0
-6 -14 15 0
-6 38 119 0
-6 94 -135 0
-6 102 117 0
-6 115 129 0
-5 -17 -119 0
-5 57 -74 0
-5 130 147 0
-4 -111 -132 0
-4 -26 79 0
-4 18 44 0
-4 95 -96 0
-3 -49 146 0
-3 -37 110 0
-3 17 72 0
-3 23 114 0
-3 40 -117 0
-3 89 -120 0
-2 -63 -106 0
-2 -59 119 0
-2 21 90 0
-2 28 78 0
-2 33 -45 0
-2 45 -139 0
-1 -116 148 0
-1 -74 86 0
-1 -52 53 0
-1 -42 -105 0
-1 -32 143 0
-1 -23 55 0
-1 50 -109 0
-1 55 148 0
-1 57 81 0
-1 92 -134 0
-1 102 -134 0
1 -55 -59 0
1 -53 -145 0
1 -39 88 0
1 -27 32 0
1 16 -150 0
1 54 -149 0
1 56 -57 0
2 -133 145 0
2 -116 -145 0
2 -48 128 0
2 -42 84 0
2 -27 48 0
2 -13 -30 0
2 -9 -126 0
2 -5 27 0
2 7 56 0
2 35 -89 0
3 -38 -57 0
3 -14 -33 0
4 -57 91 0
4 -31 69 0
4 -6 66 0
4 30 107 0
4 34 44 0
4 38 -47 0
4 61 129 0
4 63 -137 0
4 85 97 0
5 -40 -95 0
5 12 132 0
5 67 143 0
6 -37 62 0
6 -23 42 0
6 65 -139 0
6 74 76 0
7 -112 139 0
7 12 118 0
7 27 89 0
7 72 -135 0
8 -66 -125 0
8 -33 55 0
8 57 -84 0
8 87 -149 0
9 -110 140 0
9 -49 64 0
9 -38 -42 0
9 40 99 0
9 79 106 0
9 106 115 0
10 -98 -112 0
10 -63 -138 0
10 -54 92 0
10 -37 38 0
10 24 -121 0
10 50 95 0
10 74 141 0
11 -69 92 0
11 -46 -86 0
11 21 145 0
11 60 -112 0
12 -63 91 0
12 19 130 0
12 28 -122 0
13 -66 69 0
13 -27 117 0
13 -21 -94 0
13 47 -52 0
13 57 68 0
13 72 -145 0
14 -105 -149 0
14 -103 -137 0
14 -97 123 0
14 -72 -119 0
14 -35 -91 0
14 53 -89 0
14 54 92 0
14 59 -140 0
14 75 131 0
15 21 -127 0
15 67 133 0
15 88 118 0
15 97 132 0
16 -65 76 0
17 -30 85 0
17 76 -120 0
17 78 139 0
17 122 144 0
17 129 -139 0
18 -69 126 0
19 -131 -145 0
19 -82 -133 0
19 -64 105 0
19 -20 21 0
19 27 -131 0
20 -128 144 0
20 -98 -119 0
20 -51 76 0
20 -25 -129 0
20 100 -149 0
21 -47 -148 0
21 -46 -60 0
21 -24 35 0
21 30 38 0
21 58 60 0
21 128 -130 0
23 -132 144 0
23 -109 123 0
23 -42 147 0
23 -34 -49 0
24 -57 107 0
24 -42 133 0
24 41 -146 0
25 -86 135 0
25 -38 -150 0
25 26 -54 0
25 92 -97 0
26 -75 -134 0
26 27 -103 0
26 34 38 0
26 100 101 0
27 -37 132 0
27 59 145 0
27 94 112 0
27 103 118 0
28 -108 144 0
29 -71 145 0
29 -32 66 0
30 -73 -79 0
30 59 78 0
31 -55 -113 0
31 32 59 0
32 41 -130 0
33 65 101 0
33 87 -135 0
33 105 -121 0
33 121 -143 0
34 -85 86 0
34 -81 -85 0
34 101 -116 0
34 130 148 0
35 52 92 0
36 -48 107 0
36 74 -81 0
36 127 -150 0
37 -67 141 0
37 -61 -66 0
37 40 -63 0
37 67 119 0
38 -103 -118 0
38 -93 -127 0
39 -105 121 0
39 -97 -150 0
39 124 146 0
40 -99 109 0
40 -51 125 0
40 60 -115 0
41 -108 -145 0
41 -90 93 0
41 -71 138 0
41 77 107 0
42 -122 -146 0
42 -67 -77 0
42 -59 109 0
42 -45 -80 0
42 105 111 0
43 -89 145 0
43 59 78 0
44 -78 92 0
44 -74 129 0
45 -139 -140 0
46 -133 147 0
46 50 54 0
47 -83 105 0
47 -62 95 0
47 52 -57 0
47 89 -126 0
48 -56 89 0
48 71 142 0
50 67 -133 0
50 91 -127 0
50 98 136 0
50 113 119 0
51 82 90 0
52 58 -123 0
52 132 -140 0
53 87 -143 0
54 -122 -135 0
54 79 -97 0
55 -126 -146 0
55 -59 87 0
55 73 149 0
56 116 131 0
57 81 110 0
57 88 147 0
57 97 -106 0
58 -120 125 0
58 -66 -72 0
58 108 -128 0
58 118 -138 0
59 -72 148 0
59 60 105 0
60 -70 -114 0
60 76 -132 0
60 112 134 0
61 64 69 0
61 108 -129 0
62 -89 -123 0
62 -84 -131 0
63 -98 114 0
63 -91 -150 0
63 -91 102 0
65 -114 136 0
66 -131 141 0
66 -69 85 0
66 87 -146 0
66 108 110 0
67 -132 -146 0
67 100 121 0
68 -74 -122 0
70 -77 -88 0
71 86 -98 0
71 105 -133 0
72 100 -148 0
73 103 114 0
73 122 -145 0
74 -117 -137 0
74 89 127 0
75 -115 128 0
75 -93 118 0
77 -78 -119 0
77 90 98 0
78 -103 149 0
78 -81 -101 0
78 95 -105 0
79 103 -118 0
80 -85 124 0
81 -116 145 0
82 84 -147 0
85 92 119 0
89 -108 115 0
90 -114 139 0
90 114 123 0
91 112 120 0
92 99 -110 0
94 -100 103 0
94 116 136 0
95 116 -145 0
96 -100 125 0
96 -97 -101 0
98 119 146 0
98 121 147 0
106 120 138 0
108 -129 143 0
113 -124 -145 0
113 133 -143 0
116 -120 -148 0
126 131 143 0
130 133 -137 0
137 138 142 0
