p cnf 28 119
-23 -25 27 0
-21 25 -28 0
-18 23 24 0
-15 -16 24 0
-15 20 28 0
-14 20 -25 0
-13 -21 22 0
-13 -20 22 0
-13 17 -23 0
-13 18 19 0
-13 26 -27 0
-12 -22 -28 0
-12 -16 -19 0
-12 -13 25 0
-12 17 23 0
-11 -18 24 0
-11 -16 -27 0
-11 16 -26 0
-11 25 -27 0
-10 -11 -28 0
-10 24 25 0
-9 -13 -17 0
-9 14 -15 0
-8 14 25 0
-8 18 28 0
-7 -9 22 0
-7 -8 -13 0
-7 -8 13 0
-7 11 -21 0
-7 14 23 0
-7 17 -22 0
-7 26 27 0
-6 -14 20 0
-6 -12 19 0
-6 18 -24 0
-5 -11 -13 0
-5 -10 -22 0
-5 -10 25 0
-5 -7 11 0
-5 -7 16 0
-5 6 -8 0
-5 7 -26 0
-5 10 23 0
-5 11 20 0
-5 20 -21 0
-4 -19 22 0
-4 -13 -14 0
-4 -10 -18 0
-4 -9 22 0
-4 8 -26 0
-4 21 -22 0
-4 25 -27 0
-3 -15 -18 0
-3 -4 25 0
-3 7 -10 0
-3 8 16 0
-3 9 -18 0
-3 14 23 0
-2 -17 -23 0
-2 -7 -12 0
-2 3 -28 0
-2 8 14 0
-2 12 -25 0
-2 19 20 0
-2 19 27 0
-2 25 26 0
-1 -13 -24 0
-1 -7 20 0
-1 9 20 0
-1 12 18 0
-1 18 24 0
1 -11 -27 0
1 -5 -24 0
1 8 -13 0
1 11 18 0
1 12 -24 0
1 12 18 0
2 -5 28 0
2 3 -20 0
2 4 -26 0
2 4 12 0
2 18 -23 0
3 -7 8 0
3 -7 11 0
3 -7 13 0
3 -5 -21 0
3 7 26 0
3 9 23 0
3 23 -27 0
4 -17 -27 0
4 -8 16 0
4 18 -22 0
5 -16 21 0
5 7 -22 0
6 -11 -20 0
8 -10 18 0
9 -24 -28 0
9 -10 25 0
9 12 22 0
10 -16 -18 0
10 17 -22 0
10 20 23 0
12 13 -24 0
12 13 25 0
12 19 -24 0
13 14 22 0
13 20 -26 0
14 -21 28 0
14 -15 25 0
14 19 -25 0
14 27 28 0
15 -25 -28 0
15 -17 -21 0
16 17 25 0
17 -23 -24 0
18 19 20 0
18 19 22 0
21 25 -28 0
23 26 28 0
