p cnf 100 600
-82 84 -87 0
-77 80 87 0
-74 -84 -85 0
-74 75 -81 0
-73 -94 99 0
-72 -88 -91 0
-71 -88 -90 0
-71 78 -97 0
-70 74 97 0
-68 79 -82 0
-68 91 94 0
-67 84 90 0
-66 -73 -83 0
-65 -71 -78 0
-62 -63 -66 0
-61 67 79 0
-60 -98 -99 0
-59 -64 -75 0
-59 -62 74 0
-59 81 96 0
-58 -77 -78 0
-58 82 -98 0
-57 95 97 0
-57 96 -98 0
-55 -68 -86 0
-55 84 86 0
-54 -62 -97 0
-54 78 -83 0
-53 -54 99 0
-53 56 -58 0
-52 -65 79 0
-51 59 -74 0
-49 -54 -74 0
-49 -53 -80 0
-49 51 -54 0
-49 88 93 0
-48 -81 -85 0
-48 -55 71 0
-48 58 -62 0
-48 58 83 0
-47 -62 99 0
-47 51 -82 0
-47 59 -83 0
-47 64 90 0
-46 -95 96 0
-46 49 -66 0
-46 73 87 0
-45 -54 -61 0
-44 -79 100 0
-44 55 66 0
-43 -84 93 0
-43 -66 -97 0
-43 -59 95 0
-43 -54 -58 0
-43 49 51 0
-43 63 90 0
-43 66 95 0
-42 -60 98 0
-42 -44 96 0
-41 -86 100 0
-41 -76 -99 0
-41 -49 81 0
-41 46 -77 0
-41 53 -69 0
-41 74 -91 0
-40 -70 -79 0
-40 44 -59 0
-39 -71 -97 0
-39 48 -67 0
-38 -67 89 0
-38 -54 -59 0
-38 -39 -60 0
-38 62 -63 0
-37 -51 70 0
-37 -38 99 0
-37 41 93 0
-37 43 -94 0
-37 54 89 0
-37 68 -94 0
-36 50 53 0
-36 75 -99 0
-35 -94 -97 0
-35 -65 82 0
-35 -62 93 0
-35 -52 83 0
-34 45 83 0
-33 -64 -86 0
-33 -60 -68 0
-33 -54 -77 0
-33 41 77 0
-32 -35 -50 0
-32 62 73 0
-32 85 100 0
-31 -36 97 0
-31 33 -68 0
-30 -39 -49 0
-30 33 -62 0
-30 57 76 0
-30 63 82 0
-29 -58 65 0
-29 -33 -73 0
-29 40 -54 0
-29 42 49 0
-29 47 62 0
-28 -43 -88 0
-28 -41 55 0
-28 53 -54 0
-28 88 93 0
-27 -64 80 0
-27 -52 90 0
-27 -44 89 0
-27 -40 -75 0
-27 -37 52 0
-27 -36 43 0
-27 -34 -92 0
-27 39 -85 0
-27 58 -89 0
-26 -71 87 0
-26 -70 -85 0
-26 -39 73 0
-26 -34 -100 0
-26 40 42 0
-25 -54 83 0
-25 -27 -46 0
-25 49 71 0
-25 58 79 0
-24 -44 -69 0
-24 -36 95 0
-24 -27 95 0
-24 41 89 0
-23 -48 -69 0
-23 -27 -49 0
-23 29 65 0
-23 48 61 0
-23 58 91 0
-23 71 87 0
-22 -67 85 0
-22 52 53 0
-22 57 -66 0
-22 59 73 0
-21 -95 -99 0
-21 -74 95 0
-21 -44 -59 0
-21 -26 90 0
-21 30 48 0
-21 38 -53 0
-21 58 89 0
-20 -56 88 0
-20 -38 74 0
-20 -35 89 0
-20 28 -85 0
-20 33 100 0
-20 56 76 0
-20 79 93 0
-19 -62 -74 0
-19 -43 -45 0
-19 -41 -62 0
-19 -30 -80 0
-19 -28 72 0
-19 27 -63 0
-19 32 -45 0
-19 35 41 0
-19 35 48 0
-18 -63 98 0
-18 -54 -83 0
-18 -44 -58 0
-18 -37 55 0
-18 27 70 0
-18 41 -50 0
-18 49 51 0
-18 76 89 0
-17 -87 94 0
-17 -42 64 0
-17 -34 90 0
-17 23 55 0
-17 45 -66 0
-17 50 75 0
-16 -67 77 0
-16 -38 49 0
-16 31 -50 0
-15 -54 -63 0
-15 -38 -96 0
-15 17 91 0
-15 45 80 0
-14 -56 -85 0
-14 -48 79 0
-14 -45 -53 0
-14 -42 45 0
-14 -16 -57 0
-14 18 -97 0
-14 20 37 0
-13 -52 -64 0
-13 -37 -83 0
-13 -18 24 0
-13 -14 -28 0
-13 18 -65 0
-13 19 62 0
-13 36 73 0
-13 39 49 0
-13 43 -79 0
-13 47 -82 0
-13 51 73 0
-13 58 71 0
-13 59 77 0
-13 62 -69 0
-13 71 -74 0
-13 85 -88 0
-12 -66 93 0
-12 -35 -94 0
-12 -22 37 0
-12 56 -63 0
-11 -94 -95 0
-11 -73 100 0
-11 -58 71 0
-11 -32 -89 0
-11 -27 -76 0
-11 -26 55 0
-11 -17 -46 0
-11 -14 25 0
-11 -14 74 0
-11 23 -96 0
-11 30 31 0
-11 41 -70 0
-10 -86 88 0
-10 11 -65 0
-10 25 100 0
-10 28 86 0
-10 51 67 0
-10 83 -98 0
-9 -59 68 0
-9 -31 -88 0
-9 -20 92 0
-9 -14 75 0
-9 10 -38 0
-9 18 -77 0
-9 18 -76 0
-8 -57 -80 0
-8 -27 58 0
-8 -17 87 0
-8 -17 99 0
-8 19 27 0
-8 25 47 0
-8 31 43 0
-8 72 91 0
-7 -47 58 0
-7 -47 76 0
-7 -46 77 0
-7 -29 37 0
-7 -21 -41 0
-7 8 -85 0
-7 19 53 0
-7 36 43 0
-7 39 -60 0
-7 40 -88 0
-7 44 -54 0
-7 51 59 0
-6 -42 -43 0
-6 -42 46 0
-6 -30 -76 0
-6 -28 -65 0
-6 7 -37 0
-5 -55 -56 0
-5 -53 72 0
-5 -45 90 0
-5 -23 41 0
-5 -22 35 0
-5 -10 -44 0
-5 29 -44 0
-5 44 -90 0
-5 46 97 0
-5 73 -94 0
-4 -73 74 0
-4 -57 82 0
-4 -57 99 0
-4 -22 68 0
-4 -14 58 0
-4 -11 63 0
-4 -11 81 0
-4 -6 -32 0
-4 5 23 0
-4 34 -38 0
-4 38 -70 0
-4 39 63 0
-4 50 83 0
-3 -79 87 0
-3 -54 -80 0
-3 -36 -43 0
-3 25 65 0
-3 26 -80 0
-3 37 69 0
-3 39 51 0
-3 41 -71 0
-3 42 -52 0
-3 56 -90 0
-2 -90 -100 0
-2 -33 -56 0
-2 -31 -52 0
-2 -23 -67 0
-2 -6 96 0
-2 33 54 0
-2 44 -74 0
-2 44 84 0
-2 57 -89 0
-2 61 -65 0
-2 77 -87 0
-1 -71 92 0
-1 -8 -71 0
-1 6 -17 0
-1 27 51 0
-1 52 -71 0
1 -60 -99 0
1 -42 -44 0
1 7 34 0
1 15 -42 0
1 16 -46 0
1 17 -67 0
1 22 -59 0
1 64 84 0
1 74 -80 0
1 80 94 0
2 -26 -92 0
2 -25 56 0
2 23 -90 0
2 36 -54 0
2 40 60 0
2 45 48 0
2 59 -91 0
3 -40 -72 0
3 -18 -31 0
3 -8 -60 0
3 -6 39 0
3 8 -50 0
3 35 -41 0
3 57 -89 0
4 -16 50 0
4 -15 86 0
4 -14 -23 0
4 26 -40 0
4 29 32 0
4 45 -92 0
4 52 75 0
5 -48 -54 0
5 -26 -75 0
5 13 -69 0
5 14 53 0
5 16 40 0
5 26 -34 0
5 31 98 0
5 65 74 0
5 90 94 0
6 -48 60 0
6 25 -90 0
6 40 95 0
6 67 -79 0
7 -62 78 0
7 -57 -98 0
7 -35 70 0
7 -28 97 0
7 -11 -43 0
7 42 61 0
7 50 -91 0
7 55 -68 0
7 59 97 0
7 64 95 0
8 -43 -85 0
8 -40 51 0
8 -36 41 0
8 45 -90 0
8 50 89 0
8 54 -71 0
9 -81 82 0
9 -81 86 0
9 13 41 0
9 17 -85 0
9 23 86 0
9 39 -47 0
9 49 -51 0
10 -84 -92 0
10 -75 90 0
10 -35 -59 0
10 -32 -80 0
10 -25 40 0
10 -11 54 0
10 14 64 0
10 43 65 0
10 50 53 0
10 69 -100 0
10 84 92 0
11 -51 -68 0
11 -49 52 0
11 -36 -90 0
11 -36 80 0
11 50 -79 0
12 -45 54 0
12 -19 -34 0
12 39 -67 0
13 -86 92 0
13 -31 -39 0
13 -22 72 0
13 27 -60 0
13 27 -46 0
13 67 -87 0
14 -56 -75 0
14 -40 48 0
14 -40 76 0
14 -26 81 0
14 42 -72 0
15 -50 -94 0
15 22 -56 0
15 40 90 0
15 43 -44 0
16 -81 97 0
16 -42 -86 0
16 26 65 0
16 31 44 0
16 40 -99 0
16 49 -73 0
17 -51 52 0
17 -50 -67 0
17 -37 73 0
17 19 86 0
17 20 -38 0
17 25 -92 0
17 35 45 0
17 46 70 0
18 -67 80 0
18 -29 -33 0
18 34 -82 0
18 36 75 0
18 76 81 0
19 -35 -87 0
20 33 41 0
20 41 -80 0
20 65 -72 0
20 70 -93 0
21 -62 83 0
21 -52 89 0
21 -26 95 0
21 25 -46 0
21 60 -63 0
22 -73 -78 0
22 -59 78 0
22 -32 70 0
22 -31 -46 0
22 -25 -29 0
22 24 -76 0
22 26 -32 0
23 -61 -69 0
23 -50 -87 0
23 25 -74 0
23 37 39 0
23 39 -64 0
23 43 -98 0
24 -49 96 0
24 32 37 0
24 40 73 0
24 45 93 0
24 54 -66 0
24 58 70 0
24 67 -92 0
25 -52 57 0
25 -33 49 0
25 38 -65 0
25 56 89 0
25 57 -70 0
25 58 -100 0
25 59 -64 0
26 -73 93 0
26 -37 62 0
26 -34 80 0
26 37 -56 0
26 59 63 0
26 76 -91 0
26 79 -93 0
27 -79 100 0
27 -76 -82 0
27 -69 98 0
27 -49 -83 0
27 -35 62 0
27 45 -71 0
28 -33 84 0
28 58 76 0
28 73 -100 0
29 -54 57 0
29 36 90 0
29 47 -51 0
29 50 -81 0
29 58 -95 0
29 62 -65 0
30 -38 74 0
30 -37 80 0
30 40 -80 0
30 57 58 0
30 78 -91 0
31 -47 -53 0
31 -45 -49 0
31 37 -55 0
31 38 87 0
31 42 -72 0
31 50 -84 0
32 -61 62 0
32 -46 96 0
32 -45 -80 0
32 37 -50 0
32 39 -73 0
32 73 87 0
33 -80 88 0
33 -74 95 0
33 -61 75 0
33 -54 -57 0
33 -54 94 0
33 -44 -77 0
33 -37 92 0
33 -36 -100 0
33 46 73 0
34 57 80 0
35 -64 -71 0
35 43 97 0
35 44 -86 0
35 45 -70 0
35 56 85 0
36 -40 -82 0
36 -37 -65 0
36 39 -92 0
36 49 -66 0
36 72 -96 0
37 39 100 0
38 -71 74 0
38 66 -92 0
38 70 -89 0
39 -90 -94 0
39 -65 78 0
39 -52 -82 0
39 -43 -84 0
39 -40 -88 0
40 -73 87 0
40 56 -93 0
40 73 -88 0
41 -66 87 0
41 -58 76 0
41 -48 -96 0
41 47 -74 0
41 66 75 0
41 81 -82 0
42 -79 -87 0
42 51 -87 0
43 88 96 0
44 -68 -87 0
44 -63 96 0
44 -48 -77 0
44 73 100 0
45 -56 -95 0
46 -51 -90 0
46 81 94 0
47 -63 -91 0
48 -88 95 0
48 -80 99 0
49 -91 93 0
49 -58 -94 0
49 54 74 0
50 -76 -80 0
50 -73 91 0
50 84 -86 0
51 58 93 0
51 77 94 0
52 -74 95 0
52 -61 -63 0
52 53 77 0
53 -85 -94 0
53 -65 -96 0
53 -59 -78 0
53 54 -72 0
53 58 63 0
53 60 -98 0
53 89 98 0
54 67 -69 0
54 77 -86 0
55 -64 67 0
55 91 92 0
56 71 -78 0
57 59 63 0
57 62 -64 0
57 63 -75 0
57 73 -91 0
61 64 87 0
62 -88 98 0
63 -81 86 0
63 -64 -83 0
63 78 97 0
64 65 -83 0
65 71 -76 0
66 73 89 0
68 -83 -96 0
68 -69 -98 0
69 94 -97 0
70 -74 82 0
74 82 -95 0
76 -81 -89 0
83 88 -95 0
88 95 -98 0
