p cnf 100 600
-82 -89 91 0
-79 86 -100 0
-78 79 -80 0
-77 -89 98 0
-72 78 88 0
-71 80 -98 0
-69 -71 98 0
-66 76 -91 0
-65 -82 -97 0
-65 70 -83 0
-64 -83 91 0
-64 79 -98 0
-62 66 -69 0
-62 80 83 0
-62 81 91 0
-61 66 68 0
-59 93 -97 0
-58 84 -89 0
-57 -81 -94 0
-57 -69 97 0
-57 59 63 0
-57 68 99 0
-56 -90 92 0
-56 -88 99 0
-55 -76 96 0
-55 -56 -59 0
-55 69 91 0
-54 -61 86 0
-54 63 70 0
-53 -59 78 0
-52 69 -70 0
-50 -71 91 0
-50 -59 -91 0
-50 63 -72 0
-49 -72 -83 0
-49 -53 -65 0
-49 70 -98 0
-47 -97 -99 0
-47 -53 65 0
-47 55 -99 0
-47 73 88 0
-46 -55 -91 0
-46 57 74 0
-46 86 94 0
-45 65 -76 0
-44 -72 -90 0
-43 -95 -99 0
-43 -53 -69 0
-42 49 84 0
-41 -56 65 0
-41 -55 83 0
-41 -42 44 0
-40 -72 -82 0
-40 -52 -83 0
-40 -50 -99 0
-40 44 50 0
-40 71 89 0
-39 54 63 0
-39 61 69 0
-38 47 53 0
-38 47 70 0
-37 46 99 0
-37 55 -80 0
-37 65 90 0
-36 -93 94 0
-36 -43 -97 0
-36 -38 -77 0
-36 52 -94 0
-35 -61 -91 0
-35 37 -56 0
-35 64 65 0
-34 -88 -90 0
-34 -67 -95 0
-34 -36 -37 0
-34 61 -88 0
-34 65 91 0
-34 84 -88 0
-33 -41 -64 0
-33 42 -67 0
-33 63 77 0
-33 92 94 0
-32 -78 -83 0
-32 -74 -97 0
-32 -73 -89 0
-32 -64 67 0
-32 -62 -64 0
-32 -58 -65 0
-32 -46 64 0
-32 -44 51 0
-32 -43 49 0
-32 80 -83 0
-31 -44 93 0
-31 -44 96 0
-31 36 76 0
-31 49 85 0
-31 64 -86 0
-31 71 -74 0
-30 -69 -84 0
-30 -64 89 0
-30 -39 -51 0
-30 -34 100 0
-30 46 79 0
-30 68 75 0
-30 72 -91 0
-29 -41 48 0
-29 45 -89 0
-28 -83 -91 0
-28 34 92 0
-28 74 77 0
-27 -85 88 0
-27 -31 -85 0
-26 -59 89 0
-26 -53 74 0
-26 -44 71 0
-26 -33 78 0
-26 27 -44 0
-26 52 89 0
-26 63 64 0
-25 33 43 0
-25 46 74 0
-25 60 86 0
-24 39 89 0
-24 50 -87 0
-23 -91 -94 0
-23 -45 53 0
-23 -30 -79 0
-23 37 86 0
-23 44 89 0
-22 -50 62 0
-22 -36 -70 0
-22 23 -53 0
-21 -77 78 0
-21 -43 75 0
-21 -27 -50 0
-21 24 -83 0
-21 25 -39 0
-21 49 -60 0
-20 -70 -84 0
-20 -45 -51 0
-20 -28 -68 0
-20 -25 -37 0
-20 32 51 0
-20 44 -87 0
-20 58 -95 0
-20 96 -99 0
-19 -54 -78 0
-19 -45 -53 0
-19 22 56 0
-19 52 -91 0
-19 90 -97 0
-19 90 -93 0
-18 -59 75 0
-18 -34 92 0
-18 -25 -35 0
-18 -19 -81 0
-18 20 -61 0
-18 24 53 0
-18 33 -52 0
-18 47 94 0
-17 -22 61 0
-17 -19 43 0
-17 25 51 0
-17 36 -45 0
-17 45 50 0
-17 48 57 0
-17 87 -100 0
-16 -78 -82 0
-16 -41 -89 0
-16 -40 51 0
-16 -21 -82 0
-16 27 -98 0
-16 48 -100 0
-16 67 93 0
-16 78 -79 0
-15 -51 -85 0
-15 -39 -75 0
-15 51 -70 0
-15 57 -71 0
-15 59 -80 0
-15 75 93 0
-14 -91 97 0
-14 -66 76 0
-14 -37 59 0
-14 -25 51 0
-14 21 90 0
-14 23 -27 0
-14 49 63 0
-14 59 72 0
-13 -72 86 0
-13 -63 -100 0
-13 -59 -87 0
-13 -26 -99 0
-13 16 33 0
-13 18 42 0
-13 19 25 0
-13 42 81 0
-12 -45 -75 0
-12 -42 100 0
-12 21 -28 0
-12 37 -65 0
-12 38 -49 0
-11 -73 -96 0
-11 -68 87 0
-11 -52 -85 0
-11 -32 -79 0
-11 -26 35 0
-11 -22 86 0
-11 -17 78 0
-11 16 -89 0
-11 17 56 0
-11 40 78 0
-10 -74 95 0
-10 -51 62 0
-10 -33 -51 0
-10 -32 94 0
-10 16 98 0
-10 42 -46 0
-10 47 83 0
-9 -53 62 0
-9 -41 -97 0
-9 -34 -52 0
-9 -34 67 0
-9 -16 -32 0
-8 -57 92 0
-8 -37 45 0
-8 -32 -72 0
-8 -14 -97 0
-8 18 -72 0
-8 21 -34 0
-8 46 95 0
-8 47 -84 0
-8 52 80 0
-7 -53 57 0
-7 -28 -60 0
-7 -19 -24 0
-7 -16 74 0
-7 12 -32 0
-7 21 -96 0
-7 34 -75 0
-7 64 74 0
-7 85 99 0
-6 -63 70 0
-6 -44 -53 0
-6 -11 83 0
-6 26 63 0
-5 -80 81 0
-5 -64 -69 0
-5 -62 75 0
-5 -11 27 0
-5 14 -95 0
-5 16 18 0
-5 21 48 0
-5 32 87 0
-5 33 56 0
-5 40 72 0
-5 51 61 0
-5 84 -91 0
-5 93 -99 0
-4 -74 83 0
-4 -63 73 0
-4 -59 -76 0
-4 -37 52 0
-4 -29 -100 0
-4 -19 49 0
-4 -12 33 0
-4 -9 -100 0
-4 -5 15 0
-4 -5 97 0
-4 27 -33 0
-3 -62 -74 0
-3 -60 -66 0
-3 -47 88 0
-3 -47 96 0
-3 -12 -86 0
-3 10 -12 0
-3 25 -57 0
-3 41 75 0
-3 73 97 0
-3 87 -91 0
-2 -67 -74 0
-2 -32 -51 0
-2 -22 62 0
-2 -21 55 0
-2 -3 51 0
-2 3 -7 0
-2 72 92 0
-1 -27 -76 0
-1 -21 -93 0
-1 -18 37 0
-1 -3 -79 0
-1 7 40 0
-1 11 -49 0
-1 74 87 0
-1 76 -78 0
1 -84 87 0
1 -18 76 0
1 -16 64 0
1 46 -55 0
1 85 -89 0
2 -69 79 0
2 -55 -93 0
2 -20 -92 0
2 -6 -68 0
2 4 80 0
2 21 -51 0
2 32 -39 0
2 49 84 0
3 -89 96 0
3 -79 -94 0
3 -39 100 0
3 -32 -93 0
3 -20 -78 0
3 -20 54 0
3 -15 -92 0
3 -12 -37 0
3 6 70 0
3 25 33 0
4 -56 -92 0
4 -32 51 0
4 -15 77 0
4 -9 60 0
4 12 37 0
4 24 55 0
4 72 88 0
5 -29 -42 0
5 -10 -93 0
5 -8 60 0
5 13 -63 0
5 13 66 0
5 17 -53 0
5 18 -45 0
5 25 52 0
5 28 52 0
5 70 -75 0
6 -55 88 0
6 -39 -47 0
6 -33 83 0
6 -27 94 0
6 9 -24 0
6 12 94 0
6 18 95 0
7 -82 100 0
7 -52 -68 0
7 -36 76 0
7 -28 58 0
7 20 65 0
7 27 -72 0
7 53 -94 0
8 -85 -90 0
8 -63 90 0
8 -62 -70 0
8 -38 -94 0
8 -21 100 0
8 44 -87 0
8 52 -99 0
9 -44 76 0
9 -43 93 0
9 -14 -70 0
9 -12 55 0
9 67 89 0
9 78 -81 0
9 79 93 0
9 97 100 0
10 -80 98 0
10 -32 44 0
10 -28 95 0
10 -24 63 0
10 13 26 0
10 14 37 0
10 16 -95 0
10 74 -76 0
11 -34 78 0
11 -26 -81 0
11 41 -61 0
11 46 -95 0
11 70 92 0
11 81 -87 0
12 -60 69 0
12 -26 28 0
12 -18 -23 0
12 18 -35 0
12 31 70 0
12 49 53 0
12 78 95 0
13 -65 -82 0
13 -65 -72 0
13 -55 96 0
13 -33 52 0
13 16 -58 0
13 33 92 0
14 -93 97 0
14 -71 -94 0
14 -41 83 0
14 20 -32 0
14 23 62 0
14 33 -69 0
14 38 -96 0
14 52 -61 0
15 -64 -96 0
15 -31 -60 0
15 -26 -42 0
15 -22 -79 0
16 -69 82 0
16 -60 -69 0
16 -30 44 0
16 31 -36 0
16 91 -100 0
17 -48 81 0
17 -38 95 0
17 21 -72 0
17 21 51 0
18 -48 57 0
18 -35 72 0
18 -33 48 0
18 26 -94 0
18 50 -77 0
18 79 89 0
19 -42 -68 0
19 -36 -69 0
19 45 100 0
20 -77 79 0
20 28 -37 0
20 45 -46 0
20 85 94 0
21 -82 100 0
21 -78 98 0
21 -66 87 0
21 -62 -63 0
21 -59 -81 0
21 -41 92 0
21 22 69 0
21 23 41 0
21 24 -71 0
21 50 -74 0
22 -80 83 0
22 -24 39 0
22 -24 71 0
22 28 39 0
22 52 -98 0
23 -56 63 0
23 -24 -78 0
23 26 84 0
23 51 -58 0
24 -79 96 0
24 -26 -59 0
24 50 62 0
25 -57 91 0
25 -33 -59 0
25 46 -86 0
26 -61 65 0
26 -28 -53 0
26 39 -73 0
27 -56 -90 0
27 -32 -49 0
28 -63 -92 0
28 -59 -96 0
28 -58 -60 0
28 -56 75 0
28 -31 97 0
28 -30 52 0
28 46 -78 0
29 -35 -82 0
29 32 -65 0
29 52 -68 0
30 -64 95 0
30 -47 -56 0
30 37 -98 0
30 53 86 0
30 54 88 0
30 58 92 0
30 76 93 0
31 -62 -89 0
31 -60 91 0
31 -47 -85 0
31 49 87 0
32 -60 68 0
32 -59 86 0
32 -41 66 0
32 -38 49 0
32 -34 90 0
32 78 83 0
33 -69 80 0
33 -55 92 0
33 -42 79 0
33 -36 94 0
33 41 87 0
33 44 -77 0
33 51 55 0
33 66 94 0
34 -69 -78 0
34 -69 74 0
34 -59 -74 0
34 -50 95 0
34 -46 83 0
34 45 -67 0
35 44 72 0
35 62 -71 0
35 88 93 0
36 -43 48 0
36 -39 -86 0
36 48 -83 0
36 51 -72 0
36 64 -76 0
36 96 97 0
37 -84 -91 0
37 54 -68 0
37 73 94 0
37 89 -97 0
38 -43 -82 0
38 -42 69 0
38 77 -90 0
39 43 -86 0
39 54 -75 0
39 56 82 0
40 -72 94 0
40 -59 70 0
40 44 74 0
40 67 -77 0
41 76 -97 0
42 -79 88 0
42 -55 -70 0
42 -50 66 0
42 -45 73 0
42 67 -79 0
43 -51 54 0
43 50 74 0
44 46 -84 0
44 46 -81 0
44 79 89 0
45 -49 -74 0
45 -48 94 0
45 46 87 0
46 -90 98 0
46 -53 -59 0
46 -51 83 0
46 56 -61 0
47 -57 -92 0
47 58 93 0
47 80 -92 0
48 -77 83 0
48 -54 -97 0
48 65 66 0
48 74 80 0
49 -95 -96 0
49 -67 -79 0
49 63 86 0
49 74 89 0
49 82 -93 0
50 -93 -98 0
50 -62 87 0
50 53 -94 0
51 76 -78 0
52 -85 -93 0
52 -71 -84 0
52 -69 83 0
52 -54 -97 0
52 67 -95 0
54 -71 -92 0
54 61 86 0
55 56 81 0
56 -80 84 0
56 -73 77 0
56 -68 88 0
56 -63 -68 0
56 65 100 0
57 -84 -95 0
57 -58 68 0
59 -86 -95 0
59 -83 84 0
61 75 77 0
62 -69 -95 0
62 -68 72 0
63 -77 93 0
63 87 90 0
64 -84 -100 0
65 -81 100 0
65 72 -73 0
66 -83 96 0
66 74 81 0
68 69 -92 0
68 80 -86 0
69 -85 91 0
70 -90 97 0
71 -95 -100 0
71 -78 81 0
71 -76 78 0
74 -93 -98 0
74 -90 -91 0
74 -87 -91 0
76 -79 -97 0
76 -78 84 0
76 94 99 0
79 80 -93 0
80 -88 91 0
80 83 -97 0
80 90 -94 0
81 93 -100 0
82 -92 -100 0
82 -90 91 0
86 95 97 0
