p cnf 150 638
-128 -136 -140 0
-118 -125 -145 0
-118 131 -144 0
-116 -118 -137 0
-116 127 146 0
-116 129 -148 0
-114 130 135 0
-113 142 146 0
-112 120 -150 0
-111 -125 -140 0
-110 127 -147 0
-106 107 135 0
-104 134 -147 0
-100 -116 145 0
-100 -108 -148 0
-96 138 -139 0
-95 116 -131 0
-94 -110 140 0
-94 111 115 0
-92 94 113 0
-92 104 -126 0
-91 93 94 0
-91 115 -121 0
-88 -129 -134 0
-87 -91 -129 0
-87 123 -145 0
-86 125 126 0
-84 -121 -138 0
-84 -111 -146 0
-83 -132 140 0
-82 -93 -146 0
-81 -85 126 0
-81 112 117 0
-80 112 132 0
-78 -108 146 0
-78 83 110 0
-77 -127 148 0
-77 83 -145 0
-76 -101 -135 0
-75 -76 92 0
-74 -113 -125 0
-74 -103 -121 0
-74 -92 -106 0
-73 -83 143 0
-73 122 -133 0
-72 -98 -112 0
-72 -74 146 0
-71 -91 -150 0
-71 86 123 0
-70 -136 -147 0
-70 86 123 0
-70 92 -101 0
-69 103 113 0
-68 75 108 0
-68 111 140 0
-68 115 145 0
-67 -107 -143 0
-67 -105 125 0
-67 -84 -136 0
-67 123 131 0
-66 133 149 0
-65 -88 -107 0
-65 107 -145 0
-64 -144 148 0
-64 -109 141 0
-64 71 -145 0
-64 98 -143 0
-63 67 -109 0
-63 88 130 0
-62 -116 -150 0
-62 100 -130 0
-59 -128 -145 0
-59 -114 -136 0
-59 -76 -105 0
-59 66 96 0
-58 75 -115 0
-58 82 106 0
-58 82 136 0
-58 108 138 0
-57 -99 -137 0
-57 -81 117 0
-57 85 93 0
-56 57 111 0
-56 81 -128 0
-55 92 -127 0
-55 100 -121 0
-54 -117 124 0
-54 -111 140 0
-54 74 -92 0
-52 -54 110 0
-52 66 92 0
-51 -65 144 0
-51 -60 -137 0
-51 -52 55 0
-51 89 -137 0
-50 74 88 0
-50 76 115 0
-50 108 -111 0
-49 99 -122 0
-49 110 -120 0
-48 -133 135 0
-48 112 -125 0
-48 131 -132 0
-47 -122 -143 0
-47 -85 -124 0
-47 -73 125 0
-47 -72 96 0
-46 -118 123 0
-46 -60 -69 0
-45 -141 150 0
-45 54 -60 0
-44 -120 149 0
-44 -84 -133 0
-44 47 128 0
-44 85 -150 0
-43 -118 146 0
-43 -54 87 0
-43 66 -149 0
-42 -114 124 0
-42 -111 -121 0
-42 67 -121 0
-41 -81 86 0
-41 -65 -108 0
-41 -42 -61 0
-40 -77 -123 0
-40 114 -147 0
-39 -48 50 0
-39 59 -72 0
-39 86 -87 0
-39 112 -123 0
-38 68 -145 0
-37 -59 115 0
-36 45 -101 0
-36 61 -88 0
-36 73 -76 0
-36 116 130 0
-35 -101 -125 0
-35 -51 91 0
-35 52 90 0
-35 92 136 0
-35 130 137 0
-34 -82 -91 0
-34 38 56 0
-34 135 143 0
-33 -82 103 0
-33 58 -114 0
-33 63 81 0
-33 85 130 0
-33 136 142 0
-32 -107 133 0
-32 -66 77 0
-32 -65 -145 0
-31 -99 131 0
-31 -44 -91 0
-31 56 -79 0
-31 57 -112 0
-31 71 -120 0
-30 -45 74 0
-30 49 -82 0
-30 74 128 0
-30 81 90 0
-29 -67 122 0
-29 30 78 0
-29 49 -64 0
-28 -121 -128 0
-28 -62 -139 0
-27 -132 143 0
-27 74 -123 0
-27 90 124 0
-27 92 -107 0
-26 -108 141 0
-26 -74 -137 0
-26 -55 92 0
-26 -47 -138 0
-26 -41 113 0
-26 -39 43 0
-26 44 108 0
-26 53 -66 0
-26 54 -103 0
-26 129 -141 0
-25 -44 -76 0
-25 38 120 0
-25 114 -133 0
-25 117 134 0
-24 47 -128 0
-24 51 -82 0
-24 82 -138 0
-23 -40 82 0
-23 -38 -129 0
-23 114 118 0
-22 -124 143 0
-22 -95 -133 0
-22 -95 112 0
-22 -69 79 0
-22 -55 126 0
-22 -48 -52 0
-22 -32 -63 0
-22 47 -81 0
-22 48 -88 0
-21 -117 143 0
-21 -47 -120 0
-21 -34 80 0
-21 -33 86 0
-21 -31 -149 0
-21 -29 -52 0
-21 27 -32 0
-21 42 70 0
-21 69 -73 0
-21 106 127 0
-21 117 -144 0
-20 -70 -133 0
-20 -65 83 0
-20 -57 147 0
-20 -28 39 0
-20 38 122 0
-20 66 -121 0
-20 80 -103 0
-20 85 105 0
-19 -57 -131 0
-19 -46 143 0
-19 28 34 0
-19 47 -125 0
-19 111 -134 0
-19 120 148 0
-18 -50 88 0
-18 -23 -35 0
-18 24 -33 0
-18 26 -112 0
-18 50 144 0
-18 68 103 0
-18 118 135 0
-17 -69 -78 0
-17 -28 -113 0
-17 -20 81 0
-17 116 140 0
-16 45 -134 0
-16 49 55 0
-15 -71 -134 0
-15 37 -93 0
-15 41 -147 0
-15 47 -149 0
-15 137 -147 0
-14 -32 98 0
-14 -26 -38 0
-14 -24 80 0
-13 -104 141 0
-13 -62 143 0
-13 -57 -107 0
-13 -45 108 0
-13 -39 53 0
-13 -38 -58 0
-13 23 -95 0
-13 40 55 0
-13 48 -87 0
-13 94 135 0
-12 -34 53 0
-12 34 -127 0
-11 -53 -80 0
-11 -40 -62 0
-11 81 142 0
-11 86 -148 0
-10 -71 79 0
-10 -41 65 0
-10 16 91 0
-10 17 136 0
-10 24 32 0
-10 80 99 0
-10 86 -123 0
-9 -63 -84 0
-9 -57 147 0
-9 -26 -62 0
-9 -23 125 0
-9 -19 146 0
-9 -16 66 0
-9 13 -50 0
-9 16 120 0
-9 66 137 0
-8 -115 118 0
-8 -81 -103 0
-8 -70 -148 0
-8 -67 138 0
-8 -51 55 0
-8 -23 78 0
-7 -132 148 0
-7 -43 -147 0
-7 -42 53 0
-7 -30 86 0
-7 29 -118 0
-7 81 -116 0
-7 116 -144 0
-6 -25 -96 0
-6 -12 -87 0
-6 13 41 0
-6 18 52 0
-6 24 95 0
-6 25 108 0
-6 55 -79 0
-5 -124 -129 0
-5 -37 -56 0
-5 -6 -97 0
-5 16 -90 0
-5 46 95 0
-4 -8 -30 0
-4 28 -105 0
-4 51 82 0
-4 70 -110 0
-3 -71 75 0
-3 -70 134 0
-3 -37 108 0
-3 33 46 0
-3 47 95 0
-3 65 -136 0
-3 107 124 0
-3 123 139 0
-3 127 136 0
-2 -122 132 0
-2 -75 -137 0
-2 15 145 0
-2 91 117 0
-2 108 -121 0
-1 -44 121 0
-1 -36 146 0
-1 -30 94 0
-1 -10 30 0
-1 7 -124 0
1 -108 121 0
1 -33 -110 0
1 -19 46 0
1 -15 -120 0
1 16 -90 0
1 73 111 0
2 -139 143 0
2 -93 116 0
2 -11 63 0
2 12 -72 0
2 20 70 0
2 37 59 0
2 84 129 0
2 86 103 0
3 -104 -130 0
3 -13 89 0
3 4 -70 0
3 6 134 0
3 11 134 0
3 58 145 0
3 60 -124 0
4 -130 -138 0
4 -9 39 0
4 46 129 0
4 47 -79 0
5 -89 -132 0
5 -38 90 0
5 78 130 0
6 -99 -138 0
6 9 -123 0
6 11 146 0
6 30 -53 0
7 -99 -115 0
7 -88 -102 0
7 -69 104 0
7 -37 -92 0
7 77 -137 0
8 -47 -148 0
8 -36 -115 0
8 -23 -65 0
8 9 -129 0
8 27 142 0
9 -96 -115 0
9 -69 84 0
9 -45 -64 0
9 -43 132 0
9 -36 -129 0
9 27 -84 0
9 27 -67 0
10 -93 -135 0
10 -73 -118 0
10 -64 134 0
10 -56 -120 0
10 -45 -72 0
10 12 82 0
10 17 71 0
10 33 65 0
10 38 45 0
10 52 88 0
11 -35 114 0
11 49 -140 0
12 -88 -118 0
12 70 75 0
13 -67 -71 0
13 -34 117 0
13 -21 -123 0
13 42 81 0
14 -108 131 0
14 -82 -115 0
14 -76 145 0
14 -50 88 0
14 109 -115 0
15 -128 -133 0
15 -59 -138 0
15 -48 61 0
15 75 119 0
16 -91 -139 0
16 -65 115 0
16 -58 123 0
16 -47 87 0
16 26 -99 0
16 39 106 0
16 55 69 0
16 70 -149 0
16 77 -102 0
16 119 139 0
17 -84 -107 0
17 -72 118 0
17 -42 -103 0
17 20 114 0
17 112 144 0
18 -110 -120 0
18 -74 141 0
18 80 118 0
18 82 -134 0
19 -111 147 0
19 -81 -118 0
19 -67 -113 0
19 84 -143 0
20 -121 142 0
20 -53 -73 0
20 47 -54 0
20 74 98 0
20 85 102 0
20 87 -128 0
20 124 -129 0
21 -105 129 0
21 -58 -99 0
21 -29 -134 0
21 31 -33 0
22 -39 -104 0
22 65 -119 0
22 73 -81 0
22 74 -95 0
23 -78 -105 0
23 -47 49 0
23 -32 43 0
23 44 -130 0
23 61 -98 0
23 89 -94 0
24 36 -71 0
24 64 -94 0
25 -83 105 0
25 -52 111 0
25 -30 -40 0
25 -28 -42 0
25 86 105 0
25 95 -99 0
26 -118 -137 0
26 -116 137 0
26 -98 -145 0
26 72 -124 0
26 93 -143 0
27 -83 137 0
27 -81 -128 0
27 -71 130 0
27 33 46 0
27 45 -111 0
27 52 -90 0
27 75 -127 0
28 -69 111 0
28 -51 71 0
28 120 141 0
29 -115 -126 0
29 -65 100 0
29 -47 138 0
29 -31 -115 0
29 58 83 0
30 47 63 0
31 70 -142 0
31 70 104 0
32 -57 -71 0
32 -48 -92 0
32 44 61 0
33 -99 117 0
33 -65 122 0
33 35 -142 0
33 44 -82 0
33 62 -100 0
33 94 -121 0
35 -71 85 0
35 -65 141 0
35 -64 -67 0
35 42 51 0
35 54 -98 0
35 69 141 0
35 72 99 0
35 99 -126 0
35 136 -146 0
36 -43 -49 0
37 -84 89 0
37 41 -128 0
37 51 -79 0
38 -102 -124 0
38 -48 -92 0
39 -60 -70 0
39 57 -143 0
39 103 139 0
40 -106 111 0
40 -101 109 0
40 -76 -109 0
40 123 140 0
41 -94 111 0
41 -51 130 0
41 54 -62 0
41 72 83 0
41 92 142 0
42 -99 141 0
42 63 116 0
43 -109 127 0
43 68 149 0
43 79 -142 0
44 -76 -91 0
44 -67 130 0
44 114 128 0
45 -103 127 0
45 73 120 0
46 -112 126 0
46 -61 92 0
47 55 -105 0
47 80 148 0
47 124 150 0
48 -106 108 0
48 -67 -73 0
48 66 -136 0
48 71 -72 0
48 95 -102 0
48 111 129 0
48 133 -138 0
49 -129 142 0
49 -97 147 0
49 -66 127 0
49 55 74 0
49 61 -92 0
49 97 -135 0
50 -124 132 0
50 -51 -86 0
51 -68 81 0
51 68 111 0
52 -112 -142 0
52 -84 100 0
52 54 -97 0
52 54 -74 0
52 54 111 0
52 57 -58 0
52 104 -142 0
53 -79 118 0
53 -78 -134 0
53 79 96 0
53 97 -148 0
53 105 138 0
53 131 150 0
54 -77 -120 0
54 57 82 0
55 -84 -94 0
55 59 -112 0
56 -62 72 0
56 62 118 0
57 -64 -137 0
57 80 105 0
59 -100 -102 0
59 -64 -117 0
59 64 131 0
60 -128 -143 0
60 -86 123 0
60 -71 108 0
60 81 141 0
61 -114 -138 0
61 99 145 0
62 -81 92 0
63 -97 111 0
63 78 116 0
64 -108 112 0
65 -135 138 0
65 -100 -112 0
65 67 -80 0
65 84 107 0
65 100 139 0
66 -79 -111 0
67 -69 138 0
67 149 150 0
69 -82 137 0
69 84 117 0
70 -86 136 0
70 74 -120 0
71 116 129 0
72 -90 -104 0
72 -81 -108 0
72 105 -144 0
73 -93 -129 0
73 77 -146 0
73 100 142 0
75 -83 137 0
75 104 136 0
76 -83 -127 0
77 -109 -134 0
77 -94 117 0
77 -83 117 0
78 -82 128 0
79 -100 -137 0
81 -94 137 0
81 -92 -132 0
81 90 -121 0
81 103 146 0
82 -137 -150 0
82 -111 -115 0
82 102 127 0
83 95 -124 0
83 104 -111 0
84 119 135 0
86 -87 -129 0
89 100 -150 0
89 144 148 0
90 -103 -139 0
90 103 -110 0
91 142 -149 0
92 104 107 0
93 96 -136 0
93 112 128 0
95 -106 -111 0
95 115 -121 0
95 122 -138 0
98 -114 144 0
100 -106 133 0
102 -106 149 0
104 -123 -148 0
109 127 -132 0
111 -132 143 0
113 -136 147 0
118 -124 -138 0
129 -140 -144 0
136 -142 -146 0
142 -146 -149 0
