p cnf 55 234
-44 -51 53 0
-41 -43 48 0
-41 49 54 0
-39 -41 46 0
-35 -47 53 0
-32 -39 -45 0
-31 36 48 0
-30 -49 53 0
-30 -43 47 0
-30 -32 35 0
-29 -42 52 0
-29 -41 -47 0
-29 -38 -47 0
-29 -34 51 0
-27 -42 54 0
-26 28 47 0
-25 43 -46 0
-24 29 37 0
-24 46 50 0
-23 -35 55 0
-23 25 31 0
-23 26 -27 0
-23 38 -46 0
-22 31 38 0
-22 44 -46 0
-21 -30 -43 0
-20 24 -30 0
-20 37 -52 0
-20 42 -45 0
-19 26 47 0
-19 43 -51 0
-19 48 52 0
-19 50 -55 0
-18 -24 -35 0
-18 23 -26 0
-18 34 -39 0
-18 35 -48 0
-17 25 -46 0
-16 -51 -53 0
-16 21 -24 0
-15 -23 34 0
-15 -23 52 0
-15 -20 37 0
-15 -18 38 0
-15 -16 -25 0
-14 -40 42 0
-14 -28 -41 0
-14 -17 36 0
-14 -15 -16 0
-14 24 -36 0
-14 39 -48 0
-14 41 44 0
-13 -25 -46 0
-13 -19 31 0
-13 21 52 0
-13 41 46 0
-12 -32 53 0
-12 34 -43 0
-11 -32 50 0
-11 -16 25 0
-11 12 -45 0
-10 -22 49 0
-10 30 49 0
-10 46 -55 0
-9 -24 -28 0
-9 -12 -43 0
-9 28 40 0
-8 -41 43 0
-8 -23 55 0
-8 -22 36 0
-8 -12 -22 0
-8 26 41 0
-8 37 46 0
-8 52 -53 0
-7 -33 53 0
-7 12 32 0
-7 14 -33 0
-7 24 41 0
-7 37 -38 0
-6 -33 -44 0
-6 -33 55 0
-6 -30 45 0
-6 -19 -45 0
-6 10 -11 0
-6 14 -49 0
-6 26 39 0
-5 -30 -36 0
-5 -26 44 0
-5 -18 -22 0
-5 6 45 0
-4 -20 29 0
-4 -16 -41 0
-4 6 52 0
-4 11 -24 0
-4 22 -29 0
-4 29 -46 0
-4 34 -38 0
-3 -17 -34 0
-3 -12 -54 0
-3 21 53 0
-3 30 -50 0
-3 34 51 0
-2 -28 48 0
-2 -17 28 0
-2 6 16 0
-2 7 -43 0
-2 13 -25 0
-2 35 39 0
-1 -30 32 0
-1 -24 -49 0
-1 -22 -43 0
-1 9 -36 0
-1 12 -33 0
-1 16 -17 0
-1 28 -54 0
1 -23 53 0
1 3 -14 0
1 4 -52 0
2 -38 43 0
2 5 27 0
2 12 28 0
2 20 41 0
2 34 -54 0
3 -44 -53 0
3 -32 -55 0
3 -19 40 0
3 -15 31 0
3 -14 -26 0
3 -10 28 0
3 4 13 0
3 6 -27 0
3 14 -31 0
3 26 -36 0
4 -32 42 0
4 -26 55 0
4 -18 35 0
4 -16 47 0
4 -6 -49 0
4 8 -54 0
4 39 41 0
5 -42 49 0
5 -32 39 0
5 6 -55 0
5 12 46 0
5 15 48 0
5 18 -19 0
5 19 52 0
5 24 -37 0
5 36 55 0
5 37 -46 0
5 39 -41 0
5 42 46 0
5 48 -51 0
6 20 -34 0
6 28 -47 0
7 -20 -26 0
7 -12 21 0
7 -9 12 0
7 9 -50 0
7 15 -51 0
7 16 -21 0
8 31 52 0
8 33 -35 0
8 35 -48 0
9 -26 -36 0
9 -22 34 0
9 16 33 0
9 26 -42 0
10 -37 43 0
10 -33 -38 0
10 -26 -33 0
10 -22 55 0
10 -17 44 0
10 14 -39 0
10 24 -53 0
10 40 46 0
10 43 48 0
10 49 -54 0
11 20 -31 0
11 38 41 0
12 -44 51 0
12 -43 -54 0
12 -41 -47 0
12 -36 46 0
12 -15 -20 0
13 -22 -40 0
13 17 37 0
13 21 40 0
13 22 29 0
13 37 -38 0
14 -41 55 0
14 46 47 0
15 -30 -49 0
15 -29 -37 0
15 18 -55 0
15 19 47 0
15 23 26 0
15 39 46 0
16 -33 46 0
16 -17 36 0
17 19 -26 0
17 24 33 0
17 34 52 0
18 31 51 0
19 25 43 0
19 25 48 0
20 -32 -45 0
20 -23 37 0
21 -33 -48 0
21 27 -29 0
21 48 -50 0
22 -44 53 0
22 -40 48 0
22 39 41 0
24 -38 -55 0
24 -38 -44 0
24 -36 -54 0
24 -32 -43 0
24 -29 -38 0
24 27 28 0
26 -29 51 0
26 31 39 0
27 -38 52 0
27 -33 -49 0
27 38 44 0
28 -29 44 0
30 -40 41 0
30 33 46 0
33 -44 -55 0
34 42 -45 0
37 42 -52 0
42 -43 52 0
45 46 -54 0
49 -53 55 0
