p cnf 150 638
-125 129 -150 0
-120 133 -139 0
-118 136 -141 0
-116 118 136 0
-116 127 -141 0
-114 120 -132 0
-107 -124 147 0
-102 123 137 0
-100 110 -124 0
-100 114 -119 0
-99 128 145 0
-97 -124 -145 0
-96 -103 112 0
-96 113 -118 0
-95 -101 -135 0
-92 -97 122 0
-92 -95 -112 0
-90 -113 134 0
-90 91 -97 0
-89 -112 -150 0
-89 -112 136 0
-88 -108 -110 0
-87 -122 131 0
-87 96 -102 0
-86 -125 -144 0
-84 -111 -124 0
-83 118 -122 0
-82 -87 136 0
-82 107 -128 0
-81 98 -100 0
-78 -106 122 0
-78 -82 -91 0
-77 138 139 0
-76 -116 146 0
-76 -78 97 0
-76 81 84 0
-75 84 -106 0
-75 97 -125 0
-74 -85 98 0
-74 -78 -96 0
-74 91 134 0
-74 118 136 0
-73 -86 -110 0
-72 -113 148 0
-72 -95 129 0
-72 128 129 0
-70 -96 -99 0
-70 139 144 0
-69 -86 -145 0
-69 93 135 0
-68 -116 119 0
-68 -100 -146 0
-66 -130 -150 0
-66 69 88 0
-64 72 -125 0
-62 63 -102 0
-62 80 -137 0
-62 126 132 0
-61 -76 -100 0
-60 -130 143 0
-60 -118 146 0
-60 -67 -131 0
-60 81 -119 0
-60 136 -139 0
-59 -89 118 0
-59 62 -117 0
-58 -117 140 0
-58 -101 141 0
-57 67 -77 0
-56 60 -133 0
-56 79 132 0
-56 87 -106 0
-55 -111 -119 0
-55 -108 127 0
-55 -79 -114 0
-55 57 -79 0
-55 61 -92 0
-54 -127 147 0
-54 -75 -132 0
-54 67 105 0
-54 79 104 0
-54 93 146 0
-54 99 132 0
-53 -116 -150 0
-53 -103 -144 0
-53 -57 58 0
-53 70 121 0
-52 -117 -118 0
-52 -82 132 0
-51 83 98 0
-50 -87 109 0
-50 -86 132 0
-50 -64 110 0
-50 -51 -93 0
-50 76 -145 0
-50 92 -120 0
-49 -133 -146 0
-49 -59 149 0
-49 72 95 0
-48 -112 -115 0
-48 -88 109 0
-48 60 -131 0
-48 66 105 0
-48 117 -123 0
-47 -79 103 0
-46 -58 -60 0
-46 75 -148 0
-46 78 -96 0
-46 89 129 0
-46 97 131 0
-45 -100 -115 0
-45 -93 -99 0
-45 -59 -119 0
-45 -59 100 0
-45 70 131 0
-45 94 138 0
-45 106 129 0
-44 -58 128 0
-44 -48 -116 0
-43 -76 138 0
-43 -59 116 0
-43 48 141 0
-43 65 -131 0
-43 94 -123 0
-42 84 102 0
-42 89 -140 0
-41 -105 -138 0
-41 -78 88 0
-41 -52 66 0
-41 -49 -112 0
-41 -45 78 0
-41 120 122 0
-39 -128 145 0
-39 -114 -124 0
-39 -80 -132 0
-39 46 69 0
-38 70 114 0
-37 -44 135 0
-37 -40 -66 0
-37 103 142 0
-36 -106 131 0
-36 -98 113 0
-36 56 138 0
-35 -104 143 0
-34 -64 -145 0
-34 -38 -98 0
-34 40 -148 0
-34 67 140 0
-34 94 105 0
-33 -74 -114 0
-33 -64 143 0
-33 -45 62 0
-32 -52 120 0
-32 -44 93 0
-32 -42 -87 0
-32 48 -113 0
-31 -46 -92 0
-30 -80 98 0
-29 -57 -148 0
-29 41 51 0
-29 138 140 0
-28 -106 131 0
-28 -58 116 0
-28 -57 68 0
-28 -39 -150 0
-28 47 -56 0
-28 101 -127 0
-27 -44 46 0
-27 -40 77 0
-27 -28 -60 0
-27 74 129 0
-27 77 150 0
-26 -87 103 0
-26 -63 112 0
-26 -43 96 0
-26 47 -122 0
-26 126 148 0
-25 40 -128 0
-25 51 -115 0
-25 78 -106 0
-25 84 -112 0
-25 90 103 0
-24 -80 -85 0
-24 -37 141 0
-24 45 97 0
-23 -89 136 0
-23 55 -113 0
-23 57 -118 0
-23 109 -146 0
-22 -50 -145 0
-22 -40 -124 0
-22 -38 79 0
-22 62 113 0
-22 63 -140 0
-22 66 -106 0
-21 -54 -95 0
-21 22 111 0
-21 32 65 0
-21 67 140 0
-20 -103 -122 0
-20 -70 127 0
-20 -56 -68 0
-20 -53 66 0
-20 -43 68 0
-20 -30 -142 0
-20 87 117 0
-19 -46 -61 0
-19 56 -65 0
-19 102 -142 0
-18 -94 112 0
-18 -84 -144 0
-18 -64 140 0
-18 -46 -97 0
-18 -35 -49 0
-18 -23 42 0
-18 -20 -34 0
-18 39 99 0
-18 73 -93 0
-18 94 -99 0
-18 98 -147 0
-17 -85 -138 0
-17 -59 -122 0
-17 -34 -73 0
-17 -22 -63 0
-16 -80 -126 0
-16 -59 -69 0
-16 44 -97 0
-16 106 -135 0
-15 -43 84 0
-15 34 -82 0
-15 53 -94 0
-15 99 -146 0
-15 141 -148 0
-14 16 -70 0
-14 49 -92 0
-14 87 -115 0
-14 117 129 0
-13 -99 148 0
-13 -93 136 0
-13 -69 81 0
-13 -64 -78 0
-13 -31 36 0
-13 46 -55 0
-13 98 144 0
-12 -109 -143 0
-12 -96 136 0
-12 -52 -144 0
-12 13 77 0
-12 111 142 0
-11 -83 -108 0
-11 -15 140 0
-11 23 -74 0
-10 -18 109 0
-10 27 114 0
-10 65 137 0
-10 117 -119 0
-9 -105 115 0
-9 -84 146 0
-9 -22 99 0
-9 34 115 0
-9 35 115 0
-9 80 106 0
-8 -98 119 0
-8 -55 -67 0
-8 -17 57 0
-8 9 -23 0
-8 24 -114 0
-8 44 51 0
-8 47 -102 0
-8 49 -98 0
-7 -47 -68 0
-7 -17 46 0
-7 22 -48 0
-7 40 -84 0
-7 58 96 0
-7 61 -83 0
-7 83 128 0
-7 86 130 0
-6 -76 -124 0
-6 -63 -69 0
-6 -32 -74 0
-6 -16 -120 0
-6 8 10 0
-6 32 73 0
-6 37 75 0
-6 45 -134 0
-5 -60 61 0
-5 16 -43 0
-5 92 -140 0
-4 -58 105 0
-4 -32 137 0
-4 63 -107 0
-4 64 72 0
-4 74 -91 0
-4 128 -139 0
-3 -138 150 0
-3 -78 147 0
-3 -67 147 0
-3 -20 121 0
-3 -11 -20 0
-3 9 -136 0
-3 26 -45 0
-3 86 116 0
-3 90 93 0
-2 -122 141 0
-2 -60 108 0
-2 8 -76 0
-2 17 -46 0
-2 19 -114 0
-2 33 -109 0
-2 61 -62 0
-1 -54 -89 0
-1 109 -130 0
-1 130 -137 0
1 -115 -122 0
1 30 74 0
1 66 141 0
1 142 -148 0
2 -40 117 0
2 -37 -112 0
2 -25 -80 0
2 -13 55 0
2 15 58 0
2 22 128 0
2 70 77 0
3 -127 135 0
3 -66 -104 0
3 13 -149 0
3 22 149 0
3 50 138 0
3 66 -91 0
4 -67 -140 0
4 -58 -65 0
4 62 -88 0
5 -142 150 0
5 -130 146 0
5 -107 117 0
5 -62 117 0
5 -56 139 0
5 -26 -60 0
5 -13 -68 0
5 -13 57 0
5 48 -132 0
5 108 124 0
6 -134 137 0
6 -40 -77 0
6 -40 138 0
6 30 113 0
6 66 -133 0
6 74 -136 0
6 77 -139 0
6 98 -138 0
6 110 -141 0
7 -73 -76 0
7 -61 124 0
7 -22 32 0
7 -13 -122 0
8 -97 114 0
8 -89 -146 0
8 -55 -115 0
8 -38 99 0
8 -14 79 0
8 22 112 0
8 116 -148 0
9 -92 102 0
9 26 -105 0
10 -84 -129 0
10 -67 98 0
10 -33 -145 0
10 -27 -42 0
10 -22 -127 0
10 -16 75 0
10 20 -84 0
11 -92 134 0
11 -61 -69 0
11 13 94 0
11 99 -116 0
11 118 -136 0
12 -63 65 0
12 40 54 0
12 48 134 0
12 120 -138 0
13 -98 -102 0
13 -87 -103 0
13 -69 -101 0
13 -33 -110 0
13 20 -107 0
13 40 64 0
13 50 146 0
13 72 -145 0
13 72 -82 0
13 111 -139 0
14 27 -38 0
14 31 33 0
14 66 137 0
15 -64 137 0
15 -48 -129 0
15 -25 -85 0
15 -22 81 0
15 49 141 0
16 -57 147 0
16 -23 -148 0
16 43 47 0
16 135 142 0
17 -76 -126 0
17 -41 -84 0
17 36 -136 0
18 -92 148 0
18 -57 -105 0
18 -56 129 0
18 -29 -59 0
18 -20 -122 0
18 20 -103 0
18 37 -61 0
19 -76 -131 0
19 -45 139 0
19 -33 49 0
19 79 -97 0
20 -66 108 0
20 -62 81 0
20 -32 -44 0
20 30 -62 0
20 90 -138 0
21 -96 109 0
21 -24 65 0
22 -67 132 0
22 -38 52 0
22 61 -102 0
22 63 -149 0
22 67 140 0
22 68 -101 0
22 86 -108 0
22 93 -107 0
22 106 -107 0
23 -84 91 0
23 -61 68 0
23 -33 -86 0
23 38 129 0
23 64 125 0
24 -105 122 0
24 -38 100 0
24 61 -130 0
24 71 124 0
24 90 -120 0
24 107 -146 0
25 -42 -65 0
25 104 -116 0
26 29 -120 0
26 57 110 0
26 96 121 0
27 -39 -58 0
27 42 149 0
27 53 76 0
28 60 -139 0
28 74 -77 0
28 74 113 0
29 -43 -61 0
29 -35 -119 0
29 33 34 0
30 -116 -134 0
30 -106 -133 0
30 44 71 0
30 81 -137 0
30 99 -149 0
31 -116 138 0
31 -39 -53 0
31 -33 126 0
31 37 -68 0
31 90 -139 0
32 -68 -84 0
32 -33 -68 0
33 -69 89 0
33 46 -140 0
33 74 142 0
33 77 -145 0
33 92 -112 0
33 110 120 0
34 -98 -140 0
34 -81 -118 0
34 -58 74 0
34 55 -79 0
34 65 147 0
34 69 -82 0
35 -106 123 0
35 -66 -106 0
35 47 -99 0
35 59 -80 0
36 -57 83 0
36 -55 -147 0
37 57 69 0
37 107 -150 0
38 -60 137 0
38 66 -133 0
39 -80 -150 0
39 -76 90 0
39 -66 139 0
39 41 -90 0
39 51 119 0
39 69 120 0
40 -103 137 0
40 -88 -99 0
40 -73 77 0
40 -42 -122 0
41 -107 121 0
41 -88 -126 0
41 -79 -146 0
41 -46 65 0
41 42 -119 0
42 -123 137 0
42 -77 127 0
43 57 -99 0
43 104 -107 0
44 -69 -114 0
44 59 -142 0
45 -93 -141 0
45 -57 -70 0
45 55 -71 0
45 70 125 0
45 76 -143 0
45 100 124 0
45 139 141 0
46 -126 147 0
46 -69 -104 0
46 53 92 0
46 79 -134 0
46 82 111 0
46 91 -127 0
46 96 143 0
47 -76 118 0
47 53 109 0
48 -74 -134 0
48 54 134 0
49 58 -132 0
49 101 -130 0
50 -60 74 0
50 -56 94 0
50 103 111 0
51 -97 -120 0
51 56 59 0
51 65 -98 0
52 -146 147 0
52 -85 123 0
52 -80 -123 0
52 63 118 0
54 -56 -97 0
54 82 -109 0
54 84 -118 0
56 -141 143 0
56 138 148 0
57 102 -143 0
58 -84 129 0
58 86 94 0
59 -70 -103 0
59 106 -149 0
59 133 134 0
60 112 -126 0
61 -144 -146 0
61 -125 142 0
61 -81 -102 0
62 79 -92 0
62 93 148 0
62 131 133 0
63 103 -110 0
64 -105 149 0
64 -66 -139 0
64 73 -108 0
64 136 142 0
65 -129 147 0
65 -66 -82 0
65 77 -112 0
66 -97 -104 0
66 68 140 0
67 -77 113 0
67 -72 81 0
67 68 -133 0
67 70 -124 0
67 72 -138 0
67 115 141 0
68 126 143 0
70 -145 -147 0
70 -90 -144 0
71 125 129 0
72 -81 92 0
73 -98 107 0
75 109 127 0
76 -111 -123 0
76 97 -108 0
77 78 81 0
77 93 98 0
78 84 -112 0
79 83 -95 0
79 106 -145 0
81 83 139 0
81 84 -124 0
81 90 -116 0
82 -128 -141 0
82 88 -131 0
83 -134 139 0
83 91 112 0
84 -108 124 0
86 -91 -126 0
87 -108 113 0
87 -98 -135 0
87 -92 -128 0
88 90 95 0
88 103 111 0
90 -111 115 0
92 100 -134 0
93 140 -144 0
94 -113 -146 0
94 108 138 0
95 -102 -121 0
96 -117 -137 0
97 99 -133 0
97 109 126 0
98 -137 -147 0
98 100 113 0
99 -142 -145 0
99 -134 -135 0
101 -144 148 0
101 122 144 0
103 112 116 0
104 -105 -139 0
104 119 -141 0
105 122 143 0
106 -145 -150 0
107 139 -145 0
108 129 147 0
109 122 -127 0
110 116 141 0
110 122 -148 0
112 124 142 0
118 125 -134 0
118 129 -133 0
121 -124 135 0
121 134 -146 0
126 132 136 0
129 -141 150 0
