p cnf 150 525
-121 -123 -149 0
-119 -126 -139 0
-115 144 -149 0
-111 114 129 0
-109 121 145 0
-107 128 136 0
-106 -135 -140 0
-106 107 -116 0
-105 131 135 0
-101 -116 127 0
-100 -105 -138 0
-99 138 148 0
-97 -107 127 0
-95 134 147 0
-94 134 139 0
-93 -111 131 0
-93 114 143 0
-93 123 131 0
-92 100 -128 0
-92 126 144 0
-86 -103 -138 0
-86 133 -145 0
-84 -129 -135 0
-84 -116 120 0
-84 -111 -140 0
-84 89 124 0
-82 95 -109 0
-81 -136 -150 0
-77 101 108 0
-76 -107 -118 0
-76 -94 114 0
-76 -93 123 0
-75 -90 -117 0
-75 106 137 0
-75 110 145 0
-74 -98 126 0
-73 -81 -111 0
-71 81 -135 0
-71 99 105 0
-70 -76 -115 0
-69 -77 -134 0
-69 71 -123 0
-68 -122 143 0
-68 -79 110 0
-67 -87 -110 0
-66 -138 -139 0
-66 -132 140 0
-66 -101 134 0
-66 75 -134 0
-66 104 129 0
-65 70 -92 0
-64 -100 127 0
-64 -66 -81 0
-63 -101 -131 0
-63 -80 -88 0
-63 75 101 0
-62 -74 111 0
-62 93 109 0
-62 98 -140 0
-62 117 142 0
-61 -79 102 0
-61 65 128 0
-60 111 -131 0
-59 64 -147 0
-59 81 113 0
-58 94 -116 0
-57 99 -114 0
-57 125 -140 0
-56 -123 -140 0
-56 70 104 0
-55 -58 87 0
-55 56 -131 0
-55 61 -73 0
-55 67 120 0
-55 112 -132 0
-54 -117 120 0
-54 -114 136 0
-54 68 -139 0
-54 83 112 0
-54 129 -135 0
-53 -92 104 0
-53 113 -115 0
-52 -96 141 0
-51 -112 120 0
-51 139 145 0
-50 -83 -88 0
-50 -81 -93 0
-50 -63 107 0
-50 70 76 0
-50 116 146 0
-49 -85 121 0
-49 -64 124 0
-49 -63 141 0
-49 104 107 0
-49 143 -149 0
-48 -105 108 0
-48 -104 106 0
-48 73 129 0
-48 88 96 0
-46 -68 -108 0
-46 -62 -130 0
-46 87 -109 0
-45 -61 -124 0
-45 -51 130 0
-45 63 67 0
-45 103 116 0
-44 -132 135 0
-44 50 -78 0
-44 100 -126 0
-44 102 -142 0
-43 -57 -136 0
-43 132 -149 0
-42 -79 -128 0
-41 -72 118 0
-41 -52 133 0
-40 -110 121 0
-39 -64 -135 0
-39 59 83 0
-39 93 -129 0
-38 53 -102 0
-37 -141 -145 0
-37 -79 -103 0
-37 -74 -145 0
-37 56 -149 0
-36 -86 127 0
-35 42 127 0
-34 -65 146 0
-34 -52 -61 0
-34 69 113 0
-33 -130 133 0
-33 -91 128 0
-32 129 147 0
-31 -88 130 0
-31 -75 131 0
-31 -75 140 0
-31 -62 63 0
-31 42 63 0
-30 54 -135 0
-30 56 94 0
-30 103 -114 0
-30 131 -143 0
-29 -101 122 0
-28 -56 82 0
-26 -114 119 0
-26 -44 -53 0
-26 43 119 0
-25 47 124 0
-25 52 -96 0
-25 97 137 0
-24 -81 130 0
-24 -63 85 0
-24 -39 83 0
-24 30 133 0
-24 35 84 0
-24 53 93 0
-23 -121 -149 0
-23 -108 -150 0
-23 -99 150 0
-23 -26 76 0
-23 92 148 0
-22 -82 96 0
-22 -47 123 0
-22 -45 90 0
-22 -36 142 0
-22 26 47 0
-22 111 117 0
-22 113 142 0
-21 -22 125 0
-21 25 150 0
-21 29 -78 0
-21 37 -100 0
-21 79 97 0
-20 -53 81 0
-20 51 -84 0
-19 -137 148 0
-19 -81 -144 0
-19 -42 -111 0
-19 48 91 0
-18 -61 -62 0
-18 -54 -149 0
-18 -54 128 0
-18 -45 68 0
-18 -42 -80 0
-17 -85 131 0
-17 -41 -108 0
-17 -35 -147 0
-17 35 134 0
-17 50 -102 0
-17 78 -110 0
-17 81 -91 0
-17 92 146 0
-17 123 -128 0
-16 -106 -145 0
-16 -52 -116 0
-16 -52 114 0
-16 -36 143 0
-16 -25 52 0
-16 58 -75 0
-16 74 110 0
-16 130 135 0
-15 -105 130 0
-15 -47 -122 0
-15 -47 -61 0
-15 -16 -75 0
-15 30 -59 0
-15 44 -99 0
-14 -49 -107 0
-14 -15 62 0
-14 126 -134 0
-12 20 112 0
-11 -118 -141 0
-11 -100 -134 0
-11 -78 -132 0
-11 69 -129 0
-10 -83 139 0
-10 -41 -116 0
-10 -25 -73 0
-10 -16 -83 0
-10 33 -93 0
-10 42 -93 0
-10 45 -114 0
-9 -63 -96 0
-9 140 143 0
-8 -57 -107 0
-8 21 -52 0
-8 81 141 0
-7 11 73 0
-7 72 144 0
-7 96 -128 0
-6 -94 -108 0
-6 -68 81 0
-6 20 115 0
-6 30 144 0
-5 -18 101 0
-5 17 -80 0
-5 21 76 0
-5 40 -75 0
-5 47 105 0
-5 48 -60 0
-4 -56 -127 0
-4 -41 106 0
-4 15 46 0
-4 59 79 0
-4 63 -120 0
-3 -90 128 0
-3 102 -140 0
-2 -63 94 0
-2 -25 -107 0
-2 -11 143 0
-2 24 -139 0
-2 34 105 0
-1 -76 -124 0
-1 -52 121 0
-1 -14 77 0
-1 -9 -26 0
-1 84 143 0
-1 106 -136 0
1 -50 96 0
1 53 -146 0
1 58 -70 0
2 -75 120 0
2 -59 -121 0
2 -12 -63 0
2 -8 146 0
2 29 72 0
2 33 -53 0
2 68 118 0
3 -68 124 0
3 33 -99 0
3 65 -67 0
3 67 119 0
4 -130 -137 0
4 56 -117 0
4 78 116 0
4 110 140 0
4 112 126 0
5 -130 -141 0
5 -120 -143 0
6 -123 -143 0
6 -91 96 0
6 -64 83 0
6 56 -103 0
7 -80 107 0
7 -50 -120 0
7 9 34 0
7 9 64 0
7 16 -40 0
7 101 113 0
8 -97 -125 0
8 -86 141 0
8 -81 98 0
8 -39 -50 0
8 -13 -91 0
8 59 70 0
8 78 133 0
9 -32 -78 0
9 -28 -47 0
9 12 60 0
9 27 -150 0
10 -68 90 0
10 -54 -77 0
10 -22 86 0
10 37 121 0
11 -69 -136 0
11 -26 138 0
11 17 98 0
11 133 -142 0
12 -88 -146 0
12 -63 -107 0
12 -32 -149 0
12 -32 92 0
12 -20 -25 0
12 45 127 0
14 -115 144 0
14 -96 99 0
14 -84 105 0
14 -30 49 0
14 36 -102 0
15 -96 -135 0
15 -22 -86 0
15 17 59 0
15 26 33 0
15 69 72 0
15 75 78 0
15 120 -137 0
18 -80 114 0
18 42 -137 0
18 82 -145 0
19 -39 46 0
19 -36 -144 0
19 23 96 0
19 93 -143 0
19 111 136 0
20 -121 -149 0
20 -105 -134 0
20 -60 108 0
20 37 56 0
20 74 -104 0
21 -91 -141 0
21 -59 63 0
21 -27 -124 0
21 41 51 0
21 104 150 0
22 -34 -41 0
22 27 67 0
22 56 120 0
22 90 -147 0
22 99 135 0
23 -38 105 0
23 25 -121 0
23 36 112 0
23 48 145 0
24 -138 150 0
24 -51 99 0
24 41 123 0
25 -73 74 0
25 47 99 0
26 -75 136 0
26 -61 134 0
26 -55 140 0
26 67 140 0
27 -143 146 0
27 -91 142 0
27 -29 -39 0
27 44 92 0
28 -95 -135 0
28 -38 -137 0
28 51 -133 0
28 79 111 0
28 121 145 0
29 -101 -148 0
29 -81 99 0
29 -67 -125 0
29 55 -106 0
29 111 -129 0
30 -77 89 0
30 -49 -124 0
30 -36 89 0
31 36 -63 0
31 60 121 0
31 67 -143 0
31 72 -117 0
32 43 -59 0
32 81 -116 0
32 91 127 0
33 -61 132 0
33 -40 113 0
33 49 -140 0
33 53 130 0
33 74 88 0
34 -89 -116 0
34 -67 -139 0
34 -61 116 0
34 51 -112 0
34 53 -140 0
35 -38 141 0
35 39 -86 0
35 123 -135 0
35 131 -139 0
36 94 103 0
36 110 122 0
37 -121 132 0
37 -64 101 0
37 81 135 0
37 89 -110 0
38 -43 49 0
39 -74 -93 0
39 -48 130 0
40 -104 -130 0
40 51 -88 0
40 114 143 0
40 115 134 0
41 102 -129 0
42 -77 -102 0
42 -72 105 0
43 -68 -93 0
43 -56 69 0
43 97 -146 0
43 117 -119 0
44 -95 -120 0
44 59 150 0
45 -53 -63 0
45 86 -136 0
46 -68 -102 0
46 82 143 0
47 -60 89 0
47 102 144 0
48 55 -128 0
48 64 -115 0
48 68 117 0
49 -62 -120 0
49 -53 139 0
50 -76 137 0
50 -52 -138 0
50 81 87 0
50 85 -135 0
51 112 145 0
51 121 -140 0
53 72 149 0
53 86 -130 0
54 92 -150 0
54 108 -141 0
55 -92 -146 0
55 -92 127 0
55 -74 82 0
55 -71 116 0
55 74 -143 0
55 81 -148 0
56 -96 150 0
56 88 -146 0
56 129 132 0
57 -111 119 0
57 97 141 0
57 133 139 0
58 77 150 0
59 -90 -148 0
59 68 -101 0
59 72 79 0
61 66 107 0
61 67 -71 0
61 82 -134 0
62 -107 -124 0
62 -68 110 0
64 104 -120 0
64 124 -137 0
65 -132 -139 0
66 67 124 0
66 115 -124 0
67 134 -137 0
68 -114 142 0
68 -72 -110 0
68 89 137 0
69 -86 116 0
70 -116 149 0
70 103 -122 0
70 126 143 0
71 95 135 0
72 -109 -137 0
72 -85 -93 0
72 78 -116 0
73 99 135 0
75 -78 118 0
76 -110 144 0
76 -85 104 0
76 -80 -119 0
78 86 122 0
79 129 -139 0
81 94 -107 0
81 111 -145 0
82 105 -129 0
83 130 136 0
84 -108 -134 0
84 123 -141 0
85 -92 148 0
85 101 -113 0
86 -93 -95 0
86 115 -124 0
86 128 136 0
87 -106 110 0
89 -100 -109 0
89 -97 109 0
90 -127 -142 0
90 -102 -135 0
90 -94 123 0
91 96 -145 0
92 -115 -129 0
92 95 -103 0
93 -123 -135 0
93 -98 126 0
93 95 -145 0
94 -136 145 0
94 -129 -136 0
96 -122 145 0
96 -116 129 0
96 -111 -129 0
103 119 131 0
104 130 -140 0
105 -131 133 0
107 -109 134 0
108 125 -133 0
110 -113 -150 0
118 134 -136 0
119 120 139 0
129 -138 -140 0
129 135 145 0
