p cnf 160 704
-136 -145 153 0
-131 -146 -149 0
-130 132 159 0
-125 139 157 0
-124 -132 -154 0
-122 -153 -156 0
-121 -143 -146 0
-121 130 153 0
-113 -127 159 0
-112 -124 -128 0
-112 119 159 0
-109 -139 140 0
-109 -127 156 0
-108 133 138 0
-107 119 -135 0
-107 127 -132 0
-105 106 149 0
-100 -137 -140 0
-100 -119 -147 0
-100 121 132 0
-99 -108 -119 0
-98 -117 -129 0
-97 -104 -140 0
-97 -104 -136 0
-97 104 111 0
-96 -150 154 0
-96 102 -116 0
-96 118 -147 0
-96 142 -147 0
-94 -119 123 0
-94 122 -126 0
-94 124 148 0
-93 115 -120 0
-92 -133 149 0
-91 -127 -151 0
-90 95 -145 0
-89 -96 114 0
-88 91 -143 0
-86 89 138 0
-86 99 133 0
-85 -115 129 0
-85 108 -140 0
-84 -147 149 0
-84 -114 136 0
-84 93 -98 0
-84 107 -153 0
-83 119 -131 0
-82 -149 -152 0
-82 -94 -149 0
-82 -85 -134 0
-81 -118 -127 0
-81 131 157 0
-80 -102 -108 0
-80 -92 -102 0
-80 89 -146 0
-80 121 127 0
-79 95 -158 0
-78 -91 141 0
-78 -88 -157 0
-78 -85 -138 0
-78 -84 -111 0
-78 -84 93 0
-77 95 -154 0
-76 -99 134 0
-76 141 -159 0
-75 -132 -133 0
-75 76 -159 0
-75 116 121 0
-74 91 -120 0
-73 101 104 0
-72 -88 -136 0
-72 -79 83 0
-72 84 -96 0
-72 137 -151 0
-71 -97 -102 0
-71 75 -109 0
-71 85 87 0
-70 -98 102 0
-70 105 114 0
-68 -112 -145 0
-68 -74 92 0
-68 91 106 0
-68 101 -130 0
-66 -68 141 0
-65 -71 -76 0
-64 -131 146 0
-63 100 -138 0
-63 144 147 0
-63 145 -160 0
-62 -88 -138 0
-62 -74 -154 0
-60 -146 152 0
-59 -104 145 0
-59 -66 -138 0
-58 -129 154 0
-58 92 125 0
-58 127 -140 0
-57 -70 91 0
-57 69 93 0
-56 -105 158 0
-56 -104 124 0
-56 -75 118 0
-56 146 156 0
-55 61 160 0
-55 105 -160 0
-54 -113 -149 0
-54 59 118 0
-53 -111 117 0
-52 -78 121 0
-52 76 -116 0
-52 82 101 0
-52 88 116 0
-51 -108 -112 0
-51 -87 -90 0
-50 -133 -137 0
-50 -69 -118 0
-49 77 -93 0
-49 111 -114 0
-48 -62 74 0
-48 123 133 0
-47 -144 158 0
-47 -95 117 0
-47 -80 125 0
-47 -77 -140 0
-47 -75 -156 0
-47 -51 109 0
-47 51 -125 0
-47 65 114 0
-45 -90 97 0
-45 46 64 0
-45 66 125 0
-43 -118 121 0
-43 66 -130 0
-43 102 -135 0
-42 -104 116 0
-42 44 -65 0
-42 54 82 0
-42 63 108 0
-42 69 -122 0
-41 -96 -101 0
-41 -74 138 0
-41 -62 -101 0
-41 -56 -130 0
-41 92 -115 0
-40 -73 -123 0
-40 84 -157 0
-39 -68 103 0
-39 46 -52 0
-38 -87 142 0
-38 63 152 0
-37 -106 -157 0
-37 -66 128 0
-37 43 -108 0
-37 60 -140 0
-36 -130 -157 0
-36 -113 -145 0
-36 -37 -157 0
-36 82 -104 0
-35 54 96 0
-34 -97 -126 0
-34 -94 -105 0
-34 -78 -101 0
-34 45 -46 0
-34 66 -153 0
-34 69 -84 0
-34 69 74 0
-34 76 -90 0
-34 82 -133 0
-34 85 -123 0
-34 86 -115 0
-34 117 159 0
-34 129 146 0
-34 150 -154 0
-33 -93 -126 0
-33 39 81 0
-33 79 113 0
-32 -43 75 0
-32 71 124 0
-32 78 -117 0
-32 117 -140 0
-32 127 -133 0
-32 139 -154 0
-31 -129 148 0
-31 -128 130 0
-31 -44 -126 0
-31 40 -73 0
-31 40 103 0
-31 51 -148 0
-31 78 -156 0
-30 -130 137 0
-30 -46 -59 0
-30 51 68 0
-30 54 72 0
-30 76 -120 0
-30 116 120 0
-30 127 -159 0
-29 -141 -157 0
-29 -51 -53 0
-29 -45 75 0
-28 -112 146 0
-28 -44 -89 0
-28 -40 -75 0
-28 -32 42 0
-28 41 -108 0
-27 -148 -152 0
-27 63 69 0
-27 70 -123 0
-27 89 97 0
-26 -46 70 0
-26 56 154 0
-26 75 129 0
-26 116 -155 0
-26 135 -153 0
-25 -116 -126 0
-25 -61 133 0
-25 -37 -156 0
-25 26 101 0
-25 35 -60 0
-25 100 -102 0
-24 -85 -103 0
-24 -30 131 0
-24 25 -64 0
-24 36 -74 0
-24 138 -152 0
-23 -97 -126 0
-23 -86 157 0
-23 -77 -91 0
-23 -59 -116 0
-23 -48 -96 0
-23 -36 -54 0
-23 -25 -123 0
-23 61 110 0
-23 114 160 0
-22 -109 144 0
-22 -60 -151 0
-22 63 -140 0
-21 -71 106 0
-21 24 -76 0
-21 30 -40 0
-21 71 -99 0
-21 98 -113 0
-20 -119 -122 0
-20 -67 86 0
-20 -38 76 0
-20 -36 -64 0
-20 24 -137 0
-20 52 -122 0
-20 61 -112 0
-20 70 104 0
-20 97 -107 0
-19 -76 81 0
-19 -59 74 0
-19 -57 -151 0
-19 -53 85 0
-19 -52 101 0
-19 143 148 0
-18 -26 -32 0
-18 24 48 0
-18 32 -149 0
-18 59 -143 0
-18 93 -130 0
-18 124 -133 0
-17 -118 -128 0
-17 -95 148 0
-17 -57 125 0
-17 25 83 0
-17 29 45 0
-17 40 -88 0
-16 40 -138 0
-16 140 -156 0
-15 -139 -149 0
-15 -80 -126 0
-15 -74 -127 0
-15 -70 120 0
-15 -65 -91 0
-15 -43 -51 0
-15 82 -128 0
-15 103 136 0
-14 -67 -143 0
-14 -35 66 0
-14 26 -150 0
-14 31 -150 0
-13 -56 -141 0
-13 36 110 0
-13 103 150 0
-13 115 -124 0
-12 -98 154 0
-12 -79 140 0
-12 -58 98 0
-11 -34 96 0
-11 -24 62 0
-11 -23 108 0
-11 -22 -84 0
-11 81 135 0
-11 133 -149 0
-10 -132 151 0
-10 -122 141 0
-10 -122 148 0
-10 -84 -138 0
-10 -75 -130 0
-10 -30 74 0
-10 -24 106 0
-10 101 -128 0
-9 -87 159 0
-9 -72 148 0
-9 -62 -122 0
-9 -50 138 0
-9 -38 -94 0
-9 -26 138 0
-9 -26 156 0
-9 -23 64 0
-9 33 -100 0
-8 -72 -148 0
-8 -69 -86 0
-8 -10 -16 0
-8 10 -46 0
-8 39 -122 0
-8 116 -137 0
-7 -152 158 0
-7 -30 -128 0
-7 -20 -99 0
-7 81 146 0
-7 124 -127 0
-6 -83 -127 0
-6 -59 112 0
-6 -40 -59 0
-6 -21 -74 0
-6 -8 -130 0
-6 7 34 0
-6 38 158 0
-6 55 -135 0
-6 91 120 0
-6 106 -141 0
-5 -128 133 0
-5 -26 -59 0
-5 17 -20 0
-5 18 -28 0
-5 29 69 0
-5 34 130 0
-5 42 -136 0
-5 114 -123 0
-5 114 -118 0
-4 -142 159 0
-4 -78 -122 0
-4 21 -145 0
-4 33 98 0
-4 55 151 0
-4 68 71 0
-4 83 84 0
-4 86 87 0
-3 -82 135 0
-3 -9 134 0
-3 -8 -55 0
-3 16 45 0
-3 60 130 0
-3 68 -104 0
-3 86 109 0
-2 -86 -128 0
-2 -40 118 0
-2 -30 -110 0
-2 66 128 0
-2 85 -157 0
-1 -107 -118 0
-1 -14 -54 0
1 -61 -101 0
1 -36 -120 0
1 -11 -133 0
1 -4 -122 0
1 62 138 0
1 90 140 0
1 120 130 0
2 27 -123 0
2 84 -130 0
2 96 -97 0
3 -113 -150 0
3 -86 -160 0
3 -69 134 0
3 -19 149 0
3 -15 86 0
3 92 -120 0
3 111 -124 0
4 -52 142 0
4 -38 46 0
4 -30 -33 0
4 -19 -32 0
4 30 106 0
4 58 95 0
4 84 98 0
4 150 158 0
5 -22 -111 0
5 -18 83 0
5 26 49 0
5 42 83 0
5 45 -62 0
6 -137 -150 0
6 -112 -123 0
6 32 54 0
6 99 122 0
7 -100 143 0
7 9 -33 0
7 15 -36 0
7 27 -103 0
7 42 130 0
7 54 -82 0
8 -97 144 0
8 -93 114 0
8 -61 -111 0
8 -54 97 0
8 -44 -113 0
8 -18 -44 0
8 51 -83 0
8 93 156 0
8 99 -101 0
9 -93 137 0
9 -47 -157 0
9 -30 -110 0
9 39 -85 0
9 73 -135 0
9 142 -159 0
10 -103 116 0
10 53 136 0
10 54 124 0
10 91 -125 0
11 -70 148 0
11 -50 106 0
11 -39 121 0
11 -35 -63 0
11 24 -91 0
11 64 127 0
11 68 101 0
12 -34 69 0
12 35 -78 0
12 116 151 0
13 -84 -123 0
13 -39 -50 0
13 40 -124 0
13 56 -102 0
13 56 -82 0
13 95 -148 0
14 -93 -127 0
14 -30 -76 0
14 39 94 0
14 54 112 0
15 -69 -78 0
15 -50 -105 0
15 -20 149 0
15 28 29 0
15 55 143 0
15 60 -127 0
15 66 93 0
16 -42 48 0
16 25 -107 0
16 97 149 0
17 -102 118 0
17 -90 -153 0
17 -82 99 0
17 -67 125 0
17 -38 144 0
17 -37 -98 0
17 34 -59 0
17 36 -132 0
17 47 66 0
17 59 153 0
18 -92 149 0
18 32 49 0
18 96 127 0
19 -139 142 0
19 -94 127 0
19 -68 113 0
19 -53 -115 0
19 -39 -67 0
19 -22 58 0
19 49 136 0
19 105 154 0
19 128 -141 0
20 -85 159 0
20 -73 110 0
20 -39 -67 0
20 -39 110 0
20 -21 32 0
20 37 -116 0
20 47 -81 0
20 105 160 0
20 115 146 0
22 -92 101 0
22 36 -89 0
23 -82 120 0
23 -80 -130 0
23 70 -141 0
23 83 91 0
23 84 86 0
24 -106 158 0
24 -63 147 0
24 34 -120 0
25 -86 127 0
25 -61 68 0
25 -41 -86 0
25 -27 65 0
25 45 68 0
26 -109 138 0
26 47 113 0
26 58 106 0
26 85 -136 0
26 94 97 0
26 129 -131 0
27 -80 114 0
27 -78 81 0
27 -55 -87 0
27 31 143 0
27 40 -52 0
27 89 134 0
28 -63 -154 0
28 -43 -74 0
28 -39 46 0
29 -104 -156 0
29 -87 -89 0
29 -85 122 0
29 -33 -43 0
29 36 94 0
29 38 99 0
30 -62 75 0
30 -54 -83 0
30 87 115 0
31 -123 127 0
31 -91 -125 0
31 -48 87 0
32 -120 142 0
32 -70 -73 0
32 84 -92 0
32 111 -120 0
33 -98 -145 0
33 94 113 0
34 -63 -130 0
34 -44 57 0
34 56 80 0
34 83 93 0
35 -129 148 0
35 -101 -111 0
35 44 -95 0
35 58 -148 0
36 -131 136 0
36 -79 -130 0
36 -59 88 0
36 62 82 0
36 108 -116 0
36 129 -155 0
37 -74 -116 0
37 -38 98 0
37 65 120 0
37 90 -116 0
37 146 159 0
38 -95 -103 0
38 -42 148 0
38 -39 -135 0
38 103 159 0
39 -90 99 0
39 43 -72 0
39 59 -103 0
40 -62 -83 0
40 142 159 0
41 73 -104 0
41 93 148 0
41 116 155 0
42 -130 139 0
42 -71 -95 0
42 88 -115 0
42 112 136 0
43 -99 -133 0
43 -89 118 0
43 -51 112 0
44 -93 99 0
44 -86 -110 0
44 -78 -131 0
44 63 -98 0
44 67 -132 0
44 67 85 0
44 122 -151 0
45 -94 152 0
45 -51 156 0
45 121 -139 0
46 77 -141 0
46 97 138 0
47 -84 151 0
47 -62 -135 0
47 59 -108 0
48 -128 -130 0
48 -66 89 0
48 69 127 0
48 72 107 0
48 73 149 0
49 -57 61 0
49 95 113 0
50 69 149 0
50 79 -92 0
51 -71 -97 0
51 67 122 0
51 81 -97 0
51 130 -138 0
51 135 -141 0
52 -105 147 0
52 106 -134 0
52 106 -131 0
53 -91 160 0
53 57 122 0
53 118 -126 0
54 -71 127 0
54 122 152 0
55 90 120 0
55 90 152 0
55 125 155 0
55 127 -151 0
56 -154 -159 0
56 -136 141 0
56 -66 124 0
56 66 -104 0
58 -123 153 0
58 92 130 0
60 -146 -156 0
60 -118 -151 0
60 72 -136 0
60 76 138 0
60 119 -158 0
61 84 87 0
62 -136 -158 0
62 -89 -126 0
62 -77 -109 0
62 86 -126 0
63 -112 155 0
63 -106 -133 0
63 -84 108 0
63 66 69 0
63 71 114 0
64 -77 -137 0
65 -100 -144 0
65 -80 -133 0
65 81 133 0
66 -111 -112 0
66 -73 148 0
66 106 -111 0
66 123 153 0
67 74 89 0
67 82 -138 0
68 -78 97 0
68 -75 -134 0
69 -72 -98 0
70 -125 -139 0
70 -90 113 0
70 141 150 0
71 -105 125 0
71 83 -145 0
72 -111 -117 0
73 -136 -140 0
73 -122 137 0
73 115 -131 0
73 135 157 0
74 -90 125 0
74 90 -93 0
75 -127 -146 0
76 -117 119 0
76 -95 99 0
76 -79 98 0
76 85 150 0
77 -148 -151 0
78 80 108 0
80 -100 -153 0
80 147 156 0
81 100 -133 0
84 -97 98 0
84 129 156 0
84 143 154 0
85 -106 -154 0
85 -97 -153 0
86 -124 -129 0
88 -102 110 0
91 137 -142 0
94 -98 -116 0
95 112 -116 0
96 -132 -133 0
96 -114 -127 0
96 111 -156 0
96 115 125 0
100 -144 -154 0
100 -134 -147 0
100 -101 -145 0
100 145 147 0
101 -124 155 0
102 -134 149 0
102 -114 148 0
102 -107 -127 0
102 124 -150 0
104 -107 152 0
104 134 -155 0
107 148 156 0
108 -111 142 0
109 -138 -150 0
111 -124 153 0
111 156 -158 0
115 -131 -142 0
115 -130 141 0
117 -142 147 0
120 -131 143 0
121 -127 -135 0
124 -126 150 0
137 -144 -152 0
