p cnf 100 425
-86 -97 -99 0
-77 -79 88 0
-76 85 98 0
-76 93 -94 0
-73 84 97 0
-68 80 -85 0
-67 74 76 0
-65 73 -81 0
-63 71 84 0
-62 -85 89 0
-62 -75 -98 0
-61 87 -99 0
-60 -73 -89 0
-60 74 82 0
-60 74 98 0
-57 -97 -99 0
-57 -80 93 0
-57 -58 88 0
-56 -61 -78 0
-53 -94 -97 0
-52 -53 -84 0
-51 -67 94 0
-50 -58 99 0
-50 52 78 0
-49 -76 85 0
-48 -66 -84 0
-48 -56 -85 0
-48 51 65 0
-48 52 94 0
-47 -52 -54 0
-46 -53 60 0
-46 68 -79 0
-46 72 -99 0
-45 52 -57 0
-44 47 -85 0
-44 49 64 0
-44 64 88 0
-43 64 82 0
-43 69 72 0
-43 84 -92 0
-42 53 61 0
-42 64 -74 0
-40 -67 -83 0
-39 -76 -85 0
-39 57 89 0
-38 -66 -99 0
-37 71 -82 0
-36 -81 -95 0
-36 62 68 0
-35 -47 -57 0
-35 45 99 0
-34 -75 80 0
-34 -62 74 0
-34 64 -78 0
-33 -74 97 0
-33 -43 -62 0
-33 -35 45 0
-33 93 -100 0
-32 -60 -97 0
-32 -45 50 0
-32 47 88 0
-32 56 70 0
-31 -78 88 0
-31 -51 -58 0
-31 37 -79 0
-31 54 64 0
-31 55 -79 0
-30 -76 -80 0
-30 -36 -96 0
-29 -74 79 0
-29 -69 82 0
-29 -67 99 0
-29 54 -98 0
-29 63 94 0
-29 70 85 0
-28 -92 -93 0
-28 -39 71 0
-28 49 100 0
-28 72 -92 0
-27 -56 65 0
-27 -44 -82 0
-27 -40 90 0
-27 32 -39 0
-26 -44 81 0
-25 -55 94 0
-25 82 -99 0
-24 -56 -70 0
-24 -46 70 0
-24 38 79 0
-24 39 -56 0
-24 50 58 0
-24 57 -78 0
-23 -79 -93 0
-23 -73 -74 0
-23 -27 -91 0
-23 45 78 0
-23 55 -98 0
-23 81 84 0
-22 -86 87 0
-22 -42 43 0
-22 26 -91 0
-22 28 53 0
-22 51 65 0
-21 -60 -83 0
-21 -44 64 0
-21 -23 -64 0
-21 26 49 0
-21 80 -85 0
-20 -52 -87 0
-20 27 42 0
-20 34 74 0
-19 -71 72 0
-19 -32 -65 0
-19 34 -50 0
-19 59 64 0
-18 -44 45 0
-18 -37 73 0
-18 21 76 0
-18 36 -77 0
-18 37 -68 0
-18 44 -98 0
-17 -87 90 0
-16 -83 88 0
-16 -51 89 0
-16 -31 -40 0
-16 17 -38 0
-16 60 96 0
-16 78 -97 0
-15 -53 89 0
-15 -37 -97 0
-15 -35 -90 0
-15 -25 99 0
-15 29 -41 0
-15 81 97 0
-14 -40 -94 0
-14 18 74 0
-14 34 -50 0
-13 -63 78 0
-13 -62 -82 0
-13 -58 -80 0
-13 20 -46 0
-13 61 -72 0
-13 67 -79 0
-13 87 100 0
-12 14 -76 0
-12 29 49 0
-12 31 -47 0
-11 -66 -83 0
-11 14 37 0
-11 24 86 0
-11 64 -78 0
-10 -71 -89 0
-10 -56 86 0
-10 19 -92 0
-9 -25 38 0
-9 14 43 0
-9 28 83 0
-9 75 93 0
-9 84 -96 0
-8 -97 -98 0
-8 -53 66 0
-8 -46 83 0
-8 60 89 0
-7 -83 87 0
-7 -70 75 0
-7 -70 97 0
-7 -58 -60 0
-7 -31 -89 0
-7 12 95 0
-7 17 86 0
-7 35 -70 0
-7 48 -49 0
-6 -55 97 0
-6 -26 39 0
-6 -8 34 0
-6 12 97 0
-6 20 -75 0
-6 22 47 0
-5 -21 -29 0
-5 -18 64 0
-5 -17 -75 0
-5 22 -98 0
-5 28 -70 0
-5 73 -82 0
-4 -45 -83 0
-4 -5 -91 0
-4 12 -40 0
-4 22 97 0
-4 41 -86 0
-4 42 -58 0
-3 -73 -83 0
-3 -48 -70 0
-3 -41 -80 0
-3 -31 -54 0
-3 -8 94 0
-3 -5 89 0
-3 15 -35 0
-3 38 -77 0
-3 59 69 0
-2 7 54 0
-2 18 59 0
-2 23 -40 0
-2 28 -100 0
-2 42 -71 0
-1 -44 96 0
-1 -20 98 0
-1 17 75 0
1 -37 86 0
1 -26 -40 0
1 -25 39 0
1 -20 -80 0
1 7 50 0
1 7 80 0
1 12 -17 0
1 14 -67 0
1 14 53 0
1 37 47 0
2 -62 -79 0
2 -49 75 0
2 -16 -94 0
2 -15 46 0
2 -13 -96 0
2 16 -41 0
2 86 93 0
3 -48 91 0
3 -33 -38 0
3 -28 -58 0
3 -17 -79 0
3 5 -83 0
4 -82 89 0
4 -41 -97 0
4 -32 94 0
4 -22 58 0
4 24 -51 0
5 -36 37 0
5 -22 86 0
5 -13 -25 0
5 6 69 0
5 16 31 0
5 19 97 0
5 26 -80 0
5 29 66 0
6 -62 94 0
6 -35 81 0
6 -33 -76 0
6 -28 -68 0
6 14 40 0
6 16 -46 0
6 16 -20 0
6 31 96 0
6 43 -70 0
7 -88 100 0
7 -36 44 0
7 -10 -15 0
7 10 -34 0
7 15 -79 0
7 16 -23 0
7 19 -54 0
7 46 -57 0
8 -12 -60 0
8 34 89 0
8 39 -58 0
8 81 91 0
9 -84 86 0
9 -36 -43 0
9 -14 45 0
9 12 51 0
9 31 95 0
9 48 -58 0
10 -80 90 0
10 -66 -71 0
10 -62 66 0
10 -37 96 0
10 12 86 0
10 79 -85 0
10 92 -97 0
11 -60 -83 0
11 -46 -91 0
11 -37 67 0
11 -32 -75 0
11 -32 -71 0
11 14 45 0
11 50 -51 0
11 61 -86 0
12 -75 -81 0
12 -52 79 0
12 -31 -93 0
12 -27 64 0
12 37 75 0
12 50 88 0
13 -78 87 0
13 -69 80 0
13 -19 31 0
13 -17 -19 0
13 18 21 0
13 21 -96 0
13 21 -52 0
13 45 -85 0
13 79 99 0
14 66 -82 0
15 -87 95 0
15 -40 45 0
15 35 95 0
15 45 98 0
15 66 76 0
16 28 69 0
16 81 -100 0
17 -62 85 0
17 -57 -77 0
17 -28 40 0
17 48 -61 0
17 51 78 0
17 82 -97 0
18 -86 91 0
18 -40 -82 0
18 22 -33 0
19 -47 55 0
19 -21 60 0
19 40 48 0
19 56 -94 0
19 57 -85 0
20 -83 88 0
20 -54 -84 0
20 -21 63 0
20 34 -65 0
21 38 68 0
22 30 41 0
22 63 -91 0
23 24 -94 0
23 38 71 0
24 -27 -33 0
24 27 -36 0
24 40 75 0
26 -75 94 0
26 -55 -63 0
26 -41 73 0
27 -47 84 0
27 -45 -80 0
27 -28 -74 0
27 49 -66 0
27 80 81 0
28 -54 85 0
28 54 85 0
28 57 -91 0
28 84 -97 0
29 -57 82 0
29 -34 90 0
30 -68 -97 0
30 -57 83 0
31 46 72 0
31 64 78 0
31 82 -99 0
32 -40 -68 0
33 -81 100 0
33 -64 69 0
33 -35 71 0
33 56 98 0
33 71 76 0
33 82 -99 0
34 48 -53 0
34 63 -94 0
35 -53 -91 0
36 -89 -93 0
36 -66 -73 0
36 56 87 0
36 61 -63 0
37 -66 -79 0
37 -62 -95 0
37 -54 -82 0
37 -51 81 0
37 43 -95 0
37 43 80 0
39 -67 90 0
39 -43 68 0
39 -41 -52 0
40 -73 -89 0
40 -61 -96 0
40 -50 99 0
41 -65 -84 0
41 53 73 0
41 62 -81 0
42 46 94 0
44 -62 -76 0
44 66 71 0
44 76 96 0
45 76 -82 0
45 83 92 0
46 56 71 0
46 57 61 0
47 50 -84 0
47 66 67 0
48 -50 79 0
48 55 75 0
48 62 67 0
49 52 -66 0
49 53 60 0
51 -69 94 0
52 -61 85 0
53 -56 -83 0
53 87 98 0
55 -66 -80 0
56 -63 -96 0
57 -76 -87 0
58 69 75 0
59 -85 -98 0
59 63 -92 0
60 -79 84 0
60 83 100 0
60 89 90 0
61 -63 -86 0
62 -81 95 0
64 -78 -91 0
64 -65 -91 0
64 67 78 0
65 -88 100 0
65 -72 73 0
66 68 -99 0
67 79 89 0
68 -81 84 0
68 70 78 0
68 75 -76 0
70 87 93 0
76 77 78 0
78 -90 98 0
78 84 -91 0
