p cnf 80 340
-62 -72 78 0
-58 68 -72 0
-58 69 77 0
-57 74 -76 0
-56 -74 -76 0
-56 77 -80 0
-54 -60 -76 0
-54 -56 65 0
-54 60 -69 0
-53 56 -72 0
-52 -53 -72 0
-51 -69 -74 0
-47 -49 56 0
-46 -55 -78 0
-45 50 51 0
-44 61 -68 0
-43 62 -67 0
-39 -75 -76 0
-39 52 75 0
-37 -43 -52 0
-37 57 75 0
-36 41 -78 0
-36 62 64 0
-36 64 69 0
-35 41 45 0
-35 48 54 0
-34 -44 -68 0
-34 36 -48 0
-34 37 49 0
-34 49 51 0
-33 -56 -69 0
-33 -39 58 0
-33 34 38 0
-33 34 64 0
-31 36 -47 0
-30 -37 -62 0
-30 51 62 0
-29 -54 -59 0
-29 -48 72 0
-29 35 -80 0
-29 38 -40 0
-28 -68 -71 0
-28 -33 67 0
-28 44 51 0
-27 -34 74 0
-27 34 63 0
-27 52 66 0
-26 -56 -64 0
-26 -47 -56 0
-26 -32 -60 0
-26 32 52 0
-26 52 -60 0
-25 -47 72 0
-25 -32 -46 0
-25 33 -39 0
-24 -71 75 0
-24 -54 78 0
-24 -52 64 0
-24 -46 -65 0
-24 38 -46 0
-24 44 -45 0
-23 -70 74 0
-23 -30 36 0
-23 -30 58 0
-23 37 -67 0
-23 52 73 0
-22 -64 70 0
-22 -55 -56 0
-22 -38 76 0
-22 -27 34 0
-22 23 43 0
-22 26 50 0
-22 32 -49 0
-22 41 67 0
-21 47 -79 0
-21 67 80 0
-20 -44 46 0
-20 -37 79 0
-20 25 66 0
-19 -62 -72 0
-19 -26 48 0
-19 -24 -72 0
-19 55 64 0
-19 63 67 0
-18 43 65 0
-17 -51 -54 0
-17 -47 -48 0
-17 -26 -74 0
-17 -25 74 0
-17 18 34 0
-17 31 -67 0
-17 38 74 0
-16 -61 -72 0
-16 30 54 0
-15 -27 37 0
-15 -26 -54 0
-15 24 -61 0
-15 24 48 0
-15 33 66 0
-15 38 48 0
-15 44 -72 0
-14 -54 -57 0
-14 -37 48 0
-14 -34 -39 0
-14 22 48 0
-14 37 67 0
-13 -29 -51 0
-13 -24 26 0
-13 -22 39 0
-13 -20 36 0
-13 -19 -78 0
-13 31 -47 0
-13 38 -78 0
-13 45 -77 0
-13 52 -64 0
-12 -16 -25 0
-12 14 38 0
-12 39 -66 0
-12 55 70 0
-11 -33 57 0
-11 -26 67 0
-11 -14 -71 0
-11 -13 -43 0
-11 31 -77 0
-11 40 55 0
-10 -57 59 0
-10 -13 -18 0
-10 12 17 0
-10 18 -23 0
-9 -72 -77 0
-9 -59 76 0
-9 -29 -54 0
-9 -21 51 0
-9 -15 47 0
-9 13 66 0
-9 18 -21 0
-9 29 -44 0
-9 35 -48 0
-9 36 -37 0
-9 53 -68 0
-8 22 78 0
-8 25 -42 0
-8 36 -60 0
-8 56 65 0
-7 -42 -50 0
-7 -15 -32 0
-7 -9 44 0
-7 27 -66 0
-7 42 -48 0
-6 -30 54 0
-6 -21 -35 0
-6 15 77 0
-6 44 -63 0
-5 -45 -67 0
-5 -20 44 0
-5 -10 -71 0
-5 17 64 0
-5 31 -62 0
-5 40 62 0
-5 73 79 0
-4 -8 17 0
-4 11 -74 0
-4 35 43 0
-4 35 50 0
-4 52 -56 0
-4 60 76 0
-3 -55 -58 0
-3 -53 -55 0
-3 -43 -78 0
-3 14 -56 0
-2 -27 -61 0
-2 -21 -57 0
-2 55 70 0
-1 -4 20 0
-1 -2 17 0
-1 38 59 0
-1 54 -72 0
1 -24 -33 0
2 -62 78 0
2 -35 -55 0
2 -9 79 0
2 4 79 0
2 7 49 0
2 31 -35 0
2 32 -58 0
3 -60 79 0
3 14 75 0
3 42 -53 0
3 45 46 0
3 50 -57 0
4 -51 -55 0
4 -15 72 0
4 -12 41 0
4 13 70 0
4 50 -54 0
5 -48 80 0
5 17 -60 0
5 21 -37 0
5 42 -43 0
5 75 -79 0
6 -57 72 0
6 -34 75 0
6 17 62 0
6 24 -51 0
6 34 40 0
6 40 -80 0
6 51 -73 0
7 -56 -77 0
7 -37 53 0
7 12 -65 0
7 37 47 0
7 40 59 0
8 -58 78 0
8 -40 -59 0
8 -32 -42 0
8 -18 41 0
8 -12 79 0
8 28 -57 0
8 28 33 0
8 41 79 0
9 -58 74 0
9 -28 -74 0
9 -25 35 0
10 -73 75 0
10 -53 -73 0
10 -20 -64 0
10 -13 -42 0
10 29 -33 0
10 48 -55 0
11 -57 -62 0
11 -52 -59 0
11 -49 -59 0
11 -30 -33 0
11 -19 -80 0
11 45 61 0
11 61 65 0
11 77 80 0
12 -43 49 0
12 -40 68 0
12 -22 -80 0
12 15 55 0
13 -30 42 0
13 -29 60 0
13 -18 45 0
14 -33 -75 0
14 24 75 0
14 25 -75 0
14 26 47 0
14 32 48 0
15 -72 76 0
15 -57 -78 0
15 -49 65 0
15 -33 73 0
15 48 -73 0
15 54 -80 0
16 17 -77 0
16 33 50 0
17 -57 -66 0
17 -21 46 0
17 20 -49 0
17 42 64 0
18 -48 77 0
18 -39 54 0
18 -23 59 0
19 41 54 0
19 54 -69 0
19 66 -77 0
20 -52 67 0
20 -33 -41 0
20 21 33 0
21 -39 -49 0
21 -22 -73 0
21 51 -78 0
23 -38 58 0
23 52 -67 0
24 -30 59 0
24 59 -60 0
25 -67 75 0
25 -52 -66 0
25 -28 75 0
25 -27 29 0
25 65 76 0
26 -51 -62 0
26 -51 69 0
26 -34 -67 0
26 34 -73 0
26 37 68 0
27 -51 62 0
27 43 71 0
28 -58 -75 0
28 -44 60 0
28 -42 66 0
28 43 66 0
28 63 67 0
29 -34 -51 0
29 -34 69 0
29 -33 -74 0
30 -33 -59 0
30 51 75 0
30 65 -73 0
31 -69 -79 0
31 -35 -78 0
31 33 -67 0
31 35 38 0
31 36 -43 0
31 70 78 0
32 -70 -80 0
32 40 71 0
33 36 -40 0
33 43 -68 0
34 44 74 0
34 68 -76 0
35 -73 -79 0
35 -73 -78 0
36 41 -49 0
36 46 75 0
36 72 -73 0
37 -51 72 0
39 -52 -79 0
39 -45 61 0
39 43 -63 0
39 67 -74 0
41 -49 -75 0
41 45 64 0
45 -74 76 0
45 -54 68 0
45 63 80 0
48 -65 66 0
48 -64 -79 0
49 -58 77 0
49 -50 -63 0
49 -50 65 0
50 69 77 0
51 -61 -64 0
51 -53 71 0
53 -66 68 0
53 70 -74 0
59 64 -75 0
61 -65 68 0
66 73 -79 0
