p cnf 45 191
-35 37 -40 0
-31 36 40 0
-28 -38 39 0
-28 33 34 0
-27 33 41 0
-25 -28 36 0
-25 27 29 0
-25 31 -35 0
-25 31 41 0
-23 -27 -37 0
-23 38 43 0
-22 29 -37 0
-20 25 38 0
-19 -37 41 0
-19 -32 35 0
-19 -29 35 0
-19 27 -40 0
-19 27 38 0
-18 -24 -38 0
-18 -22 34 0
-18 -20 33 0
-18 19 -42 0
-17 -37 -38 0
-17 -19 -21 0
-17 26 29 0
-17 34 42 0
-17 37 39 0
-16 -24 32 0
-16 -23 -32 0
-16 30 -45 0
-15 -36 -38 0
-15 -30 -42 0
-15 -23 34 0
-15 20 -40 0
-15 20 28 0
-15 29 -39 0
-14 -37 41 0
-14 -27 40 0
-14 15 20 0
-14 31 -45 0
-13 -22 -32 0
-13 -20 26 0
-13 -20 36 0
-13 24 40 0
-13 33 45 0
-12 -43 45 0
-12 -28 33 0
-12 15 41 0
-11 -35 -41 0
-11 -17 24 0
-11 29 32 0
-10 40 -44 0
-9 -28 45 0
-9 18 40 0
-9 28 42 0
-9 32 43 0
-8 -32 35 0
-8 -20 -44 0
-8 -19 -42 0
-8 -12 -27 0
-8 10 -20 0
-7 -8 -13 0
-7 8 -20 0
-6 -18 28 0
-6 -17 39 0
-6 -14 17 0
-6 -11 -17 0
-6 -10 39 0
-6 9 10 0
-6 17 -25 0
-6 40 44 0
-5 -14 29 0
-5 19 30 0
-5 21 -22 0
-4 16 33 0
-4 25 32 0
-4 27 -28 0
-3 -22 -43 0
-3 -16 30 0
-3 -13 -43 0
-3 11 -41 0
-3 18 -23 0
-3 23 45 0
-3 25 -38 0
-2 -35 -42 0
-2 -14 -37 0
-2 -13 23 0
-2 11 -32 0
-2 17 -22 0
-1 -13 -35 0
-1 -12 33 0
-1 -10 -28 0
-1 -8 -14 0
-1 -6 -15 0
-1 -5 42 0
-1 8 -36 0
-1 21 -40 0
-1 30 42 0
1 -16 31 0
1 -16 39 0
1 11 34 0
1 18 21 0
1 26 -41 0
2 -36 -42 0
2 -29 34 0
2 -14 38 0
2 -9 -21 0
2 -8 -43 0
2 -7 -23 0
2 5 -39 0
2 23 42 0
3 -42 -44 0
3 -13 -17 0
3 -7 37 0
3 14 -28 0
3 33 39 0
3 34 -35 0
4 -33 38 0
4 -16 17 0
4 -7 -10 0
4 -7 9 0
4 8 32 0
4 10 18 0
4 19 -33 0
5 -7 -41 0
5 6 -16 0
5 14 16 0
6 -23 -42 0
6 17 -30 0
6 19 -28 0
6 24 -42 0
7 -29 -41 0
7 -29 39 0
7 -27 -37 0
7 -8 41 0
7 16 -41 0
8 -22 -43 0
8 -22 -42 0
8 9 34 0
9 -34 -38 0
9 -31 -39 0
9 -29 33 0
9 -21 25 0
9 -15 -29 0
9 14 17 0
9 16 39 0
9 23 36 0
10 -31 -33 0
10 -14 38 0
10 18 -19 0
11 -18 30 0
11 21 38 0
12 -31 -41 0
12 -27 -44 0
12 -17 -33 0
12 19 41 0
12 37 39 0
13 23 -35 0
14 -25 43 0
14 -20 -40 0
14 -19 28 0
15 -31 -42 0
15 20 23 0
16 -21 45 0
16 28 42 0
17 -30 -39 0
17 19 45 0
18 -25 34 0
18 -23 -36 0
18 -20 -30 0
18 24 -42 0
19 -30 33 0
19 -30 44 0
19 -23 -36 0
19 40 42 0
20 33 -44 0
21 -41 -44 0
21 -33 -39 0
21 35 -39 0
21 36 -37 0
22 -34 41 0
23 24 -27 0
23 28 37 0
23 40 43 0
24 -28 -35 0
26 -40 42 0
26 33 45 0
28 39 -45 0
31 -32 -45 0
36 -38 -43 0
36 -37 38 0
