p cnf 150 638
-123 -141 -149 0
-121 130 144 0
-117 -136 -142 0
-117 126 -131 0
-116 -119 -148 0
-116 141 144 0
-110 -112 134 0
-106 107 118 0
-105 110 -133 0
-104 123 -141 0
-102 -126 -139 0
-98 142 -144 0
-97 -106 124 0
-96 98 -105 0
-96 126 -150 0
-93 -115 -124 0
-93 -104 -123 0
-92 101 143 0
-90 -101 129 0
-90 -91 147 0
-89 90 -140 0
-89 97 129 0
-88 -136 -143 0
-88 90 -125 0
-86 -115 126 0
-85 -122 -126 0
-85 -110 132 0
-85 -107 117 0
-85 98 -145 0
-83 107 -150 0
-82 -123 146 0
-82 -108 125 0
-82 -91 -141 0
-81 108 -109 0
-80 -140 143 0
-80 87 -125 0
-79 84 -128 0
-79 102 116 0
-78 -125 135 0
-78 -103 133 0
-78 87 -99 0
-77 -101 -118 0
-75 85 -148 0
-75 100 -127 0
-74 -92 -134 0
-74 91 -150 0
-72 -128 138 0
-72 84 -90 0
-72 108 -110 0
-72 124 126 0
-71 -142 -146 0
-71 -112 115 0
-71 -85 -97 0
-71 73 97 0
-70 109 -120 0
-69 -76 -79 0
-68 -91 119 0
-68 71 109 0
-66 69 -145 0
-65 72 -75 0
-64 -105 -148 0
-64 111 -148 0
-63 -81 114 0
-62 -123 -139 0
-62 -81 -109 0
-62 -66 -133 0
-62 80 -92 0
-61 86 104 0
-61 127 -135 0
-60 -92 105 0
-60 -67 -71 0
-60 85 140 0
-59 -99 145 0
-59 99 123 0
-58 -59 -141 0
-58 60 89 0
-58 76 -100 0
-57 -59 64 0
-57 59 -97 0
-57 71 -92 0
-56 -101 -129 0
-56 -85 107 0
-56 108 150 0
-55 67 -73 0
-55 72 94 0
-54 60 -65 0
-54 65 87 0
-54 125 128 0
-53 -108 -112 0
-53 -74 85 0
-52 132 147 0
-52 133 149 0
-51 -86 119 0
-51 56 97 0
-51 59 120 0
-50 -81 147 0
-50 -65 -105 0
-50 55 97 0
-50 126 139 0
-49 -75 94 0
-49 128 -150 0
-48 -85 -148 0
-48 107 135 0
-47 -124 -136 0
-47 70 102 0
-46 -114 138 0
-46 -48 -120 0
-46 48 -98 0
-45 -80 101 0
-45 -80 148 0
-44 -50 -113 0
-43 52 141 0
-43 71 -80 0
-42 -71 -125 0
-42 -58 69 0
-42 -49 144 0
-42 -43 -149 0
-42 60 -144 0
-42 84 -99 0
-42 118 133 0
-41 -82 -122 0
-41 -75 -148 0
-41 85 148 0
-41 117 -128 0
-40 46 -63 0
-40 58 -100 0
-40 128 -130 0
-39 -117 -141 0
-39 -100 -124 0
-39 72 -74 0
-39 84 -117 0
-39 84 -110 0
-38 -67 106 0
-38 78 -125 0
-38 131 -132 0
-37 56 -96 0
-37 60 -122 0
-37 68 111 0
-37 76 -110 0
-37 89 121 0
-37 107 -138 0
-36 -81 -102 0
-36 -74 -129 0
-35 -106 -148 0
-35 -54 -94 0
-35 36 -91 0
-35 45 -126 0
-35 45 -66 0
-35 140 146 0
-34 -36 130 0
-34 38 40 0
-34 43 62 0
-34 76 -85 0
-33 -70 -139 0
-33 -59 -140 0
-33 -43 52 0
-32 -40 104 0
-32 119 148 0
-32 130 144 0
-31 -128 -133 0
-31 -55 97 0
-31 63 -64 0
-31 75 -86 0
-30 -127 -129 0
-30 -55 -60 0
-30 -36 62 0
-30 -35 -37 0
-30 113 -139 0
-29 -66 110 0
-29 93 -118 0
-28 -89 -104 0
-28 46 -133 0
-28 96 -131 0
-27 -108 129 0
-27 -56 -128 0
-27 -41 74 0
-27 99 122 0
-27 134 -137 0
-27 147 -148 0
-26 -57 69 0
-26 -36 53 0
-25 -56 112 0
-25 -35 144 0
-25 -31 -145 0
-25 46 122 0
-25 54 -75 0
-25 71 -81 0
-25 84 -101 0
-25 108 144 0
-25 114 -146 0
-24 -45 -132 0
-24 25 -41 0
-24 41 -49 0
-24 73 -75 0
-24 76 -118 0
-23 -118 142 0
-23 49 53 0
-23 51 -99 0
-23 77 -97 0
-22 -97 -139 0
-22 -70 -118 0
-22 -48 -145 0
-22 -29 -92 0
-22 27 -63 0
-22 34 -66 0
-22 52 66 0
-22 55 -118 0
-22 56 -116 0
-22 86 -141 0
-22 86 109 0
-22 99 121 0
-21 -104 -134 0
-21 29 -103 0
-21 42 117 0
-21 63 71 0
-20 -75 90 0
-20 -62 67 0
-20 -42 50 0
-20 -32 60 0
-20 66 -76 0
-19 -79 -122 0
-19 -72 -130 0
-19 23 -45 0
-18 -29 -122 0
-18 60 116 0
-18 97 -115 0
-17 -74 -75 0
-17 -54 71 0
-16 -42 -73 0
-16 34 46 0
-16 63 -64 0
-16 70 93 0
-16 78 -98 0
-15 -111 136 0
-15 -24 128 0
-15 25 -46 0
-15 40 83 0
-15 60 70 0
-14 -37 -51 0
-14 -26 -85 0
-13 -49 117 0
-13 -17 -70 0
-13 38 79 0
-12 -29 -113 0
-12 -17 -48 0
-12 33 52 0
-12 54 -55 0
-11 -97 103 0
-11 27 -122 0
-11 68 -138 0
-10 -31 44 0
-10 -19 59 0
-10 -14 -117 0
-10 17 -126 0
-10 23 75 0
-10 31 -129 0
-9 -62 89 0
-9 -17 108 0
-9 -16 -81 0
-9 -15 94 0
-9 14 -46 0
-9 36 -46 0
-9 61 -110 0
-9 77 80 0
-8 -64 141 0
-8 -17 -28 0
-8 -10 -135 0
-8 11 148 0
-8 23 79 0
-7 -117 -127 0
-7 -83 130 0
-7 -80 -91 0
-7 -54 70 0
-7 -44 76 0
-7 42 -73 0
-7 59 135 0
-6 13 70 0
-6 25 64 0
-6 56 119 0
-6 74 86 0
-5 -30 46 0
-5 -15 60 0
-5 48 -72 0
-4 5 16 0
-4 112 -138 0
-3 -68 129 0
-3 -55 -139 0
-3 -45 -133 0
-3 -23 -134 0
-3 -13 -92 0
-3 9 34 0
-3 12 45 0
-3 115 140 0
-2 -87 121 0
-2 -31 -103 0
-2 -24 84 0
-2 -19 93 0
-2 4 25 0
-2 38 -59 0
-2 48 -96 0
-2 48 92 0
-1 -7 96 0
-1 34 -126 0
-1 38 63 0
1 -90 141 0
1 -51 72 0
1 -43 133 0
1 -18 -141 0
1 -4 -136 0
1 -4 87 0
1 18 95 0
1 39 -71 0
1 50 63 0
1 85 -106 0
1 86 -129 0
1 110 120 0
1 125 -126 0
1 130 -137 0
2 -87 -90 0
2 -76 124 0
2 44 -73 0
2 71 102 0
3 -90 113 0
3 -84 133 0
3 -51 59 0
3 -33 -52 0
3 -8 46 0
3 8 -33 0
3 40 -68 0
3 52 -99 0
3 119 138 0
4 -78 145 0
4 -22 25 0
4 -18 -145 0
4 -14 136 0
4 -8 16 0
4 -5 142 0
5 -70 96 0
5 -55 126 0
5 -40 119 0
5 -36 -42 0
5 -32 148 0
5 -25 -92 0
5 11 -91 0
5 31 52 0
5 65 99 0
5 126 -139 0
6 -135 145 0
6 -14 -74 0
6 43 132 0
6 64 70 0
7 -93 144 0
7 -68 -133 0
7 -45 -138 0
7 68 79 0
7 68 124 0
7 90 -150 0
8 -91 146 0
8 -55 -150 0
8 -53 98 0
8 -52 99 0
8 50 107 0
8 64 118 0
8 106 -114 0
8 106 112 0
8 107 -129 0
9 -81 -127 0
9 -37 -39 0
9 -20 -55 0
9 56 -120 0
9 62 -97 0
9 70 117 0
9 91 -112 0
9 109 -137 0
10 -53 77 0
10 -37 -109 0
10 -36 132 0
10 -21 -44 0
10 -11 123 0
10 38 -71 0
10 111 -121 0
11 -102 127 0
11 -99 146 0
11 -64 101 0
11 -55 123 0
11 -23 89 0
11 41 -131 0
11 44 136 0
12 -85 -101 0
12 -50 145 0
12 -46 121 0
13 -78 -121 0
13 -70 -98 0
13 -15 -32 0
13 19 72 0
13 41 -113 0
14 -137 -142 0
14 -93 125 0
14 -66 67 0
14 -58 88 0
14 90 96 0
15 -69 108 0
15 -67 -116 0
15 61 -142 0
15 126 -132 0
16 -124 135 0
16 -52 -108 0
16 -52 138 0
16 -48 98 0
16 -47 98 0
16 27 -139 0
16 35 -51 0
16 70 98 0
16 90 127 0
17 -84 114 0
17 -21 -55 0
17 -20 -71 0
18 -68 72 0
18 27 129 0
18 110 145 0
19 -83 -104 0
19 -37 63 0
19 -28 83 0
19 70 -120 0
20 -117 -140 0
20 -104 -131 0
20 -33 130 0
20 -25 81 0
20 27 52 0
20 70 87 0
20 96 125 0
21 -66 146 0
21 -49 112 0
21 -32 93 0
21 35 69 0
21 76 97 0
21 84 93 0
22 -87 -123 0
22 -56 87 0
23 -62 -93 0
23 66 113 0
23 92 123 0
24 -127 -137 0
24 -87 -142 0
24 -86 -106 0
24 -50 138 0
24 -46 -143 0
24 130 -148 0
25 -121 148 0
25 -99 102 0
25 -88 -92 0
25 -66 -113 0
25 33 145 0
25 37 118 0
25 52 -79 0
25 105 107 0
26 -61 127 0
26 -59 -86 0
26 -56 94 0
26 74 -104 0
26 83 -86 0
27 -82 111 0
27 62 -120 0
27 73 -129 0
29 -64 91 0
29 -54 58 0
29 -50 70 0
29 107 125 0
30 -74 -129 0
30 -68 142 0
30 46 138 0
30 89 -120 0
30 129 139 0
31 -117 126 0
31 -86 -131 0
31 -71 -128 0
32 -74 -130 0
32 -70 138 0
32 -66 -129 0
32 -44 78 0
32 51 73 0
32 101 112 0
32 109 -142 0
33 -87 -131 0
33 -75 -132 0
33 -54 -126 0
33 -48 -112 0
33 -44 -56 0
33 40 -41 0
33 79 124 0
34 -126 148 0
34 -70 -147 0
34 -43 -132 0
34 115 -134 0
35 -148 -150 0
35 -108 -149 0
35 -60 110 0
35 59 98 0
35 70 -88 0
36 57 -90 0
36 77 123 0
37 -61 -126 0
37 -58 144 0
37 -55 -91 0
37 -42 -72 0
37 101 -124 0
38 -73 -150 0
38 -46 77 0
38 45 -47 0
38 47 -89 0
38 48 63 0
38 52 -117 0
39 -98 -132 0
39 66 -92 0
40 -83 132 0
40 -45 -78 0
40 -42 120 0
40 59 137 0
40 96 -145 0
41 -94 -109 0
41 44 102 0
41 91 117 0
41 102 118 0
41 116 -140 0
42 -99 149 0
42 -51 -106 0
43 -123 -125 0
43 -120 137 0
43 55 82 0
44 -59 92 0
45 54 -70 0
46 -104 -119 0
46 -63 -85 0
46 52 101 0
46 65 -77 0
47 76 -128 0
48 -125 133 0
48 -61 127 0
48 53 66 0
48 81 -109 0
49 -64 -129 0
49 61 -135 0
49 108 113 0
49 111 128 0
50 -59 148 0
50 139 144 0
51 68 74 0
53 -60 -150 0
54 -60 139 0
55 -83 -102 0
55 -69 129 0
56 -91 105 0
56 -85 123 0
56 -68 -143 0
56 -61 -70 0
56 93 -124 0
57 -121 150 0
57 -99 -135 0
57 -91 131 0
57 109 -124 0
59 -82 -148 0
59 -70 -86 0
59 64 -103 0
59 90 100 0
60 -81 -142 0
61 -64 -84 0
63 -124 -147 0
63 -121 -139 0
63 -108 134 0
64 143 -147 0
65 -108 114 0
65 -68 99 0
65 103 117 0
65 109 -136 0
66 -117 142 0
66 71 -98 0
66 116 133 0
66 137 146 0
67 -97 109 0
67 99 -129 0
68 103 -133 0
68 105 -142 0
69 -90 106 0
69 71 128 0
69 75 135 0
70 86 -121 0
70 101 -121 0
71 82 142 0
71 92 -123 0
71 103 -147 0
72 -84 105 0
72 84 -133 0
72 84 -91 0
73 -86 -149 0
73 -86 -114 0
74 77 106 0
74 80 -116 0
75 -112 113 0
75 -97 -142 0
75 76 -147 0
75 88 122 0
75 89 -135 0
76 82 94 0
76 115 147 0
77 -127 -131 0
80 -97 -134 0
80 95 119 0
81 -110 -138 0
81 -95 129 0
82 -96 -107 0
84 116 145 0
85 -108 -135 0
85 112 -142 0
86 -134 -143 0
88 -147 -149 0
88 112 -122 0
89 95 139 0
90 -96 -112 0
90 91 113 0
90 99 129 0
91 -125 -149 0
92 108 140 0
93 -106 109 0
94 -106 -149 0
94 134 150 0
98 -125 -130 0
98 101 -122 0
99 -106 144 0
100 -112 116 0
100 119 133 0
103 110 -126 0
111 -139 143 0
113 -118 -145 0
116 117 139 0
116 134 143 0
121 140 -141 0
133 138 149 0
134 -144 -150 0
