p cnf 90 383
-74 75 -89 0
-73 -78 87 0
-72 -85 90 0
-70 79 83 0
-70 82 90 0
-68 -72 88 0
-68 70 -90 0
-68 74 85 0
-66 -77 -84 0
-66 -69 74 0
-63 68 90 0
-61 65 -88 0
-61 74 85 0
-56 -60 86 0
-55 72 -75 0
-54 55 76 0
-53 -75 81 0
-53 87 89 0
-51 54 82 0
-51 73 -90 0
-50 -56 -62 0
-48 55 -71 0
-47 -54 85 0
-46 -79 -81 0
-45 -71 79 0
-44 73 -80 0
-43 69 -71 0
-43 74 79 0
-42 68 75 0
-41 61 -79 0
-39 -79 -86 0
-39 -43 70 0
-39 73 -85 0
-38 41 54 0
-37 -55 -89 0
-36 -68 86 0
-36 -56 -67 0
-36 76 79 0
-35 -50 83 0
-34 -54 -71 0
-34 -44 47 0
-34 -43 90 0
-33 -41 -81 0
-32 36 79 0
-31 -38 -88 0
-31 32 -53 0
-30 -71 -87 0
-30 -65 82 0
-29 -50 -82 0
-29 -48 52 0
-29 -41 82 0
-29 49 -73 0
-29 70 78 0
-28 -64 -75 0
-28 -30 -48 0
-28 40 -57 0
-28 47 57 0
-28 64 -77 0
-27 -75 -89 0
-27 -40 -50 0
-27 47 84 0
-26 -39 -72 0
-26 -34 71 0
-26 27 28 0
-26 27 36 0
-26 29 62 0
-26 42 64 0
-25 -46 87 0
-25 -26 78 0
-25 33 -82 0
-25 66 -68 0
-24 -69 71 0
-24 -64 -69 0
-24 -40 -53 0
-24 39 -43 0
-24 50 64 0
-24 60 -81 0
-23 -60 -68 0
-23 -32 -90 0
-23 -25 -38 0
-23 24 -45 0
-22 -33 50 0
-22 47 -63 0
-22 53 73 0
-22 60 -85 0
-22 67 78 0
-22 69 -76 0
-21 -35 -47 0
-21 29 49 0
-21 32 -56 0
-20 -66 -86 0
-20 -59 -80 0
-20 -34 74 0
-20 23 -71 0
-19 -22 80 0
-19 44 -52 0
-19 57 -88 0
-18 -27 85 0
-18 -21 -76 0
-17 38 45 0
-16 -48 72 0
-16 -27 -53 0
-16 -24 -30 0
-16 -21 72 0
-16 21 -47 0
-16 41 -78 0
-16 48 -70 0
-15 -57 -74 0
-15 -20 -59 0
-15 64 -83 0
-14 -48 -76 0
-14 -33 52 0
-14 -25 -45 0
-14 23 26 0
-14 37 57 0
-14 39 58 0
-13 60 80 0
-12 -78 -83 0
-12 -48 82 0
-12 -47 -64 0
-12 -46 77 0
-12 -38 -61 0
-12 21 73 0
-12 28 54 0
-11 -22 73 0
-11 31 -68 0
-10 -73 -88 0
-10 -60 90 0
-10 -40 88 0
-10 -34 -90 0
-10 55 69 0
-9 25 66 0
-9 42 -63 0
-9 44 65 0
-8 -53 -61 0
-8 -38 -41 0
-8 -34 -56 0
-8 -19 -75 0
-8 10 75 0
-8 15 44 0
-8 35 77 0
-7 -55 56 0
-7 25 66 0
-7 38 59 0
-7 51 61 0
-6 -79 -81 0
-6 -44 -46 0
-6 -36 -83 0
-6 -17 -85 0
-6 -10 -23 0
-6 -8 78 0
-6 45 -59 0
-6 49 68 0
-5 -59 -81 0
-5 -47 -49 0
-5 -40 68 0
-5 -20 61 0
-5 -14 -15 0
-5 -12 14 0
-5 7 14 0
-5 7 49 0
-5 10 -42 0
-5 26 68 0
-5 48 -59 0
-5 67 82 0
-4 -85 88 0
-4 -54 -74 0
-4 -34 -83 0
-4 -29 83 0
-4 -22 33 0
-4 -18 -40 0
-4 -9 55 0
-4 6 -69 0
-4 38 51 0
-4 45 -83 0
-4 60 80 0
-3 -34 -48 0
-3 -18 22 0
-3 8 42 0
-3 15 -47 0
-3 62 80 0
-2 -45 83 0
-2 -26 65 0
-2 -14 -49 0
-2 32 -83 0
-2 53 90 0
-1 -66 -76 0
-1 -11 22 0
-1 12 66 0
1 -64 85 0
1 -33 82 0
1 -22 -33 0
1 -18 -21 0
1 -16 50 0
1 43 45 0
1 56 -74 0
2 -50 -69 0
2 -18 64 0
2 -15 -74 0
2 -6 -52 0
2 5 36 0
2 11 -43 0
2 12 -66 0
2 52 -85 0
2 64 -87 0
3 -84 -90 0
3 -55 65 0
3 -33 46 0
3 -29 33 0
3 -10 -75 0
3 50 -53 0
4 30 -69 0
4 30 34 0
5 -16 -31 0
5 -11 -88 0
5 12 -76 0
5 14 -86 0
5 24 47 0
5 24 53 0
6 -35 -90 0
6 -21 -52 0
6 -8 -41 0
6 11 -71 0
6 14 -25 0
6 39 71 0
7 -67 90 0
7 -41 -89 0
7 -29 -51 0
7 -16 26 0
7 15 57 0
7 15 74 0
7 41 83 0
7 45 -65 0
7 47 87 0
8 -55 60 0
8 20 81 0
8 67 75 0
9 -41 45 0
9 -38 -90 0
9 -18 48 0
9 40 -63 0
9 43 -78 0
9 69 87 0
10 -56 62 0
10 -43 71 0
10 -20 34 0
10 -15 -43 0
10 -15 -36 0
10 12 -32 0
10 45 61 0
10 68 -69 0
11 -73 -78 0
11 -63 78 0
11 -21 61 0
11 -21 83 0
11 14 -67 0
11 29 -61 0
11 32 -70 0
12 -78 83 0
12 -60 74 0
12 -23 -37 0
12 -18 84 0
12 -13 -21 0
12 13 40 0
12 42 89 0
12 50 76 0
13 -37 42 0
13 26 -44 0
13 28 -34 0
13 48 -75 0
14 -26 -58 0
14 20 44 0
14 36 -84 0
15 -28 65 0
15 30 67 0
15 33 65 0
15 63 -90 0
16 -65 70 0
16 -23 -81 0
16 28 -79 0
16 48 -79 0
17 -74 -88 0
17 -18 30 0
17 22 -39 0
17 40 78 0
17 53 -84 0
18 -65 69 0
18 -47 77 0
18 -44 -79 0
18 -20 -57 0
19 -23 -56 0
19 28 -48 0
19 63 76 0
20 -50 -89 0
20 -31 -70 0
20 -26 -77 0
20 -26 81 0
20 32 46 0
20 36 -62 0
20 57 87 0
21 -36 60 0
22 -72 79 0
22 -71 -75 0
22 -36 -55 0
23 -34 78 0
24 -27 -65 0
25 -41 80 0
25 -37 78 0
25 29 35 0
25 29 66 0
25 66 70 0
26 -55 63 0
26 -31 58 0
26 42 -84 0
26 68 86 0
26 79 90 0
27 -62 -65 0
27 -40 -75 0
28 -58 73 0
28 42 -86 0
29 -30 38 0
29 38 -49 0
29 69 -82 0
31 -59 -64 0
31 -35 74 0
32 -38 88 0
32 33 -64 0
33 -59 -85 0
33 -49 62 0
33 -48 49 0
33 34 -48 0
33 42 52 0
33 58 67 0
34 -62 88 0
34 58 -74 0
34 76 79 0
35 -52 65 0
35 -38 -87 0
35 70 -76 0
36 -78 -79 0
36 -52 -67 0
36 43 82 0
36 72 -80 0
37 -75 -80 0
38 -80 85 0
38 45 69 0
38 52 86 0
38 84 90 0
39 -75 84 0
39 -70 -82 0
39 -68 78 0
40 -60 -68 0
40 51 68 0
40 71 -73 0
41 -58 -69 0
41 55 75 0
42 66 81 0
42 82 83 0
43 -45 -70 0
43 66 -89 0
43 84 -88 0
44 72 -74 0
45 -85 -86 0
46 -54 78 0
46 58 90 0
46 65 -85 0
50 -53 -86 0
51 78 -85 0
53 -54 58 0
54 66 68 0
56 -58 -72 0
56 64 80 0
57 70 81 0
59 -68 -81 0
59 72 -79 0
61 66 73 0
62 71 -86 0
64 75 -82 0
66 67 -81 0
67 -78 89 0
68 -81 87 0
69 72 84 0
79 -84 89 0
