p cnf 60 255
-48 51 -57 0
-43 55 58 0
-42 47 -53 0
-40 -54 -57 0
-40 48 -50 0
-38 -46 60 0
-34 -35 47 0
-34 45 -55 0
-34 54 59 0
-33 38 -39 0
-32 -42 57 0
-32 46 52 0
-31 -41 -53 0
-30 -52 -58 0
-30 31 44 0
-28 -47 49 0
-28 -38 -48 0
-28 -37 43 0
-28 -32 -34 0
-28 35 39 0
-28 39 -58 0
-28 54 -56 0
-27 -50 -60 0
-27 -34 46 0
-27 34 36 0
-27 39 -52 0
-26 -44 48 0
-26 32 55 0
-25 -31 -50 0
-25 -29 36 0
-25 -28 32 0
-25 -27 37 0
-25 26 52 0
-25 31 -32 0
-24 -39 -40 0
-24 32 37 0
-24 43 49 0
-24 48 -51 0
-23 -34 -58 0
-23 33 -34 0
-23 36 53 0
-20 -53 -55 0
-20 45 -58 0
-19 51 57 0
-18 -47 -60 0
-18 -40 -50 0
-18 -24 -25 0
-18 23 33 0
-18 23 36 0
-18 30 44 0
-18 38 39 0
-17 -35 42 0
-16 -44 56 0
-16 -33 -37 0
-16 -28 -44 0
-16 20 -37 0
-16 20 -33 0
-15 -27 30 0
-15 -19 23 0
-15 39 41 0
-14 -40 -49 0
-14 15 -39 0
-14 26 37 0
-13 -40 58 0
-13 -26 -55 0
-13 15 34 0
-13 18 -38 0
-13 39 -51 0
-12 -36 54 0
-12 -15 26 0
-12 21 27 0
-12 21 31 0
-11 -36 57 0
-11 15 57 0
-11 26 59 0
-11 29 52 0
-10 -42 52 0
-10 -14 15 0
-10 44 -57 0
-9 -48 49 0
-9 -34 -39 0
-9 -20 -38 0
-9 16 47 0
-9 19 48 0
-9 29 60 0
-9 51 -60 0
-8 -16 -51 0
-8 -12 -49 0
-8 15 59 0
-8 16 43 0
-7 -46 -55 0
-7 -44 51 0
-7 -43 -57 0
-7 -17 52 0
-7 -8 35 0
-7 23 -57 0
-7 56 -60 0
-6 -57 -59 0
-6 -25 47 0
-6 -21 43 0
-6 -13 -58 0
-6 8 -14 0
-6 10 58 0
-6 27 -42 0
-5 -43 -59 0
-5 -35 -49 0
-5 7 -40 0
-5 16 36 0
-4 20 -30 0
-4 30 56 0
-4 42 54 0
-3 -8 -25 0
-3 -7 -22 0
-3 -4 9 0
-3 12 48 0
-3 17 -24 0
-3 37 51 0
-2 -4 33 0
-2 7 -30 0
-2 11 25 0
-2 22 -48 0
-2 56 -57 0
-1 -17 58 0
1 -25 56 0
1 -24 -27 0
1 -17 21 0
1 -14 -45 0
1 -11 17 0
1 -4 40 0
1 -3 -36 0
1 -2 10 0
1 3 -6 0
1 5 36 0
1 5 51 0
1 28 47 0
2 -44 -49 0
2 -22 50 0
2 -21 23 0
2 23 37 0
3 -36 -37 0
3 -16 47 0
3 18 -53 0
4 -37 55 0
4 -36 -56 0
4 -28 -47 0
4 -13 -37 0
4 16 18 0
4 19 57 0
4 55 58 0
5 -13 52 0
5 12 29 0
5 19 56 0
5 38 39 0
6 -36 39 0
6 -27 48 0
6 -18 28 0
6 -13 18 0
6 -10 -15 0
6 12 23 0
6 33 -54 0
6 45 -58 0
7 -50 53 0
7 -29 49 0
7 -8 -23 0
7 23 30 0
8 11 -33 0
8 11 29 0
9 11 17 0
9 24 -53 0
9 34 -41 0
9 51 52 0
10 -50 60 0
10 -18 32 0
10 -17 46 0
10 -11 -46 0
10 42 49 0
10 53 57 0
11 -40 60 0
11 12 21 0
11 31 54 0
11 36 -51 0
11 44 51 0
12 -17 -52 0
12 16 43 0
13 -32 -52 0
13 -17 57 0
13 -15 37 0
13 21 58 0
14 -47 52 0
14 -37 -45 0
14 -29 -35 0
14 -21 -52 0
14 19 25 0
14 34 55 0
14 38 -51 0
14 47 -50 0
15 -48 -50 0
15 -17 -49 0
15 -17 -25 0
15 31 -46 0
16 -25 27 0
16 22 -27 0
16 24 -29 0
16 28 54 0
16 31 -48 0
17 -25 34 0
17 -21 30 0
17 21 42 0
17 47 57 0
18 -33 -45 0
19 -23 -60 0
19 -22 46 0
19 23 -27 0
19 36 39 0
19 42 57 0
19 45 -55 0
20 -31 -49 0
20 -28 -47 0
21 23 -49 0
22 -25 27 0
22 37 -45 0
23 -55 -60 0
23 -42 56 0
23 -38 -56 0
24 -49 -55 0
24 -26 -57 0
24 38 -55 0
25 -35 -45 0
25 -31 54 0
26 48 58 0
27 -40 46 0
27 -35 45 0
27 -29 -32 0
28 -58 59 0
28 -39 -42 0
28 37 -56 0
28 54 56 0
29 -37 49 0
29 32 44 0
29 57 59 0
30 -51 53 0
30 35 -44 0
31 -43 50 0
31 38 47 0
33 51 -57 0
34 36 50 0
34 37 48 0
36 41 50 0
39 -44 -47 0
46 -54 -58 0
46 47 -49 0
47 -53 56 0
49 51 -54 0
55 -57 -59 0
56 58 -59 0
