p cnf 60 180
-51 52 59 0
-46 53 -58 0
-40 49 53 0
-39 56 57 0
-38 54 -57 0
-37 -45 52 0
-37 -44 -60 0
-33 -40 -50 0
-32 37 43 0
-32 38 47 0
-30 42 53 0
-29 30 52 0
-28 -58 60 0
-28 -55 -58 0
-28 -55 -56 0
-28 30 52 0
-27 -39 57 0
-27 -35 -37 0
-25 26 -36 0
-25 27 -38 0
-25 29 -57 0
-24 -31 56 0
-23 -35 37 0
-23 34 -54 0
-23 44 49 0
-22 -35 42 0
-22 35 49 0
-21 -33 -42 0
-21 25 -57 0
-21 32 -60 0
-21 33 -42 0
-21 46 -48 0
-20 29 -33 0
-20 29 46 0
-19 -29 58 0
-18 -20 58 0
-18 37 40 0
-18 45 -52 0
-18 45 -47 0
-17 -28 30 0
-17 58 -60 0
-16 -36 -45 0
-16 -24 -45 0
-15 -34 60 0
-15 -28 -51 0
-15 -20 58 0
-15 17 -19 0
-15 38 42 0
-14 -16 27 0
-14 17 -44 0
-14 22 40 0
-13 -30 51 0
-13 21 25 0
-13 22 45 0
-13 28 -46 0
-12 -49 -52 0
-12 24 57 0
-12 29 -39 0
-10 -19 25 0
-10 13 -27 0
-10 18 27 0
-10 35 38 0
-9 -41 -52 0
-9 -29 -56 0
-9 28 57 0
-9 38 46 0
-8 -35 44 0
-8 -21 29 0
-8 -17 -46 0
-8 12 -49 0
-8 15 21 0
-8 20 -31 0
-8 23 -48 0
-8 26 35 0
-8 50 52 0
-7 -50 51 0
-7 -44 48 0
-7 -14 55 0
-7 39 44 0
-6 -17 -34 0
-6 -14 41 0
-4 -13 34 0
-4 12 50 0
-4 15 -32 0
-4 28 -47 0
-3 -11 15 0
-3 11 -24 0
-3 23 -50 0
-1 -55 -56 0
-1 -46 58 0
-1 -27 -56 0
-1 -27 -51 0
-1 -23 -41 0
-1 13 -29 0
-1 15 58 0
1 5 -49 0
1 9 36 0
1 21 -56 0
2 -8 41 0
2 5 -9 0
3 -43 -46 0
3 -13 26 0
3 -6 -16 0
3 6 -49 0
3 37 59 0
4 12 34 0
4 14 36 0
4 27 -36 0
4 31 56 0
5 -47 60 0
5 -23 -24 0
6 -31 -48 0
6 -22 39 0
6 -17 -26 0
6 9 51 0
6 55 -60 0
7 -18 50 0
7 -15 -45 0
7 15 -46 0
7 25 30 0
7 46 -47 0
8 -51 58 0
8 -9 -48 0
8 31 45 0
9 -31 -36 0
9 -23 -30 0
10 -38 -47 0
10 -16 30 0
10 27 59 0
11 -37 -53 0
11 28 42 0
11 31 41 0
11 34 -40 0
12 -39 58 0
12 -17 -44 0
12 24 46 0
12 25 -45 0
14 -36 -58 0
14 -30 -54 0
14 -23 31 0
14 -21 39 0
14 -20 -49 0
14 33 37 0
14 49 59 0
15 -28 37 0
15 -17 39 0
15 18 38 0
15 25 33 0
16 -50 -54 0
16 25 -39 0
17 -49 59 0
17 26 48 0
17 38 -42 0
18 -19 -59 0
18 20 -32 0
18 25 30 0
18 26 -60 0
20 24 -35 0
20 24 41 0
20 28 58 0
21 -38 -55 0
22 -41 55 0
22 -30 -57 0
24 -39 -46 0
24 -38 -57 0
26 -40 -47 0
26 -39 57 0
26 -27 -55 0
27 -53 54 0
27 -35 -56 0
27 34 -40 0
28 -31 45 0
28 44 -60 0
29 -40 45 0
29 40 53 0
34 -42 60 0
38 -40 51 0
38 49 60 0
46 -48 -60 0
47 -50 60 0
