p cnf 50 213
-41 -43 48 0
-37 -38 47 0
-34 37 -41 0
-32 36 40 0
-30 -44 -46 0
-30 -40 -50 0
-30 -39 47 0
-28 -45 -50 0
-28 -41 49 0
-27 -34 -50 0
-26 -41 -42 0
-26 -35 45 0
-26 36 41 0
-25 -43 -44 0
-25 -38 48 0
-25 -32 -36 0
-25 27 -42 0
-25 34 36 0
-25 36 50 0
-24 -37 -44 0
-24 36 -45 0
-23 -32 50 0
-23 27 44 0
-22 -24 36 0
-22 33 39 0
-21 32 -35 0
-21 37 44 0
-20 22 -49 0
-20 34 42 0
-20 41 48 0
-19 -43 -44 0
-19 21 -31 0
-19 24 -44 0
-19 42 -46 0
-18 -34 -43 0
-18 -33 35 0
-18 -29 -46 0
-18 -22 46 0
-18 38 -39 0
-17 -33 -43 0
-17 -20 49 0
-16 -47 -49 0
-16 -21 40 0
-16 -18 -38 0
-16 20 -46 0
-16 22 -23 0
-15 31 -44 0
-14 -33 40 0
-14 -33 47 0
-14 44 45 0
-13 -21 -38 0
-13 -18 -22 0
-13 -14 36 0
-13 20 -40 0
-13 24 48 0
-13 39 -44 0
-12 -21 -44 0
-12 -14 35 0
-12 14 -40 0
-12 31 -48 0
-12 35 -41 0
-12 41 43 0
-11 -20 -34 0
-11 13 -19 0
-11 25 -50 0
-10 -34 -50 0
-10 -11 -28 0
-10 12 -21 0
-10 16 46 0
-10 26 40 0
-9 -36 -41 0
-9 -13 -46 0
-9 12 -24 0
-8 -22 36 0
-8 9 23 0
-8 11 47 0
-8 27 32 0
-7 19 41 0
-7 21 -46 0
-7 21 -39 0
-7 22 -37 0
-7 28 -33 0
-6 -38 43 0
-6 -33 45 0
-6 -26 -41 0
-6 -20 32 0
-6 -14 30 0
-6 -9 38 0
-6 10 -15 0
-6 16 -23 0
-5 -15 36 0
-5 -14 33 0
-5 -11 27 0
-5 8 -14 0
-5 12 16 0
-5 13 -33 0
-5 14 33 0
-5 17 -36 0
-5 20 -38 0
-5 31 -45 0
-4 -14 24 0
-4 -5 -34 0
-4 30 -46 0
-3 -36 -47 0
-3 -16 45 0
-3 11 -48 0
-2 -20 49 0
-2 -15 -28 0
-2 18 47 0
-2 23 -35 0
-1 -36 -48 0
-1 -14 -37 0
-1 -5 25 0
-1 -2 -45 0
-1 26 41 0
1 -40 49 0
1 -26 -38 0
1 -14 -38 0
1 -4 -21 0
2 -31 49 0
2 -23 37 0
2 -17 34 0
2 -16 -29 0
2 12 -32 0
2 28 -43 0
3 -25 -44 0
3 -20 -32 0
3 -14 29 0
3 -5 16 0
3 -4 -33 0
3 -4 38 0
3 7 31 0
4 -12 40 0
4 28 -46 0
4 28 35 0
4 29 37 0
5 -23 -27 0
5 -19 23 0
5 23 30 0
6 -36 46 0
6 7 -10 0
6 7 33 0
7 -20 -31 0
7 -20 33 0
7 -18 -39 0
7 12 -34 0
8 10 40 0
8 18 49 0
9 -17 36 0
9 27 -47 0
10 -16 -22 0
10 13 22 0
10 15 35 0
10 21 48 0
11 -32 -45 0
11 -31 -50 0
11 -30 -50 0
11 -22 -33 0
11 -21 29 0
11 14 -28 0
11 30 44 0
12 -17 -41 0
12 -15 46 0
12 -13 15 0
12 15 -47 0
12 25 -47 0
12 25 26 0
13 -37 -48 0
13 -34 44 0
13 -25 -39 0
13 -18 28 0
13 17 -23 0
13 20 -48 0
13 22 -35 0
13 38 48 0
14 -18 23 0
14 31 34 0
14 35 -42 0
16 -35 -50 0
16 20 43 0
16 22 49 0
16 33 -37 0
17 -26 -30 0
17 22 -45 0
17 41 -45 0
18 29 34 0
19 -27 -31 0
19 27 38 0
19 29 38 0
20 -22 44 0
21 -23 -46 0
21 31 46 0
22 -35 38 0
22 -29 -31 0
23 -30 -35 0
24 -27 37 0
24 36 -40 0
25 32 36 0
28 -38 43 0
29 -39 -45 0
29 31 -40 0
31 -33 34 0
31 43 46 0
32 -43 49 0
32 -42 44 0
32 45 47 0
33 40 -48 0
33 44 -47 0
34 -45 48 0
34 -40 47 0
36 -46 -47 0
38 40 -49 0
41 -42 -43 0
