p cnf 45 191
-38 -43 44 0
-36 42 -43 0
-35 -36 -40 0
-34 36 -37 0
-33 -40 -43 0
-30 41 -43 0
-28 -34 38 0
-26 28 37 0
-25 -42 43 0
-25 -40 -45 0
-25 -26 40 0
-24 25 -42 0
-24 25 34 0
-24 28 -41 0
-20 -32 35 0
-19 29 -34 0
-18 -23 40 0
-18 24 -44 0
-18 27 29 0
-17 -35 38 0
-17 -23 40 0
-16 -26 -40 0
-16 -19 -33 0
-16 20 38 0
-16 22 -25 0
-16 29 42 0
-15 -26 30 0
-15 -19 -31 0
-15 22 33 0
-15 26 -41 0
-15 26 39 0
-15 35 -44 0
-14 -24 41 0
-14 28 -44 0
-13 -23 41 0
-13 -21 -36 0
-13 15 -43 0
-13 26 -36 0
-12 -18 -40 0
-12 -13 15 0
-12 19 -41 0
-12 34 43 0
-12 36 -42 0
-11 -33 40 0
-11 -21 27 0
-11 12 -21 0
-10 15 23 0
-9 -23 32 0
-9 -18 -19 0
-9 -16 21 0
-9 -13 -43 0
-8 -12 -32 0
-8 9 -28 0
-8 38 39 0
-7 -38 44 0
-7 -21 -39 0
-7 -16 -23 0
-7 -12 19 0
-7 -9 31 0
-7 19 -40 0
-6 -27 -29 0
-6 -13 -32 0
-6 -11 -24 0
-6 -10 28 0
-6 11 -17 0
-6 14 -34 0
-5 -25 27 0
-5 -18 -24 0
-5 -14 32 0
-5 12 20 0
-5 12 45 0
-4 -19 44 0
-4 10 27 0
-4 11 -34 0
-4 15 44 0
-4 17 43 0
-4 36 41 0
-3 -33 -34 0
-3 -26 37 0
-3 42 -45 0
-2 -31 -32 0
-2 -27 34 0
-2 -24 -33 0
-2 -4 32 0
-2 -3 14 0
-2 3 28 0
-2 14 -32 0
-2 32 -43 0
-2 42 45 0
-1 -21 27 0
-1 -17 -23 0
-1 -16 -17 0
-1 -15 31 0
-1 4 -6 0
-1 5 -39 0
-1 21 38 0
1 -34 43 0
1 -18 -45 0
1 -16 -32 0
1 10 -19 0
1 13 -26 0
1 14 20 0
2 -18 -21 0
2 -18 29 0
2 -5 32 0
2 12 -34 0
2 30 -39 0
3 -25 -40 0
3 -20 -44 0
3 -12 27 0
3 6 -43 0
3 27 37 0
4 -8 28 0
4 6 -25 0
4 7 -37 0
5 -38 -39 0
5 -27 31 0
5 12 -30 0
5 18 -33 0
6 -20 37 0
6 -12 36 0
6 8 31 0
6 9 -43 0
6 11 -13 0
6 17 -21 0
7 -31 41 0
7 -29 -39 0
7 17 -28 0
7 37 40 0
8 -33 -42 0
8 -23 -30 0
8 -15 -45 0
8 -14 -20 0
8 -14 19 0
8 11 -13 0
8 27 33 0
9 -21 -26 0
9 -17 -40 0
9 -14 30 0
9 -11 -18 0
9 10 -41 0
9 18 21 0
10 -23 -27 0
10 -21 -24 0
10 18 -32 0
10 20 -34 0
10 28 40 0
10 31 33 0
11 -16 -25 0
11 21 28 0
11 42 -44 0
12 -20 37 0
12 -18 -27 0
12 15 35 0
12 18 42 0
12 32 38 0
13 -19 -42 0
13 14 -32 0
13 14 35 0
13 21 34 0
14 26 -41 0
14 28 39 0
14 33 -39 0
14 34 -38 0
15 20 -36 0
15 24 -35 0
15 26 -40 0
16 -19 21 0
17 21 42 0
18 -30 -33 0
18 -28 34 0
18 22 -42 0
18 34 39 0
20 -37 39 0
20 -34 -35 0
20 -33 -35 0
20 -25 -27 0
20 22 38 0
20 25 -45 0
20 28 -41 0
21 24 25 0
21 29 -36 0
22 -32 41 0
24 25 -43 0
27 -28 42 0
28 32 43 0
29 -31 -32 0
30 39 43 0
32 37 -39 0
33 -39 44 0
35 -36 -45 0
