p cnf 40 170
-36 39 40 0
-33 -34 -39 0
-29 -33 36 0
-28 -29 -40 0
-24 32 33 0
-23 26 -33 0
-23 30 -37 0
-21 -38 -39 0
-21 -36 -40 0
-19 -30 33 0
-19 -29 32 0
-19 -27 30 0
-19 -23 24 0
-19 -22 35 0
-19 20 37 0
-19 24 -37 0
-18 -34 -37 0
-17 -30 31 0
-17 -28 30 0
-17 -20 -22 0
-17 24 -31 0
-16 -21 22 0
-16 27 -31 0
-15 -19 31 0
-15 -18 38 0
-15 -17 -30 0
-14 -17 23 0
-13 -24 -36 0
-13 20 -37 0
-13 31 39 0
-12 -26 38 0
-12 -21 32 0
-11 -18 36 0
-11 13 25 0
-11 27 -39 0
-10 -31 -40 0
-10 11 35 0
-10 16 -27 0
-10 17 -36 0
-10 24 40 0
-10 25 35 0
-9 -28 -32 0
-9 -20 -21 0
-9 -14 -34 0
-9 12 -14 0
-8 -36 39 0
-8 -34 -38 0
-8 -32 -33 0
-8 -28 -35 0
-8 -16 -38 0
-8 -11 -12 0
-8 19 -37 0
-8 23 -38 0
-6 -21 -31 0
-6 -11 -37 0
-6 -7 8 0
-6 20 -40 0
-6 24 34 0
-5 -15 -39 0
-5 7 -24 0
-5 21 -26 0
-4 -27 -31 0
-4 -26 31 0
-4 -22 36 0
-4 6 33 0
-4 11 13 0
-4 13 -28 0
-3 -23 -40 0
-3 -8 -21 0
-3 -4 25 0
-3 11 34 0
-2 -28 -40 0
-2 -22 38 0
-2 -20 30 0
-2 -3 -26 0
-2 11 -22 0
-2 19 25 0
1 -9 -37 0
1 -8 -35 0
1 -7 -35 0
1 -6 -17 0
1 -2 -17 0
1 2 -5 0
1 13 17 0
1 36 38 0
2 -23 -29 0
2 3 24 0
2 16 36 0
2 18 -24 0
2 28 -37 0
3 -35 40 0
3 -23 25 0
3 -8 10 0
3 6 12 0
3 13 -15 0
4 -30 -31 0
4 -19 26 0
4 -18 -19 0
4 -8 -38 0
4 8 39 0
4 20 38 0
5 -36 40 0
5 -21 28 0
5 10 36 0
5 11 12 0
5 11 17 0
5 17 35 0
5 21 -25 0
6 -14 -23 0
6 -11 30 0
6 -7 -34 0
6 -7 30 0
6 23 -30 0
6 23 31 0
6 32 -34 0
7 -24 27 0
7 -18 22 0
7 -8 -23 0
7 -8 17 0
7 -8 33 0
7 9 -20 0
7 10 -19 0
7 14 19 0
7 15 35 0
7 19 20 0
7 21 -40 0
8 -26 29 0
8 28 30 0
9 -26 40 0
9 10 -26 0
9 33 -36 0
10 -26 38 0
10 14 32 0
10 22 -28 0
11 -23 37 0
11 -21 -39 0
11 16 37 0
12 -22 -34 0
12 -22 -31 0
12 14 30 0
12 30 -35 0
13 -21 -27 0
13 -15 -18 0
13 -14 -22 0
13 14 15 0
14 -23 25 0
14 -22 38 0
15 20 31 0
17 21 37 0
17 23 28 0
17 32 -39 0
18 -36 -38 0
18 -32 -34 0
18 38 39 0
19 29 -33 0
20 -32 -40 0
20 -23 -38 0
21 -33 -36 0
21 22 -28 0
22 29 32 0
22 34 35 0
23 26 -35 0
23 27 29 0
24 26 -31 0
26 -27 40 0
26 34 -40 0
27 -29 36 0
27 -29 40 0
27 30 -36 0
29 36 -40 0
