p cnf 32 136
-29 31 -32 0
-24 25 -29 0
-23 -27 -30 0
-22 24 32 0
-22 27 -32 0
-18 -19 29 0
-18 23 -31 0
-17 -18 -28 0
-16 -22 24 0
-15 20 -25 0
-14 -20 -27 0
-14 16 32 0
-13 18 -31 0
-12 14 -24 0
-12 15 30 0
-12 18 -22 0
-12 20 -31 0
-12 20 -23 0
-12 30 -32 0
-11 -27 31 0
-11 14 -24 0
-11 19 21 0
-11 20 -31 0
-10 -15 -28 0
-10 14 16 0
-10 25 -32 0
-10 28 -29 0
-9 -13 -15 0
-9 17 -27 0
-8 -24 -26 0
-8 -11 -25 0
-8 9 17 0
-7 -23 -29 0
-7 -17 25 0
-7 -13 22 0
-7 -12 -26 0
-7 17 24 0
-7 18 28 0
-7 24 -27 0
-6 -18 26 0
-6 -13 -20 0
-6 14 -28 0
-6 17 26 0
-5 -29 31 0
-5 -28 -29 0
-5 -22 -24 0
-5 -15 29 0
-5 -7 14 0
-5 -6 20 0
-5 13 -20 0
-5 19 -28 0
-4 -14 -16 0
-4 8 -19 0
-4 14 -22 0
-3 5 32 0
-3 25 28 0
-2 -16 -22 0
-2 -16 27 0
-2 -13 24 0
-2 -7 20 0
-2 9 -21 0
-2 9 -11 0
-2 14 28 0
-2 28 -30 0
-2 29 31 0
-1 -25 -31 0
-1 -24 -31 0
-1 -16 -23 0
-1 -10 16 0
-1 -8 31 0
-1 2 5 0
-1 4 -25 0
-1 4 21 0
-1 20 30 0
-1 25 32 0
1 7 -31 0
1 9 13 0
1 16 17 0
2 -25 32 0
2 -19 31 0
2 -16 -24 0
2 -15 -29 0
2 -14 -23 0
2 -12 -31 0
2 8 -30 0
2 9 19 0
2 13 -18 0
2 15 26 0
3 -10 14 0
3 4 6 0
3 8 -27 0
3 11 32 0
3 13 -26 0
3 17 20 0
3 23 24 0
4 -24 -29 0
4 -8 -31 0
4 7 -9 0
4 8 -19 0
4 9 -14 0
5 -9 -25 0
5 11 -28 0
5 12 28 0
5 19 -22 0
6 -17 -22 0
6 -7 -20 0
6 9 14 0
6 17 -25 0
6 20 22 0
6 25 31 0
7 -18 23 0
7 -13 31 0
7 23 -30 0
7 25 26 0
8 -11 31 0
8 10 23 0
9 -17 31 0
10 -15 -32 0
10 -13 -18 0
10 15 -24 0
11 -17 18 0
11 12 -32 0
11 12 13 0
12 13 -26 0
12 21 23 0
13 14 30 0
13 20 31 0
14 -17 18 0
15 -16 -17 0
16 -23 -24 0
18 -20 21 0
18 28 -29 0
19 -29 32 0
19 -26 -27 0
21 -22 31 0
26 28 32 0
