p cnf 35 149
-23 -32 -33 0
-23 -26 29 0
-23 24 26 0
-22 24 -27 0
-21 -25 32 0
-21 33 35 0
-20 -31 33 0
-20 22 -35 0
-19 22 -26 0
-19 27 33 0
-19 30 35 0
-18 -23 33 0
-18 -20 24 0
-18 26 29 0
-17 24 31 0
-16 -20 -26 0
-15 -17 22 0
-14 -24 -29 0
-14 29 33 0
-13 -17 26 0
-12 13 -29 0
-12 17 -29 0
-12 30 -35 0
-11 -29 -30 0
-11 -15 -19 0
-10 -17 -25 0
-10 16 -35 0
-10 20 23 0
-10 25 -28 0
-9 -26 34 0
-9 -10 -13 0
-9 18 33 0
-9 19 -27 0
-9 28 35 0
-8 14 -35 0
-7 10 18 0
-6 -11 -17 0
-6 -9 -28 0
-6 12 -34 0
-5 -19 29 0
-5 6 -28 0
-5 16 25 0
-5 20 34 0
-4 -21 22 0
-4 -20 -28 0
-4 -19 -31 0
-4 15 -35 0
-4 17 -19 0
-4 18 27 0
-3 19 -26 0
-2 -9 15 0
-2 -6 -7 0
-2 3 4 0
-2 13 17 0
-2 21 30 0
-2 27 -33 0
-1 -27 31 0
-1 -16 22 0
-1 -15 -25 0
-1 -15 23 0
-1 -4 -34 0
-1 2 -23 0
-1 5 28 0
-1 15 32 0
-1 18 26 0
-1 32 -33 0
1 -5 21 0
1 -5 27 0
1 -5 32 0
1 -3 -11 0
1 4 -5 0
1 6 23 0
2 -15 -27 0
2 -8 -32 0
2 3 13 0
2 12 -28 0
2 12 32 0
2 15 -19 0
2 23 35 0
2 26 33 0
3 -4 16 0
3 6 12 0
3 11 -29 0
3 13 25 0
3 17 18 0
3 18 -34 0
3 21 27 0
4 -19 -34 0
4 -6 31 0
4 10 -27 0
4 10 25 0
4 13 21 0
4 20 -25 0
5 -8 -11 0
5 9 -18 0
5 12 -29 0
5 19 -20 0
5 34 35 0
6 -27 -31 0
6 -12 30 0
6 -10 -22 0
6 -9 17 0
6 9 11 0
6 18 -25 0
7 -24 -32 0
7 -16 -34 0
7 14 -31 0
7 14 29 0
7 19 -26 0
7 24 33 0
7 27 -28 0
8 -15 19 0
8 -11 -24 0
8 -11 -20 0
8 17 34 0
9 -14 -19 0
9 -13 23 0
10 -34 -35 0
10 19 -23 0
10 21 -30 0
11 14 -16 0
11 17 -33 0
12 -28 -32 0
12 -21 -30 0
12 -19 -32 0
12 18 -32 0
12 18 -30 0
14 -29 31 0
14 -20 28 0
14 -17 -18 0
14 17 -28 0
14 18 -32 0
14 20 -22 0
15 -25 35 0
15 -19 32 0
15 31 -34 0
16 -21 23 0
17 -25 -33 0
17 26 -28 0
18 -30 33 0
18 -23 25 0
18 -21 -33 0
19 20 -25 0
20 28 34 0
21 -28 35 0
21 22 27 0
21 27 -35 0
23 -29 31 0
26 -28 33 0
