p cnf 140 595
-117 -120 129 0
-117 -119 -130 0
-117 -119 121 0
-109 -131 -134 0
-109 119 -128 0
-102 128 133 0
-98 -105 -106 0
-97 -106 126 0
-93 120 -137 0
-91 -95 -98 0
-88 -90 -108 0
-87 -117 131 0
-86 -92 -117 0
-86 93 94 0
-86 94 -95 0
-86 94 111 0
-86 112 132 0
-84 -90 120 0
-84 127 -132 0
-84 130 -132 0
-83 -118 139 0
-83 87 -135 0
-81 89 -93 0
-80 -96 100 0
-77 -111 121 0
-77 -86 87 0
-77 80 -134 0
-76 123 137 0
-75 -87 -103 0
-75 -77 139 0
-74 -116 126 0
-74 83 -126 0
-72 -115 -130 0
-72 82 -90 0
-72 128 -133 0
-71 -90 -114 0
-71 93 131 0
-71 104 117 0
-70 77 105 0
-70 122 -140 0
-69 -106 -130 0
-69 82 -105 0
-69 105 120 0
-67 -72 125 0
-67 83 -114 0
-66 -80 -90 0
-66 67 128 0
-66 87 -105 0
-66 96 -138 0
-64 -113 140 0
-64 -86 -123 0
-64 91 106 0
-63 -123 -132 0
-63 131 -138 0
-62 87 -100 0
-61 -66 79 0
-61 84 135 0
-60 -113 136 0
-60 -96 108 0
-58 -83 109 0
-57 64 65 0
-57 123 -140 0
-56 -69 97 0
-55 -121 -132 0
-55 -106 123 0
-55 85 -98 0
-54 -79 -137 0
-54 83 -105 0
-53 -118 -132 0
-53 -75 -122 0
-53 -72 -132 0
-53 -54 -60 0
-52 -102 122 0
-52 -90 100 0
-52 -57 -116 0
-52 -54 -73 0
-52 105 -131 0
-50 -122 131 0
-50 -59 -100 0
-50 58 -128 0
-50 80 115 0
-49 52 90 0
-49 77 -125 0
-48 81 113 0
-48 86 -99 0
-48 100 139 0
-47 -85 -101 0
-47 -80 113 0
-47 -49 63 0
-47 84 133 0
-47 91 -134 0
-47 101 114 0
-46 51 93 0
-45 -86 111 0
-45 50 67 0
-44 -127 134 0
-44 48 61 0
-43 -51 67 0
-43 44 65 0
-43 60 -112 0
-42 -96 -119 0
-42 90 -92 0
-42 93 -138 0
-41 -54 133 0
-41 -49 -84 0
-41 66 -133 0
-40 70 -100 0
-40 85 -111 0
-39 -72 -123 0
-39 44 98 0
-39 51 -89 0
-39 51 107 0
-39 61 -131 0
-39 95 -105 0
-38 81 -103 0
-38 86 -111 0
-37 -54 79 0
-37 121 137 0
-36 -51 -76 0
-36 -42 117 0
-36 -40 -72 0
-36 80 -120 0
-35 -66 139 0
-35 -57 -77 0
-35 -42 109 0
-35 -38 -89 0
-35 -38 104 0
-34 -109 126 0
-34 -64 71 0
-34 -47 -130 0
-34 50 85 0
-34 75 -90 0
-34 99 -101 0
-33 -73 103 0
-33 -52 -99 0
-32 46 126 0
-32 65 66 0
-31 -114 -116 0
-31 69 77 0
-30 52 -72 0
-29 -43 -73 0
-29 69 95 0
-29 73 -136 0
-29 75 109 0
-29 77 -101 0
-28 -68 -136 0
-28 -47 135 0
-28 -43 -122 0
-28 30 -52 0
-28 39 -56 0
-28 70 -77 0
-27 -86 112 0
-27 -82 -93 0
-27 -52 -97 0
-27 -34 129 0
-26 -63 109 0
-26 -56 132 0
-26 -48 -134 0
-26 -32 -130 0
-26 -31 -113 0
-25 -116 128 0
-25 -35 -74 0
-25 29 66 0
-25 29 134 0
-25 109 120 0
-24 -29 -69 0
-24 30 104 0
-24 47 -135 0
-23 -92 100 0
-23 36 129 0
-22 -36 57 0
-21 -111 -137 0
-21 -108 -140 0
-21 -100 -125 0
-21 -74 -112 0
-21 -51 -52 0
-21 -39 -109 0
-21 -28 70 0
-21 32 108 0
-21 51 -115 0
-21 62 -86 0
-21 88 -120 0
-20 23 -39 0
-20 33 -56 0
-20 134 139 0
-19 -75 121 0
-19 -70 79 0
-19 52 -80 0
-18 -72 113 0
-18 -65 84 0
-18 -48 -133 0
-18 -48 -83 0
-18 -19 73 0
-18 48 52 0
-17 -60 -121 0
-17 36 130 0
-17 55 137 0
-17 69 119 0
-17 82 -89 0
-16 61 120 0
-16 107 139 0
-16 113 -114 0
-15 -107 -111 0
-15 -35 100 0
-15 -32 74 0
-15 26 -58 0
-15 92 -139 0
-14 -51 -77 0
-14 -23 -38 0
-14 18 72 0
-14 46 -85 0
-14 49 -74 0
-13 -116 128 0
-13 -113 -137 0
-13 -102 -107 0
-13 -31 106 0
-13 43 -73 0
-13 76 132 0
-13 80 110 0
-12 -82 103 0
-12 -38 76 0
-12 -14 -129 0
-12 46 108 0
-12 57 78 0
-11 -113 133 0
-11 13 -67 0
-11 76 90 0
-11 82 -109 0
-11 88 -125 0
-11 89 -107 0
-10 14 28 0
-10 21 26 0
-10 69 114 0
-10 117 132 0
-9 -126 137 0
-9 -64 72 0
-9 -49 61 0
-8 -71 -115 0
-8 -27 -30 0
-8 -14 70 0
-8 -11 -62 0
-8 22 101 0
-8 113 -137 0
-8 113 -134 0
-7 -66 80 0
-7 -49 55 0
-7 20 51 0
-7 22 -83 0
-7 36 -91 0
-7 39 -89 0
-7 65 -68 0
-7 123 136 0
-6 25 -123 0
-6 29 -45 0
-6 33 96 0
-6 48 119 0
-6 53 -63 0
-6 81 127 0
-6 102 -128 0
-5 -119 138 0
-5 -86 133 0
-5 -37 -78 0
-5 -12 26 0
-5 19 -62 0
-5 37 104 0
-5 65 112 0
-4 -76 78 0
-4 -70 108 0
-4 -51 -53 0
-4 -44 -56 0
-4 -24 45 0
-4 -14 99 0
-4 12 -62 0
-4 21 -28 0
-4 27 126 0
-4 61 -72 0
-3 -68 -102 0
-3 -52 106 0
-3 -49 -92 0
-3 -42 -107 0
-3 -20 33 0
-3 7 112 0
-3 33 95 0
-3 68 -118 0
-3 72 -120 0
-3 83 -126 0
-2 -120 -140 0
-2 -45 108 0
-2 -6 -91 0
-2 81 98 0
-2 92 100 0
-1 6 20 0
-1 8 -31 0
-1 86 -113 0
1 -105 115 0
1 -90 135 0
1 9 10 0
1 25 -64 0
1 33 -44 0
1 73 -96 0
1 81 128 0
1 89 129 0
2 -112 120 0
2 -45 -65 0
2 116 -132 0
3 -32 -135 0
3 6 93 0
3 38 92 0
3 59 -127 0
3 77 106 0
4 -63 99 0
4 -17 -85 0
4 -9 -134 0
4 9 -62 0
4 17 -134 0
4 53 -83 0
5 -58 -129 0
5 11 -128 0
5 25 -38 0
5 103 127 0
6 -30 52 0
6 7 24 0
6 14 106 0
6 36 82 0
6 43 -61 0
7 -10 -82 0
7 8 -102 0
7 34 -62 0
7 64 65 0
7 68 -128 0
7 76 -97 0
8 46 -73 0
9 -28 76 0
9 30 137 0
9 62 -96 0
10 -115 130 0
10 -87 -120 0
10 -22 80 0
11 -63 71 0
11 -51 88 0
11 -13 -17 0
11 40 -103 0
11 41 -45 0
11 54 -99 0
11 108 -136 0
12 -82 -129 0
12 -14 92 0
12 102 112 0
12 115 138 0
13 -44 -122 0
13 27 -69 0
13 43 -101 0
13 119 127 0
14 -80 132 0
14 -44 91 0
14 -32 -57 0
14 -27 43 0
14 60 79 0
15 -46 61 0
15 -38 77 0
15 -30 96 0
15 -20 -107 0
15 31 -67 0
15 36 -79 0
15 57 69 0
16 -117 -133 0
16 -22 83 0
16 54 71 0
17 -114 -135 0
17 -52 99 0
18 87 134 0
19 -64 80 0
19 -61 -79 0
19 -21 132 0
19 33 -103 0
19 46 -88 0
19 85 -88 0
20 -58 -121 0
20 -56 113 0
20 -46 82 0
20 -33 -82 0
20 -33 91 0
20 -31 45 0
21 41 -135 0
21 61 91 0
22 -75 114 0
22 -64 122 0
22 -35 -56 0
22 51 -56 0
22 119 123 0
23 -48 123 0
23 -28 -69 0
23 105 -127 0
24 -128 -129 0
24 -73 80 0
24 -43 -100 0
24 48 -101 0
24 48 117 0
24 111 120 0
25 -57 -101 0
25 -57 70 0
25 -50 53 0
25 -42 -91 0
25 39 -96 0
25 72 -80 0
26 -53 124 0
26 -34 -95 0
26 27 127 0
27 -96 121 0
27 -47 -126 0
27 -42 -131 0
27 -34 -38 0
27 34 -54 0
27 37 93 0
27 46 -102 0
27 51 -57 0
28 38 124 0
29 -31 107 0
30 -109 -122 0
30 -84 -113 0
30 -71 -83 0
30 106 133 0
31 -122 -132 0
31 -66 90 0
31 39 -71 0
31 85 -105 0
31 98 113 0
31 102 -105 0
32 -52 -65 0
32 -38 -60 0
32 57 92 0
33 -62 -135 0
33 -55 -92 0
33 53 -139 0
33 84 -128 0
33 95 -116 0
33 118 -132 0
33 121 -128 0
34 37 -131 0
34 67 -131 0
35 -46 -91 0
35 -45 -110 0
35 37 90 0
36 -59 128 0
36 53 125 0
36 66 -104 0
36 81 -108 0
36 128 -139 0
37 -88 -132 0
37 -86 -112 0
37 67 -86 0
38 -122 -126 0
38 62 -139 0
38 70 120 0
39 -106 -119 0
39 -68 -112 0
39 -45 -108 0
39 75 -102 0
40 -50 -92 0
40 58 114 0
40 82 123 0
41 -115 -128 0
41 90 -109 0
41 102 -128 0
42 -74 78 0
42 -46 101 0
42 -44 -81 0
42 51 77 0
43 -100 129 0
43 -83 -88 0
43 -58 86 0
43 71 -77 0
43 114 123 0
44 64 -65 0
44 70 96 0
44 137 -139 0
45 -114 118 0
45 103 -139 0
46 -84 112 0
46 -78 -132 0
46 -47 -124 0
47 -56 90 0
47 -55 -72 0
47 -48 131 0
48 -73 -86 0
48 -71 -137 0
48 58 97 0
49 -115 -135 0
49 -56 -108 0
49 54 101 0
49 55 -82 0
50 -99 111 0
50 -56 76 0
50 72 -89 0
50 89 122 0
51 62 -123 0
52 -101 132 0
52 -87 -89 0
52 -61 101 0
52 -58 -119 0
53 105 107 0
53 119 125 0
54 -101 -129 0
54 -79 83 0
54 -57 98 0
54 66 101 0
54 74 121 0
54 91 -140 0
54 98 115 0
55 -131 138 0
55 -96 98 0
55 -85 -105 0
55 -60 129 0
56 -101 -110 0
56 -62 107 0
56 70 -137 0
56 89 108 0
57 -115 -133 0
58 -100 -107 0
58 -87 139 0
58 96 110 0
59 -91 128 0
59 -64 -131 0
59 82 -93 0
59 95 139 0
60 -98 -109 0
60 -66 -130 0
61 -69 118 0
62 -75 -84 0
62 72 139 0
62 82 116 0
63 -106 122 0
63 -81 125 0
63 68 82 0
63 73 100 0
63 78 -96 0
64 -137 140 0
64 -89 -111 0
64 84 116 0
64 98 123 0
65 -98 123 0
65 115 -136 0
66 -70 127 0
66 70 78 0
67 -78 -140 0
67 78 139 0
68 -98 111 0
68 -81 100 0
68 -75 132 0
69 -115 -131 0
69 -102 -120 0
69 106 -137 0
70 75 96 0
71 -92 96 0
72 76 109 0
73 77 122 0
73 88 115 0
74 -116 121 0
74 -92 -123 0
74 118 119 0
75 -99 -116 0
75 108 -112 0
76 91 -136 0
76 114 136 0
77 -93 -126 0
78 -88 -113 0
80 -131 -136 0
80 91 130 0
80 110 -132 0
81 84 -115 0
83 -99 101 0
83 -93 -125 0
84 97 -135 0
86 91 -140 0
87 -90 -98 0
88 -101 113 0
88 126 -136 0
89 -91 -126 0
89 90 99 0
89 110 134 0
90 -106 133 0
90 -95 -99 0
90 106 125 0
90 117 121 0
92 97 -100 0
93 -95 99 0
94 132 139 0
95 -99 -115 0
96 -99 131 0
97 100 -137 0
104 122 -124 0
106 115 -140 0
117 -128 135 0
127 129 -136 0
136 137 138 0
