p cnf 40 170
-29 35 -37 0
-27 29 33 0
-26 -28 -33 0
-26 28 29 0
-24 -25 39 0
-24 37 -40 0
-23 24 -33 0
-22 31 -40 0
-21 -31 -32 0
-21 29 32 0
-21 35 -37 0
-20 -21 29 0
-19 -28 35 0
-19 -21 40 0
-19 26 -38 0
-18 29 -30 0
-18 31 32 0
-16 -25 -33 0
-16 21 -29 0
-16 26 -27 0
-15 -21 -23 0
-15 -20 26 0
-15 17 -21 0
-15 20 -21 0
-14 -28 39 0
-14 -24 38 0
-14 16 -20 0
-13 -34 38 0
-13 15 -34 0
-13 25 -40 0
-12 -33 38 0
-12 -17 -25 0
-11 -32 33 0
-11 -27 -33 0
-11 -18 -38 0
-11 -15 34 0
-11 27 30 0
-11 28 32 0
-10 -15 -33 0
-10 -13 -30 0
-9 15 -24 0
-9 36 40 0
-8 -21 -39 0
-8 -16 -19 0
-8 -10 12 0
-8 11 -34 0
-8 36 38 0
-7 -25 -27 0
-7 -12 23 0
-7 8 37 0
-7 18 27 0
-7 36 37 0
-6 -31 34 0
-6 -24 39 0
-6 -19 -34 0
-6 -15 -21 0
-6 -14 -28 0
-6 -10 -32 0
-6 16 -29 0
-6 16 31 0
-5 -28 -31 0
-5 -22 -27 0
-5 -21 -37 0
-5 -17 38 0
-5 -9 -27 0
-5 7 24 0
-5 24 33 0
-4 -24 -26 0
-4 -16 35 0
-4 -14 20 0
-4 -9 35 0
-4 18 -25 0
-3 -21 -33 0
-3 -20 -27 0
-3 -17 36 0
-3 6 8 0
-2 -4 -13 0
-2 -4 25 0
-2 16 20 0
-2 17 -25 0
-2 32 -40 0
-1 -30 33 0
-1 -17 25 0
-1 -3 -9 0
-1 7 15 0
-1 7 28 0
-1 15 -39 0
-1 21 22 0
-1 27 28 0
1 -20 -32 0
1 -12 27 0
1 6 -27 0
1 17 -40 0
1 18 -25 0
1 20 -37 0
2 -37 39 0
2 -19 -20 0
2 -12 -40 0
2 -11 12 0
2 -9 -26 0
2 -8 16 0
2 -4 -5 0
2 5 21 0
2 14 39 0
2 16 -29 0
3 -20 36 0
3 -13 38 0
3 7 -21 0
3 9 18 0
3 16 39 0
3 27 -37 0
4 -21 29 0
4 -10 31 0
4 -7 -11 0
4 5 20 0
4 8 30 0
4 19 33 0
4 30 37 0
4 35 38 0
5 9 -19 0
5 30 -33 0
6 -16 18 0
6 24 37 0
7 11 30 0
7 14 31 0
7 29 -40 0
8 -17 38 0
8 -10 -33 0
8 -9 -24 0
8 19 -20 0
8 19 23 0
8 30 39 0
9 -30 35 0
9 -20 -22 0
9 -18 34 0
9 11 23 0
10 -11 -21 0
10 -11 27 0
10 15 34 0
10 17 21 0
10 25 -38 0
11 -22 -32 0
11 -17 -24 0
11 12 -22 0
11 15 35 0
11 22 -27 0
12 -23 -25 0
12 -22 27 0
12 -18 29 0
12 20 22 0
13 14 38 0
13 25 26 0
13 29 37 0
14 -20 36 0
14 15 -24 0
14 29 40 0
15 17 26 0
16 -17 32 0
16 20 25 0
17 -34 -40 0
18 -20 -40 0
18 -19 -40 0
19 26 -40 0
22 -32 40 0
22 24 31 0
24 29 -34 0
26 -27 -31 0
26 29 40 0
30 33 -36 0
31 -33 -39 0
