p cnf 100 600
-86 87 -95 0
-86 94 95 0
-85 -96 -97 0
-83 -93 96 0
-81 -91 92 0
-78 -82 86 0
-77 -81 -91 0
-74 -95 98 0
-74 82 92 0
-72 80 -85 0
-71 -74 82 0
-71 74 -100 0
-68 71 93 0
-68 85 96 0
-66 77 -84 0
-66 83 -88 0
-65 70 92 0
-63 -79 -99 0
-63 66 -100 0
-63 70 81 0
-62 -81 83 0
-61 -70 100 0
-60 -83 -91 0
-60 -81 -100 0
-60 65 89 0
-60 79 97 0
-59 -61 -69 0
-59 61 83 0
-58 -80 98 0
-58 63 -93 0
-58 87 89 0
-57 -79 -84 0
-57 -65 100 0
-57 81 83 0
-57 82 87 0
-56 -87 90 0
-56 64 68 0
-55 -85 -99 0
-55 68 93 0
-54 -89 -91 0
-54 -63 -67 0
-53 -60 -89 0
-53 57 -62 0
-53 73 -76 0
-51 -80 83 0
-51 -62 -72 0
-50 78 94 0
-49 -85 -87 0
-49 -52 54 0
-49 -51 71 0
-49 82 -100 0
-48 55 -58 0
-48 65 74 0
-48 77 -94 0
-48 84 95 0
-48 86 91 0
-47 -87 97 0
-47 -61 -97 0
-47 -52 71 0
-47 58 -92 0
-46 -58 68 0
-46 -58 77 0
-46 93 -94 0
-46 94 -98 0
-45 -81 -97 0
-45 56 -66 0
-45 60 74 0
-44 46 -96 0
-43 -63 -70 0
-43 49 -63 0
-42 -56 91 0
-42 66 74 0
-41 60 89 0
-40 -64 99 0
-40 -63 74 0
-40 -55 -76 0
-40 48 -54 0
-40 65 82 0
-39 -87 100 0
-39 66 -95 0
-39 91 92 0
-38 -68 90 0
-38 -48 -97 0
-38 39 -97 0
-38 51 -93 0
-38 65 -81 0
-38 82 91 0
-37 -73 96 0
-37 -50 -81 0
-37 -39 59 0
-37 61 64 0
-36 40 71 0
-36 65 96 0
-35 -89 97 0
-35 -75 77 0
-35 -67 -81 0
-35 -53 -77 0
-35 -53 -66 0
-35 -37 -42 0
-34 -85 -98 0
-34 39 60 0
-34 45 -86 0
-34 54 73 0
-33 -51 52 0
-33 -35 36 0
-33 53 -74 0
-32 -64 -66 0
-32 -38 41 0
-32 45 -56 0
-32 53 83 0
-32 54 -61 0
-32 65 -79 0
-32 75 92 0
-31 -81 -93 0
-31 -72 -82 0
-31 -62 -79 0
-31 -42 -67 0
-31 32 -58 0
-31 37 99 0
-31 91 92 0
-30 -46 -96 0
-30 -32 70 0
-30 -31 70 0
-29 -46 -83 0
-29 -31 -53 0
-29 73 81 0
-29 87 -91 0
-28 -86 91 0
-28 -75 -81 0
-28 -54 -61 0
-28 -50 -80 0
-28 -41 69 0
-28 35 -37 0
-28 76 -94 0
-28 77 89 0
-26 -75 83 0
-26 -51 -63 0
-26 -48 90 0
-26 -45 -93 0
-26 63 96 0
-25 -65 -71 0
-25 -58 66 0
-25 -30 -40 0
-25 28 -94 0
-25 29 33 0
-25 67 77 0
-24 37 78 0
-24 38 95 0
-24 44 -77 0
-24 67 86 0
-23 -83 87 0
-23 -52 92 0
-23 -35 69 0
-23 -32 93 0
-22 -72 -89 0
-22 -66 -69 0
-22 -60 95 0
-22 27 90 0
-22 51 63 0
-21 -78 -97 0
-21 -44 -75 0
-21 33 -63 0
-21 54 98 0
-21 68 75 0
-20 -46 -62 0
-20 -21 -49 0
-20 23 -52 0
-20 27 -39 0
-20 30 -79 0
-20 31 -71 0
-20 35 -88 0
-20 35 53 0
-20 39 -51 0
-20 45 75 0
-20 48 92 0
-20 54 91 0
-20 63 -77 0
-20 63 93 0
-19 -29 99 0
-19 33 -90 0
-19 56 67 0
-19 57 -83 0
-19 66 -98 0
-18 -91 -98 0
-18 -70 93 0
-18 -56 -68 0
-18 -49 99 0
-18 -44 -65 0
-18 -41 49 0
-18 -30 54 0
-18 -22 -58 0
-18 -21 60 0
-17 -81 97 0
-17 -60 -70 0
-17 -59 80 0
-17 -46 -86 0
-17 32 -59 0
-17 52 -94 0
-17 69 -94 0
-16 -79 -87 0
-16 -22 39 0
-16 39 -45 0
-16 44 -46 0
-16 47 -75 0
-15 -72 -94 0
-15 -33 -95 0
-15 25 90 0
-15 30 55 0
-15 35 48 0
-15 40 90 0
-14 -88 -98 0
-14 -46 71 0
-14 -35 93 0
-14 -24 -30 0
-14 19 -81 0
-14 61 72 0
-14 66 -80 0
-13 -64 -69 0
-13 -56 80 0
-13 29 -96 0
-13 38 93 0
-13 52 77 0
-12 -55 97 0
-12 -31 -100 0
-12 -18 31 0
-12 13 -27 0
-12 44 -69 0
-12 58 -99 0
-12 58 60 0
-12 66 70 0
-12 67 -87 0
-12 83 95 0
-11 -42 -48 0
-11 -39 -81 0
-11 -23 75 0
-11 -21 37 0
-11 -20 -41 0
-11 18 -91 0
-11 21 51 0
-11 26 -81 0
-11 47 -80 0
-10 -30 62 0
-10 -28 77 0
-10 22 96 0
-10 36 71 0
-10 55 97 0
-10 79 -96 0
-9 -31 36 0
-9 -31 54 0
-9 -30 -77 0
-9 87 95 0
-8 -88 98 0
-8 -37 49 0
-8 -29 -81 0
-8 15 35 0
-8 34 71 0
-8 44 97 0
-7 -18 93 0
-7 -15 -58 0
-7 17 -85 0
-7 17 100 0
-7 22 -24 0
-7 25 28 0
-6 -64 -75 0
-6 -45 97 0
-6 -39 -93 0
-6 -27 -88 0
-6 -19 38 0
-6 7 -18 0
-6 31 50 0
-6 43 -82 0
-6 55 -71 0
-6 80 -82 0
-5 -40 85 0
-5 -18 -76 0
-5 12 54 0
-5 27 34 0
-5 28 42 0
-5 29 94 0
-4 -76 99 0
-4 -70 74 0
-4 -56 -58 0
-4 -43 72 0
-4 21 -82 0
-4 29 -42 0
-4 44 95 0
-4 69 -70 0
-3 -78 79 0
-3 -51 58 0
-3 -6 -19 0
-3 11 -59 0
-3 34 92 0
-3 55 68 0
-3 62 78 0
-2 -47 -78 0
-2 -19 -96 0
-2 -14 63 0
-2 9 78 0
-2 41 87 0
-1 -48 69 0
-1 -41 47 0
-1 -33 -73 0
-1 -33 -67 0
-1 -30 83 0
-1 -19 48 0
-1 -13 -58 0
-1 31 -41 0
-1 50 -95 0
-1 54 -99 0
-1 91 -93 0
1 -81 97 0
1 -67 88 0
1 -47 84 0
1 -4 -74 0
1 19 99 0
1 24 56 0
1 43 60 0
1 45 92 0
2 -62 -66 0
2 -40 -58 0
2 -39 -41 0
2 -21 34 0
2 -6 42 0
2 -4 98 0
2 5 84 0
2 32 -47 0
3 -58 81 0
3 -55 88 0
3 -44 99 0
3 -33 -75 0
3 -16 -28 0
3 -15 -60 0
3 -5 -9 0
3 5 9 0
3 21 46 0
3 31 51 0
3 65 -68 0
3 83 95 0
4 -50 84 0
4 -41 48 0
4 -34 -95 0
4 -34 43 0
4 -5 68 0
4 10 -28 0
4 16 -30 0
4 25 56 0
4 29 33 0
4 49 -92 0
4 53 78 0
5 -43 -63 0
5 -41 97 0
5 -10 -16 0
5 20 -78 0
6 -77 -85 0
6 -65 -75 0
6 -47 -74 0
6 -37 80 0
6 -32 -81 0
6 -19 -99 0
6 -14 -45 0
6 9 -85 0
6 33 -78 0
6 48 55 0
6 86 87 0
7 -64 93 0
7 -49 64 0
7 -41 81 0
7 -28 -34 0
7 -27 66 0
7 -10 -33 0
7 22 -39 0
7 42 48 0
7 59 83 0
7 68 96 0
7 70 95 0
8 -51 -85 0
8 14 -98 0
8 21 74 0
8 32 82 0
9 -78 95 0
9 -52 -74 0
9 -34 99 0
9 21 43 0
9 62 -97 0
10 -60 66 0
10 25 -36 0
10 41 -46 0
10 51 -57 0
10 66 97 0
11 -94 95 0
11 -68 -81 0
11 -35 64 0
11 -33 -49 0
11 -14 93 0
11 -13 79 0
11 29 -76 0
12 -81 85 0
12 -52 -65 0
12 -42 91 0
12 -41 -51 0
12 -20 48 0
12 31 -32 0
12 38 99 0
12 39 44 0
12 57 -80 0
13 -77 97 0
13 -64 -77 0
13 -59 79 0
13 -40 64 0
13 -31 -75 0
13 -31 42 0
13 -18 -27 0
13 -17 67 0
13 14 -79 0
13 21 32 0
13 49 -77 0
13 65 72 0
14 -64 89 0
14 -60 69 0
14 -34 -54 0
14 29 85 0
14 33 -53 0
14 46 -65 0
15 -56 80 0
15 -48 54 0
15 -29 -60 0
15 -29 -53 0
15 27 41 0
15 38 94 0
15 41 -95 0
15 48 74 0
16 -24 52 0
16 -24 78 0
16 -23 54 0
16 20 66 0
16 78 98 0
16 91 -92 0
17 -49 68 0
17 -42 -90 0
17 -25 68 0
17 -21 35 0
17 22 -89 0
17 37 -44 0
17 37 75 0
17 38 -81 0
17 48 -84 0
17 60 76 0
17 89 93 0
18 -43 92 0
18 -37 -53 0
18 -33 35 0
18 -22 -52 0
18 20 -61 0
18 20 -56 0
18 25 -39 0
18 29 -63 0
18 53 -70 0
18 55 -71 0
18 59 -88 0
19 -94 98 0
19 -40 -44 0
19 20 -88 0
19 40 -76 0
19 46 83 0
19 51 77 0
19 59 87 0
19 65 86 0
20 -54 -87 0
20 34 -74 0
20 57 -90 0
21 -23 99 0
22 -23 -32 0
22 24 39 0
22 40 -84 0
22 46 -65 0
22 62 93 0
22 66 -93 0
23 -37 -84 0
23 35 -38 0
23 38 -92 0
23 66 -77 0
23 68 -70 0
24 -75 80 0
24 -66 -91 0
24 -58 -94 0
24 -52 66 0
24 -40 46 0
25 -41 -92 0
25 27 93 0
25 32 -33 0
25 52 -77 0
26 -84 89 0
26 -75 90 0
26 -63 -67 0
26 -51 54 0
26 32 -35 0
26 37 67 0
27 -42 81 0
27 29 36 0
27 48 65 0
27 80 -91 0
28 -64 -83 0
28 -63 77 0
28 -51 68 0
28 74 87 0
29 -50 60 0
29 -46 -82 0
29 70 -99 0
30 -34 -90 0
30 33 96 0
31 -70 87 0
31 -59 98 0
31 33 67 0
31 79 80 0
32 -84 95 0
32 -62 67 0
32 -41 -72 0
32 43 76 0
32 67 75 0
33 -66 100 0
33 -53 66 0
34 -71 72 0
34 81 -88 0
35 38 -51 0
35 40 -41 0
35 59 -79 0
36 -84 91 0
36 -62 79 0
36 -42 -73 0
36 -41 66 0
36 40 -48 0
36 79 -91 0
36 92 93 0
37 -58 -94 0
37 40 75 0
37 52 -89 0
37 54 -94 0
37 83 93 0
38 51 -98 0
39 -52 76 0
39 -46 -67 0
40 -65 94 0
40 -60 -100 0
40 41 -96 0
40 51 86 0
40 60 -76 0
41 -73 -90 0
41 54 55 0
41 54 98 0
41 88 -100 0
42 44 66 0
43 -75 90 0
43 -61 -69 0
43 -60 77 0
43 -56 86 0
43 50 -82 0
44 49 94 0
45 -78 81 0
45 -74 -85 0
45 49 83 0
45 66 -97 0
46 -57 82 0
47 -90 -94 0
47 -59 -88 0
48 -56 74 0
48 -55 62 0
48 56 97 0
48 65 -79 0
48 75 -90 0
49 58 -91 0
49 83 -90 0
50 65 99 0
50 90 -96 0
51 68 -100 0
52 -59 -93 0
54 -72 100 0
54 -65 -79 0
54 92 -100 0
55 -66 -78 0
56 -92 -99 0
56 -72 -82 0
57 -70 84 0
58 -71 95 0
59 -61 -82 0
61 65 85 0
63 -68 91 0
63 74 -98 0
65 -69 86 0
68 -77 98 0
68 72 -99 0
68 91 -97 0
69 -81 -83 0
70 -95 100 0
75 -84 85 0
75 -77 -92 0
77 81 91 0
81 -85 97 0
84 93 -98 0
85 98 -99 0
96 -99 -100 0
