p cnf 100 360
-90 98 -100 0
-85 95 96 0
-79 -90 -91 0
-79 82 -97 0
-75 85 -88 0
-74 83 -93 0
-71 -80 95 0
-71 -77 -89 0
-68 -71 95 0
-68 69 99 0
-68 89 -100 0
-65 67 70 0
-63 -71 -81 0
-62 -72 92 0
-62 -66 -98 0
-62 79 82 0
-60 -89 -94 0
-60 -68 87 0
-59 -96 -100 0
-59 -83 100 0
-59 60 80 0
-58 61 -74 0
-57 -87 99 0
-57 64 75 0
-57 69 71 0
-55 -72 -76 0
-55 -62 89 0
-54 67 -73 0
-54 77 95 0
-53 -57 -62 0
-53 55 73 0
-52 -99 100 0
-51 -67 -75 0
-51 -61 87 0
-50 80 98 0
-48 -55 -91 0
-48 56 -80 0
-47 54 -63 0
-47 58 -87 0
-46 -67 91 0
-46 -50 84 0
-46 48 91 0
-45 57 -74 0
-44 -53 -83 0
-44 47 -86 0
-43 -50 -84 0
-43 -48 88 0
-43 75 86 0
-42 -78 -87 0
-42 64 95 0
-40 -57 -73 0
-39 -75 84 0
-39 -50 -54 0
-39 54 -60 0
-39 77 81 0
-38 41 79 0
-38 59 68 0
-37 -56 -94 0
-36 -50 -71 0
-36 48 50 0
-36 49 59 0
-34 -52 -84 0
-34 -42 -92 0
-34 -42 59 0
-34 46 89 0
-33 -82 -88 0
-33 -44 -100 0
-33 34 85 0
-33 36 58 0
-33 41 91 0
-32 64 -88 0
-31 -55 76 0
-31 -43 49 0
-31 51 55 0
-31 67 -76 0
-30 -37 -56 0
-30 33 -57 0
-30 54 61 0
-30 56 -84 0
-30 60 -97 0
-29 -65 -76 0
-29 -42 83 0
-29 34 -71 0
-29 38 -55 0
-29 50 -99 0
-28 -66 72 0
-28 -53 80 0
-28 -40 -69 0
-28 -32 -92 0
-27 -89 -92 0
-27 -45 57 0
-27 76 -87 0
-26 -80 -84 0
-26 80 -97 0
-25 -62 -85 0
-24 51 -74 0
-23 -62 -95 0
-23 28 -81 0
-23 40 -88 0
-22 -78 100 0
-22 -30 -36 0
-22 -25 98 0
-22 29 -47 0
-21 -45 -82 0
-21 23 -69 0
-20 -55 -85 0
-20 -30 -84 0
-20 -28 97 0
-20 -25 -50 0
-20 75 -76 0
-19 -72 98 0
-19 -51 -97 0
-19 39 91 0
-19 65 -91 0
-18 -85 93 0
-18 -41 -42 0
-18 43 -74 0
-17 -81 94 0
-17 51 -92 0
-17 68 -69 0
-16 -35 -46 0
-16 -35 80 0
-16 27 80 0
-16 69 89 0
-15 -63 -99 0
-15 -31 -97 0
-15 -18 67 0
-15 42 -92 0
-15 46 90 0
-15 49 91 0
-14 -57 -67 0
-14 -45 -80 0
-14 46 84 0
-14 73 -95 0
-13 -14 99 0
-13 28 -83 0
-13 72 97 0
-12 -61 -81 0
-12 -56 -91 0
-12 -26 51 0
-11 -68 -100 0
-11 -38 90 0
-11 -18 -24 0
-11 -15 -17 0
-11 27 -55 0
-10 -51 83 0
-10 -41 77 0
-10 -34 -56 0
-10 -27 -99 0
-10 -21 34 0
-10 13 39 0
-8 -45 82 0
-8 -36 -40 0
-8 76 -92 0
-8 76 -87 0
-7 45 46 0
-7 48 76 0
-7 54 -84 0
-7 61 73 0
-6 10 -18 0
-6 58 66 0
-6 65 85 0
-5 -61 89 0
-5 -26 48 0
-5 78 97 0
-4 -83 88 0
-4 -67 -97 0
-4 -54 87 0
-4 -21 -52 0
-4 -17 -36 0
-4 61 94 0
-3 -35 -65 0
-3 -21 51 0
-3 -7 -30 0
-3 7 -50 0
-3 17 67 0
-2 -50 71 0
-2 9 -76 0
-2 9 -75 0
-2 21 28 0
-2 83 -88 0
-1 -50 80 0
-1 -31 -60 0
-1 -15 -21 0
-1 18 -43 0
-1 31 62 0
-1 40 -94 0
-1 40 -67 0
1 -67 -80 0
1 -54 95 0
1 -45 90 0
1 -36 -56 0
1 -34 -38 0
1 -19 -74 0
1 57 75 0
1 60 99 0
2 -65 91 0
2 -57 86 0
2 -42 63 0
2 11 -87 0
2 27 -61 0
2 27 70 0
3 -35 49 0
3 33 -82 0
3 35 62 0
3 36 44 0
4 -61 -91 0
4 22 77 0
4 34 45 0
4 54 98 0
5 -75 -93 0
5 -35 83 0
5 -34 -68 0
5 -32 -78 0
5 -29 -97 0
5 17 -46 0
5 48 -49 0
6 -14 -45 0
6 38 82 0
7 -19 -80 0
7 -11 -67 0
7 -9 -65 0
7 9 -33 0
7 10 -13 0
7 51 96 0
7 71 -98 0
8 -83 -96 0
8 -48 65 0
8 -43 93 0
8 -16 28 0
8 -11 -91 0
8 21 93 0
8 74 -84 0
9 -65 86 0
9 -22 81 0
9 -16 99 0
9 18 -33 0
9 38 68 0
10 -71 -75 0
10 -23 31 0
10 21 -58 0
10 36 -78 0
11 -12 -71 0
12 -27 88 0
12 -15 54 0
12 20 71 0
12 24 28 0
12 35 64 0
12 57 72 0
12 80 -94 0
13 -74 85 0
13 -22 -33 0
14 -55 -96 0
14 -27 98 0
14 59 68 0
14 76 86 0
15 -22 -96 0
15 38 -61 0
15 61 -90 0
16 -25 -93 0
16 -17 78 0
16 77 96 0
17 -72 88 0
17 -27 -97 0
17 34 78 0
18 -52 -87 0
18 -19 68 0
18 40 -60 0
18 47 73 0
18 81 100 0
18 85 -92 0
19 -60 -86 0
19 -21 30 0
19 31 62 0
19 44 91 0
20 -88 96 0
20 -82 97 0
20 -34 59 0
20 21 -51 0
20 52 100 0
21 -45 100 0
21 -27 -74 0
22 60 61 0
23 -30 86 0
23 43 -70 0
24 -84 -90 0
24 -50 97 0
24 -48 72 0
24 34 -73 0
24 46 72 0
24 48 -54 0
25 -64 -88 0
25 -36 -47 0
25 -27 -58 0
25 27 -100 0
25 59 84 0
26 -61 -78 0
26 -51 96 0
26 67 91 0
27 -32 -64 0
27 -32 76 0
27 55 70 0
28 -91 96 0
28 -58 72 0
28 -42 -63 0
28 29 -90 0
28 57 61 0
28 73 74 0
28 76 -77 0
30 57 97 0
31 -50 -63 0
31 -35 -71 0
31 55 -67 0
32 -88 -89 0
32 -45 87 0
32 -33 46 0
32 39 -94 0
32 41 61 0
34 -50 96 0
35 -84 -90 0
35 -55 96 0
35 38 -86 0
35 63 97 0
35 68 -96 0
36 -49 56 0
36 38 -50 0
36 46 59 0
37 -45 75 0
38 -83 -91 0
39 -75 -88 0
40 -75 93 0
40 -56 -90 0
40 43 -48 0
40 54 -96 0
41 -72 75 0
41 -51 -59 0
41 42 -86 0
41 72 -94 0
41 79 90 0
42 67 -69 0
43 44 51 0
44 87 -98 0
45 50 70 0
45 54 -93 0
46 60 68 0
51 -76 99 0
51 81 -87 0
52 65 -66 0
53 59 -69 0
54 -77 -84 0
60 -79 -95 0
60 63 96 0
62 68 -94 0
63 78 91 0
66 -75 -82 0
68 -77 87 0
70 80 -85 0
71 -74 -79 0
73 -81 82 0
73 -77 89 0
