p cnf 24 102
-13 21 -22 0
-11 -15 23 0
-11 14 -23 0
-11 18 24 0
-10 -12 23 0
-10 15 -21 0
-10 15 -17 0
-8 -15 -16 0
-8 -9 -23 0
-8 11 -19 0
-8 15 -21 0
-8 16 21 0
-7 -11 17 0
-7 11 -12 0
-7 21 -23 0
-6 9 18 0
-5 -18 23 0
-5 -17 -22 0
-5 -16 -24 0
-5 -8 17 0
-5 -6 24 0
-5 10 14 0
-4 -16 -24 0
-4 -16 18 0
-4 -12 -19 0
-4 -12 14 0
-3 -18 20 0
-3 -9 -21 0
-3 -6 12 0
-3 4 -15 0
-3 5 11 0
-2 -12 -18 0
-2 -6 17 0
-2 21 22 0
-1 -16 -18 0
-1 -11 -22 0
-1 -10 24 0
-1 -4 -18 0
-1 -4 -8 0
-1 4 13 0
-1 12 15 0
-1 13 24 0
1 -20 24 0
1 -7 21 0
1 -5 13 0
1 -2 17 0
1 3 -17 0
1 5 -19 0
2 -14 -19 0
2 -10 23 0
2 -8 22 0
2 5 9 0
2 7 -24 0
2 7 13 0
2 9 -11 0
2 16 20 0
2 18 -24 0
3 -15 19 0
3 -9 10 0
3 -9 20 0
3 -7 -21 0
3 -6 21 0
3 -4 16 0
4 -5 24 0
4 12 -23 0
4 14 -18 0
5 -15 16 0
5 9 -21 0
5 10 15 0
6 -18 -21 0
6 -12 15 0
6 11 -24 0
6 12 -24 0
6 16 -19 0
7 -18 -19 0
7 -10 -15 0
7 -8 17 0
8 -23 -24 0
8 9 -14 0
9 -21 22 0
9 -18 23 0
9 -12 20 0
9 13 -21 0
10 -14 22 0
10 -14 23 0
10 -12 15 0
10 19 20 0
10 23 24 0
11 -13 -24 0
12 -18 20 0
12 15 19 0
13 14 -15 0
13 16 18 0
13 18 -19 0
14 -19 -22 0
14 -15 21 0
15 -18 -23 0
15 -16 -18 0
15 16 -21 0
15 21 -23 0
18 23 24 0
19 20 -23 0
