p cnf 35 149
-30 34 35 0
-28 -32 34 0
-23 24 31 0
-21 22 -35 0
-20 -30 -34 0
-20 -23 -27 0
-19 -20 -25 0
-17 -22 -23 0
-17 -20 35 0
-16 -24 25 0
-15 -20 35 0
-14 27 33 0
-13 -15 -28 0
-13 20 22 0
-12 -18 25 0
-12 -16 17 0
-12 15 22 0
-11 -21 27 0
-11 19 -23 0
-11 25 27 0
-10 -24 -34 0
-10 -21 30 0
-10 12 -33 0
-10 13 32 0
-10 19 -34 0
-9 -28 29 0
-9 -16 34 0
-9 -14 30 0
-9 19 25 0
-8 -30 31 0
-8 -16 24 0
-8 -10 -29 0
-8 12 -13 0
-8 14 -31 0
-8 26 30 0
-7 -10 -15 0
-7 -9 -25 0
-7 11 -26 0
-7 11 14 0
-7 19 22 0
-7 19 28 0
-7 21 33 0
-6 -19 28 0
-6 -9 -18 0
-6 9 31 0
-5 -26 -31 0
-5 -14 16 0
-5 -8 26 0
-5 19 20 0
-4 -18 -19 0
-4 -8 -30 0
-4 -5 19 0
-4 10 15 0
-4 15 34 0
-4 21 30 0
-4 26 -33 0
-3 -7 25 0
-3 4 13 0
-3 8 10 0
-3 8 16 0
-3 8 26 0
-3 8 33 0
-3 15 29 0
-3 23 -34 0
-2 -14 -25 0
-1 -19 22 0
-1 -15 17 0
-1 3 9 0
-1 5 -31 0
-1 23 28 0
1 -29 32 0
1 -10 16 0
1 -8 28 0
1 -5 -33 0
1 -4 25 0
1 -2 18 0
1 4 -31 0
1 5 -27 0
1 5 -9 0
1 11 -27 0
1 11 -26 0
1 19 32 0
1 22 -26 0
2 -28 34 0
2 -17 -26 0
2 -13 -29 0
2 -7 16 0
2 5 17 0
2 22 -24 0
2 22 23 0
3 -20 -35 0
3 -15 34 0
3 7 -8 0
3 11 -23 0
3 21 29 0
4 -7 -18 0
4 6 32 0
4 10 18 0
5 -22 23 0
5 -15 -24 0
5 -7 28 0
5 14 28 0
5 16 -34 0
5 21 -33 0
6 -14 19 0
6 -11 -23 0
6 10 33 0
6 14 32 0
7 -15 22 0
7 -9 21 0
7 15 29 0
8 -20 -32 0
8 25 31 0
9 -22 -34 0
9 20 25 0
10 -29 -34 0
10 -16 18 0
10 -14 32 0
10 24 -25 0
11 -27 -33 0
11 -26 -34 0
11 -25 -29 0
11 14 26 0
11 25 32 0
12 -28 -34 0
12 -19 -30 0
12 -15 -21 0
12 16 33 0
13 -18 -21 0
13 31 -33 0
14 -26 -35 0
14 -16 -30 0
14 21 31 0
14 30 -34 0
15 -18 31 0
16 -21 33 0
16 32 33 0
17 -19 24 0
17 28 -31 0
18 -31 34 0
18 -27 33 0
18 -21 -29 0
19 29 35 0
20 -23 32 0
21 27 -34 0
22 -23 24 0
23 -28 -31 0
24 -29 30 0
26 30 -34 0
