p cnf 60 180
-41 -50 60 0
-40 42 55 0
-40 44 -55 0
-39 -43 60 0
-38 46 -58 0
-36 -56 58 0
-36 -50 -55 0
-36 39 54 0
-35 -45 -53 0
-35 -36 55 0
-31 42 54 0
-29 -35 -37 0
-29 -32 -52 0
-29 -30 56 0
-29 45 59 0
-28 37 -59 0
-27 -37 44 0
-27 -35 -55 0
-27 -35 -53 0
-26 29 -57 0
-26 51 55 0
-25 -38 53 0
-25 30 -58 0
-23 45 -51 0
-21 -27 -55 0
-21 32 48 0
-20 -38 55 0
-19 33 55 0
-19 33 60 0
-17 -21 -45 0
-17 46 -47 0
-16 24 27 0
-16 38 -54 0
-16 46 48 0
-15 -16 -32 0
-15 39 59 0
-12 -28 55 0
-12 -23 40 0
-12 22 -59 0
-12 39 -59 0
-11 -46 -56 0
-11 -44 45 0
-11 -18 43 0
-11 17 25 0
-10 -38 52 0
-10 -33 -46 0
-10 -20 43 0
-9 11 -30 0
-9 28 -59 0
-9 37 -56 0
-8 -36 50 0
-8 -27 -52 0
-8 -22 33 0
-8 16 58 0
-8 24 -39 0
-8 38 57 0
-7 -19 -34 0
-7 -9 -49 0
-7 37 -54 0
-6 -55 59 0
-6 -15 37 0
-6 -11 39 0
-6 14 59 0
-6 20 28 0
-6 35 59 0
-5 -36 49 0
-5 6 10 0
-5 16 36 0
-4 -45 -53 0
-4 -26 38 0
-4 -11 41 0
-3 -22 38 0
-3 -8 29 0
-3 5 -59 0
-3 21 -44 0
-3 41 49 0
-2 -50 -58 0
-2 -9 31 0
-2 4 -46 0
-2 10 53 0
-2 11 -30 0
-2 14 42 0
-2 45 58 0
-1 -20 -39 0
-1 -20 -26 0
-1 -17 25 0
-1 15 28 0
-1 32 -50 0
1 -32 -42 0
1 -23 -42 0
1 -19 37 0
1 5 -44 0
1 45 -57 0
1 56 57 0
2 -23 24 0
2 -17 -33 0
2 -4 -45 0
2 12 16 0
2 23 -34 0
2 33 -49 0
3 -45 -46 0
3 -20 40 0
3 25 28 0
3 28 42 0
3 32 -45 0
3 32 -37 0
4 -42 -54 0
4 -37 -47 0
4 -21 56 0
4 -17 -54 0
4 -11 -27 0
4 -6 15 0
4 17 -27 0
4 45 54 0
5 -52 53 0
5 19 -38 0
6 -25 58 0
6 -9 38 0
6 17 -46 0
7 -9 -49 0
7 17 28 0
7 38 50 0
8 -34 -43 0
8 -30 -56 0
9 -12 -53 0
9 17 -56 0
9 27 -35 0
9 28 -44 0
10 -30 -57 0
10 -16 43 0
10 -14 -46 0
10 21 29 0
11 -23 25 0
11 12 -29 0
11 15 39 0
11 37 -54 0
12 -19 21 0
12 -17 49 0
12 17 42 0
12 23 -31 0
12 36 -40 0
12 46 -49 0
13 24 -29 0
13 52 -56 0
14 -53 -55 0
14 -26 -28 0
14 -19 -23 0
14 30 46 0
14 36 -56 0
14 43 -44 0
15 -46 -58 0
15 -16 -56 0
15 33 51 0
15 34 -51 0
16 -19 41 0
16 38 48 0
17 -45 50 0
17 -43 -60 0
17 -31 -51 0
18 -31 50 0
19 -42 50 0
19 37 41 0
20 -22 -34 0
21 -25 -34 0
22 -41 55 0
25 34 -42 0
26 27 29 0
26 38 51 0
28 -40 -47 0
32 34 -56 0
33 -44 -51 0
35 -39 -57 0
35 51 57 0
39 52 54 0
40 48 55 0
42 -47 -48 0
43 48 50 0
45 49 60 0
52 57 60 0
54 -56 -57 0
