p cnf 32 136
-24 26 -30 0
-23 27 30 0
-22 -26 -32 0
-21 -25 27 0
-18 21 30 0
-13 -28 -29 0
-13 -24 -27 0
-13 22 -31 0
-12 -27 32 0
-12 -20 22 0
-12 -14 -32 0
-12 19 29 0
-11 -16 -22 0
-11 22 -24 0
-10 -20 -27 0
-10 -13 21 0
-10 11 -13 0
-9 -31 32 0
-9 -17 -26 0
-9 -16 -18 0
-9 -13 16 0
-8 -21 32 0
-8 -14 -25 0
-8 10 -27 0
-7 -11 28 0
-7 11 28 0
-6 -17 20 0
-6 -16 -24 0
-6 -16 26 0
-6 -15 25 0
-6 13 -14 0
-6 20 22 0
-5 -10 20 0
-5 -8 -20 0
-5 16 -18 0
-5 16 22 0
-5 21 -30 0
-5 22 23 0
-4 -19 -20 0
-4 -12 29 0
-4 -7 10 0
-4 5 -14 0
-4 6 14 0
-3 -29 -31 0
-3 -19 21 0
-3 -14 24 0
-3 -9 -10 0
-3 -6 32 0
-3 4 20 0
-3 12 -32 0
-3 13 -26 0
-3 13 19 0
-3 22 -27 0
-2 -21 -28 0
-2 -13 22 0
-2 -6 25 0
-2 7 15 0
-1 -31 32 0
-1 -18 -21 0
-1 -13 -18 0
-1 -4 9 0
-1 -2 32 0
-1 3 18 0
-1 4 -14 0
-1 6 -31 0
-1 11 -28 0
1 -19 25 0
1 -18 -28 0
1 -10 -30 0
1 -10 -27 0
1 -6 10 0
1 -2 -26 0
1 -2 28 0
1 3 -14 0
1 6 -7 0
1 12 21 0
1 14 32 0
1 15 -24 0
2 -30 31 0
2 -20 27 0
2 4 -19 0
2 14 31 0
2 23 30 0
3 -4 9 0
3 9 -17 0
3 11 -25 0
3 21 29 0
4 -24 -31 0
4 -19 22 0
4 -10 20 0
4 15 -32 0
5 -8 -30 0
5 8 -13 0
5 9 28 0
6 -21 30 0
6 -18 27 0
6 -17 28 0
6 -13 -16 0
6 -9 -22 0
6 -8 -10 0
6 7 25 0
6 8 29 0
7 -26 -29 0
7 -24 27 0
7 -20 -27 0
7 -10 30 0
8 -16 -19 0
8 17 -31 0
9 13 23 0
9 15 31 0
11 -22 25 0
11 -18 -21 0
11 12 23 0
11 15 -18 0
12 -19 -24 0
12 19 -21 0
12 22 25 0
12 24 32 0
13 -24 30 0
13 -16 -24 0
14 -29 31 0
14 -27 -32 0
14 17 22 0
14 18 25 0
14 23 -29 0
16 -22 30 0
16 18 19 0
17 -30 -31 0
17 -18 32 0
19 -25 -26 0
19 23 32 0
19 25 -28 0
20 21 -23 0
20 27 31 0
20 29 30 0
23 -26 28 0
