p cnf 45 191
-35 39 -42 0
-32 38 41 0
-27 -32 40 0
-25 30 40 0
-22 -30 31 0
-22 -24 -37 0
-22 31 -40 0
-21 -38 40 0
-21 -26 37 0
-21 24 31 0
-21 29 -43 0
-20 -31 -44 0
-20 36 -41 0
-18 -20 -23 0
-17 -35 40 0
-17 -20 -30 0
-17 -18 -23 0
-17 24 -27 0
-16 -37 45 0
-16 -21 24 0
-16 22 33 0
-16 34 -43 0
-15 -19 30 0
-15 -18 26 0
-15 21 44 0
-15 33 37 0
-15 43 44 0
-14 -34 -44 0
-14 -33 42 0
-14 16 -45 0
-14 16 28 0
-14 18 32 0
-14 19 -31 0
-13 -42 -45 0
-13 -32 -44 0
-13 -30 31 0
-13 -20 -39 0
-13 34 -41 0
-12 -32 43 0
-12 -30 43 0
-12 -15 26 0
-12 14 21 0
-11 -38 -44 0
-11 -32 37 0
-11 -25 -37 0
-11 21 -37 0
-11 21 -34 0
-11 29 34 0
-10 -32 -35 0
-10 -17 37 0
-10 25 -30 0
-9 -42 45 0
-9 -13 -41 0
-9 16 41 0
-8 -26 -38 0
-8 -13 -22 0
-8 -10 -31 0
-8 -9 18 0
-8 11 19 0
-8 13 -17 0
-8 38 -43 0
-7 -31 43 0
-7 -11 37 0
-7 23 32 0
-7 40 42 0
-6 -8 10 0
-6 13 -44 0
-5 -17 28 0
-5 -11 14 0
-5 -8 22 0
-5 16 -41 0
-5 25 26 0
-4 -38 41 0
-4 -31 35 0
-4 -22 42 0
-4 8 36 0
-4 24 -44 0
-4 32 -41 0
-3 -35 -42 0
-3 -15 -30 0
-3 -8 11 0
-3 -6 22 0
-3 5 -18 0
-3 5 -6 0
-3 10 -39 0
-3 28 -38 0
-2 -35 -37 0
-2 -28 29 0
-2 -14 21 0
-2 -6 -38 0
-2 -5 -19 0
-2 6 -23 0
-2 7 -18 0
-1 -43 45 0
-1 -25 -31 0
-1 -18 25 0
-1 -9 24 0
-1 15 39 0
-1 27 -39 0
-1 36 44 0
-1 39 -40 0
1 -32 -35 0
1 -22 -35 0
1 -13 39 0
1 -7 43 0
1 16 -42 0
1 17 -28 0
1 22 45 0
1 38 -45 0
2 -32 34 0
2 -22 42 0
2 -16 33 0
2 -3 23 0
2 6 -35 0
2 7 -41 0
2 10 -32 0
2 24 25 0
3 -10 -20 0
3 4 23 0
3 6 29 0
3 8 10 0
3 12 -18 0
3 14 35 0
3 19 -42 0
3 20 -31 0
3 38 41 0
4 -32 -42 0
4 -9 -34 0
4 5 -29 0
4 6 -43 0
4 8 22 0
4 9 -11 0
4 19 -20 0
5 -26 -41 0
5 -22 34 0
5 -8 19 0
5 -7 28 0
5 24 44 0
5 33 34 0
6 -20 -41 0
6 -7 -14 0
6 24 -35 0
7 -24 29 0
7 30 -33 0
8 -27 -44 0
8 14 -29 0
8 14 15 0
8 26 -44 0
8 28 -37 0
9 22 -26 0
10 -24 -29 0
10 -21 27 0
10 -13 -23 0
10 28 -40 0
11 -26 37 0
11 -15 27 0
11 -14 22 0
12 -23 -45 0
12 -14 -29 0
12 15 -24 0
12 16 -20 0
12 16 36 0
12 22 37 0
13 -39 -41 0
13 -17 -23 0
13 28 29 0
13 30 33 0
14 -38 41 0
14 -22 32 0
15 16 -33 0
15 21 29 0
15 27 32 0
16 -44 -45 0
16 18 21 0
16 22 -26 0
16 29 -40 0
18 -20 -37 0
18 28 -31 0
18 35 -39 0
19 -25 -37 0
21 35 -37 0
21 35 45 0
21 39 -40 0
22 26 -27 0
23 -29 30 0
25 28 44 0
29 -38 -40 0
29 32 37 0
29 33 -39 0
33 -34 -39 0
36 -37 40 0
