p cnf 80 340
-61 -74 -78 0
-60 -61 75 0
-57 64 -80 0
-56 58 74 0
-55 58 -65 0
-55 60 70 0
-54 61 70 0
-53 56 62 0
-52 -64 -76 0
-52 -54 -77 0
-51 52 78 0
-49 -62 -79 0
-47 52 -78 0
-46 -62 64 0
-46 -50 -79 0
-46 -49 -80 0
-46 50 68 0
-45 -52 -80 0
-45 48 -70 0
-42 -58 -79 0
-42 -45 -46 0
-41 45 60 0
-41 56 73 0
-38 -70 74 0
-38 -55 -61 0
-38 41 66 0
-38 48 56 0
-37 38 62 0
-36 -43 52 0
-36 45 -72 0
-35 -36 60 0
-35 55 -79 0
-34 -51 -66 0
-34 -45 46 0
-33 -68 -70 0
-33 45 58 0
-33 48 -74 0
-33 53 74 0
-32 -62 71 0
-32 -54 -57 0
-32 -34 62 0
-31 -63 -72 0
-31 -58 80 0
-31 -43 -51 0
-30 -56 73 0
-29 31 37 0
-29 39 66 0
-28 -50 -52 0
-28 -42 55 0
-28 -40 -42 0
-28 33 45 0
-27 40 -69 0
-26 -35 45 0
-26 -28 56 0
-26 29 79 0
-26 34 -67 0
-25 -39 63 0
-25 32 -66 0
-25 34 -55 0
-25 45 -77 0
-24 -59 72 0
-24 -30 48 0
-24 48 72 0
-24 68 73 0
-23 -62 78 0
-23 -52 -64 0
-23 26 -53 0
-23 50 -76 0
-22 26 73 0
-22 29 38 0
-21 -37 -57 0
-21 31 -37 0
-21 64 -76 0
-20 24 -75 0
-20 24 -30 0
-20 29 78 0
-20 42 57 0
-20 43 56 0
-20 47 80 0
-19 -39 -67 0
-19 29 41 0
-18 -59 -71 0
-18 -30 -38 0
-18 54 -79 0
-17 -19 41 0
-17 21 -47 0
-17 32 38 0
-16 -48 56 0
-16 -42 -79 0
-16 -41 79 0
-16 -34 43 0
-15 -34 -40 0
-15 -30 -59 0
-15 -29 -65 0
-15 44 -65 0
-14 -62 70 0
-14 -46 76 0
-14 21 80 0
-13 -43 -76 0
-13 39 -79 0
-13 45 51 0
-12 -43 -55 0
-12 -43 79 0
-12 -18 -59 0
-12 18 67 0
-11 -39 67 0
-11 -16 -45 0
-11 13 22 0
-11 24 -76 0
-11 33 69 0
-11 43 -64 0
-11 56 -57 0
-10 -14 -37 0
-9 -64 -80 0
-9 -30 44 0
-9 -16 48 0
-9 -13 68 0
-9 42 -65 0
-9 55 -58 0
-9 56 -60 0
-8 -42 -52 0
-8 -39 -40 0
-8 -31 65 0
-8 11 44 0
-8 11 65 0
-8 16 -76 0
-8 21 -43 0
-8 25 62 0
-8 35 43 0
-8 61 -63 0
-7 -41 73 0
-7 -32 -50 0
-7 14 -71 0
-7 23 58 0
-7 34 54 0
-7 54 -62 0
-6 -43 -74 0
-6 -43 -65 0
-6 -9 -30 0
-6 11 -42 0
-6 17 70 0
-6 58 59 0
-5 -76 80 0
-5 -72 -77 0
-5 -24 -47 0
-5 15 45 0
-5 16 -75 0
-5 22 -76 0
-5 69 70 0
-4 -59 -79 0
-4 -44 50 0
-4 -9 32 0
-4 5 -20 0
-4 19 42 0
-4 27 -58 0
-4 40 -41 0
-4 57 -63 0
-4 66 -69 0
-4 70 73 0
-3 -62 77 0
-3 -42 70 0
-3 -13 48 0
-3 -10 -54 0
-3 -9 -38 0
-3 53 59 0
-2 -27 46 0
-2 20 55 0
-2 22 23 0
-2 56 -78 0
-2 61 -70 0
-2 71 -78 0
-1 -10 -33 0
-1 -9 -22 0
-1 -2 22 0
-1 23 -77 0
-1 45 66 0
1 -62 64 0
1 -58 -60 0
1 -12 -20 0
1 -9 -67 0
1 7 -20 0
1 11 -59 0
2 -44 71 0
2 -4 38 0
2 55 -70 0
3 -74 -77 0
3 -62 -78 0
3 -35 -46 0
3 -23 -55 0
3 -23 -41 0
3 -6 -69 0
3 13 69 0
3 29 31 0
3 31 68 0
4 -26 30 0
4 11 -54 0
5 -32 -41 0
5 -30 80 0
5 33 -61 0
5 60 62 0
6 -49 52 0
6 -13 25 0
6 52 73 0
7 -61 77 0
7 -32 55 0
7 -14 34 0
7 -10 -65 0
7 15 56 0
7 18 54 0
7 33 -75 0
7 34 -70 0
7 47 -57 0
7 54 65 0
7 78 80 0
8 -43 50 0
8 -30 -77 0
8 11 -20 0
8 13 -47 0
8 20 -62 0
8 29 -41 0
8 52 -69 0
8 59 66 0
9 -22 68 0
9 25 -76 0
9 27 35 0
9 28 -64 0
9 67 -78 0
10 -12 80 0
10 38 63 0
10 40 53 0
11 -58 -75 0
11 -54 -61 0
11 -24 52 0
11 25 -29 0
11 40 54 0
12 -37 -76 0
12 -25 37 0
12 27 -46 0
12 39 -61 0
13 -69 -79 0
13 19 49 0
13 41 -71 0
13 49 -71 0
14 -21 28 0
14 17 70 0
14 25 -67 0
14 25 38 0
14 26 -77 0
14 26 62 0
15 -21 -60 0
15 18 68 0
16 39 61 0
16 42 54 0
17 57 -63 0
17 68 69 0
18 -28 75 0
18 19 -77 0
19 -68 80 0
19 24 -35 0
19 35 -52 0
19 51 62 0
20 -33 75 0
20 25 -75 0
21 -65 -68 0
21 -39 -76 0
21 -33 -60 0
21 46 57 0
22 -45 57 0
22 -32 52 0
23 -36 44 0
23 -28 65 0
23 39 53 0
23 65 -78 0
24 -64 -69 0
24 -35 38 0
24 -34 76 0
24 44 48 0
25 34 -60 0
25 55 -63 0
26 -66 75 0
26 -40 -67 0
26 30 -71 0
26 73 75 0
27 30 48 0
27 59 -72 0
27 59 -66 0
28 -49 -52 0
28 -35 50 0
29 -52 -79 0
29 34 50 0
30 -52 -65 0
30 -43 -74 0
30 72 -74 0
31 32 -68 0
32 -55 -75 0
32 -46 70 0
33 -38 67 0
34 -63 64 0
35 -66 73 0
35 -59 -80 0
35 72 75 0
36 -62 -65 0
37 -53 66 0
37 -52 68 0
37 -50 57 0
37 -43 -71 0
37 42 61 0
39 41 72 0
40 -71 72 0
40 -42 55 0
41 -57 61 0
41 -57 80 0
42 -74 -80 0
42 -57 -70 0
42 49 -80 0
43 47 -77 0
43 61 -80 0
44 -53 -64 0
44 -45 46 0
44 54 -66 0
44 57 -62 0
45 47 74 0
45 58 67 0
46 -71 76 0
46 -57 -63 0
46 -50 -77 0
47 53 -69 0
47 53 57 0
47 65 -80 0
48 -49 -75 0
48 62 -70 0
49 -57 64 0
49 -56 58 0
56 -61 -76 0
57 58 -62 0
58 68 73 0
60 -62 -73 0
63 74 -80 0
72 75 -76 0
74 -78 80 0
