p cnf 60 180
-46 47 -50 0
-44 -46 -47 0
-43 51 -54 0
-41 43 -54 0
-33 34 -59 0
-33 38 -44 0
-32 -36 39 0
-30 40 42 0
-30 46 -48 0
-29 -30 36 0
-29 33 -41 0
-28 -43 47 0
-28 48 -54 0
-27 40 51 0
-27 45 -53 0
-26 -47 -50 0
-25 -47 54 0
-25 -33 48 0
-25 45 54 0
-25 46 54 0
-24 -46 -51 0
-24 28 33 0
-24 42 54 0
-23 -25 51 0
-23 48 54 0
-22 -44 -47 0
-20 22 -56 0
-19 -26 31 0
-18 -24 -39 0
-18 -23 -49 0
-17 -36 -60 0
-16 -29 33 0
-16 38 -60 0
-15 -18 40 0
-15 20 56 0
-15 26 27 0
-15 38 -58 0
-15 40 -53 0
-14 -44 -46 0
-14 -42 -46 0
-14 -38 -42 0
-14 -28 41 0
-14 45 -47 0
-13 16 17 0
-13 28 60 0
-12 15 58 0
-12 26 59 0
-12 28 53 0
-11 15 47 0
-11 28 50 0
-11 43 -52 0
-10 -54 57 0
-10 13 19 0
-9 -20 -27 0
-9 -13 -41 0
-9 51 -58 0
-8 -32 60 0
-8 -16 -26 0
-8 23 -60 0
-8 29 -56 0
-7 -39 -44 0
-7 -10 24 0
-7 8 49 0
-7 26 -50 0
-7 30 32 0
-7 35 -48 0
-6 -43 45 0
-6 24 -30 0
-6 32 -38 0
-6 47 55 0
-5 -52 60 0
-5 -40 56 0
-5 -22 -42 0
-5 13 28 0
-5 16 -17 0
-5 38 -58 0
-4 -41 51 0
-4 -33 -60 0
-4 -30 58 0
-4 5 41 0
-4 7 -29 0
-4 8 -50 0
-4 18 20 0
-4 21 39 0
-4 23 -49 0
-4 45 50 0
-3 -10 32 0
-3 -7 17 0
-2 -33 42 0
-2 -10 22 0
-2 17 -55 0
-2 34 45 0
-2 40 57 0
-2 41 43 0
-1 -40 -48 0
-1 -32 47 0
-1 -6 -40 0
-1 10 11 0
-1 34 -36 0
1 -25 43 0
1 -3 -20 0
2 -44 -51 0
2 -11 -47 0
3 -28 -54 0
3 -19 47 0
4 -24 -29 0
4 -22 38 0
4 30 40 0
5 -33 56 0
5 -31 -34 0
5 -12 -55 0
5 9 43 0
5 15 28 0
5 25 -60 0
5 26 -42 0
5 38 -44 0
6 24 44 0
6 32 55 0
7 -20 -34 0
8 -16 42 0
8 25 -56 0
9 -13 -41 0
9 26 32 0
10 -42 -60 0
10 15 43 0
10 18 -51 0
10 18 -42 0
10 43 56 0
11 -28 -53 0
11 37 47 0
12 -16 -41 0
13 -50 -57 0
13 31 42 0
14 -39 57 0
14 -32 -56 0
14 -16 36 0
15 -37 -52 0
15 -16 45 0
16 -38 -42 0
16 -20 53 0
16 28 49 0
16 35 -53 0
17 -27 31 0
17 -27 47 0
17 23 55 0
18 -26 -40 0
18 -22 37 0
19 -33 -38 0
19 -27 49 0
19 27 51 0
20 23 -55 0
21 -24 35 0
22 -27 28 0
22 24 36 0
23 -40 43 0
23 -25 38 0
23 33 48 0
25 32 -41 0
25 36 -57 0
26 34 37 0
27 -32 57 0
29 45 60 0
30 31 39 0
30 46 55 0
31 -34 -48 0
32 -49 -58 0
32 37 49 0
33 -53 56 0
33 51 -58 0
34 36 -49 0
35 44 -49 0
36 -45 -60 0
37 -49 60 0
38 -51 -52 0
38 42 58 0
39 48 58 0
41 44 -46 0
42 -53 -55 0
48 -50 58 0
49 50 -57 0
