p cnf 150 638
-126 129 -150 0
-122 -126 -149 0
-117 -126 127 0
-116 -134 -138 0
-116 129 -145 0
-114 -136 142 0
-110 -120 -125 0
-108 111 114 0
-107 -118 -150 0
-107 -109 -135 0
-101 -127 -133 0
-101 -125 136 0
-100 -146 -150 0
-100 105 135 0
-99 102 -146 0
-95 98 139 0
-90 141 -143 0
-89 -114 149 0
-89 113 -124 0
-88 -100 -111 0
-88 -97 138 0
-87 -112 -143 0
-87 93 123 0
-86 -101 -117 0
-86 -98 146 0
-85 -113 144 0
-85 -111 -127 0
-85 87 102 0
-85 88 -149 0
-84 -95 -148 0
-82 113 146 0
-81 117 -149 0
-81 122 -146 0
-80 -146 148 0
-79 -123 -142 0
-78 101 113 0
-77 107 -130 0
-76 -112 -148 0
-76 91 145 0
-76 121 137 0
-74 77 -103 0
-73 103 138 0
-73 130 142 0
-71 -118 133 0
-71 -74 -77 0
-71 118 139 0
-71 124 127 0
-71 126 137 0
-70 -106 123 0
-70 98 147 0
-69 -89 -130 0
-69 103 148 0
-69 112 134 0
-68 -104 -129 0
-68 -77 -84 0
-68 107 108 0
-67 -73 -104 0
-67 93 -145 0
-66 -140 141 0
-66 -109 145 0
-66 100 108 0
-66 114 140 0
-64 -98 139 0
-64 -95 -137 0
-64 74 -83 0
-63 -113 119 0
-63 81 104 0
-62 -100 113 0
-62 -81 83 0
-62 66 120 0
-62 100 147 0
-62 128 133 0
-61 -125 -129 0
-60 79 138 0
-60 85 90 0
-60 97 -127 0
-59 74 -126 0
-57 -113 -117 0
-57 -113 126 0
-57 -87 91 0
-57 -84 -121 0
-57 -80 81 0
-56 65 122 0
-56 82 -140 0
-56 87 142 0
-55 -124 136 0
-55 -83 -92 0
-55 -80 149 0
-55 -63 -110 0
-55 -63 106 0
-55 109 -132 0
-54 -72 85 0
-54 84 -128 0
-54 102 -127 0
-54 125 -140 0
-53 -99 -140 0
-53 -63 75 0
-53 74 94 0
-52 103 -110 0
-50 -123 -143 0
-50 -51 -128 0
-50 62 110 0
-50 87 -96 0
-50 133 144 0
-49 -73 -132 0
-49 -58 143 0
-49 -55 -121 0
-49 57 -124 0
-49 107 147 0
-48 -119 143 0
-48 -84 -118 0
-48 -60 -100 0
-47 -73 -139 0
-47 -72 -82 0
-47 -58 141 0
-47 86 92 0
-46 -127 -150 0
-46 51 -132 0
-46 60 128 0
-45 -113 -138 0
-45 -61 107 0
-45 -58 -124 0
-45 80 89 0
-44 -79 115 0
-44 -57 -60 0
-44 94 105 0
-43 -90 -143 0
-43 -81 -132 0
-43 -56 -109 0
-43 -46 -114 0
-43 46 -64 0
-42 99 -115 0
-41 49 -133 0
-40 -138 141 0
-40 -101 128 0
-40 -45 130 0
-40 42 -51 0
-40 54 101 0
-40 59 -60 0
-40 65 -149 0
-40 65 89 0
-40 73 74 0
-39 -126 -146 0
-39 -102 -128 0
-39 -60 110 0
-39 69 -80 0
-38 -114 -140 0
-38 -107 108 0
-38 -97 128 0
-38 43 108 0
-37 -44 -100 0
-37 50 -116 0
-37 69 119 0
-36 -113 -126 0
-35 -127 137 0
-35 -84 89 0
-35 -74 87 0
-35 -74 117 0
-35 -53 -101 0
-35 41 -70 0
-35 97 134 0
-34 -128 -140 0
-34 -97 131 0
-34 38 -46 0
-34 77 111 0
-34 81 -114 0
-33 40 -49 0
-33 49 -119 0
-33 58 -70 0
-33 72 -116 0
-33 99 -121 0
-32 63 109 0
-31 69 -117 0
-30 -57 144 0
-30 -34 103 0
-30 58 -147 0
-29 -99 140 0
-29 -81 -97 0
-29 -61 72 0
-29 -36 -143 0
-29 30 -98 0
-29 76 109 0
-28 -116 -118 0
-28 -116 146 0
-28 -85 94 0
-28 -77 -145 0
-28 -75 124 0
-28 -60 -104 0
-28 -43 115 0
-28 40 93 0
-28 45 -92 0
-28 85 108 0
-28 115 133 0
-27 -87 -122 0
-27 53 149 0
-27 71 109 0
-27 83 -115 0
-27 100 109 0
-26 53 103 0
-26 86 118 0
-25 -61 112 0
-25 -44 -64 0
-25 -32 104 0
-25 75 128 0
-25 84 -146 0
-25 140 143 0
-24 -73 124 0
-24 46 112 0
-23 -115 121 0
-23 -63 75 0
-23 -58 -111 0
-23 -40 -145 0
-23 61 -112 0
-22 -93 130 0
-22 -24 62 0
-22 29 -88 0
-21 -88 147 0
-21 -66 131 0
-21 -34 76 0
-21 -32 111 0
-21 93 145 0
-20 -52 77 0
-20 -33 141 0
-20 -23 -32 0
-20 40 93 0
-20 60 77 0
-19 -38 94 0
-19 -33 -88 0
-19 90 -103 0
-19 107 -121 0
-18 21 -34 0
-17 -46 -64 0
-17 29 65 0
-17 34 87 0
-17 37 -127 0
-16 -59 77 0
-16 -30 -139 0
-16 22 -58 0
-16 122 -140 0
-15 -26 -123 0
-15 -17 -105 0
-15 17 45 0
-15 53 76 0
-15 75 -136 0
-15 122 138 0
-14 -90 141 0
-14 -22 101 0
-14 -16 89 0
-14 44 -130 0
-14 72 -122 0
-13 -86 -150 0
-13 14 32 0
-13 55 94 0
-13 84 -112 0
-13 88 -149 0
-12 -60 128 0
-12 -31 82 0
-12 63 -109 0
-11 -21 48 0
-11 12 80 0
-11 30 65 0
-11 40 55 0
-11 75 -150 0
-11 106 112 0
-11 115 118 0
-11 118 138 0
-10 -84 128 0
-10 -41 -149 0
-10 -29 118 0
-10 -13 107 0
-10 34 58 0
-10 39 -120 0
-10 56 104 0
-10 120 131 0
-9 -52 132 0
-8 -55 -149 0
-8 -27 140 0
-8 9 116 0
-8 17 133 0
-8 33 -115 0
-8 41 -114 0
-8 65 66 0
-7 -50 121 0
-7 -44 97 0
-7 -37 134 0
-7 -28 -150 0
-7 -24 32 0
-7 -12 109 0
-7 -8 15 0
-7 35 127 0
-7 102 133 0
-6 -13 122 0
-6 31 36 0
-6 36 -76 0
-6 36 77 0
-6 45 -118 0
-6 64 115 0
-5 -56 72 0
-5 -15 -90 0
-5 56 -147 0
-4 -36 134 0
-4 13 -143 0
-4 23 -115 0
-4 24 49 0
-4 52 -95 0
-4 54 -64 0
-4 107 -131 0
-3 -55 -77 0
-3 -31 -87 0
-3 -14 19 0
-3 -13 -73 0
-3 -9 143 0
-3 -7 -128 0
-3 9 -45 0
-3 45 46 0
-3 68 -138 0
-3 72 -94 0
-3 74 -75 0
-3 103 -145 0
-2 -81 136 0
-2 -16 141 0
-2 8 82 0
-2 12 117 0
-2 20 -131 0
-2 100 129 0
-2 113 -138 0
-1 -29 52 0
-1 -13 94 0
-1 18 75 0
1 -113 115 0
1 -93 -123 0
1 -93 131 0
1 -43 -67 0
1 -38 111 0
1 -13 34 0
1 -2 43 0
1 3 -8 0
1 14 71 0
1 16 -27 0
1 30 -96 0
1 67 78 0
1 75 125 0
1 90 -128 0
2 -135 -137 0
2 -54 -121 0
2 -52 -130 0
2 -34 -142 0
2 5 109 0
2 29 -80 0
2 36 53 0
2 52 87 0
2 66 113 0
2 81 129 0
3 -76 -89 0
3 -57 -69 0
3 -55 -121 0
3 -50 130 0
3 -49 55 0
3 -39 135 0
4 -18 -19 0
4 12 -81 0
5 -36 -121 0
5 83 111 0
5 92 -130 0
6 -76 119 0
6 -63 -141 0
6 -50 70 0
6 -14 -35 0
7 -125 146 0
7 -67 -105 0
7 -27 45 0
7 -23 -146 0
7 25 72 0
7 99 -128 0
7 113 -137 0
8 -42 148 0
8 -18 -102 0
8 57 134 0
8 130 148 0
9 -113 148 0
9 -80 -98 0
9 -22 -122 0
9 34 104 0
9 40 110 0
9 76 -77 0
9 125 148 0
10 -68 -146 0
10 -40 -121 0
10 -39 150 0
10 88 -118 0
11 -122 137 0
11 -43 135 0
11 -28 66 0
11 -20 -131 0
11 68 -74 0
12 -66 -76 0
12 -15 133 0
13 -125 150 0
13 -105 -115 0
13 -52 -80 0
13 -19 70 0
13 15 -16 0
13 23 -143 0
13 59 -150 0
13 59 -146 0
14 -110 -111 0
14 -85 -104 0
14 -39 149 0
14 67 145 0
15 20 -72 0
15 29 62 0
15 47 107 0
16 -120 -121 0
16 -111 141 0
16 -81 141 0
16 -62 67 0
16 -57 -90 0
16 41 -146 0
16 48 139 0
16 110 -141 0
17 -104 -116 0
17 -53 118 0
17 -20 -139 0
17 25 -144 0
17 25 141 0
18 -94 147 0
18 -80 -99 0
18 -74 134 0
18 -26 88 0
18 -20 -109 0
18 26 -137 0
18 47 -48 0
18 75 77 0
18 108 -143 0
18 112 -128 0
19 -108 136 0
19 -98 147 0
19 38 91 0
19 112 -117 0
20 61 -99 0
20 86 128 0
21 -61 144 0
21 -53 -103 0
22 -118 144 0
22 -42 -74 0
22 33 -125 0
22 53 -108 0
22 74 126 0
22 83 100 0
22 111 114 0
23 -112 -113 0
23 -58 -128 0
23 59 108 0
24 -63 138 0
24 -37 137 0
24 36 -86 0
24 46 -146 0
24 51 -66 0
24 55 -148 0
24 59 -81 0
24 61 123 0
25 -119 130 0
25 51 -85 0
25 82 149 0
26 -58 72 0
27 -37 -66 0
27 57 62 0
27 99 144 0
28 -46 -131 0
28 -45 131 0
29 -62 -111 0
29 47 62 0
30 -94 -117 0
30 33 -55 0
30 54 -107 0
30 65 -144 0
31 -109 -115 0
31 41 -45 0
31 57 -64 0
31 98 -115 0
32 62 -111 0
32 120 143 0
32 128 -136 0
33 -74 -79 0
33 -50 -131 0
33 -36 -96 0
34 -89 -132 0
34 52 54 0
35 -96 133 0
35 -90 -122 0
35 -54 -146 0
35 -36 -101 0
35 45 -71 0
35 81 -130 0
35 94 -100 0
35 118 143 0
37 -112 121 0
37 -88 -139 0
37 46 60 0
37 47 -148 0
37 85 129 0
38 -94 127 0
38 -71 96 0
38 132 146 0
39 -73 -122 0
39 -70 118 0
39 -67 92 0
39 -65 -140 0
39 -59 -70 0
39 -56 137 0
39 -54 -144 0
39 -50 -101 0
40 -85 -129 0
40 -70 -74 0
40 -66 86 0
40 -60 -142 0
40 -47 108 0
40 63 -91 0
40 107 145 0
40 116 122 0
41 -119 -121 0
41 44 80 0
41 72 132 0
42 -89 120 0
42 -75 -101 0
42 84 -141 0
43 -63 -148 0
43 65 -92 0
44 -96 -124 0
44 -65 -80 0
44 75 -89 0
44 79 92 0
45 -81 110 0
45 -62 -79 0
45 -52 -122 0
45 83 -91 0
46 66 -109 0
46 117 134 0
48 -103 -118 0
48 -91 118 0
48 -70 -144 0
48 49 -129 0
49 61 86 0
49 81 143 0
49 86 116 0
49 92 -135 0
50 -65 -103 0
50 -62 126 0
50 -59 93 0
50 85 -143 0
50 128 132 0
51 -81 148 0
51 85 96 0
51 135 -149 0
52 -145 147 0
52 59 -118 0
53 -89 -108 0
53 -77 103 0
53 59 -93 0
53 93 -148 0
53 103 118 0
53 124 -150 0
54 -135 -143 0
54 108 124 0
54 118 131 0
55 -109 125 0
55 -88 -97 0
55 59 -144 0
55 83 -144 0
57 -92 97 0
57 -91 115 0
58 -80 -119 0
58 82 128 0
58 106 119 0
59 -117 -140 0
59 66 120 0
59 83 -147 0
60 61 -109 0
60 89 135 0
62 106 -122 0
63 79 -136 0
63 91 118 0
63 116 148 0
64 -144 -147 0
65 -119 -140 0
65 125 150 0
66 -108 148 0
66 73 -124 0
66 102 -113 0
67 113 124 0
68 -125 145 0
68 88 -100 0
69 77 85 0
70 -92 -102 0
70 -82 89 0
71 -140 147 0
72 105 136 0
72 121 -136 0
73 121 142 0
74 -95 -111 0
74 -75 -147 0
74 100 -148 0
74 108 138 0
74 120 -134 0
75 -122 139 0
76 82 121 0
77 101 -133 0
78 83 97 0
78 137 150 0
79 -97 -135 0
79 106 -150 0
82 -85 -145 0
85 -103 128 0
85 92 111 0
89 -101 -133 0
89 119 129 0
92 141 145 0
92 143 150 0
94 -118 -136 0
96 109 147 0
99 -114 -115 0
99 -113 124 0
100 -107 -108 0
100 -107 148 0
100 111 -141 0
103 109 149 0
104 118 -125 0
105 -128 -130 0
106 124 -132 0
109 -115 -118 0
109 -112 -139 0
111 116 -140 0
112 -122 -133 0
113 126 150 0
118 -142 149 0
120 -123 133 0
121 129 -130 0
130 138 144 0
