p cnf 40 170
-33 37 40 0
-32 34 -38 0
-29 30 -35 0
-26 -31 38 0
-26 28 -37 0
-26 31 -35 0
-25 28 -35 0
-25 28 -34 0
-25 36 40 0
-24 -35 -36 0
-23 -34 35 0
-22 -24 -37 0
-22 34 37 0
-21 38 40 0
-20 27 -31 0
-20 33 40 0
-19 29 -39 0
-18 -29 -35 0
-17 -23 28 0
-17 -19 -27 0
-16 -23 -26 0
-16 23 27 0
-15 24 32 0
-14 -25 -35 0
-14 -17 27 0
-11 -33 -36 0
-11 -22 27 0
-11 -17 28 0
-11 -14 -40 0
-11 15 31 0
-10 -24 -29 0
-10 -19 -32 0
-10 -16 20 0
-10 16 -24 0
-9 -29 -35 0
-9 -26 -39 0
-9 -12 -37 0
-9 -10 -13 0
-9 23 -34 0
-8 -27 30 0
-8 -23 -24 0
-8 -21 -40 0
-8 -20 -30 0
-8 -18 20 0
-8 -17 38 0
-8 33 38 0
-7 8 10 0
-7 22 -26 0
-6 -17 -22 0
-6 -11 16 0
-6 -11 29 0
-6 7 -12 0
-6 12 29 0
-6 25 -31 0
-5 -14 -37 0
-5 -13 -35 0
-5 -9 39 0
-5 22 -40 0
-4 -36 -40 0
-4 -31 38 0
-4 -26 27 0
-4 -13 33 0
-4 -12 23 0
-4 12 15 0
-4 15 36 0
-4 16 26 0
-4 22 -29 0
-4 34 -35 0
-3 -14 -40 0
-3 -4 11 0
-3 5 -31 0
-3 20 40 0
-2 -29 39 0
-2 -24 -40 0
-2 -13 24 0
-2 -7 -38 0
-2 10 -35 0
-2 10 40 0
-2 13 37 0
-2 17 -21 0
-2 20 27 0
-2 32 40 0
-1 -16 -35 0
-1 5 -24 0
-1 29 -33 0
1 -25 27 0
1 -12 -37 0
1 -6 -9 0
1 -6 -8 0
1 12 27 0
1 16 32 0
1 23 36 0
2 -16 -39 0
2 -6 -30 0
2 -3 -13 0
2 -3 20 0
2 3 -40 0
2 11 18 0
2 21 32 0
2 28 29 0
3 -33 35 0
3 -13 31 0
3 4 20 0
3 5 6 0
4 -29 -35 0
4 -25 33 0
4 -12 -17 0
4 8 23 0
4 14 17 0
4 23 -27 0
5 -10 17 0
5 -9 23 0
5 12 21 0
5 13 -38 0
6 -18 -24 0
6 -14 21 0
6 -14 24 0
6 9 25 0
6 34 -39 0
7 -20 -24 0
7 -19 -39 0
7 -19 36 0
7 -14 -30 0
7 12 19 0
7 15 -16 0
7 16 -30 0
7 17 28 0
8 -30 -33 0
8 -19 -31 0
8 -17 -27 0
8 19 22 0
9 -23 38 0
9 16 -36 0
9 33 -40 0
10 29 39 0
10 30 35 0
11 -38 39 0
11 14 -26 0
11 28 -32 0
11 36 38 0
12 31 34 0
13 -27 -31 0
13 23 -30 0
13 34 -35 0
14 -24 32 0
14 27 35 0
15 -30 -36 0
15 -21 25 0
16 -21 25 0
16 17 32 0
16 18 26 0
17 24 26 0
17 25 32 0
17 34 -35 0
18 -20 -21 0
19 25 34 0
20 34 -38 0
21 -35 36 0
21 -33 37 0
21 -31 34 0
21 29 -33 0
22 -23 -40 0
22 26 -31 0
22 29 30 0
22 31 34 0
23 27 -34 0
24 -32 -33 0
24 34 -40 0
30 -31 -39 0
30 -31 33 0
