p cnf 100 425
-81 -93 100 0
-81 97 99 0
-74 -85 -93 0
-73 -86 93 0
-70 -87 -93 0
-70 -74 -80 0
-69 -72 -74 0
-67 69 92 0
-65 -72 91 0
-64 -68 -94 0
-64 92 -93 0
-63 67 84 0
-61 79 89 0
-61 82 -86 0
-60 69 72 0
-58 94 -96 0
-57 -70 75 0
-57 68 -69 0
-57 73 93 0
-56 69 -82 0
-55 -66 81 0
-55 59 -77 0
-55 64 -90 0
-54 63 98 0
-53 62 78 0
-51 65 -100 0
-51 66 -91 0
-50 -51 99 0
-49 -77 100 0
-49 -73 87 0
-49 -55 85 0
-49 -54 -84 0
-47 49 58 0
-46 52 88 0
-45 -91 95 0
-45 -66 -81 0
-45 -58 -67 0
-45 49 -64 0
-45 52 -66 0
-44 -98 -100 0
-44 -65 84 0
-44 48 -72 0
-44 55 93 0
-43 -78 91 0
-43 -48 -61 0
-43 56 94 0
-42 -47 97 0
-42 43 49 0
-42 80 95 0
-41 -72 75 0
-41 -59 -64 0
-41 83 84 0
-41 83 91 0
-40 -50 -72 0
-39 -42 92 0
-39 58 -89 0
-39 58 59 0
-39 62 77 0
-38 58 -69 0
-37 -73 -100 0
-35 86 93 0
-34 -86 -87 0
-34 -41 86 0
-34 38 -82 0
-33 -87 94 0
-33 -85 -87 0
-32 -84 -98 0
-32 82 93 0
-30 51 60 0
-29 -85 90 0
-29 -50 53 0
-29 70 -98 0
-28 -77 -91 0
-28 -48 -57 0
-28 -33 -78 0
-28 -31 75 0
-28 65 67 0
-27 -58 92 0
-27 -46 71 0
-27 38 -55 0
-27 51 71 0
-27 70 71 0
-26 -64 -65 0
-26 29 -94 0
-26 47 -74 0
-25 48 -51 0
-24 25 51 0
-24 33 -95 0
-23 -35 72 0
-23 -24 29 0
-22 23 48 0
-22 43 64 0
-22 53 97 0
-22 54 -96 0
-21 52 -84 0
-20 -34 47 0
-20 -25 43 0
-20 28 -94 0
-20 32 93 0
-20 62 79 0
-19 -50 -52 0
-19 -31 79 0
-19 44 82 0
-19 57 86 0
-19 65 69 0
-18 52 -99 0
-18 88 -94 0
-17 -84 -92 0
-17 -72 88 0
-17 31 -88 0
-17 35 78 0
-17 47 91 0
-16 -69 -71 0
-16 -51 -97 0
-16 -35 78 0
-16 -23 -31 0
-16 -19 87 0
-16 19 56 0
-16 20 -57 0
-16 41 86 0
-15 -43 99 0
-15 -19 72 0
-14 -40 -96 0
-14 -24 -76 0
-14 15 16 0
-14 22 -97 0
-14 66 91 0
-13 -82 -95 0
-13 -34 59 0
-13 -23 59 0
-13 36 98 0
-13 45 81 0
-13 63 -65 0
-12 -31 42 0
-12 -26 -77 0
-12 -23 -56 0
-12 30 -62 0
-12 33 -71 0
-12 43 -81 0
-11 -27 -41 0
-10 -60 71 0
-10 -31 32 0
-10 19 81 0
-10 27 -68 0
-10 57 -78 0
-9 -31 -90 0
-9 -27 -44 0
-9 -27 -39 0
-9 -21 26 0
-9 -15 40 0
-9 -13 -85 0
-9 43 54 0
-9 56 71 0
-9 61 86 0
-8 -33 -64 0
-8 -32 -70 0
-8 -21 -72 0
-8 -12 87 0
-8 60 79 0
-8 73 -100 0
-7 -41 -54 0
-7 -19 -45 0
-7 -8 -81 0
-7 8 77 0
-7 80 95 0
-6 -80 87 0
-6 -70 -94 0
-6 -11 56 0
-6 -9 67 0
-6 36 -64 0
-6 85 96 0
-5 -9 -73 0
-5 33 -62 0
-5 34 -71 0
-5 39 88 0
-5 59 68 0
-5 86 96 0
-4 -53 -94 0
-4 -9 -49 0
-4 -6 20 0
-4 28 66 0
-4 35 89 0
-4 45 82 0
-4 48 -50 0
-3 -88 96 0
-3 -71 -91 0
-3 -62 65 0
-3 -19 98 0
-3 -18 24 0
-3 30 36 0
-3 30 83 0
-2 -44 56 0
-2 -8 11 0
-2 14 -62 0
-2 36 -57 0
-1 -64 -85 0
-1 -28 -30 0
-1 -19 72 0
-1 -10 -12 0
-1 -3 30 0
-1 17 89 0
-1 18 83 0
-1 82 85 0
1 11 15 0
1 50 -62 0
1 62 69 0
1 69 -96 0
1 69 -84 0
2 50 67 0
3 -31 -62 0
3 -16 -50 0
3 -14 93 0
3 34 41 0
3 50 96 0
4 -68 -80 0
4 -60 80 0
4 -46 -75 0
4 -16 99 0
4 -13 26 0
4 -10 89 0
4 -8 -90 0
4 -7 84 0
4 18 -23 0
4 47 55 0
5 -76 97 0
5 -57 -70 0
5 -41 -57 0
5 -32 -71 0
5 -16 -76 0
5 -15 -62 0
5 12 -14 0
5 23 29 0
5 24 -80 0
5 53 -59 0
5 72 97 0
5 88 98 0
6 -55 99 0
6 -28 93 0
6 -17 99 0
6 12 70 0
6 20 -21 0
6 24 -25 0
6 43 60 0
7 -83 -93 0
7 16 68 0
7 22 -74 0
7 23 75 0
7 35 -49 0
7 56 -58 0
7 57 -63 0
7 82 94 0
8 -56 -57 0
8 -43 -74 0
8 -11 -51 0
8 12 -64 0
9 -81 -93 0
9 -75 -99 0
9 -51 -78 0
9 -33 54 0
9 -26 42 0
9 12 82 0
9 24 -73 0
9 29 -99 0
10 -44 71 0
10 -35 37 0
10 -29 83 0
10 -21 -73 0
10 12 41 0
11 -22 -46 0
11 28 34 0
11 57 -66 0
12 -46 -69 0
12 18 -72 0
12 39 -42 0
12 60 99 0
13 -52 -91 0
13 -15 -94 0
14 -48 -87 0
14 -33 -41 0
14 45 92 0
14 58 -89 0
15 -55 -57 0
15 -27 41 0
15 -24 54 0
15 23 -50 0
15 52 -97 0
15 67 81 0
16 -24 76 0
16 21 -24 0
17 -55 -69 0
17 -32 -54 0
17 -23 -99 0
17 35 -95 0
17 36 -64 0
18 -75 -89 0
18 -42 -77 0
18 -21 33 0
19 -58 84 0
19 -50 -83 0
19 -32 43 0
19 31 -50 0
19 32 43 0
20 -69 -96 0
20 23 -83 0
20 39 48 0
20 55 -73 0
21 -54 -95 0
21 -26 -39 0
21 33 49 0
21 40 42 0
22 -53 65 0
22 29 80 0
22 39 -54 0
22 70 76 0
23 -81 -93 0
23 56 -88 0
23 60 74 0
23 66 94 0
24 -28 54 0
24 72 91 0
24 77 90 0
24 99 -100 0
25 -69 92 0
25 -43 83 0
25 -36 93 0
25 -36 95 0
25 64 85 0
26 -71 87 0
26 -42 74 0
26 66 -80 0
27 -63 -74 0
27 -63 94 0
27 -46 -73 0
27 57 69 0
27 65 -100 0
29 -56 88 0
29 -48 -70 0
29 30 -91 0
29 36 63 0
29 39 86 0
29 57 -84 0
29 76 -93 0
30 -77 -95 0
30 -67 -77 0
30 -59 -67 0
30 -47 -78 0
30 -35 -67 0
30 32 -70 0
30 67 68 0
30 67 70 0
30 71 -97 0
30 79 -82 0
31 -37 67 0
31 45 51 0
31 49 92 0
31 65 73 0
31 78 -85 0
33 -38 95 0
34 -43 -52 0
34 45 55 0
34 50 51 0
34 51 -100 0
34 54 -89 0
35 -90 -99 0
35 -63 -82 0
35 -53 -63 0
35 87 90 0
36 -67 -70 0
36 -44 -74 0
37 -91 -94 0
37 -72 86 0
37 -56 -92 0
37 52 -68 0
37 85 87 0
38 -43 -61 0
38 55 70 0
38 60 -97 0
39 -59 66 0
39 -45 -86 0
39 56 -93 0
40 -44 64 0
41 -49 -90 0
41 50 73 0
41 53 -71 0
41 68 98 0
42 -77 89 0
42 -51 62 0
42 98 -99 0
43 44 -77 0
44 -66 -67 0
44 -52 87 0
44 -50 -92 0
44 55 58 0
45 -89 -96 0
48 81 92 0
49 53 88 0
49 83 85 0
50 -68 78 0
50 65 -71 0
52 -74 90 0
53 -68 88 0
53 59 65 0
53 94 99 0
54 -61 -97 0
54 -57 85 0
54 67 -77 0
54 91 -98 0
56 67 80 0
57 68 87 0
59 -64 -85 0
59 63 -80 0
61 64 65 0
62 -71 -94 0
63 -66 74 0
63 88 93 0
65 73 -94 0
67 -69 -89 0
69 70 -82 0
70 96 99 0
71 78 -85 0
72 88 93 0
73 76 -92 0
73 76 100 0
75 82 -98 0
85 87 -90 0
