p cnf 20 85
-17 18 20 0
-14 -17 18 0
-14 15 -18 0
-13 -15 20 0
-13 16 -18 0
-13 16 17 0
-12 16 -18 0
-10 -15 -17 0
-10 11 -15 0
-10 12 14 0
-9 -11 15 0
-9 14 18 0
-8 -13 -15 0
-7 10 19 0
-7 18 -20 0
-6 -15 16 0
-6 -12 -14 0
-6 -8 -19 0
-6 9 -14 0
-5 11 -14 0
-5 15 18 0
-4 -15 16 0
-4 -14 -15 0
-4 9 -15 0
-4 11 -20 0
-4 16 20 0
-3 -11 20 0
-3 -6 19 0
-3 -4 -14 0
-3 7 10 0
-3 11 15 0
-2 -10 16 0
-2 -7 -17 0
-2 -7 10 0
-2 -4 7 0
-2 3 -4 0
-2 4 16 0
-2 10 -18 0
-2 14 15 0
-1 -14 19 0
-1 12 -13 0
-1 16 -20 0
1 -11 -13 0
1 7 17 0
1 10 -11 0
1 10 19 0
1 16 -18 0
2 -14 18 0
2 -6 -7 0
2 4 -7 0
2 7 -15 0
3 -12 -19 0
3 -12 19 0
3 -7 8 0
3 -6 -15 0
3 5 -6 0
3 5 10 0
3 8 -10 0
3 9 -10 0
3 9 15 0
3 12 13 0
4 -9 17 0
4 5 -6 0
4 7 -18 0
4 13 15 0
5 -18 20 0
5 -9 10 0
5 -6 9 0
5 10 -13 0
5 10 18 0
5 12 -17 0
5 15 -19 0
6 -13 -18 0
6 -10 14 0
6 -10 20 0
6 -7 -9 0
7 -15 17 0
7 -11 15 0
7 -8 16 0
8 9 -17 0
9 -10 19 0
10 -11 13 0
10 11 20 0
11 -13 14 0
11 12 18 0
