p cnf 70 298
-60 -68 70 0
-51 54 -63 0
-46 55 69 0
-45 -49 -53 0
-44 -45 46 0
-42 57 62 0
-40 49 54 0
-39 -49 68 0
-39 51 -56 0
-39 52 65 0
-37 41 44 0
-37 49 -60 0
-36 -41 48 0
-36 37 51 0
-35 -54 -57 0
-35 42 52 0
-34 -49 61 0
-33 -65 68 0
-33 44 -46 0
-32 -54 56 0
-32 -39 -67 0
-32 -34 -54 0
-32 51 66 0
-31 -39 -56 0
-31 37 48 0
-30 -45 -50 0
-30 -35 62 0
-29 -43 57 0
-28 29 52 0
-28 39 45 0
-28 41 -68 0
-27 38 -49 0
-27 49 65 0
-26 -44 -63 0
-26 -35 41 0
-26 -32 37 0
-26 30 -33 0
-26 32 -52 0
-25 -63 -69 0
-25 -53 56 0
-25 -44 -65 0
-25 -30 43 0
-24 -27 45 0
-24 29 45 0
-24 36 60 0
-24 56 -64 0
-23 -26 -43 0
-23 35 41 0
-22 -68 69 0
-22 -55 61 0
-22 -49 54 0
-22 -39 -42 0
-22 38 -69 0
-22 39 62 0
-21 -50 -62 0
-21 -41 -64 0
-21 -31 -41 0
-21 29 57 0
-20 -60 -63 0
-20 -53 55 0
-20 -49 -65 0
-20 44 53 0
-20 54 -63 0
-19 36 43 0
-18 -50 -51 0
-18 -50 58 0
-18 -34 -67 0
-18 27 -70 0
-18 27 -59 0
-18 68 69 0
-17 -46 67 0
-17 -45 -60 0
-17 -34 66 0
-16 -33 70 0
-16 50 54 0
-15 -23 56 0
-15 18 68 0
-15 37 60 0
-15 42 -70 0
-14 -62 63 0
-14 -33 62 0
-14 -21 40 0
-14 27 -32 0
-14 42 -56 0
-14 46 50 0
-13 -30 -42 0
-13 -28 -45 0
-13 -25 37 0
-13 16 61 0
-13 39 -42 0
-13 40 50 0
-12 -43 49 0
-12 -18 -45 0
-12 35 -53 0
-12 39 63 0
-12 40 41 0
-11 -43 52 0
-11 -18 -31 0
-11 16 55 0
-11 20 62 0
-11 39 54 0
-10 -40 -55 0
-10 23 51 0
-10 24 -46 0
-10 26 27 0
-10 30 59 0
-9 -25 -45 0
-9 -18 47 0
-8 -52 66 0
-8 -11 57 0
-8 -10 -53 0
-8 15 -58 0
-7 -41 -69 0
-7 -37 38 0
-7 -21 50 0
-7 11 -65 0
-7 17 -64 0
-6 -18 -65 0
-6 -8 63 0
-6 43 -60 0
-5 -52 -67 0
-5 -34 -36 0
-5 -28 65 0
-5 -13 -17 0
-4 -9 -26 0
-4 10 -42 0
-4 22 29 0
-4 35 41 0
-3 -39 61 0
-3 -8 -67 0
-3 7 48 0
-3 10 -48 0
-3 17 -24 0
-3 19 -48 0
-3 40 -62 0
-2 -50 68 0
-2 15 42 0
-2 16 62 0
-2 23 70 0
-2 38 -54 0
-1 -55 66 0
-1 -35 -45 0
-1 -32 -59 0
-1 -24 42 0
-1 -22 -62 0
1 -47 -69 0
1 -40 -43 0
1 -19 -34 0
1 28 35 0
1 43 62 0
2 -50 -64 0
2 -14 59 0
2 -9 37 0
2 7 -68 0
2 8 -36 0
2 51 -52 0
2 55 -69 0
3 -4 -29 0
3 4 27 0
3 8 33 0
3 56 61 0
4 -61 63 0
4 -23 62 0
4 -9 17 0
4 31 50 0
4 42 68 0
4 44 -55 0
4 47 48 0
4 57 -67 0
5 -40 -56 0
5 -31 66 0
5 -15 -25 0
5 -13 -40 0
5 -10 -34 0
5 7 57 0
5 8 -21 0
5 17 56 0
5 23 43 0
5 55 68 0
5 60 -66 0
6 -35 61 0
6 -32 51 0
6 -25 -37 0
6 -25 -33 0
6 -15 52 0
6 -14 65 0
6 -7 -64 0
6 20 -33 0
6 22 -52 0
6 46 -62 0
7 27 40 0
8 -15 -65 0
8 23 -51 0
8 32 -58 0
8 47 -63 0
9 -16 -33 0
9 13 -60 0
9 27 -67 0
10 -43 65 0
10 -40 -49 0
10 -28 50 0
10 -13 33 0
10 63 -68 0
11 -44 -53 0
11 -35 -41 0
11 -18 -36 0
11 15 65 0
11 20 -60 0
12 -37 62 0
12 -36 62 0
12 -20 34 0
12 -16 30 0
12 15 33 0
12 21 54 0
12 22 68 0
12 26 -69 0
12 34 -42 0
14 -30 56 0
14 -25 65 0
14 -22 69 0
14 17 38 0
14 19 20 0
14 19 28 0
14 34 -67 0
14 43 59 0
14 55 63 0
15 -44 -55 0
15 -30 55 0
15 -29 35 0
15 -23 -39 0
15 32 -37 0
16 23 -64 0
16 46 70 0
17 -25 -57 0
17 -20 -41 0
17 20 -67 0
17 29 48 0
18 -23 -60 0
18 28 60 0
19 23 -39 0
19 36 60 0
19 41 -50 0
20 -48 -61 0
20 -29 62 0
20 -25 -58 0
20 -23 54 0
21 -32 49 0
22 45 -53 0
23 31 58 0
23 63 67 0
24 25 -70 0
24 30 55 0
25 -41 51 0
25 -32 -44 0
25 45 46 0
26 -52 62 0
26 -36 47 0
26 30 -39 0
27 -32 51 0
28 -52 -62 0
28 -46 -47 0
28 30 38 0
29 31 -51 0
29 34 66 0
29 47 62 0
30 32 51 0
30 35 61 0
30 53 -54 0
31 -39 45 0
32 48 58 0
33 -41 -57 0
33 43 -66 0
34 40 -57 0
34 54 57 0
34 58 -60 0
35 -54 -70 0
35 -41 -54 0
36 -45 -65 0
37 -47 -58 0
39 52 -68 0
39 52 70 0
40 46 53 0
41 -56 64 0
42 47 62 0
42 51 62 0
43 -64 68 0
44 -57 -67 0
44 -54 -60 0
45 -64 65 0
45 -60 70 0
47 53 -65 0
48 -54 61 0
48 -50 -61 0
49 -55 -60 0
51 -62 63 0
52 -59 67 0
63 -68 -69 0
64 -66 -70 0
