p cnf 180 760
-172 -173 177 0
-153 -158 -178 0
-149 -164 178 0
-144 -156 -159 0
-141 -166 -169 0
-139 140 -172 0
-137 141 164 0
-136 147 -149 0
-131 -132 -161 0
-126 142 170 0
-124 128 160 0
-124 151 179 0
-122 133 -159 0
-120 145 168 0
-119 122 140 0
-118 -152 -180 0
-118 148 -149 0
-117 129 169 0
-117 154 -168 0
-116 120 -156 0
-115 118 170 0
-115 155 179 0
-112 -152 -163 0
-110 111 172 0
-109 -141 -171 0
-109 143 -174 0
-107 -128 -161 0
-107 -113 128 0
-106 -126 166 0
-106 -112 -119 0
-105 -129 -152 0
-104 -113 176 0
-103 -120 167 0
-101 127 134 0
-97 163 165 0
-96 -159 -169 0
-96 -146 152 0
-96 -125 136 0
-96 -102 -180 0
-96 106 145 0
-96 169 -177 0
-95 116 178 0
-95 133 -137 0
-94 -105 -161 0
-93 -130 146 0
-93 120 171 0
-92 -111 -149 0
-92 115 142 0
-91 -175 179 0
-90 -146 173 0
-90 -107 -142 0
-89 -154 -159 0
-89 97 -161 0
-89 137 -156 0
-88 -98 125 0
-88 89 162 0
-88 109 150 0
-86 -101 -104 0
-86 -87 -175 0
-86 122 -143 0
-85 -142 -154 0
-85 -139 -158 0
-85 -105 160 0
-85 98 131 0
-83 -84 -87 0
-82 104 -129 0
-81 138 143 0
-80 113 -168 0
-79 -95 -110 0
-78 -101 -117 0
-78 -81 92 0
-78 98 105 0
-77 -153 163 0
-77 -120 142 0
-77 -88 -134 0
-77 103 132 0
-76 -125 -144 0
-76 -99 109 0
-76 -88 132 0
-76 112 -152 0
-75 -91 -94 0
-75 -78 83 0
-75 104 -160 0
-75 127 -155 0
-74 111 136 0
-73 -128 -137 0
-73 -114 125 0
-73 -77 -150 0
-73 -75 131 0
-73 97 144 0
-72 -90 174 0
-71 -124 -137 0
-71 -122 133 0
-71 -94 -107 0
-71 -87 -101 0
-71 93 126 0
-71 109 171 0
-70 -135 156 0
-70 -97 -140 0
-70 -77 -148 0
-69 -75 156 0
-69 136 176 0
-69 149 -157 0
-68 -105 -117 0
-68 -83 -84 0
-68 74 84 0
-68 114 115 0
-67 -140 173 0
-67 -133 -136 0
-67 97 -143 0
-67 112 -120 0
-66 -85 121 0
-66 82 -106 0
-66 86 -139 0
-66 123 -159 0
-66 142 -171 0
-66 150 166 0
-65 -155 -168 0
-65 129 174 0
-64 84 170 0
-64 85 -101 0
-64 85 126 0
-63 95 -154 0
-63 137 -177 0
-62 -100 149 0
-62 -70 -174 0
-62 -70 -123 0
-62 70 -117 0
-61 -129 -180 0
-61 -123 140 0
-61 -90 117 0
-61 72 133 0
-60 -82 -168 0
-59 -77 98 0
-59 109 148 0
-59 115 -127 0
-58 -124 -159 0
-58 88 -128 0
-57 -62 -175 0
-56 -94 -144 0
-56 123 165 0
-56 148 -154 0
-55 -63 -111 0
-55 69 113 0
-54 149 -173 0
-53 -135 -151 0
-53 -99 -135 0
-53 -62 85 0
-53 54 169 0
-53 88 -119 0
-53 121 175 0
-52 -164 -173 0
-52 -144 -154 0
-52 -63 -103 0
-52 58 -143 0
-51 -55 97 0
-51 62 -95 0
-51 62 123 0
-51 82 165 0
-51 98 -107 0
-50 -141 -149 0
-50 58 97 0
-50 90 -157 0
-50 92 170 0
-49 -109 111 0
-49 -68 -121 0
-49 -63 -127 0
-49 57 93 0
-49 117 132 0
-48 -153 176 0
-48 -133 -147 0
-48 -78 -155 0
-48 63 170 0
-48 126 -172 0
-47 -143 174 0
-47 -87 -116 0
-47 -84 -164 0
-47 63 -67 0
-47 92 -166 0
-47 98 -142 0
-47 119 138 0
-46 87 -133 0
-45 -104 159 0
-45 -87 -90 0
-45 95 -180 0
-45 161 -163 0
-44 -82 -101 0
-44 -82 139 0
-44 -58 155 0
-44 54 62 0
-44 57 164 0
-44 63 78 0
-44 84 108 0
-44 114 -167 0
-44 168 179 0
-43 -127 148 0
-43 -99 107 0
-43 -89 116 0
-43 52 77 0
-42 58 -134 0
-42 80 -119 0
-42 91 -102 0
-42 110 -138 0
-42 143 147 0
-41 89 -113 0
-41 128 -167 0
-40 65 130 0
-40 78 79 0
-40 80 -149 0
-39 -74 -112 0
-39 -48 52 0
-39 78 -97 0
-39 120 157 0
-38 -72 -153 0
-38 42 120 0
-38 54 60 0
-38 94 134 0
-38 119 -132 0
-38 167 171 0
-37 -138 159 0
-37 -88 -168 0
-37 -61 -81 0
-37 -48 133 0
-37 -44 -90 0
-37 46 -56 0
-36 -47 -67 0
-36 129 152 0
-36 149 163 0
-35 -120 -148 0
-35 145 172 0
-34 -135 -141 0
-34 -82 176 0
-34 -67 -108 0
-34 -46 -143 0
-34 -40 -75 0
-34 95 131 0
-33 -71 -89 0
-33 60 92 0
-32 -106 -167 0
-32 -105 156 0
-32 -74 -101 0
-32 85 -124 0
-30 -165 167 0
-30 -134 174 0
-30 -100 103 0
-30 33 140 0
-29 -94 136 0
-29 -46 99 0
-29 -34 170 0
-29 31 113 0
-29 82 86 0
-29 118 -176 0
-28 -98 -178 0
-28 43 149 0
-28 97 -129 0
-27 -92 -136 0
-27 -47 115 0
-27 41 169 0
-26 -61 90 0
-26 35 -177 0
-26 91 -149 0
-26 108 129 0
-25 -159 168 0
-25 -26 -104 0
-25 37 100 0
-25 46 -94 0
-25 92 -128 0
-25 127 -153 0
-24 -84 109 0
-24 -36 161 0
-24 98 148 0
-23 -136 169 0
-23 -109 -172 0
-23 -107 -154 0
-23 -100 123 0
-23 -63 178 0
-23 -54 -166 0
-23 26 -39 0
-23 54 -136 0
-23 79 -152 0
-23 104 -118 0
-23 106 -134 0
-23 134 179 0
-22 -113 119 0
-22 -31 -96 0
-22 70 151 0
-22 71 171 0
-22 132 -174 0
-21 -167 175 0
-21 -132 -172 0
-21 -99 147 0
-21 -84 119 0
-21 -23 -108 0
-21 25 -122 0
-21 130 157 0
-20 -114 -121 0
-20 -97 -154 0
-20 32 -107 0
-20 86 -132 0
-20 94 138 0
-20 147 -170 0
-19 -45 -166 0
-19 32 157 0
-19 99 -115 0
-17 -128 -176 0
-17 -78 -161 0
-17 -67 116 0
-17 -65 139 0
-17 45 113 0
-16 -80 88 0
-16 -70 109 0
-16 -47 -150 0
-16 -46 127 0
-16 -21 -177 0
-16 21 -124 0
-16 44 -125 0
-16 57 -128 0
-16 66 -125 0
-16 73 -142 0
-16 151 154 0
-15 -101 126 0
-15 -25 -104 0
-15 61 -105 0
-14 -120 -153 0
-14 -32 -83 0
-14 50 -66 0
-14 63 -117 0
-14 64 -107 0
-13 -124 -171 0
-13 -78 130 0
-13 -16 77 0
-13 27 46 0
-13 112 137 0
-13 172 -180 0
-12 -123 179 0
-12 -94 -174 0
-12 -94 150 0
-12 -38 -53 0
-12 -37 93 0
-12 15 67 0
-12 41 -147 0
-12 111 140 0
-11 -122 127 0
-11 -81 -169 0
-11 -70 -77 0
-11 -20 -126 0
-11 45 -158 0
-10 -60 133 0
-10 37 57 0
-9 -121 -165 0
-9 -24 -42 0
-9 37 176 0
-9 117 -149 0
-8 -48 167 0
-8 -40 -152 0
-8 45 110 0
-8 53 147 0
-8 77 166 0
-8 114 175 0
-7 -18 55 0
-7 30 136 0
-7 57 95 0
-6 -51 -94 0
-6 -34 138 0
-6 -32 -167 0
-6 -25 124 0
-6 -17 109 0
-6 87 -112 0
-5 -153 -166 0
-5 -21 148 0
-5 8 126 0
-5 12 28 0
-5 21 -85 0
-5 29 45 0
-5 31 163 0
-5 101 -168 0
-4 14 -15 0
-4 15 -76 0
-4 19 89 0
-4 21 -115 0
-4 72 77 0
-4 115 -162 0
-4 122 -126 0
-3 -101 119 0
-3 -36 76 0
-3 -5 151 0
-3 19 -169 0
-3 30 102 0
-3 40 92 0
-3 111 126 0
-2 -48 -87 0
-2 9 125 0
-2 27 68 0
-2 133 147 0
-1 -70 -73 0
-1 6 76 0
-1 8 -10 0
-1 8 169 0
-1 12 86 0
-1 21 111 0
-1 48 -53 0
-1 84 -109 0
1 -131 154 0
1 -121 -146 0
1 -58 -180 0
1 30 -58 0
1 53 -169 0
2 -67 -133 0
2 -53 -75 0
2 -51 -133 0
2 -36 122 0
2 -32 -43 0
2 90 171 0
2 108 -133 0
3 -116 162 0
3 -56 172 0
3 -12 120 0
3 -7 -26 0
3 44 149 0
3 145 153 0
4 -99 -138 0
4 -93 -173 0
4 -92 178 0
4 -89 -106 0
4 -46 -65 0
4 -43 158 0
4 -11 109 0
4 -10 73 0
4 109 -146 0
5 -118 149 0
5 14 103 0
5 56 -112 0
5 56 149 0
5 114 135 0
6 -155 171 0
6 -66 148 0
6 -36 163 0
6 7 -53 0
6 78 -174 0
6 88 121 0
6 109 174 0
6 136 -145 0
6 152 -157 0
7 -47 61 0
7 -28 -142 0
7 -21 79 0
7 22 101 0
7 27 -158 0
7 37 86 0
7 76 -131 0
8 -55 81 0
8 -42 -145 0
8 -36 119 0
8 -23 143 0
8 96 -100 0
9 -149 180 0
9 -29 -65 0
9 23 -153 0
9 32 124 0
9 33 -171 0
10 40 -104 0
10 49 159 0
10 73 -113 0
10 84 -92 0
10 99 -154 0
11 -86 -136 0
11 -75 88 0
11 -25 -31 0
11 -18 -51 0
11 19 -97 0
11 32 -158 0
11 63 174 0
11 99 142 0
11 145 -157 0
12 -91 156 0
12 -35 106 0
12 -32 -94 0
12 16 -50 0
12 40 -45 0
13 -121 -141 0
13 21 -104 0
13 53 129 0
13 90 -166 0
13 93 -148 0
13 174 180 0
14 -127 133 0
14 -83 -139 0
14 -34 41 0
14 118 -136 0
15 -116 142 0
15 27 60 0
15 54 -81 0
15 70 -153 0
15 75 164 0
15 94 -103 0
15 152 175 0
16 -121 -149 0
16 -103 -143 0
16 -56 94 0
16 -50 -158 0
16 -17 -48 0
16 18 -152 0
16 58 157 0
17 -37 -149 0
17 26 -57 0
17 61 132 0
17 72 -147 0
18 -107 136 0
18 -106 179 0
18 -31 -96 0
18 93 112 0
18 157 165 0
19 -131 -175 0
19 -37 -75 0
19 -35 61 0
19 -21 -33 0
19 22 112 0
19 33 -143 0
19 68 -109 0
19 70 -76 0
19 112 -125 0
19 148 159 0
20 -108 148 0
20 71 107 0
20 119 168 0
21 -87 -173 0
21 171 -175 0
22 -152 -155 0
22 -85 -168 0
22 152 157 0
23 -134 -151 0
23 -36 -87 0
23 51 81 0
23 101 -121 0
24 -48 72 0
24 55 60 0
24 64 -88 0
24 88 -178 0
24 104 140 0
25 -118 136 0
25 -44 161 0
25 158 168 0
26 -103 152 0
26 -97 -159 0
26 57 122 0
26 86 98 0
26 127 145 0
27 -42 -91 0
27 87 -172 0
28 -91 116 0
28 -66 82 0
29 -101 177 0
29 38 146 0
30 -88 -145 0
30 -74 154 0
30 -48 66 0
30 -32 -172 0
30 62 -169 0
31 -135 -175 0
31 -79 121 0
31 -76 155 0
31 88 -151 0
32 -146 175 0
32 72 -121 0
33 -100 -151 0
33 -86 -137 0
33 -83 102 0
33 -37 109 0
33 101 -111 0
33 104 -129 0
34 -86 -115 0
34 -76 88 0
34 -38 145 0
34 82 178 0
35 -52 76 0
35 62 -101 0
35 65 -68 0
35 66 -86 0
35 76 141 0
36 -66 167 0
36 75 103 0
36 81 107 0
36 104 -160 0
37 -70 71 0
37 -55 81 0
37 42 142 0
37 73 -160 0
37 80 176 0
38 -79 166 0
38 -49 -78 0
38 105 -173 0
39 -116 -149 0
39 -47 87 0
39 71 -111 0
40 42 94 0
40 56 -170 0
41 -96 167 0
41 -64 -92 0
41 -59 71 0
41 46 149 0
41 57 151 0
41 98 161 0
42 68 -85 0
42 86 92 0
43 -62 -132 0
44 77 -108 0
45 -119 -161 0
45 100 -147 0
45 111 -166 0
46 -119 124 0
46 -73 119 0
46 63 -82 0
46 78 121 0
47 -132 169 0
47 -98 127 0
47 -60 94 0
47 57 -94 0
48 -133 167 0
48 79 -122 0
48 120 -142 0
48 137 -140 0
48 153 -164 0
49 -146 149 0
49 -57 -122 0
49 85 114 0
50 -157 -175 0
50 -107 159 0
50 -59 156 0
50 57 -93 0
50 73 150 0
51 -168 -175 0
51 67 163 0
51 108 -160 0
53 -76 100 0
53 108 -116 0
54 85 -115 0
54 119 153 0
55 106 -131 0
56 -145 158 0
56 -72 170 0
56 168 174 0
57 -87 157 0
57 72 140 0
57 97 112 0
58 -144 -173 0
58 -130 -137 0
58 -70 -116 0
59 87 -100 0
60 -160 173 0
60 -68 -75 0
61 117 157 0
61 151 153 0
62 -85 164 0
63 -75 135 0
63 99 130 0
63 130 -135 0
63 148 -166 0
64 112 -157 0
65 -173 -179 0
65 -137 141 0
65 66 179 0
65 83 -162 0
66 -81 -139 0
66 72 109 0
66 83 -158 0
66 117 -143 0
66 131 138 0
67 69 -157 0
67 89 -161 0
68 -77 82 0
68 -74 -78 0
68 89 -93 0
68 123 -164 0
68 145 -155 0
69 -73 -160 0
70 -115 148 0
70 83 169 0
70 87 -103 0
70 107 -133 0
71 -120 130 0
71 -100 103 0
73 -78 145 0
73 78 -148 0
73 135 162 0
74 -99 151 0
74 113 169 0
74 123 -176 0
75 -126 133 0
75 -86 -154 0
75 96 97 0
76 83 -86 0
76 107 108 0
78 99 167 0
78 169 -175 0
79 -131 -156 0
80 -83 156 0
80 146 -147 0
81 -144 173 0
81 -83 132 0
82 107 -113 0
83 -97 -135 0
83 88 -120 0
84 127 144 0
85 -153 160 0
85 -104 -108 0
85 106 118 0
86 95 132 0
86 126 -149 0
87 -111 170 0
87 98 -99 0
89 -159 -165 0
89 -123 144 0
89 103 162 0
90 -175 -180 0
90 -159 -172 0
90 -91 98 0
93 -144 -172 0
93 -118 -122 0
93 153 -178 0
94 95 96 0
97 -115 154 0
98 -137 -146 0
98 110 175 0
98 128 149 0
99 -128 -142 0
99 108 140 0
99 111 -144 0
99 132 151 0
101 127 -174 0
102 -160 -162 0
102 -118 121 0
102 117 170 0
105 -110 140 0
107 -134 -177 0
109 110 175 0
109 126 -156 0
112 -121 -163 0
113 123 160 0
115 123 146 0
116 -150 -151 0
116 -143 171 0
117 132 157 0
118 -131 -140 0
118 -121 161 0
119 -150 165 0
119 123 -179 0
119 123 -145 0
123 -140 141 0
123 134 139 0
125 -146 -178 0
125 -129 177 0
127 -156 172 0
127 -137 -147 0
133 -154 165 0
134 136 -174 0
134 152 157 0
137 158 175 0
140 143 175 0
144 161 164 0
171 172 176 0
