p cnf 260 1097
-254 255 -257 0
-221 -231 -245 0
-221 223 -239 0
-220 222 -259 0
-219 228 235 0
-216 -227 -247 0
-205 -213 -256 0
-197 199 210 0
-194 -202 -250 0
-192 -206 216 0
-187 188 239 0
-187 196 -209 0
-187 201 233 0
-184 -207 254 0
-183 249 260 0
-181 199 -231 0
-180 -227 -241 0
-178 189 -199 0
-177 223 248 0
-176 188 260 0
-173 209 245 0
-172 216 -253 0
-171 -242 259 0
-171 -238 -251 0
-171 191 235 0
-168 -227 239 0
-168 -183 -192 0
-168 175 230 0
-166 -172 -257 0
-164 189 256 0
-163 -202 -248 0
-160 168 173 0
-159 232 -237 0
-157 -187 -202 0
-157 169 -236 0
-155 189 -207 0
-154 -208 -260 0
-154 157 241 0
-154 234 -245 0
-153 -183 -190 0
-152 216 -258 0
-151 206 -248 0
-150 215 -245 0
-149 -155 240 0
-148 -152 248 0
-146 175 221 0
-146 238 260 0
-144 -152 174 0
-144 225 240 0
-143 -144 -203 0
-143 152 -178 0
-140 182 207 0
-139 -155 174 0
-139 174 -229 0
-139 195 243 0
-138 187 -248 0
-137 -218 229 0
-136 -164 -252 0
-136 -158 164 0
-134 -166 -205 0
-133 -247 251 0
-133 -141 -247 0
-133 -140 232 0
-132 -151 190 0
-132 218 236 0
-131 -153 171 0
-130 223 -246 0
-129 -157 188 0
-128 161 -203 0
-128 227 243 0
-127 -153 169 0
-127 -146 173 0
-127 -144 -186 0
-126 -217 -222 0
-126 -143 -163 0
-126 227 -243 0
-124 -167 -238 0
-123 -210 257 0
-122 -164 206 0
-122 -158 -241 0
-122 159 -188 0
-122 192 220 0
-120 -153 234 0
-120 -153 251 0
-120 233 250 0
-119 -125 178 0
-119 -120 -245 0
-118 -151 233 0
-116 -169 207 0
-114 -175 -221 0
-114 173 -178 0
-113 -153 -222 0
-112 -179 -201 0
-111 132 -245 0
-111 182 207 0
-110 -166 -246 0
-109 137 -170 0
-108 -145 -213 0
-108 222 248 0
-107 -198 -251 0
-106 -198 254 0
-106 156 -254 0
-106 164 232 0
-105 -161 167 0
-105 129 -171 0
-105 134 -238 0
-104 -143 -188 0
-104 178 -243 0
-104 220 -250 0
-103 -146 212 0
-103 -117 193 0
-103 -110 133 0
-102 117 -150 0
-102 135 -204 0
-102 149 -218 0
-102 156 157 0
-101 125 139 0
-101 165 228 0
-101 191 240 0
-100 115 -116 0
-100 154 -171 0
-100 220 -226 0
-99 -148 208 0
-99 147 194 0
-99 168 252 0
-99 172 -196 0
-98 -105 -211 0
-98 147 165 0
-97 -161 240 0
-97 -136 177 0
-97 127 210 0
-95 -199 205 0
-95 -136 227 0
-95 139 235 0
-94 -196 -223 0
-94 -164 207 0
-94 134 -169 0
-91 96 -224 0
-91 127 -161 0
-91 130 -222 0
-90 -136 -150 0
-90 -130 212 0
-90 -117 171 0
-90 -98 -164 0
-90 -92 -137 0
-89 217 -249 0
-88 -165 -258 0
-88 96 212 0
-87 107 238 0
-87 134 222 0
-86 -203 -231 0
-86 92 -145 0
-86 168 -174 0
-84 107 -177 0
-84 107 182 0
-83 101 -173 0
-82 113 -250 0
-82 127 -251 0
-82 148 240 0
-82 167 -230 0
-82 172 215 0
-81 126 -189 0
-81 150 -156 0
-81 208 -245 0
-80 -149 150 0
-80 -147 -193 0
-80 -125 -221 0
-80 -118 -238 0
-80 -96 -213 0
-80 154 240 0
-79 -158 -161 0
-79 -106 -145 0
-79 86 223 0
-78 -103 149 0
-78 90 183 0
-78 96 258 0
-78 126 -141 0
-78 136 -150 0
-78 170 -207 0
-78 193 -226 0
-77 121 -167 0
-77 152 -159 0
-74 -179 209 0
-74 -172 226 0
-74 -154 -211 0
-74 144 201 0
-73 -120 -151 0
-73 109 -168 0
-73 145 -158 0
-73 207 -248 0
-71 -134 -258 0
-71 -81 -120 0
-71 105 -145 0
-71 176 -215 0
-70 -239 253 0
-70 -190 195 0
-70 -145 -257 0
-70 -109 150 0
-70 84 211 0
-70 114 -257 0
-70 134 -260 0
-70 145 156 0
-70 158 238 0
-69 70 100 0
-69 165 238 0
-68 -168 191 0
-68 -109 164 0
-68 -75 227 0
-68 70 -235 0
-68 108 -239 0
-68 179 248 0
-67 -243 -255 0
-67 -188 216 0
-67 -159 -167 0
-67 -156 231 0
-67 -155 184 0
-67 -111 -186 0
-66 -172 236 0
-66 -148 -213 0
-66 -128 -248 0
-66 -118 -141 0
-66 -96 233 0
-66 79 -157 0
-66 167 -207 0
-65 -74 -99 0
-65 143 241 0
-64 -84 230 0
-64 101 -180 0
-63 -200 -210 0
-62 103 -158 0
-62 123 -198 0
-62 179 -251 0
-61 -86 194 0
-61 -86 233 0
-61 190 -216 0
-61 229 -255 0
-60 -104 198 0
-60 94 155 0
-60 132 -214 0
-60 150 -183 0
-59 -135 -158 0
-59 -94 -206 0
-59 65 -126 0
-59 86 110 0
-58 -179 212 0
-58 -164 -201 0
-58 -72 185 0
-58 112 -219 0
-57 -166 -201 0
-57 -90 138 0
-57 -86 -189 0
-57 -78 -174 0
-55 -91 -219 0
-55 147 160 0
-54 -246 258 0
-53 -208 212 0
-53 130 146 0
-53 149 167 0
-52 -159 162 0
-52 -108 -201 0
-52 -84 -108 0
-52 231 -249 0
-51 124 -149 0
-51 223 -242 0
-50 -52 238 0
-50 129 226 0
-49 -85 158 0
-49 135 -225 0
-49 143 247 0
-49 154 -198 0
-49 210 -225 0
-49 215 -233 0
-48 -153 -167 0
-48 89 -153 0
-48 95 126 0
-47 -52 82 0
-47 68 132 0
-47 105 -199 0
-47 117 -136 0
-47 176 -200 0
-47 196 -225 0
-47 245 -256 0
-46 62 221 0
-46 79 208 0
-45 -247 252 0
-45 -148 -198 0
-44 -160 -229 0
-44 -82 129 0
-44 -55 -95 0
-43 -160 202 0
-43 -77 -160 0
-43 72 178 0
-42 -132 187 0
-42 -114 183 0
-41 -147 -197 0
-41 -139 -197 0
-41 90 177 0
-41 109 176 0
-40 -121 258 0
-40 -96 158 0
-40 89 218 0
-40 94 -189 0
-40 94 111 0
-40 113 160 0
-40 143 -254 0
-39 -78 -249 0
-39 -69 -156 0
-39 -42 -242 0
-39 137 -248 0
-38 -58 -239 0
-38 52 129 0
-38 123 -146 0
-37 -187 -246 0
-37 57 145 0
-37 67 -129 0
-37 137 -252 0
-37 155 -172 0
-37 156 191 0
-36 -209 240 0
-36 -75 236 0
-36 91 257 0
-36 113 -165 0
-36 127 142 0
-35 -160 -196 0
-35 -56 -100 0
-35 57 214 0
-34 38 238 0
-34 98 236 0
-34 137 -238 0
-33 -75 -149 0
-33 -51 125 0
-33 -48 -202 0
-33 35 -217 0
-33 91 -124 0
-33 122 -256 0
-33 123 -128 0
-32 -241 244 0
-32 -188 -239 0
-32 -167 -254 0
-32 51 -162 0
-32 54 -99 0
-32 206 -211 0
-31 -72 -107 0
-31 -44 245 0
-31 101 -214 0
-31 172 -231 0
-30 -82 -247 0
-30 -70 196 0
-30 -45 114 0
-30 91 -141 0
-30 143 -226 0
-30 167 -238 0
-30 193 -222 0
-29 -118 148 0
-29 -48 124 0
-29 82 -231 0
-29 97 -174 0
-29 101 172 0
-29 117 -213 0
-29 188 -233 0
-28 -157 170 0
-28 -40 -45 0
-28 38 -244 0
-28 41 171 0
-28 42 47 0
-27 -89 166 0
-27 -52 -89 0
-27 71 141 0
-27 153 -241 0
-26 -197 -215 0
-26 -154 177 0
-26 64 -171 0
-25 -86 143 0
-25 28 73 0
-25 32 -193 0
-25 53 -70 0
-25 66 101 0
-25 148 157 0
-24 -82 -200 0
-24 89 177 0
-23 -40 242 0
-23 93 258 0
-23 175 179 0
-22 -119 135 0
-22 -63 -206 0
-22 87 -128 0
-22 112 -226 0
-21 130 -235 0
-20 -155 180 0
-20 -147 246 0
-20 -32 -115 0
-20 -29 167 0
-20 43 -126 0
-20 147 -195 0
-19 -191 211 0
-19 -90 -196 0
-19 -76 196 0
-19 28 254 0
-19 66 68 0
-19 190 -247 0
-18 -175 242 0
-18 -167 -250 0
-18 97 238 0
-18 113 222 0
-18 161 189 0
-17 -183 -220 0
-17 -68 174 0
-17 -19 202 0
-17 164 221 0
-16 -120 -206 0
-16 -99 -182 0
-16 -43 126 0
-16 79 246 0
-15 -236 253 0
-15 -159 -234 0
-15 -118 -172 0
-15 -73 83 0
-15 20 -227 0
-15 80 -242 0
-15 136 -160 0
-15 146 202 0
-15 221 236 0
-14 -176 -248 0
-14 -37 181 0
-14 -16 137 0
-14 144 -199 0
-14 210 -229 0
-13 -133 -232 0
-13 -76 235 0
-13 -18 28 0
-13 113 181 0
-13 166 -244 0
-12 -129 194 0
-12 -52 108 0
-12 16 -158 0
-12 23 -144 0
-12 77 -253 0
-11 -119 -151 0
-11 -23 212 0
-11 13 -134 0
-11 53 -141 0
-11 124 -170 0
-11 227 -229 0
-10 -178 186 0
-10 -106 -238 0
-10 21 79 0
-10 76 200 0
-9 -127 156 0
-9 -74 -243 0
-9 -32 101 0
-9 20 -162 0
-9 122 154 0
-9 243 -254 0
-8 -100 115 0
-8 -88 -226 0
-8 -88 -200 0
-8 -58 -150 0
-8 -20 -179 0
-8 70 250 0
-8 216 218 0
-8 230 238 0
-7 -172 227 0
-7 -11 -236 0
-7 8 -60 0
-7 177 203 0
-7 195 -239 0
-6 -159 -246 0
-6 106 -209 0
-6 119 226 0
-5 -192 -213 0
-5 -62 -196 0
-4 -73 90 0
-4 -5 -43 0
-3 -132 231 0
-3 -91 118 0
-3 73 -209 0
-2 -101 -106 0
-2 -91 -225 0
-2 -76 177 0
-2 -56 -191 0
-2 -16 216 0
-2 49 61 0
-2 60 -137 0
-2 78 113 0
-2 96 189 0
-2 136 -239 0
-1 -101 -248 0
-1 -75 -104 0
-1 -37 215 0
-1 35 183 0
-1 75 -208 0
-1 162 -252 0
1 -33 -45 0
1 51 -234 0
2 -239 251 0
2 -73 204 0
2 -52 204 0
2 -49 -73 0
2 -31 200 0
2 -25 -43 0
2 57 249 0
2 71 218 0
2 86 -147 0
2 109 -150 0
2 112 -242 0
3 -153 163 0
3 -143 -222 0
3 -106 -113 0
3 17 46 0
4 -161 -172 0
4 -126 204 0
4 -115 245 0
4 -51 -201 0
4 15 -115 0
4 110 165 0
4 142 199 0
5 -156 205 0
5 -105 230 0
5 -37 113 0
5 -19 -221 0
5 -17 -69 0
5 67 157 0
5 72 155 0
5 99 -182 0
5 128 -201 0
6 -162 -222 0
6 -136 -187 0
6 -133 142 0
6 -111 -240 0
6 -70 102 0
6 -28 35 0
6 -24 -156 0
6 -15 -172 0
6 9 147 0
6 138 -222 0
6 143 214 0
6 156 206 0
6 168 -219 0
6 211 216 0
7 -16 69 0
7 121 -257 0
8 -177 187 0
8 -59 201 0
8 -54 -139 0
8 -50 -181 0
8 84 226 0
8 201 231 0
9 -86 141 0
9 -44 100 0
9 11 -213 0
9 53 201 0
9 55 -198 0
9 70 206 0
9 93 172 0
9 117 -180 0
10 -118 -243 0
10 -82 179 0
10 113 246 0
11 -158 245 0
11 -117 -255 0
11 58 -129 0
11 63 131 0
11 66 -185 0
11 79 128 0
12 -216 222 0
12 -112 -155 0
12 -68 -80 0
12 -18 -216 0
12 44 -86 0
13 -223 -234 0
13 -195 257 0
13 -112 -155 0
13 -75 -258 0
13 -70 108 0
13 -50 80 0
13 34 240 0
13 215 222 0
14 -129 -208 0
14 -118 -157 0
14 37 200 0
14 63 198 0
14 67 -200 0
14 92 -162 0
14 140 219 0
15 -202 231 0
15 -75 -240 0
15 -34 232 0
15 37 182 0
15 70 93 0
15 123 221 0
16 -248 258 0
16 -102 184 0
16 -67 188 0
16 -45 -140 0
16 66 -175 0
16 113 181 0
16 125 -182 0
16 176 -207 0
17 -159 237 0
17 -136 -234 0
17 -64 165 0
17 21 105 0
17 174 -190 0
18 -201 242 0
18 -82 -251 0
18 -69 -239 0
18 27 -219 0
18 76 -199 0
18 93 251 0
18 141 228 0
18 191 -215 0
19 -228 -237 0
19 -91 181 0
19 27 -95 0
19 62 -228 0
19 112 -135 0
20 -75 203 0
20 31 122 0
21 -146 213 0
21 -141 178 0
21 -132 140 0
21 -105 -196 0
21 -40 187 0
21 -29 126 0
21 107 -216 0
21 194 244 0
22 -150 -260 0
22 -63 -250 0
22 -59 95 0
22 -30 42 0
22 26 256 0
22 45 210 0
22 86 -167 0
22 123 -164 0
23 -150 -188 0
23 -133 141 0
23 -116 256 0
23 90 -138 0
23 229 248 0
24 -210 224 0
24 -88 113 0
24 -78 -150 0
24 -63 -240 0
24 43 -233 0
24 60 -109 0
25 -189 -196 0
25 -163 -234 0
25 -59 203 0
25 33 -169 0
25 77 -104 0
25 159 -177 0
25 227 -238 0
26 -205 209 0
26 -185 188 0
26 -150 169 0
26 -95 121 0
26 30 129 0
26 101 256 0
26 168 170 0
27 -208 -239 0
27 -193 -236 0
27 -125 211 0
27 -106 242 0
27 -64 -234 0
27 -29 -102 0
27 32 -36 0
27 62 163 0
27 100 240 0
27 107 161 0
27 115 -235 0
28 -163 -252 0
28 -161 -209 0
28 -131 -215 0
28 -59 68 0
28 231 -258 0
29 -46 98 0
29 88 250 0
30 -200 -235 0
30 -96 -243 0
30 -81 -221 0
30 -45 62 0
30 31 256 0
30 75 167 0
31 -82 -167 0
31 49 68 0
31 78 96 0
31 173 -174 0
32 -143 -226 0
32 -108 191 0
32 -39 -171 0
32 43 -150 0
32 45 -169 0
32 148 -154 0
33 41 -84 0
33 79 -195 0
33 80 164 0
33 81 169 0
34 -222 226 0
34 -74 210 0
34 53 142 0
34 82 -191 0
34 102 -216 0
35 -143 255 0
35 -104 -175 0
35 -91 -161 0
35 -71 -259 0
35 -48 -230 0
35 -40 -42 0
35 130 -159 0
35 150 -191 0
35 180 -224 0
36 -84 180 0
36 -81 179 0
36 -74 -95 0
36 -41 -152 0
36 45 -204 0
37 -189 225 0
37 -139 -163 0
37 -94 -133 0
37 118 -205 0
37 219 -234 0
38 -159 -174 0
38 -53 71 0
38 63 -242 0
38 67 -85 0
38 138 -163 0
38 190 -215 0
39 -223 232 0
39 -195 206 0
39 -42 -244 0
39 107 219 0
39 198 -239 0
40 -134 167 0
40 76 102 0
40 89 -204 0
40 116 -220 0
40 123 202 0
41 -78 168 0
41 92 169 0
41 133 -203 0
42 -78 -238 0
42 70 -120 0
42 90 175 0
43 -215 -232 0
43 -159 -234 0
43 -138 -145 0
43 -85 -171 0
43 -65 144 0
43 114 129 0
43 157 205 0
44 -56 -164 0
44 74 -162 0
45 -156 -249 0
45 -90 249 0
45 -63 167 0
45 -54 -172 0
45 57 245 0
45 118 -243 0
45 162 -182 0
46 -140 163 0
46 -88 -166 0
46 -72 215 0
46 53 87 0
46 62 -118 0
46 77 191 0
46 78 -204 0
46 115 199 0
47 -143 -163 0
47 76 -105 0
47 92 142 0
48 -162 196 0
48 83 111 0
48 93 118 0
49 -84 -166 0
49 97 209 0
49 104 134 0
49 175 -232 0
49 194 -251 0
50 -181 -229 0
50 -104 -178 0
50 -78 -223 0
50 102 145 0
50 137 151 0
50 144 -191 0
50 229 258 0
51 -101 205 0
51 -77 -110 0
51 -64 79 0
51 147 227 0
51 165 -216 0
52 -173 -245 0
52 -115 -179 0
52 -69 211 0
52 94 131 0
52 123 185 0
52 154 -157 0
52 172 233 0
53 -89 -138 0
53 -63 211 0
53 -62 89 0
53 153 229 0
54 -114 -144 0
54 138 200 0
55 -245 -253 0
55 -110 237 0
55 120 -239 0
55 157 217 0
56 -223 -256 0
56 -177 259 0
56 -160 -183 0
56 -65 199 0
58 -198 248 0
58 -110 -233 0
58 84 192 0
58 94 201 0
58 120 226 0
58 238 -256 0
59 -210 -228 0
59 -84 124 0
59 165 189 0
59 176 254 0
60 -147 154 0
60 -61 68 0
60 152 -252 0
60 182 -256 0
61 -157 214 0
61 134 -154 0
61 135 -202 0
61 234 246 0
62 -241 247 0
62 -144 239 0
62 -122 149 0
62 -102 204 0
62 79 249 0
62 161 -250 0
62 201 242 0
63 -184 223 0
64 82 126 0
64 94 -174 0
64 112 174 0
65 66 -257 0
65 69 257 0
66 -202 254 0
66 -139 212 0
66 -90 -188 0
66 72 -175 0
66 127 196 0
66 184 214 0
67 99 -198 0
67 102 -225 0
67 106 -203 0
67 115 -145 0
67 151 -157 0
68 -147 154 0
68 -92 233 0
68 73 99 0
69 146 151 0
70 -127 -256 0
70 -105 159 0
70 -81 256 0
70 98 -181 0
71 -183 -259 0
71 -80 101 0
71 83 -243 0
71 85 145 0
71 112 133 0
72 -103 -197 0
72 -85 -227 0
72 87 191 0
72 108 138 0
72 228 -257 0
73 -156 235 0
73 -149 196 0
73 -116 146 0
74 -203 207 0
74 -135 -156 0
74 -100 154 0
74 -97 198 0
74 -86 -105 0
74 166 -259 0
75 -146 -227 0
75 -138 255 0
75 -134 191 0
76 -167 193 0
77 -168 -180 0
77 -149 179 0
77 153 166 0
78 -203 -206 0
78 -113 -142 0
78 -90 148 0
79 -129 -212 0
79 -120 132 0
79 175 216 0
80 -122 -164 0
80 105 201 0
80 207 255 0
81 -168 251 0
81 -136 -187 0
81 -83 235 0
81 99 -127 0
81 111 -117 0
82 -180 235 0
82 -109 181 0
82 90 186 0
82 101 106 0
83 -244 256 0
83 -158 -191 0
83 -113 195 0
83 97 -244 0
83 121 -186 0
83 144 178 0
84 -131 196 0
84 133 233 0
84 189 202 0
84 195 -230 0
84 222 -223 0
85 -168 227 0
85 -156 -232 0
85 -143 -227 0
85 193 -228 0
85 198 224 0
86 -163 -203 0
86 -150 -199 0
86 -89 -199 0
86 -89 215 0
86 107 208 0
86 134 -235 0
87 -203 221 0
87 -167 216 0
87 -151 -224 0
87 -130 -222 0
87 100 -200 0
87 162 197 0
88 147 190 0
88 205 241 0
89 99 -214 0
90 -123 -254 0
90 -101 -243 0
91 -188 -249 0
91 -178 -256 0
91 -136 164 0
91 -133 -240 0
91 92 148 0
91 129 207 0
92 -186 -253 0
92 -131 -228 0
93 -143 200 0
93 -98 138 0
94 -118 231 0
94 -100 142 0
94 144 221 0
95 -191 232 0
95 -106 109 0
95 131 243 0
96 156 191 0
97 131 -153 0
97 169 206 0
97 237 238 0
98 -141 -192 0
98 152 -221 0
99 -187 198 0
99 165 -241 0
101 -113 130 0
101 -111 155 0
101 102 115 0
101 172 229 0
101 219 -246 0
102 138 240 0
103 110 189 0
103 223 -237 0
104 -210 232 0
104 106 -155 0
104 213 257 0
105 -192 -227 0
105 -174 194 0
105 -168 196 0
105 -117 153 0
105 112 175 0
105 121 -191 0
105 133 -221 0
105 156 -219 0
105 226 243 0
106 -193 -225 0
106 -140 -190 0
106 138 -251 0
106 151 210 0
107 -136 -163 0
107 -117 -174 0
107 128 -186 0
108 -114 117 0
108 248 251 0
109 -145 210 0
109 183 -253 0
110 -205 -235 0
110 131 215 0
111 -213 -249 0
112 188 228 0
112 230 -246 0
112 240 -260 0
113 132 187 0
113 134 254 0
113 215 255 0
114 -144 232 0
114 124 -222 0
114 202 -222 0
115 -186 -234 0
115 230 260 0
116 -135 152 0
116 122 232 0
116 148 171 0
116 197 -229 0
117 -150 -257 0
117 -118 163 0
117 136 -219 0
118 220 -236 0
119 -127 -260 0
121 -123 221 0
121 128 164 0
121 152 -209 0
121 212 -247 0
122 -130 -214 0
123 173 -178 0
123 178 -249 0
125 -156 214 0
125 -132 -184 0
126 132 136 0
126 162 -246 0
126 168 -175 0
127 190 244 0
128 -171 255 0
128 -129 -234 0
128 238 -249 0
130 193 198 0
130 204 -234 0
133 -180 -225 0
133 -164 -195 0
133 -137 -143 0
133 151 168 0
133 162 231 0
135 -202 259 0
135 -197 233 0
135 188 236 0
136 139 -193 0
139 156 -165 0
139 169 228 0
140 178 -192 0
141 -208 -248 0
141 154 -188 0
141 190 -210 0
142 149 203 0
143 -171 242 0
143 193 -245 0
145 -203 231 0
145 230 -234 0
148 178 211 0
151 -157 -241 0
151 163 193 0
152 -204 -210 0
155 188 -189 0
157 169 174 0
158 -181 194 0
158 159 194 0
158 160 -254 0
158 202 234 0
158 231 -249 0
160 -170 238 0
161 -185 -216 0
161 -172 187 0
161 201 -206 0
162 219 -228 0
164 -191 -200 0
165 -184 241 0
166 -192 -253 0
166 -178 200 0
167 185 -197 0
168 203 225 0
172 -193 -255 0
173 -182 -246 0
175 -200 -253 0
177 205 216 0
179 226 -229 0
185 241 248 0
189 194 256 0
190 191 -244 0
191 235 -251 0
193 206 -217 0
194 232 -236 0
194 237 -249 0
195 -219 221 0
198 210 213 0
199 -229 -248 0
202 235 258 0
204 233 256 0
213 219 235 0
221 240 -255 0
227 -243 -257 0
239 246 -258 0
