p cnf 70 298
-54 -61 -66 0
-53 -61 69 0
-53 -59 69 0
-52 59 -64 0
-50 -53 68 0
-45 47 -63 0
-45 49 62 0
-42 55 63 0
-41 54 -58 0
-39 -53 58 0
-38 -53 -56 0
-37 40 -58 0
-37 41 55 0
-36 44 64 0
-36 52 70 0
-35 45 59 0
-34 39 69 0
-33 -36 -57 0
-33 34 -37 0
-32 -55 -70 0
-32 -47 57 0
-32 -36 57 0
-31 -36 -42 0
-30 -48 -51 0
-30 -41 -65 0
-30 33 -62 0
-29 -43 66 0
-29 -34 -57 0
-29 35 56 0
-28 -30 68 0
-28 29 31 0
-28 30 -43 0
-27 -45 53 0
-27 36 39 0
-27 62 68 0
-26 -50 -57 0
-26 -49 -66 0
-26 -34 -53 0
-26 57 -70 0
-25 27 57 0
-25 51 -59 0
-24 -46 49 0
-24 -32 70 0
-24 -26 44 0
-22 28 63 0
-21 -27 -62 0
-21 49 -62 0
-21 49 -56 0
-20 -27 59 0
-20 21 -41 0
-20 21 70 0
-20 30 -40 0
-20 35 65 0
-20 41 -46 0
-19 -21 -41 0
-19 47 -60 0
-19 57 -63 0
-18 -53 -68 0
-18 -30 -48 0
-18 25 57 0
-17 -38 -42 0
-17 -36 -40 0
-17 -28 -54 0
-17 -27 -33 0
-17 -24 -60 0
-17 -19 -39 0
-16 -30 52 0
-16 -28 -49 0
-16 -19 33 0
-16 26 32 0
-15 17 -69 0
-15 17 22 0
-15 27 50 0
-15 31 -54 0
-15 33 -67 0
-15 47 -51 0
-14 -39 -43 0
-14 -31 70 0
-14 -22 67 0
-14 22 46 0
-14 28 30 0
-13 -19 62 0
-12 23 -65 0
-12 24 -27 0
-12 63 66 0
-11 -26 54 0
-10 -65 68 0
-10 -24 -62 0
-10 -17 50 0
-10 20 -52 0
-10 58 60 0
-9 -46 -54 0
-9 -38 -48 0
-9 -29 40 0
-9 21 56 0
-9 32 -67 0
-8 -66 69 0
-8 -9 21 0
-8 9 -52 0
-8 31 -47 0
-8 32 -48 0
-8 35 61 0
-8 37 38 0
-7 -67 70 0
-7 -44 62 0
-7 11 -67 0
-6 -17 -53 0
-6 28 -60 0
-6 30 32 0
-5 -10 -53 0
-4 -60 68 0
-4 -55 63 0
-4 -21 -43 0
-4 -17 37 0
-4 -10 -19 0
-4 19 -66 0
-3 -60 -70 0
-3 -34 -67 0
-3 -13 63 0
-3 -5 21 0
-3 16 -68 0
-3 25 -29 0
-2 -47 56 0
-2 -45 63 0
-2 -34 -66 0
-2 -31 -46 0
-2 -18 -47 0
-2 10 29 0
-2 11 45 0
-2 17 18 0
-2 20 -24 0
-2 42 43 0
-2 44 -67 0
-1 -43 -45 0
-1 -32 54 0
-1 -6 24 0
-1 10 70 0
-1 16 -22 0
-1 29 -68 0
1 -25 52 0
1 -19 -42 0
1 -11 50 0
1 -5 -27 0
1 8 61 0
1 9 54 0
1 20 -51 0
1 45 57 0
2 -31 -36 0
2 -20 29 0
2 -6 21 0
2 9 -46 0
2 17 -40 0
2 29 59 0
2 49 -68 0
3 -48 57 0
3 -21 58 0
3 -13 66 0
3 -10 -63 0
3 35 -50 0
3 45 -56 0
3 52 67 0
4 -37 -52 0
4 -27 -49 0
4 -16 -34 0
4 -12 30 0
4 14 -55 0
4 60 -62 0
5 -52 62 0
5 -51 -65 0
5 -29 46 0
5 -28 44 0
5 -19 -52 0
5 -12 -19 0
5 -9 37 0
5 -8 10 0
5 29 -63 0
5 56 -66 0
6 -41 43 0
6 9 -50 0
6 9 -12 0
6 20 46 0
6 26 -62 0
6 26 -31 0
6 42 -64 0
6 48 49 0
6 52 63 0
7 -38 -44 0
7 -30 -50 0
7 12 -18 0
7 13 66 0
7 14 58 0
7 22 33 0
7 44 -49 0
7 65 -67 0
8 -42 47 0
8 10 -19 0
8 11 40 0
8 11 62 0
8 21 55 0
8 23 33 0
8 26 -34 0
8 41 -46 0
9 -35 64 0
9 -29 43 0
9 -28 -42 0
9 -22 62 0
9 14 -45 0
9 16 -31 0
9 22 58 0
9 31 56 0
9 31 58 0
9 62 -68 0
10 -40 -57 0
10 17 -51 0
10 24 -69 0
10 63 68 0
11 27 50 0
11 30 -38 0
12 -50 56 0
12 -43 -66 0
12 -19 -36 0
12 -13 -58 0
12 27 -63 0
12 35 -39 0
13 -38 -53 0
13 18 45 0
13 26 -27 0
14 16 -34 0
14 18 38 0
14 20 31 0
14 21 -44 0
14 33 -39 0
14 67 69 0
15 -37 -70 0
15 19 -59 0
15 42 55 0
16 22 -48 0
16 26 49 0
16 57 65 0
17 -27 59 0
17 19 37 0
17 46 -60 0
18 22 -56 0
19 -30 56 0
20 -35 -38 0
20 41 -53 0
20 53 -63 0
20 55 57 0
21 34 45 0
22 25 26 0
22 29 -40 0
23 -41 -46 0
23 -35 -49 0
23 -24 -69 0
23 40 42 0
24 -32 49 0
24 -27 -55 0
24 48 -66 0
25 -54 -55 0
25 -26 -33 0
25 56 -66 0
27 40 53 0
28 -49 -59 0
28 -30 -49 0
28 30 -45 0
28 40 54 0
28 42 44 0
29 34 -61 0
30 -47 51 0
31 -59 -63 0
31 -35 63 0
32 -36 38 0
32 37 60 0
32 65 69 0
33 -51 -65 0
33 -34 62 0
33 47 57 0
35 -41 55 0
35 -38 -51 0
37 59 64 0
38 -48 -65 0
38 -40 70 0
38 49 -64 0
39 -52 -64 0
42 -49 60 0
42 -43 -52 0
42 56 66 0
42 61 -70 0
43 -50 58 0
43 69 -70 0
44 -46 -55 0
44 47 67 0
45 -51 64 0
45 56 -70 0
47 -49 -66 0
55 -60 -62 0
55 64 -68 0
56 -66 69 0
