p cnf 28 119
-20 23 -28 0
-18 25 -27 0
-17 19 -23 0
-17 19 -21 0
-17 20 -26 0
-16 -22 -23 0
-16 24 -27 0
-15 16 24 0
-14 -22 24 0
-14 -21 -27 0
-14 20 28 0
-13 18 -25 0
-13 18 -19 0
-12 -17 26 0
-12 13 -22 0
-10 13 19 0
-10 14 17 0
-10 25 -28 0
-9 -17 26 0
-9 -11 -14 0
-8 -20 27 0
-8 -15 18 0
-8 -12 26 0
-8 10 23 0
-8 14 -28 0
-8 23 27 0
-8 27 -28 0
-7 8 -28 0
-7 10 -17 0
-7 14 -27 0
-6 -20 22 0
-6 17 -21 0
-5 -19 21 0
-5 6 -24 0
-4 -27 -28 0
-4 -20 26 0
-4 -18 26 0
-4 -15 -24 0
-4 -13 -17 0
-4 -11 19 0
-4 -8 -10 0
-4 -6 -12 0
-4 -5 6 0
-4 7 -21 0
-4 9 16 0
-4 10 15 0
-3 -26 -28 0
-3 -16 -17 0
-3 8 -23 0
-3 10 16 0
-3 12 19 0
-3 19 -28 0
-3 19 24 0
-2 -19 22 0
-2 -11 -26 0
-2 -3 -27 0
-2 12 -24 0
-2 19 -20 0
-2 19 20 0
-1 -8 -11 0
-1 -5 -6 0
-1 -2 23 0
-1 7 19 0
-1 9 18 0
-1 9 21 0
-1 10 13 0
-1 11 -19 0
1 -18 23 0
1 -7 17 0
1 -5 16 0
1 2 -28 0
1 11 17 0
2 -10 16 0
2 5 7 0
2 13 -20 0
2 13 21 0
2 18 -22 0
3 -14 -16 0
3 5 -28 0
3 5 18 0
3 6 -26 0
4 -8 -10 0
4 -8 23 0
4 -7 18 0
4 11 -24 0
4 11 19 0
4 13 26 0
5 -21 23 0
5 -16 24 0
5 -8 13 0
5 6 -11 0
5 12 23 0
5 13 -23 0
6 -8 -26 0
6 14 19 0
7 -8 21 0
7 8 23 0
8 -26 28 0
9 -11 -25 0
9 11 -24 0
9 13 -19 0
9 16 18 0
9 16 26 0
10 14 -23 0
11 -15 16 0
11 12 26 0
11 15 -24 0
11 15 16 0
12 -16 -23 0
12 -15 18 0
13 19 -22 0
15 -24 -28 0
15 -21 -27 0
15 16 27 0
16 -24 -25 0
16 17 -26 0
18 -20 -28 0
18 27 -28 0
19 -21 -27 0
