p cnf 140 595
-122 -125 135 0
-119 127 138 0
-117 -130 137 0
-116 122 -130 0
-114 -123 -132 0
-109 -120 -136 0
-103 119 -125 0
-100 -130 -134 0
-98 105 -132 0
-97 99 -140 0
-95 -100 -113 0
-94 106 -117 0
-93 -107 125 0
-93 -94 114 0
-89 -93 -120 0
-89 95 -133 0
-88 -123 125 0
-88 94 136 0
-87 100 -105 0
-85 -127 140 0
-85 107 121 0
-84 123 -125 0
-83 -99 -103 0
-81 82 -116 0
-79 -100 -104 0
-79 -92 -125 0
-76 83 -92 0
-75 -100 -140 0
-75 -78 131 0
-75 82 105 0
-75 96 -103 0
-75 100 110 0
-72 74 -111 0
-72 78 79 0
-72 80 -108 0
-72 104 -117 0
-71 -87 133 0
-71 116 -137 0
-69 -76 -116 0
-69 -73 -96 0
-69 88 -138 0
-69 132 140 0
-67 115 128 0
-66 134 -140 0
-65 67 137 0
-65 75 98 0
-64 -128 -134 0
-64 67 93 0
-64 88 -130 0
-63 -93 -133 0
-62 63 -74 0
-62 92 -118 0
-61 -125 139 0
-61 63 -130 0
-60 -83 -111 0
-60 68 72 0
-59 -98 126 0
-59 97 111 0
-58 -106 -122 0
-58 60 106 0
-58 73 -137 0
-57 -78 134 0
-57 59 -138 0
-56 -75 113 0
-56 60 -85 0
-56 66 102 0
-56 97 130 0
-55 -116 129 0
-55 -91 118 0
-55 -62 83 0
-54 -63 -100 0
-54 91 98 0
-53 -96 -103 0
-53 -84 -136 0
-53 54 -98 0
-53 71 -80 0
-52 -108 -126 0
-52 60 72 0
-51 -86 93 0
-50 -65 -77 0
-50 76 -113 0
-50 78 -134 0
-50 103 -138 0
-49 -86 -133 0
-49 72 -121 0
-49 72 -89 0
-48 66 -128 0
-48 75 107 0
-48 80 133 0
-48 106 -113 0
-48 128 133 0
-47 48 73 0
-47 70 91 0
-47 109 -115 0
-46 -105 -131 0
-46 91 -114 0
-46 114 -136 0
-45 98 135 0
-45 102 -104 0
-45 114 -125 0
-45 115 -119 0
-44 53 -140 0
-44 53 108 0
-43 -66 -87 0
-42 -68 -140 0
-42 47 -83 0
-41 -53 -88 0
-41 81 -84 0
-40 -77 98 0
-40 -52 68 0
-40 66 -131 0
-39 -92 -131 0
-39 -77 -80 0
-39 -53 95 0
-39 40 135 0
-39 41 61 0
-39 77 -112 0
-38 -71 89 0
-38 41 107 0
-38 52 69 0
-37 53 -115 0
-37 69 87 0
-37 93 -134 0
-37 121 140 0
-36 37 110 0
-35 -103 -135 0
-35 -69 131 0
-35 -55 -121 0
-35 -49 137 0
-34 -52 55 0
-34 58 96 0
-33 -120 123 0
-33 56 58 0
-33 79 129 0
-32 -95 137 0
-32 -53 -122 0
-31 -37 83 0
-31 43 122 0
-31 84 107 0
-31 119 127 0
-30 -128 138 0
-30 -89 94 0
-30 -43 -90 0
-30 66 120 0
-30 68 100 0
-30 104 113 0
-29 -65 84 0
-29 -64 73 0
-29 -57 -113 0
-29 61 113 0
-28 -103 -117 0
-28 -48 61 0
-27 -80 -89 0
-27 74 -83 0
-26 -55 -116 0
-26 -30 106 0
-26 -28 96 0
-26 28 -40 0
-26 111 140 0
-25 -64 121 0
-25 -55 -73 0
-25 -54 69 0
-25 -49 -53 0
-25 47 121 0
-25 85 98 0
-25 96 122 0
-24 -66 128 0
-24 -52 -61 0
-24 -48 -95 0
-24 90 -117 0
-23 -45 63 0
-23 81 -106 0
-22 43 120 0
-22 109 -136 0
-21 -64 136 0
-21 -23 -69 0
-21 23 -106 0
-21 45 -74 0
-21 57 -72 0
-20 -96 97 0
-20 -50 -71 0
-20 -29 -84 0
-20 38 98 0
-20 57 -83 0
-20 90 -135 0
-19 -116 125 0
-19 -103 -120 0
-19 -42 128 0
-19 -27 -62 0
-19 -26 85 0
-19 43 -73 0
-18 -53 83 0
-18 -37 -91 0
-18 -33 -86 0
-18 78 107 0
-18 106 -140 0
-17 -39 41 0
-17 -28 76 0
-17 -27 62 0
-16 -68 -96 0
-15 -26 53 0
-15 56 -79 0
-15 74 118 0
-14 -63 117 0
-14 33 94 0
-14 56 -102 0
-14 88 138 0
-13 -94 -119 0
-13 -44 -122 0
-13 -33 -75 0
-13 36 64 0
-13 47 -69 0
-13 93 -120 0
-12 -123 -132 0
-12 -112 118 0
-12 -74 117 0
-12 -33 44 0
-12 15 -78 0
-12 20 -67 0
-12 36 -40 0
-11 -105 119 0
-11 -73 118 0
-11 -15 -81 0
-11 36 86 0
-11 43 -115 0
-11 77 87 0
-10 -47 71 0
-10 52 125 0
-10 52 136 0
-10 75 95 0
-9 -109 115 0
-9 -91 109 0
-9 20 108 0
-9 53 64 0
-9 78 105 0
-8 -127 138 0
-8 -63 -123 0
-8 -56 -117 0
-8 -13 93 0
-8 30 138 0
-8 37 -73 0
-8 52 -134 0
-7 -63 87 0
-7 -38 -138 0
-7 -17 41 0
-7 16 111 0
-7 17 93 0
-7 18 134 0
-7 28 -50 0
-7 32 -113 0
-7 36 -55 0
-7 36 96 0
-6 -96 -138 0
-6 -90 -136 0
-6 -87 -140 0
-6 -87 -112 0
-6 -11 -71 0
-6 63 124 0
-5 -80 113 0
-5 -39 140 0
-5 -15 110 0
-5 -10 -126 0
-5 21 -79 0
-5 37 -68 0
-5 67 -103 0
-4 -22 -45 0
-4 -10 97 0
-4 34 -87 0
-3 -108 121 0
-3 -85 -125 0
-3 -28 -140 0
-3 -14 -87 0
-3 35 -92 0
-3 96 119 0
-2 -68 79 0
-2 -56 122 0
-2 -55 117 0
-2 -52 121 0
-2 -31 -104 0
-2 -27 -39 0
-2 18 -92 0
-2 58 -102 0
-1 -18 -67 0
-1 -10 -103 0
-1 -7 131 0
-1 28 -59 0
-1 68 82 0
1 -65 94 0
1 -59 -126 0
1 -47 -138 0
1 -31 -90 0
1 -23 34 0
1 7 26 0
1 11 -135 0
1 54 -103 0
2 -38 -82 0
2 -34 64 0
2 4 -35 0
2 73 96 0
3 -66 -95 0
3 -40 65 0
3 -24 98 0
3 -16 120 0
3 -10 -25 0
3 20 86 0
3 24 85 0
3 36 104 0
3 42 106 0
3 76 -123 0
4 -67 -93 0
4 -23 25 0
4 -16 -138 0
4 14 -31 0
4 47 91 0
4 97 118 0
5 -58 -120 0
5 -18 -105 0
5 9 -51 0
5 19 57 0
5 47 116 0
5 48 -113 0
5 117 -121 0
5 126 -135 0
6 -111 121 0
6 -14 -108 0
6 -12 138 0
6 27 48 0
6 41 -118 0
6 68 99 0
6 99 104 0
7 -64 -101 0
7 27 -119 0
7 47 -120 0
8 -38 -70 0
8 -17 118 0
8 15 132 0
8 26 101 0
8 29 -121 0
9 -138 -140 0
9 -127 -131 0
9 -38 123 0
9 -34 62 0
9 -28 -56 0
9 52 103 0
9 112 -113 0
10 -85 -93 0
10 85 -120 0
11 -49 -88 0
11 -29 117 0
11 -18 -130 0
11 28 -80 0
11 31 47 0
12 -109 136 0
12 -86 -97 0
12 -58 -99 0
12 -48 -136 0
12 -39 -137 0
12 -36 51 0
12 -35 -137 0
12 64 -88 0
13 -107 -133 0
13 34 -84 0
13 40 -80 0
14 -131 -134 0
14 -82 99 0
14 71 -95 0
14 77 106 0
14 83 84 0
15 -83 -119 0
15 -73 -125 0
15 -48 -91 0
15 -18 -24 0
16 -50 127 0
16 -32 40 0
16 -23 -116 0
16 18 -94 0
16 52 -65 0
16 65 86 0
16 87 -89 0
16 117 140 0
17 -107 108 0
17 -43 -74 0
17 -41 -106 0
17 -41 52 0
17 -40 96 0
17 -34 106 0
17 59 -133 0
18 -95 114 0
18 -91 133 0
18 -61 -88 0
18 22 55 0
18 26 88 0
18 43 79 0
18 46 -117 0
18 53 -131 0
18 95 99 0
19 -125 139 0
19 -88 111 0
19 -59 -125 0
19 -24 77 0
20 -84 -89 0
20 -74 125 0
20 -64 89 0
20 21 -83 0
20 33 -73 0
20 69 -122 0
21 -122 -130 0
21 -65 70 0
21 26 107 0
21 66 -90 0
21 68 -76 0
22 -125 -135 0
22 -67 -87 0
22 -56 130 0
22 -45 129 0
22 58 122 0
22 97 -125 0
23 -119 -138 0
23 -69 92 0
23 75 102 0
23 80 135 0
24 -31 66 0
24 -28 38 0
24 -25 136 0
24 75 136 0
24 82 -126 0
24 93 133 0
25 -75 -114 0
25 -36 -68 0
25 54 92 0
25 62 113 0
26 -58 -82 0
26 -52 -137 0
26 -27 -94 0
26 71 111 0
27 -51 118 0
27 -28 96 0
27 29 -133 0
28 -95 -104 0
28 -77 -135 0
28 -33 133 0
28 -31 121 0
29 -59 -108 0
29 91 -121 0
30 -78 -86 0
30 -53 88 0
31 -91 -102 0
31 -44 62 0
31 33 -92 0
31 38 47 0
31 41 -108 0
31 56 -88 0
31 74 101 0
32 -83 92 0
32 -78 105 0
32 74 123 0
32 83 -120 0
33 -85 -130 0
33 51 136 0
34 -124 -134 0
34 -105 135 0
34 -80 122 0
34 -69 -128 0
34 -67 115 0
34 -54 137 0
35 -54 -62 0
35 43 -49 0
35 43 136 0
35 104 112 0
36 71 -85 0
37 -89 101 0
37 -87 101 0
37 -85 115 0
37 -56 -65 0
37 -40 -91 0
37 52 100 0
37 57 -84 0
37 75 -111 0
38 -118 120 0
38 85 -98 0
39 -54 -78 0
39 58 108 0
39 60 -70 0
39 73 95 0
39 92 116 0
40 -119 130 0
40 -106 -110 0
40 -72 77 0
40 57 108 0
40 85 98 0
41 -87 112 0
41 -81 115 0
41 -78 -119 0
41 -72 105 0
41 -66 -92 0
41 -49 61 0
41 43 -72 0
42 -92 -111 0
42 -81 94 0
42 74 86 0
43 -79 -104 0
44 -93 -105 0
44 -71 -117 0
44 -57 129 0
44 -50 -53 0
44 95 114 0
44 120 127 0
45 -116 121 0
45 -72 94 0
45 70 81 0
46 -78 103 0
46 -72 -75 0
46 -72 80 0
46 -59 94 0
47 -50 -103 0
47 -50 -73 0
48 -70 76 0
48 -53 -56 0
49 -87 126 0
49 85 105 0
49 106 119 0
50 69 -110 0
50 116 124 0
51 -79 -114 0
52 -85 95 0
53 -74 -104 0
53 -64 87 0
53 123 -132 0
54 -90 -116 0
55 -59 -101 0
56 -123 134 0
56 -71 -111 0
57 -64 123 0
57 79 123 0
58 -125 139 0
58 -61 88 0
59 -86 112 0
59 81 -118 0
60 61 118 0
61 -75 -88 0
62 -97 133 0
62 68 -109 0
62 73 -116 0
63 70 122 0
63 103 -110 0
64 86 -134 0
64 91 136 0
64 131 136 0
65 -90 -93 0
65 102 120 0
66 -106 131 0
67 -94 -99 0
67 75 84 0
67 94 -96 0
68 72 -118 0
68 91 -129 0
68 106 108 0
69 90 109 0
69 95 108 0
70 -87 -105 0
70 82 -108 0
70 89 104 0
71 -124 129 0
71 73 84 0
72 -114 -140 0
72 -91 97 0
72 -80 114 0
72 82 107 0
73 -99 -131 0
73 113 -133 0
77 -82 83 0
79 87 -110 0
82 93 -123 0
83 92 -126 0
83 118 -123 0
84 -115 -132 0
86 -110 113 0
87 -125 135 0
87 -103 115 0
87 118 139 0
89 -113 122 0
89 -94 -97 0
90 -91 -100 0
93 -132 -140 0
95 113 -120 0
104 -108 123 0
105 114 -134 0
107 110 127 0
111 128 -130 0
116 -118 119 0
118 119 140 0
120 -127 -137 0
122 -134 -137 0
122 130 -136 0
122 137 -138 0
