p cnf 80 340
-67 -72 -74 0
-63 -74 -75 0
-61 73 -75 0
-59 63 69 0
-57 -76 80 0
-57 65 -68 0
-55 68 78 0
-52 -69 -80 0
-51 -75 80 0
-50 -63 -67 0
-48 57 71 0
-46 -77 -78 0
-46 61 65 0
-45 -74 76 0
-45 -56 66 0
-44 -70 -76 0
-44 -52 66 0
-43 60 -64 0
-42 -73 -74 0
-42 -50 -65 0
-42 -48 -78 0
-42 62 -63 0
-41 -63 67 0
-40 -41 66 0
-39 47 55 0
-38 -61 -63 0
-37 -48 50 0
-37 46 57 0
-36 -56 -61 0
-36 -53 -59 0
-36 -46 47 0
-36 -43 63 0
-36 50 75 0
-35 -48 72 0
-35 42 -73 0
-35 62 75 0
-34 -51 -53 0
-34 68 78 0
-33 -47 -79 0
-33 61 -65 0
-31 -77 -78 0
-31 -36 42 0
-31 49 77 0
-29 -38 -63 0
-29 -35 45 0
-29 50 -61 0
-28 35 -58 0
-28 35 62 0
-27 -36 -52 0
-27 54 -74 0
-27 58 76 0
-26 -65 -74 0
-26 -54 -73 0
-26 37 65 0
-26 66 -76 0
-25 62 71 0
-24 25 63 0
-23 26 -64 0
-23 42 62 0
-22 -55 -59 0
-22 -32 -72 0
-22 -26 65 0
-22 36 -73 0
-21 -32 -62 0
-21 -32 37 0
-21 -27 -36 0
-20 -56 70 0
-20 -45 -71 0
-20 -21 74 0
-20 24 -48 0
-20 66 -73 0
-19 -68 72 0
-19 -48 55 0
-19 -42 56 0
-19 -27 45 0
-19 63 75 0
-18 -24 -50 0
-18 30 -35 0
-18 33 -46 0
-17 -48 68 0
-17 -42 -74 0
-17 -40 54 0
-16 17 41 0
-16 17 52 0
-15 -45 -79 0
-15 48 54 0
-15 54 -80 0
-15 76 80 0
-14 56 75 0
-14 63 -69 0
-13 24 -55 0
-13 31 47 0
-12 -50 65 0
-12 -15 -63 0
-12 -13 26 0
-12 14 36 0
-12 23 33 0
-12 28 77 0
-12 45 -52 0
-11 -72 -75 0
-11 -28 -49 0
-11 -13 51 0
-11 49 -54 0
-10 -41 -42 0
-10 -33 76 0
-10 -30 60 0
-10 -29 69 0
-10 -24 46 0
-10 -21 43 0
-10 12 -45 0
-10 15 -18 0
-10 38 -65 0
-10 45 -69 0
-9 -47 53 0
-9 32 -60 0
-9 33 67 0
-9 38 -61 0
-8 -52 74 0
-8 -41 -65 0
-8 -26 -63 0
-8 -20 -38 0
-8 14 21 0
-8 36 80 0
-8 41 74 0
-8 51 52 0
-8 64 -78 0
-7 -44 -79 0
-7 -20 -25 0
-7 -12 29 0
-7 25 -57 0
-7 26 55 0
-6 -40 73 0
-6 -12 -34 0
-6 8 -61 0
-6 19 76 0
-6 25 -61 0
-6 26 32 0
-5 -51 65 0
-5 -15 -24 0
-5 -9 -47 0
-5 -8 38 0
-5 8 35 0
-5 14 18 0
-5 16 -54 0
-5 35 80 0
-5 38 41 0
-5 74 -76 0
-4 -71 -80 0
-4 -31 -36 0
-4 -29 45 0
-4 -13 22 0
-4 17 -21 0
-4 24 -40 0
-4 60 76 0
-3 -71 -77 0
-3 -32 -78 0
-3 -20 -27 0
-3 -20 37 0
-3 -16 30 0
-3 -12 75 0
-3 6 8 0
-2 -6 -14 0
-2 -3 66 0
-2 30 70 0
-2 34 -78 0
-2 34 66 0
-2 54 63 0
-1 2 -40 0
-1 2 -3 0
-1 5 74 0
-1 6 -48 0
-1 7 -31 0
-1 7 18 0
-1 8 14 0
-1 16 36 0
-1 54 75 0
-1 62 69 0
1 -10 75 0
1 4 -57 0
1 13 -40 0
1 40 -44 0
2 -64 71 0
2 -54 -61 0
2 -22 61 0
2 -19 -38 0
2 28 -64 0
2 37 66 0
3 -36 -52 0
3 -23 48 0
3 -21 -63 0
3 23 -46 0
3 34 -52 0
3 66 68 0
4 -67 -74 0
4 -42 -64 0
4 -17 -20 0
4 13 -51 0
4 18 -24 0
4 57 -76 0
4 72 -74 0
5 -51 58 0
5 -48 -51 0
5 -10 17 0
5 -10 37 0
5 9 65 0
5 14 39 0
5 25 -26 0
5 47 -50 0
6 -24 -35 0
6 10 60 0
6 44 -80 0
7 -20 -49 0
7 -17 -60 0
7 -10 38 0
7 54 -78 0
8 -31 79 0
8 -17 -53 0
8 9 -33 0
8 18 69 0
8 28 -70 0
8 52 -69 0
9 -44 -60 0
9 -36 -75 0
9 -21 -70 0
9 -14 -58 0
9 -11 -61 0
10 -47 71 0
10 -22 -24 0
10 13 -75 0
10 16 -39 0
10 23 33 0
10 28 59 0
10 66 -76 0
11 -42 -56 0
11 29 39 0
11 31 -80 0
11 34 35 0
11 55 -62 0
11 73 80 0
12 18 -80 0
13 20 -61 0
13 22 -60 0
13 27 -56 0
13 33 -49 0
13 33 71 0
13 54 -62 0
14 -19 39 0
14 26 52 0
15 -42 -77 0
15 -18 22 0
15 18 21 0
15 18 77 0
15 37 -55 0
15 54 72 0
15 73 74 0
16 -66 -73 0
16 -61 -80 0
16 -57 -69 0
16 -23 -67 0
16 -20 -60 0
16 18 32 0
16 30 -35 0
16 66 -71 0
17 -27 78 0
17 -18 29 0
17 26 -44 0
17 26 49 0
17 30 70 0
18 -40 44 0
18 -21 -79 0
18 22 -76 0
18 22 -33 0
19 44 -54 0
19 45 56 0
19 58 70 0
20 -38 67 0
20 -25 70 0
20 49 -69 0
20 64 68 0
21 -53 -75 0
21 29 -69 0
21 29 -67 0
21 54 -75 0
22 -23 -49 0
22 38 -51 0
22 50 62 0
23 -49 -72 0
23 -29 -39 0
23 -25 30 0
23 30 40 0
23 40 -55 0
24 -65 76 0
24 -58 71 0
24 53 -70 0
25 -54 56 0
25 29 -57 0
26 -56 59 0
26 -35 60 0
26 -34 -43 0
26 44 -67 0
27 -41 63 0
27 30 63 0
28 -63 64 0
28 -48 74 0
28 41 56 0
29 37 -43 0
30 -55 64 0
30 -48 76 0
31 -65 68 0
31 -47 -61 0
32 70 77 0
33 58 76 0
34 -46 72 0
34 40 -61 0
34 40 64 0
35 -46 56 0
35 55 -71 0
36 -38 -54 0
36 64 -75 0
37 -38 -39 0
37 54 -75 0
39 -45 78 0
39 -44 52 0
39 72 79 0
40 -67 77 0
40 -60 -80 0
41 -46 56 0
44 49 -71 0
45 -64 -65 0
45 53 62 0
45 53 70 0
46 -57 -69 0
47 -63 70 0
47 53 -62 0
47 74 80 0
50 -65 70 0
50 -64 67 0
51 71 79 0
52 -71 -76 0
55 75 78 0
