p cnf 32 136
-27 -29 -30 0
-24 -25 27 0
-23 -26 28 0
-20 22 -24 0
-18 -25 29 0
-14 -15 16 0
-14 21 -27 0
-13 -29 -31 0
-13 -22 -31 0
-13 14 -16 0
-13 24 31 0
-12 -16 -29 0
-11 -19 -24 0
-11 13 -30 0
-11 13 -23 0
-11 14 -29 0
-11 15 23 0
-11 18 -26 0
-11 22 -29 0
-10 23 30 0
-9 -23 32 0
-9 -13 18 0
-9 -12 -24 0
-9 21 -29 0
-9 26 32 0
-8 25 -30 0
-7 -26 -28 0
-7 -11 -30 0
-7 15 -30 0
-6 -25 28 0
-6 -13 19 0
-6 -7 -20 0
-6 11 -15 0
-6 18 25 0
-6 19 24 0
-5 -27 29 0
-5 -20 26 0
-5 -19 -31 0
-5 -18 -27 0
-5 -14 -21 0
-5 18 -29 0
-4 -8 -25 0
-4 -7 21 0
-4 -6 12 0
-4 8 -30 0
-4 12 20 0
-3 -25 -26 0
-3 -22 30 0
-3 14 24 0
-2 -16 -22 0
-2 3 -18 0
-2 8 -13 0
-2 13 16 0
-2 15 17 0
-2 21 -29 0
-1 -24 29 0
-1 -19 -32 0
-1 -12 15 0
-1 -8 -21 0
-1 -3 20 0
-1 -2 13 0
-1 10 16 0
1 -23 -27 0
1 -5 -18 0
2 -7 30 0
2 6 -20 0
2 9 -23 0
2 9 25 0
2 10 23 0
3 -17 -18 0
3 -16 20 0
3 4 21 0
3 13 -20 0
3 14 -21 0
3 15 18 0
3 25 31 0
4 -20 -27 0
4 -8 -24 0
4 8 27 0
4 10 14 0
4 13 22 0
4 20 -22 0
5 -28 -31 0
5 -21 23 0
5 -19 -29 0
5 20 31 0
5 21 -28 0
6 -20 21 0
6 -13 -25 0
6 -9 -27 0
6 -8 17 0
6 7 -24 0
6 7 -11 0
7 -18 -32 0
7 -18 21 0
7 -11 -28 0
7 -10 22 0
7 9 30 0
7 12 23 0
8 -31 32 0
8 -22 -26 0
8 -18 -24 0
8 -9 -19 0
8 -9 -13 0
8 10 20 0
8 13 25 0
9 -12 25 0
9 17 19 0
10 -12 25 0
10 19 29 0
10 21 -28 0
11 -26 -30 0
11 13 -18 0
12 18 26 0
12 22 24 0
13 -16 -31 0
13 -15 18 0
13 17 -27 0
13 24 -25 0
14 -22 -31 0
14 -15 16 0
14 17 -31 0
15 -27 30 0
16 18 -32 0
16 19 28 0
18 -22 23 0
18 -19 -21 0
18 30 -31 0
19 24 -32 0
20 -24 29 0
21 -24 -30 0
21 25 32 0
22 -23 -28 0
22 23 -31 0
23 -27 29 0
26 28 -29 0
