p cnf 90 383
-76 79 85 0
-71 -81 -85 0
-70 -71 -81 0
-69 -81 -82 0
-67 -74 -84 0
-66 -86 88 0
-65 69 -79 0
-63 -81 82 0
-60 79 86 0
-59 -75 76 0
-58 73 -74 0
-56 -72 -78 0
-56 68 -72 0
-55 -59 -75 0
-51 61 70 0
-50 61 67 0
-49 -76 84 0
-49 -56 -82 0
-49 60 -69 0
-48 52 -77 0
-48 58 88 0
-47 -81 -89 0
-47 64 70 0
-46 -71 -83 0
-46 53 76 0
-45 -53 87 0
-45 75 -87 0
-45 80 88 0
-44 74 80 0
-43 -59 72 0
-43 -46 -49 0
-42 -46 80 0
-42 -44 -85 0
-42 45 70 0
-42 47 -82 0
-42 61 66 0
-42 68 77 0
-41 45 -68 0
-41 49 81 0
-41 52 87 0
-41 53 86 0
-41 61 -67 0
-40 -74 -89 0
-40 61 -85 0
-40 85 -89 0
-39 -58 64 0
-38 47 53 0
-38 74 86 0
-37 -50 -54 0
-37 88 -89 0
-36 -65 78 0
-35 -61 89 0
-35 41 88 0
-34 -49 -82 0
-34 42 74 0
-33 -60 -74 0
-32 45 56 0
-31 -58 -84 0
-31 52 71 0
-30 -33 62 0
-30 32 36 0
-30 38 47 0
-30 54 -76 0
-30 77 -86 0
-29 -57 -76 0
-29 -45 62 0
-29 -35 -75 0
-29 -30 -32 0
-29 74 86 0
-28 -65 -74 0
-28 -35 69 0
-27 -59 85 0
-27 -51 -72 0
-27 -42 65 0
-27 54 -73 0
-27 66 74 0
-26 -59 89 0
-25 -75 83 0
-25 59 -76 0
-25 68 79 0
-25 71 72 0
-24 -84 -85 0
-24 54 59 0
-23 -67 -80 0
-23 -56 -69 0
-23 -47 77 0
-23 -38 -68 0
-23 26 83 0
-23 41 84 0
-23 50 78 0
-22 33 43 0
-21 -41 49 0
-21 -39 -43 0
-21 -32 55 0
-20 -24 65 0
-20 63 -69 0
-19 -51 -76 0
-19 -49 72 0
-19 -41 76 0
-19 -30 -64 0
-19 -25 58 0
-19 -24 -58 0
-19 32 90 0
-19 61 84 0
-18 -38 -69 0
-18 -33 -55 0
-18 42 -51 0
-18 56 -64 0
-17 -27 47 0
-17 22 -47 0
-17 34 -36 0
-17 48 61 0
-16 -20 -27 0
-16 17 -64 0
-16 29 44 0
-16 30 73 0
-16 33 39 0
-16 42 -87 0
-16 55 68 0
-15 -48 -52 0
-15 -19 -40 0
-15 24 53 0
-15 36 -84 0
-14 -62 83 0
-14 -28 49 0
-14 25 -80 0
-14 30 -35 0
-14 31 79 0
-14 58 62 0
-13 -62 -86 0
-13 -59 68 0
-13 -37 49 0
-13 -20 -87 0
-13 -15 -53 0
-12 -37 -87 0
-12 -36 -40 0
-12 -34 50 0
-12 -32 -55 0
-12 -24 64 0
-12 -20 87 0
-12 17 -76 0
-12 30 90 0
-12 39 83 0
-11 12 63 0
-11 24 -69 0
-10 -61 79 0
-10 -24 -65 0
-10 20 76 0
-10 38 -86 0
-10 57 -61 0
-9 -63 65 0
-9 -42 58 0
-9 -41 -83 0
-9 15 -26 0
-9 17 71 0
-8 -23 -30 0
-8 -22 -43 0
-8 -17 59 0
-8 33 69 0
-7 -40 -60 0
-7 -35 -87 0
-7 -28 31 0
-7 -20 -75 0
-7 -12 81 0
-7 13 -46 0
-7 13 64 0
-7 37 57 0
-6 -58 85 0
-6 28 72 0
-5 -63 -84 0
-5 -24 58 0
-5 -15 46 0
-5 20 -63 0
-5 33 72 0
-4 -17 18 0
-4 11 -73 0
-4 20 73 0
-4 58 63 0
-4 61 79 0
-3 -77 85 0
-3 -16 22 0
-3 -15 31 0
-3 -8 -16 0
-3 -6 -18 0
-3 9 -35 0
-3 33 -90 0
-3 38 86 0
-3 60 79 0
-2 -52 -85 0
-2 -33 -61 0
-2 -27 80 0
-2 -19 -27 0
-2 31 -68 0
-2 55 -56 0
-1 -70 -85 0
-1 10 -34 0
-1 16 -71 0
-1 18 -19 0
-1 41 90 0
1 -40 56 0
1 -36 -77 0
1 9 -72 0
1 23 49 0
1 45 -73 0
2 -68 -80 0
2 -27 -86 0
2 -14 71 0
2 -6 -13 0
2 -3 79 0
2 11 62 0
2 33 -61 0
2 88 89 0
3 -18 -35 0
3 5 -52 0
3 10 -33 0
4 8 36 0
4 41 -54 0
4 56 -58 0
5 -75 -81 0
5 -27 34 0
5 -17 -42 0
5 34 -90 0
5 40 -54 0
6 -57 -74 0
6 -8 14 0
6 21 -40 0
6 45 -77 0
6 67 86 0
7 -39 44 0
7 10 -17 0
7 26 -51 0
7 58 -68 0
7 69 75 0
8 -52 71 0
8 -51 54 0
8 13 33 0
8 19 71 0
9 -71 82 0
9 -34 52 0
9 -30 -35 0
9 -12 -54 0
9 39 59 0
10 -58 -66 0
10 -42 -83 0
10 -26 32 0
10 -17 -79 0
10 43 60 0
11 -50 90 0
11 -41 55 0
11 -39 41 0
11 32 -46 0
11 33 37 0
11 40 -64 0
11 43 81 0
11 47 77 0
12 -37 -72 0
12 24 -40 0
12 40 48 0
12 54 89 0
12 55 -62 0
13 -17 -47 0
13 22 -35 0
13 55 -75 0
14 -58 -63 0
14 -25 -83 0
14 35 -45 0
14 43 67 0
14 61 -86 0
14 78 81 0
15 -54 -88 0
15 22 -72 0
15 34 55 0
16 -49 -78 0
16 -45 59 0
16 -18 21 0
17 -52 -54 0
17 -22 -79 0
17 44 -83 0
18 -32 78 0
18 39 -87 0
18 57 88 0
18 69 75 0
19 -53 65 0
19 -30 47 0
19 24 -49 0
19 26 -72 0
19 27 29 0
20 -32 -78 0
20 33 90 0
20 44 61 0
20 63 66 0
21 -33 -70 0
22 -47 62 0
22 25 80 0
22 42 -55 0
23 -69 88 0
23 -67 85 0
23 -48 79 0
23 -46 69 0
23 -39 52 0
23 -33 -69 0
23 -26 -41 0
24 -59 63 0
24 -52 -56 0
24 -31 33 0
24 -25 -56 0
24 -25 76 0
24 60 80 0
25 -61 73 0
25 -37 43 0
25 39 -65 0
25 52 62 0
26 -28 41 0
26 47 48 0
26 58 70 0
27 29 -59 0
28 -63 -79 0
28 -55 -82 0
29 48 56 0
30 -69 -82 0
30 35 -71 0
31 47 -55 0
31 49 70 0
31 65 -74 0
32 -41 87 0
32 -33 51 0
32 35 -71 0
33 -50 -84 0
33 -43 68 0
34 53 -64 0
34 67 -89 0
35 -81 -84 0
37 -39 71 0
37 48 -61 0
38 -69 88 0
38 63 -85 0
39 58 74 0
40 49 81 0
41 46 63 0
41 58 71 0
41 63 -69 0
42 -63 72 0
42 -60 72 0
43 -63 -67 0
43 48 -81 0
43 51 63 0
43 67 -88 0
43 67 -73 0
43 67 86 0
44 -65 -72 0
45 -60 -65 0
45 -54 64 0
45 47 56 0
46 -52 -63 0
46 74 77 0
47 -62 -67 0
47 64 -86 0
48 62 -69 0
49 52 -53 0
49 57 78 0
51 -74 89 0
51 62 -66 0
52 -61 -71 0
52 68 69 0
55 -57 68 0
56 72 88 0
56 78 88 0
57 -67 -70 0
57 59 73 0
57 63 -81 0
59 -62 86 0
59 74 80 0
60 -71 -89 0
60 66 -88 0
61 -63 83 0
62 -86 -89 0
68 -77 -85 0
71 -76 -80 0
73 80 -89 0
74 82 -88 0
75 -80 -84 0
76 83 85 0
80 -82 -85 0
