p cnf 90 383
-71 72 -88 0
-60 85 87 0
-58 -72 88 0
-58 -60 -81 0
-57 -62 70 0
-57 58 82 0
-56 -66 -75 0
-56 -59 67 0
-54 82 84 0
-53 -76 83 0
-52 58 -88 0
-50 -89 -90 0
-50 61 -74 0
-48 52 -69 0
-48 61 71 0
-47 -57 -80 0
-46 -63 -69 0
-46 75 -89 0
-45 75 88 0
-44 -45 -76 0
-43 -63 80 0
-42 60 80 0
-41 -49 51 0
-41 48 75 0
-40 46 57 0
-40 64 76 0
-37 48 84 0
-36 42 -60 0
-36 50 -53 0
-36 59 -81 0
-35 52 54 0
-34 -76 -86 0
-34 39 60 0
-33 -54 -83 0
-33 35 89 0
-32 -45 -56 0
-32 37 -87 0
-32 44 -56 0
-32 69 77 0
-31 -43 55 0
-31 42 61 0
-31 52 64 0
-31 57 60 0
-30 -68 -87 0
-30 -32 -33 0
-30 -31 57 0
-29 -70 -89 0
-29 -49 73 0
-29 31 -62 0
-29 34 72 0
-29 48 -55 0
-29 77 -83 0
-28 -31 -66 0
-27 -55 -90 0
-27 46 74 0
-27 67 -70 0
-27 68 78 0
-26 -43 -76 0
-26 -37 71 0
-26 -27 68 0
-26 31 42 0
-26 39 85 0
-25 -60 63 0
-25 -59 -90 0
-25 -54 -63 0
-25 -51 66 0
-25 -43 83 0
-25 38 85 0
-25 80 82 0
-24 30 63 0
-24 46 -82 0
-24 62 -82 0
-23 37 44 0
-22 24 -51 0
-22 37 89 0
-21 -28 -42 0
-21 48 -60 0
-20 -69 -85 0
-20 -63 79 0
-20 -42 -45 0
-20 -25 -78 0
-20 49 85 0
-19 -53 63 0
-19 -40 47 0
-19 -27 -30 0
-19 -23 -53 0
-19 23 68 0
-19 58 -72 0
-18 -31 -40 0
-18 -23 70 0
-18 -22 -43 0
-18 20 -31 0
-17 -50 55 0
-17 -40 -84 0
-17 -26 -58 0
-17 18 81 0
-17 32 -51 0
-16 -56 81 0
-16 -27 -87 0
-16 -20 81 0
-16 -19 -69 0
-16 20 -88 0
-16 31 -70 0
-16 44 68 0
-16 50 -82 0
-16 56 -66 0
-16 60 61 0
-15 -33 71 0
-15 -25 -33 0
-15 -21 67 0
-14 -73 -83 0
-14 -31 -42 0
-14 -18 -43 0
-14 -15 23 0
-14 21 -83 0
-13 -74 -79 0
-13 38 39 0
-12 -79 81 0
-12 -74 -87 0
-12 -49 -90 0
-12 -30 87 0
-12 -27 40 0
-12 -23 -85 0
-12 13 -22 0
-12 20 38 0
-12 34 58 0
-11 -59 -68 0
-11 -48 87 0
-11 25 29 0
-10 -24 -29 0
-10 -12 78 0
-10 29 -30 0
-10 53 79 0
-9 -52 -68 0
-9 -50 52 0
-9 -35 61 0
-9 -24 28 0
-9 -20 41 0
-9 15 -33 0
-9 82 88 0
-8 -65 66 0
-8 -45 53 0
-8 -37 47 0
-8 22 -49 0
-8 24 -62 0
-8 24 27 0
-8 64 82 0
-7 -67 -80 0
-7 -57 88 0
-7 -34 78 0
-7 -10 -25 0
-7 14 65 0
-7 24 -35 0
-6 -33 79 0
-6 39 -65 0
-6 48 51 0
-5 -40 -50 0
-5 -8 44 0
-5 -8 68 0
-5 41 -42 0
-5 44 52 0
-5 78 84 0
-4 -80 -89 0
-4 -60 82 0
-4 -57 76 0
-4 -42 -71 0
-4 5 -52 0
-4 46 -84 0
-3 -51 -84 0
-3 -37 -77 0
-3 -18 71 0
-3 -17 -40 0
-3 -10 -80 0
-3 21 -41 0
-3 28 57 0
-3 82 -90 0
-2 -59 -64 0
-2 -3 -15 0
-2 8 -79 0
-2 10 -14 0
-2 17 45 0
-2 26 -57 0
-2 47 56 0
-1 -84 86 0
-1 -55 -89 0
-1 -31 42 0
-1 -23 -66 0
-1 -20 52 0
-1 -15 -82 0
-1 24 56 0
-1 54 85 0
1 -47 83 0
1 -44 76 0
1 -38 -56 0
1 -32 34 0
1 -13 -80 0
1 10 -67 0
1 15 -82 0
1 21 -76 0
1 30 38 0
1 31 -45 0
1 39 74 0
1 45 68 0
2 -60 87 0
2 -41 -64 0
2 -34 42 0
2 -22 81 0
2 -17 -82 0
2 -11 43 0
2 17 -67 0
2 21 31 0
2 52 72 0
3 -50 -90 0
3 -41 -56 0
3 -33 -53 0
3 -7 -75 0
3 -4 42 0
3 58 63 0
3 62 -63 0
4 -61 76 0
4 -13 82 0
4 -6 76 0
4 9 75 0
4 9 76 0
4 22 -50 0
4 76 88 0
5 -23 67 0
5 -20 25 0
5 -20 28 0
5 -18 -37 0
5 -9 78 0
5 -8 -33 0
5 11 -28 0
5 14 48 0
5 36 64 0
5 39 41 0
6 -50 71 0
6 -7 -89 0
6 20 -32 0
6 30 -65 0
6 46 53 0
6 72 -82 0
7 -37 -81 0
7 -25 -72 0
7 -21 27 0
7 -10 -47 0
7 17 60 0
7 34 89 0
7 36 84 0
7 52 -88 0
7 57 -65 0
7 61 -64 0
8 -58 77 0
8 -44 -62 0
8 -32 -78 0
8 -12 -63 0
8 17 -81 0
9 -69 89 0
9 -55 62 0
9 -52 53 0
9 -28 89 0
9 11 -60 0
9 28 -56 0
10 -53 57 0
10 -31 -39 0
10 -14 -72 0
10 11 -59 0
10 12 -90 0
10 25 -43 0
10 55 71 0
10 63 -72 0
11 -26 63 0
11 22 -78 0
12 -74 -83 0
12 -39 57 0
12 23 -52 0
12 50 79 0
12 64 90 0
13 -42 73 0
14 -66 -78 0
14 48 -85 0
14 51 -90 0
14 61 73 0
14 61 83 0
14 64 69 0
15 -68 -75 0
15 -56 62 0
15 -21 -71 0
15 17 -88 0
15 39 52 0
15 50 61 0
16 -48 88 0
16 -40 -80 0
16 -17 20 0
16 -17 85 0
17 -72 83 0
17 -63 -71 0
17 -34 74 0
17 25 45 0
18 -61 89 0
18 -40 -57 0
19 -71 -80 0
19 -48 -87 0
19 27 31 0
19 31 66 0
21 -53 -68 0
21 -37 41 0
21 23 -46 0
21 23 -32 0
21 62 -72 0
22 -38 47 0
22 -33 47 0
22 23 59 0
23 -85 -86 0
23 39 -60 0
24 -37 -58 0
24 -36 85 0
24 55 76 0
25 33 69 0
25 36 -83 0
26 -47 -59 0
26 41 89 0
26 57 60 0
27 -34 77 0
27 36 -54 0
28 -31 61 0
29 -57 -81 0
29 -33 -37 0
29 67 -89 0
30 -73 -85 0
30 -47 -57 0
30 35 57 0
30 77 82 0
32 -66 86 0
32 -48 53 0
32 -43 -73 0
33 -53 69 0
34 53 81 0
34 66 -87 0
35 -37 82 0
35 55 -61 0
36 -42 58 0
36 60 -70 0
37 -57 83 0
37 -55 83 0
37 -54 -66 0
38 -51 60 0
39 -78 90 0
39 40 76 0
40 43 -60 0
40 43 90 0
40 73 88 0
42 43 51 0
42 62 -64 0
43 -70 -88 0
43 -68 -74 0
43 -60 -86 0
43 46 73 0
43 67 84 0
44 59 -83 0
44 71 72 0
45 -54 79 0
45 49 65 0
46 61 66 0
47 -79 90 0
48 78 -79 0
49 -59 -80 0
50 54 -89 0
51 81 -83 0
53 -63 -72 0
53 71 89 0
54 57 76 0
55 -56 62 0
59 -61 -79 0
60 65 -79 0
62 -65 82 0
62 67 -88 0
64 74 -82 0
66 73 -85 0
70 -75 83 0
71 -77 89 0
72 -74 76 0
75 86 -90 0
