p cnf 100 425
-86 87 -94 0
-81 93 -95 0
-72 -96 -97 0
-70 82 -90 0
-68 78 89 0
-64 68 96 0
-61 -80 95 0
-61 72 -79 0
-60 -63 64 0
-59 -83 95 0
-59 72 -95 0
-58 -88 93 0
-58 -63 -88 0
-56 -68 -69 0
-56 62 100 0
-56 71 -87 0
-53 63 -86 0
-53 75 99 0
-52 54 99 0
-50 -75 98 0
-50 53 -59 0
-49 -68 76 0
-49 58 -90 0
-49 65 -68 0
-48 51 -59 0
-48 63 65 0
-47 -65 -90 0
-46 -52 66 0
-44 45 83 0
-43 -44 73 0
-42 -87 -95 0
-42 -62 -70 0
-42 -57 91 0
-42 -55 92 0
-42 46 58 0
-42 47 72 0
-41 -63 78 0
-41 -60 -68 0
-41 -44 -55 0
-41 71 -92 0
-40 -70 96 0
-40 45 -96 0
-40 64 -77 0
-40 85 -90 0
-39 -74 100 0
-39 -49 -74 0
-39 49 -81 0
-39 87 -92 0
-38 -68 94 0
-38 -55 71 0
-38 -44 -80 0
-38 54 71 0
-37 -73 -85 0
-37 -61 -90 0
-37 -38 -69 0
-37 54 75 0
-37 84 98 0
-37 85 -96 0
-36 -42 -83 0
-35 -51 -95 0
-35 -46 -67 0
-35 84 97 0
-34 -86 96 0
-34 -65 -70 0
-34 36 -89 0
-33 -58 97 0
-32 -76 -87 0
-32 41 -78 0
-32 46 97 0
-31 -54 70 0
-31 47 65 0
-30 68 -83 0
-29 -33 85 0
-28 -76 83 0
-28 -49 -67 0
-28 51 -77 0
-28 53 -62 0
-28 60 -90 0
-27 -42 -69 0
-27 32 71 0
-27 49 74 0
-26 -98 100 0
-26 -62 99 0
-26 32 82 0
-26 42 -50 0
-26 42 78 0
-26 54 -65 0
-25 -43 58 0
-24 -30 -60 0
-24 29 -43 0
-24 30 -35 0
-23 -82 98 0
-23 -73 -97 0
-23 -52 85 0
-23 46 92 0
-23 58 87 0
-23 75 82 0
-23 85 -92 0
-22 -64 -91 0
-22 46 -48 0
-22 74 -75 0
-21 -46 54 0
-21 -28 -41 0
-21 36 -72 0
-20 -74 -92 0
-20 -22 44 0
-20 47 67 0
-20 94 -95 0
-19 -55 60 0
-19 -41 -56 0
-19 53 -80 0
-18 -86 -100 0
-18 -67 -74 0
-18 -34 60 0
-18 32 -96 0
-17 -27 -52 0
-17 -24 93 0
-16 -56 95 0
-16 -17 99 0
-16 44 95 0
-15 -60 -69 0
-15 -35 64 0
-15 -33 -73 0
-15 -28 -38 0
-15 42 46 0
-15 44 -60 0
-14 -35 -38 0
-14 85 -92 0
-13 -65 78 0
-13 -64 -89 0
-13 15 -52 0
-13 34 66 0
-13 34 89 0
-13 46 57 0
-12 -66 100 0
-12 -54 -94 0
-12 -21 -32 0
-11 -76 -83 0
-11 70 92 0
-10 -33 42 0
-10 -25 63 0
-10 26 -86 0
-10 28 -51 0
-10 39 -97 0
-10 40 82 0
-10 45 -76 0
-9 -10 -34 0
-9 46 -88 0
-9 48 -64 0
-9 57 100 0
-9 72 85 0
-9 79 93 0
-8 -63 -73 0
-8 -41 50 0
-8 -35 36 0
-8 -34 43 0
-8 28 -47 0
-8 36 -41 0
-8 46 69 0
-8 57 -81 0
-8 68 83 0
-8 71 -77 0
-7 -75 92 0
-7 -59 90 0
-7 -34 -72 0
-7 -22 43 0
-7 -8 80 0
-7 20 -93 0
-7 25 94 0
-7 54 -81 0
-6 -86 -91 0
-6 -45 97 0
-6 -35 50 0
-6 -28 -66 0
-6 -7 -56 0
-6 11 30 0
-6 31 -54 0
-6 63 -87 0
-6 90 98 0
-5 -44 78 0
-5 -38 -45 0
-5 -23 -90 0
-5 29 -56 0
-5 42 82 0
-4 -44 -53 0
-4 -16 99 0
-4 33 40 0
-4 45 48 0
-2 -82 94 0
-2 -42 -95 0
-2 -5 66 0
-2 14 20 0
-2 20 -75 0
-2 23 40 0
-1 -42 -53 0
-1 -23 76 0
-1 -12 -46 0
-1 35 -62 0
-1 60 -83 0
-1 67 99 0
-1 69 -81 0
1 -38 -74 0
1 4 31 0
1 15 66 0
1 20 -29 0
1 58 -82 0
1 69 84 0
1 70 94 0
2 -82 90 0
2 -46 48 0
2 -30 -74 0
2 -14 39 0
2 30 78 0
2 31 -36 0
2 43 63 0
2 47 -68 0
3 -28 79 0
3 -18 -70 0
3 -17 85 0
3 40 -43 0
3 75 -88 0
4 -78 -86 0
4 -14 36 0
4 9 -48 0
4 14 45 0
4 26 44 0
4 31 -80 0
4 35 -72 0
5 -42 -66 0
5 -27 53 0
5 -19 39 0
5 56 -82 0
5 60 -72 0
6 -65 -99 0
6 -18 -57 0
6 -18 -37 0
6 7 -79 0
6 9 36 0
6 13 97 0
6 31 68 0
7 -92 94 0
7 -22 37 0
7 -18 45 0
7 -17 -47 0
7 -17 41 0
7 -12 37 0
7 8 95 0
7 37 40 0
8 -39 51 0
8 -33 -61 0
8 -18 30 0
8 -16 67 0
8 -12 78 0
8 60 80 0
9 -29 -82 0
9 26 -49 0
9 36 -89 0
10 -13 25 0
10 24 -76 0
10 24 86 0
10 70 74 0
10 72 -95 0
10 79 -85 0
11 -80 100 0
11 -47 -94 0
11 -44 -97 0
11 60 69 0
11 61 -99 0
12 -45 -87 0
12 -35 84 0
12 -16 92 0
12 18 -20 0
12 53 -67 0
13 -96 -98 0
13 -25 55 0
13 -19 36 0
13 23 62 0
13 26 -76 0
13 42 -83 0
13 46 -73 0
14 -38 -69 0
14 -36 80 0
14 -27 -65 0
14 -24 -27 0
14 -23 -81 0
14 16 -19 0
15 -72 -90 0
15 -66 98 0
15 -36 -40 0
15 52 -93 0
16 -39 56 0
16 -27 -45 0
16 31 68 0
16 32 -46 0
16 71 78 0
17 -53 74 0
17 -37 69 0
17 -32 50 0
17 -30 -88 0
17 -21 68 0
17 -18 87 0
17 42 90 0
17 44 67 0
18 -84 -86 0
18 -34 47 0
18 -21 58 0
18 21 58 0
18 49 -61 0
18 70 -86 0
19 47 92 0
19 48 78 0
19 52 -82 0
19 52 -67 0
19 53 -79 0
20 64 -75 0
20 81 87 0
21 -61 -70 0
21 -43 68 0
21 -41 85 0
22 -55 69 0
22 -31 -96 0
22 26 41 0
22 30 -36 0
22 86 96 0
23 28 -67 0
24 -58 -100 0
24 -36 -72 0
24 35 96 0
24 46 -75 0
24 51 73 0
24 74 81 0
25 -58 84 0
25 38 69 0
25 52 -71 0
25 68 -71 0
26 -57 -58 0
26 -54 55 0
26 -34 53 0
26 55 -81 0
26 79 90 0
27 -97 -100 0
27 -44 -57 0
28 -56 -58 0
28 -38 90 0
29 -54 97 0
29 53 81 0
30 -42 88 0
30 -34 35 0
30 68 -99 0
31 -59 100 0
31 -47 78 0
31 -44 -98 0
31 32 36 0
32 35 80 0
33 -80 86 0
33 -69 70 0
33 -69 72 0
33 -54 99 0
33 -34 -99 0
34 57 -64 0
34 67 80 0
35 57 -95 0
35 61 90 0
35 83 86 0
36 -64 90 0
36 -40 -57 0
36 65 78 0
37 -40 86 0
37 51 57 0
38 -87 91 0
38 -62 -81 0
38 -48 58 0
38 45 88 0
39 -64 97 0
39 -53 73 0
39 44 65 0
40 -44 -72 0
41 48 89 0
41 55 90 0
41 72 -95 0
41 81 93 0
41 85 92 0
42 -49 -68 0
43 -53 -55 0
43 55 -66 0
43 65 -84 0
43 81 -83 0
44 47 -58 0
45 -76 95 0
45 -73 92 0
45 -72 86 0
45 70 83 0
47 -77 -87 0
47 -51 -55 0
48 -56 67 0
49 57 92 0
49 63 94 0
50 -70 -73 0
50 65 67 0
52 -74 -97 0
53 -65 98 0
53 -61 75 0
55 58 79 0
55 68 -73 0
56 65 79 0
57 65 -86 0
60 -62 69 0
60 62 99 0
60 87 -100 0
61 -78 84 0
61 -66 -83 0
61 72 -87 0
62 -69 -78 0
64 74 94 0
66 82 91 0
67 -68 -84 0
68 81 -87 0
71 85 -96 0
76 83 89 0
77 86 92 0
78 85 -97 0
80 85 92 0
83 89 -94 0
84 85 -96 0
85 -92 -99 0
