p cnf 49 194
-40 49 0
40 -49 0
-34 -35 -40 48 0
-34 -35 40 -48 0
-34 35 -40 -48 0
-34 35 40 48 0
-30 -31 -37 44 0
-30 -31 37 -44 0
-30 31 -37 -44 0
-30 31 37 44 0
-16 -23 -25 32 0
-16 -23 25 -32 0
-16 -21 -24 42 0
-16 -21 24 -42 0
-16 21 -24 -42 0
-16 21 24 42 0
-16 23 -25 -32 0
-16 23 25 32 0
-15 -22 -33 42 0
-15 -22 33 -42 0
-15 -17 -37 47 0
-15 -17 37 -47 0
-15 17 -37 -47 0
-15 17 37 47 0
-15 22 -33 -42 0
-15 22 33 42 0
-13 -28 -36 43 0
-13 -28 36 -43 0
-13 -17 -19 24 0
-13 -17 19 -24 0
-13 17 -19 -24 0
-13 17 19 24 0
-13 28 -36 -43 0
-13 28 36 43 0
-11 -29 -41 44 0
-11 -29 41 -44 0
-11 29 -41 -44 0
-11 29 41 44 0
-9 -14 -26 34 0
-9 -14 26 -34 0
-9 14 -26 -34 0
-9 14 26 34 0
-8 -20 -28 38 0
-8 -20 28 -38 0
-8 -19 -31 32 0
-8 -19 31 -32 0
-8 19 -31 -32 0
-8 19 31 32 0
-8 20 -28 -38 0
-8 20 28 38 0
-7 -12 -33 39 0
-7 -12 33 -39 0
-7 12 -33 -39 0
-7 12 33 39 0
-6 -25 -38 49 0
-6 -25 38 -49 0
-6 -9 -21 36 0
-6 -9 21 -36 0
-6 9 -21 -36 0
-6 9 21 36 0
-6 25 -38 -49 0
-6 25 38 49 0
-5 -7 -14 46 0
-5 -7 14 -46 0
-5 7 -14 -46 0
-5 7 14 46 0
-4 -12 -41 47 0
-4 -12 41 -47 0
-4 -5 -18 45 0
-4 -5 18 -45 0
-4 5 -18 -45 0
-4 5 18 45 0
-4 12 -41 -47 0
-4 12 41 47 0
-3 -20 -27 48 0
-3 -20 27 -48 0
-3 -18 -26 43 0
-3 -18 26 -43 0
-3 18 -26 -43 0
-3 18 26 43 0
-3 20 -27 -48 0
-3 20 27 48 0
-2 -22 -23 30 0
-2 -22 23 -30 0
-2 -10 -29 39 0
-2 -10 29 -39 0
-2 10 -29 -39 0
-2 10 29 39 0
-2 22 -23 -30 0
-2 22 23 30 0
-1 -11 -27 45 0
-1 -11 27 -45 0
-1 -10 -35 46 0
-1 -10 35 -46 0
-1 10 -35 -46 0
-1 10 35 46 0
-1 11 -27 -45 0
-1 11 27 45 0
1 -11 -27 -45 0
1 -11 27 45 0
1 -10 -35 -46 0
1 -10 35 46 0
1 10 -35 46 0
1 10 35 -46 0
1 11 -27 45 0
1 11 27 -45 0
2 -22 -23 -30 0
2 -22 23 30 0
2 -10 -29 -39 0
2 -10 29 39 0
2 10 -29 39 0
2 10 29 -39 0
2 22 -23 30 0
2 22 23 -30 0
3 -20 -27 -48 0
3 -20 27 48 0
3 -18 -26 -43 0
3 -18 26 43 0
3 18 -26 43 0
3 18 26 -43 0
3 20 -27 48 0
3 20 27 -48 0
4 -12 -41 -47 0
4 -12 41 47 0
4 -5 -18 -45 0
4 -5 18 45 0
4 5 -18 45 0
4 5 18 -45 0
4 12 -41 47 0
4 12 41 -47 0
5 -7 -14 -46 0
5 -7 14 46 0
5 7 -14 46 0
5 7 14 -46 0
6 -25 -38 -49 0
6 -25 38 49 0
6 -9 -21 -36 0
6 -9 21 36 0
6 9 -21 36 0
6 9 21 -36 0
6 25 -38 49 0
6 25 38 -49 0
7 -12 -33 -39 0
7 -12 33 39 0
7 12 -33 39 0
7 12 33 -39 0
8 -20 -28 -38 0
8 -20 28 38 0
8 -19 -31 -32 0
8 -19 31 32 0
8 19 -31 32 0
8 19 31 -32 0
8 20 -28 38 0
8 20 28 -38 0
9 -14 -26 -34 0
9 -14 26 34 0
9 14 -26 34 0
9 14 26 -34 0
11 -29 -41 -44 0
11 -29 41 44 0
11 29 -41 44 0
11 29 41 -44 0
13 -28 -36 -43 0
13 -28 36 43 0
13 -17 -19 -24 0
13 -17 19 24 0
13 17 -19 24 0
13 17 19 -24 0
13 28 -36 43 0
13 28 36 -43 0
15 -22 -33 -42 0
15 -22 33 42 0
15 -17 -37 -47 0
15 -17 37 47 0
15 17 -37 47 0
15 17 37 -47 0
15 22 -33 42 0
15 22 33 -42 0
16 -23 -25 -32 0
16 -23 25 32 0
16 -21 -24 -42 0
16 -21 24 42 0
16 21 -24 42 0
16 21 24 -42 0
16 23 -25 32 0
16 23 25 -32 0
30 -31 -37 -44 0
30 -31 37 44 0
30 31 -37 44 0
30 31 37 -44 0
34 -35 -40 -48 0
34 -35 40 48 0
34 35 -40 48 0
34 35 40 -48 0
