p cnf 49 194
-21 31 0
21 -31 0
-41 -44 -45 49 0
-41 -44 45 -49 0
-41 44 -45 -49 0
-41 44 45 49 0
-24 -25 -42 44 0
-24 -25 42 -44 0
-24 25 -42 -44 0
-24 25 42 44 0
-21 -26 -32 38 0
-21 -26 32 -38 0
-21 26 -32 -38 0
-21 26 32 38 0
-20 -24 -27 37 0
-20 -24 27 -37 0
-20 24 -27 -37 0
-20 24 27 37 0
-18 -22 -43 45 0
-18 -22 43 -45 0
-18 22 -43 -45 0
-18 22 43 45 0
-15 -23 -31 43 0
-15 -23 31 -43 0
-15 23 -31 -43 0
-15 23 31 43 0
-13 -15 -36 49 0
-13 -15 36 -49 0
-13 15 -36 -49 0
-13 15 36 49 0
-11 -19 -32 33 0
-11 -19 32 -33 0
-11 19 -32 -33 0
-11 19 32 33 0
-10 -17 -27 28 0
-10 -17 27 -28 0
-10 17 -27 -28 0
-10 17 27 28 0
-9 -16 -20 39 0
-9 -16 20 -39 0
-9 -14 -34 38 0
-9 -14 34 -38 0
-9 14 -34 -38 0
-9 14 34 38 0
-9 16 -20 -39 0
-9 16 20 39 0
-8 -16 -26 36 0
-8 -16 26 -36 0
-8 16 -26 -36 0
-8 16 26 36 0
-7 -13 -29 48 0
-7 -13 29 -48 0
-7 13 -29 -48 0
-7 13 29 48 0
-6 -28 -39 46 0
-6 -28 39 -46 0
-6 -7 -8 19 0
-6 -7 8 -19 0
-6 7 -8 -19 0
-6 7 8 19 0
-6 28 -39 -46 0
-6 28 39 46 0
-5 -14 -37 47 0
-5 -14 37 -47 0
-5 14 -37 -47 0
-5 14 37 47 0
-4 -23 -29 33 0
-4 -23 29 -33 0
-4 -12 -22 40 0
-4 -12 22 -40 0
-4 12 -22 -40 0
-4 12 22 40 0
-4 23 -29 -33 0
-4 23 29 33 0
-3 -17 -25 30 0
-3 -17 25 -30 0
-3 -12 -41 48 0
-3 -12 41 -48 0
-3 12 -41 -48 0
-3 12 41 48 0
-3 17 -25 -30 0
-3 17 25 30 0
-2 -11 -34 46 0
-2 -11 34 -46 0
-2 -5 -10 35 0
-2 -5 10 -35 0
-2 5 -10 -35 0
-2 5 10 35 0
-2 11 -34 -46 0
-2 11 34 46 0
-1 -30 -35 40 0
-1 -30 35 -40 0
-1 -18 -42 47 0
-1 -18 42 -47 0
-1 18 -42 -47 0
-1 18 42 47 0
-1 30 -35 -40 0
-1 30 35 40 0
1 -30 -35 -40 0
1 -30 35 40 0
1 -18 -42 -47 0
1 -18 42 47 0
1 18 -42 47 0
1 18 42 -47 0
1 30 -35 40 0
1 30 35 -40 0
2 -11 -34 -46 0
2 -11 34 46 0
2 -5 -10 -35 0
2 -5 10 35 0
2 5 -10 35 0
2 5 10 -35 0
2 11 -34 46 0
2 11 34 -46 0
3 -17 -25 -30 0
3 -17 25 30 0
3 -12 -41 -48 0
3 -12 41 48 0
3 12 -41 48 0
3 12 41 -48 0
3 17 -25 30 0
3 17 25 -30 0
4 -23 -29 -33 0
4 -23 29 33 0
4 -12 -22 -40 0
4 -12 22 40 0
4 12 -22 40 0
4 12 22 -40 0
4 23 -29 33 0
4 23 29 -33 0
5 -14 -37 -47 0
5 -14 37 47 0
5 14 -37 47 0
5 14 37 -47 0
6 -28 -39 -46 0
6 -28 39 46 0
6 -7 -8 -19 0
6 -7 8 19 0
6 7 -8 19 0
6 7 8 -19 0
6 28 -39 46 0
6 28 39 -46 0
7 -13 -29 -48 0
7 -13 29 48 0
7 13 -29 48 0
7 13 29 -48 0
8 -16 -26 -36 0
8 -16 26 36 0
8 16 -26 36 0
8 16 26 -36 0
9 -16 -20 -39 0
9 -16 20 39 0
9 -14 -34 -38 0
9 -14 34 38 0
9 14 -34 38 0
9 14 34 -38 0
9 16 -20 39 0
9 16 20 -39 0
10 -17 -27 -28 0
10 -17 27 28 0
10 17 -27 28 0
10 17 27 -28 0
11 -19 -32 -33 0
11 -19 32 33 0
11 19 -32 33 0
11 19 32 -33 0
13 -15 -36 -49 0
13 -15 36 49 0
13 15 -36 49 0
13 15 36 -49 0
15 -23 -31 -43 0
15 -23 31 43 0
15 23 -31 43 0
15 23 31 -43 0
18 -22 -43 -45 0
18 -22 43 45 0
18 22 -43 45 0
18 22 43 -45 0
20 -24 -27 -37 0
20 -24 27 37 0
20 24 -27 37 0
20 24 27 -37 0
21 -26 -32 -38 0
21 -26 32 38 0
21 26 -32 38 0
21 26 32 -38 0
24 -25 -42 -44 0
24 -25 42 44 0
24 25 -42 44 0
24 25 42 -44 0
41 -44 -45 -49 0
41 -44 45 49 0
41 44 -45 49 0
41 44 45 -49 0
