p cnf 73 290
-22 56 0
22 -56 0
-51 -58 -59 70 0
-51 -58 59 -70 0
-51 58 -59 -70 0
-51 58 59 70 0
-42 -48 -61 69 0
-42 -48 61 -69 0
-42 48 -61 -69 0
-42 48 61 69 0
-39 -50 -52 54 0
-39 -50 52 -54 0
-39 50 -52 -54 0
-39 50 52 54 0
-30 -45 -62 72 0
-30 -45 62 -72 0
-30 45 -62 -72 0
-30 45 62 72 0
-29 -36 -43 44 0
-29 -36 43 -44 0
-29 36 -43 -44 0
-29 36 43 44 0
-27 -34 -63 70 0
-27 -34 63 -70 0
-27 -28 -41 45 0
-27 -28 41 -45 0
-27 28 -41 -45 0
-27 28 41 45 0
-27 34 -63 -70 0
-27 34 63 70 0
-26 -33 -39 47 0
-26 -33 39 -47 0
-26 33 -39 -47 0
-26 33 39 47 0
-25 -34 -40 52 0
-25 -34 40 -52 0
-25 34 -40 -52 0
-25 34 40 52 0
-24 -35 -37 67 0
-24 -35 37 -67 0
-24 35 -37 -67 0
-24 35 37 67 0
-23 -43 -59 66 0
-23 -43 59 -66 0
-23 43 -59 -66 0
-23 43 59 66 0
-18 -36 -38 60 0
-18 -36 38 -60 0
-18 36 -38 -60 0
-18 36 38 60 0
-17 -32 -37 73 0
-17 -32 37 -73 0
-17 -19 -31 57 0
-17 -19 31 -57 0
-17 19 -31 -57 0
-17 19 31 57 0
-17 32 -37 -73 0
-17 32 37 73 0
-15 -25 -26 28 0
-15 -25 26 -28 0
-15 25 -26 -28 0
-15 25 26 28 0
-14 -44 -46 58 0
-14 -44 46 -58 0
-14 -30 -31 49 0
-14 -30 31 -49 0
-14 30 -31 -49 0
-14 30 31 49 0
-14 44 -46 -58 0
-14 44 46 58 0
-12 -18 -21 66 0
-12 -18 21 -66 0
-12 -16 -20 65 0
-12 -16 20 -65 0
-12 16 -20 -65 0
-12 16 20 65 0
-12 18 -21 -66 0
-12 18 21 66 0
-11 -54 -55 64 0
-11 -54 55 -64 0
-11 -40 -51 56 0
-11 -40 51 -56 0
-11 40 -51 -56 0
-11 40 51 56 0
-11 54 -55 -64 0
-11 54 55 64 0
-10 -16 -23 63 0
-10 -16 23 -63 0
-10 16 -23 -63 0
-10 16 23 63 0
-9 -15 -19 72 0
-9 -15 19 -72 0
-9 15 -19 -72 0
-9 15 19 72 0
-8 -35 -60 71 0
-8 -35 60 -71 0
-8 35 -60 -71 0
-8 35 60 71 0
-7 -21 -64 71 0
-7 -21 64 -71 0
-7 -20 -50 68 0
-7 -20 50 -68 0
-7 20 -50 -68 0
-7 20 50 68 0
-7 21 -64 -71 0
-7 21 64 71 0
-6 -13 -24 48 0
-6 -13 24 -48 0
-6 -9 -47 73 0
-6 -9 47 -73 0
-6 9 -47 -73 0
-6 9 47 73 0
-6 13 -24 -48 0
-6 13 24 48 0
-4 -22 -46 57 0
-4 -22 46 -57 0
-4 -8 -32 55 0
-4 -8 32 -55 0
-4 8 -32 -55 0
-4 8 32 55 0
-4 22 -46 -57 0
-4 22 46 57 0
-3 -13 -33 68 0
-3 -13 33 -68 0
-3 -5 -61 65 0
-3 -5 61 -65 0
-3 5 -61 -65 0
-3 5 61 65 0
-3 13 -33 -68 0
-3 13 33 68 0
-2 -42 -53 62 0
-2 -42 53 -62 0
-2 -5 -10 41 0
-2 -5 10 -41 0
-2 5 -10 -41 0
-2 5 10 41 0
-2 42 -53 -62 0
-2 42 53 62 0
-1 -38 -67 69 0
-1 -38 67 -69 0
-1 -29 -49 53 0
-1 -29 49 -53 0
-1 29 -49 -53 0
-1 29 49 53 0
-1 38 -67 -69 0
-1 38 67 69 0
1 -38 -67 -69 0
1 -38 67 69 0
1 -29 -49 -53 0
1 -29 49 53 0
1 29 -49 53 0
1 29 49 -53 0
1 38 -67 69 0
1 38 67 -69 0
2 -42 -53 -62 0
2 -42 53 62 0
2 -5 -10 -41 0
2 -5 10 41 0
2 5 -10 41 0
2 5 10 -41 0
2 42 -53 62 0
2 42 53 -62 0
3 -13 -33 -68 0
3 -13 33 68 0
3 -5 -61 -65 0
3 -5 61 65 0
3 5 -61 65 0
3 5 61 -65 0
3 13 -33 68 0
3 13 33 -68 0
4 -22 -46 -57 0
4 -22 46 57 0
4 -8 -32 -55 0
4 -8 32 55 0
4 8 -32 55 0
4 8 32 -55 0
4 22 -46 57 0
4 22 46 -57 0
6 -13 -24 -48 0
6 -13 24 48 0
6 -9 -47 -73 0
6 -9 47 73 0
6 9 -47 73 0
6 9 47 -73 0
6 13 -24 48 0
6 13 24 -48 0
7 -21 -64 -71 0
7 -21 64 71 0
7 -20 -50 -68 0
7 -20 50 68 0
7 20 -50 68 0
7 20 50 -68 0
7 21 -64 71 0
7 21 64 -71 0
8 -35 -60 -71 0
8 -35 60 71 0
8 35 -60 71 0
8 35 60 -71 0
9 -15 -19 -72 0
9 -15 19 72 0
9 15 -19 72 0
9 15 19 -72 0
10 -16 -23 -63 0
10 -16 23 63 0
10 16 -23 63 0
10 16 23 -63 0
11 -54 -55 -64 0
11 -54 55 64 0
11 -40 -51 -56 0
11 -40 51 56 0
11 40 -51 56 0
11 40 51 -56 0
11 54 -55 64 0
11 54 55 -64 0
12 -18 -21 -66 0
12 -18 21 66 0
12 -16 -20 -65 0
12 -16 20 65 0
12 16 -20 65 0
12 16 20 -65 0
12 18 -21 66 0
12 18 21 -66 0
14 -44 -46 -58 0
14 -44 46 58 0
14 -30 -31 -49 0
14 -30 31 49 0
14 30 -31 49 0
14 30 31 -49 0
14 44 -46 58 0
14 44 46 -58 0
15 -25 -26 -28 0
15 -25 26 28 0
15 25 -26 28 0
15 25 26 -28 0
17 -32 -37 -73 0
17 -32 37 73 0
17 -19 -31 -57 0
17 -19 31 57 0
17 19 -31 57 0
17 19 31 -57 0
17 32 -37 73 0
17 32 37 -73 0
18 -36 -38 -60 0
18 -36 38 60 0
18 36 -38 60 0
18 36 38 -60 0
23 -43 -59 -66 0
23 -43 59 66 0
23 43 -59 66 0
23 43 59 -66 0
24 -35 -37 -67 0
24 -35 37 67 0
24 35 -37 67 0
24 35 37 -67 0
25 -34 -40 -52 0
25 -34 40 52 0
25 34 -40 52 0
25 34 40 -52 0
26 -33 -39 -47 0
26 -33 39 47 0
26 33 -39 47 0
26 33 39 -47 0
27 -34 -63 -70 0
27 -34 63 70 0
27 -28 -41 -45 0
27 -28 41 45 0
27 28 -41 45 0
27 28 41 -45 0
27 34 -63 70 0
27 34 63 -70 0
29 -36 -43 -44 0
29 -36 43 44 0
29 36 -43 44 0
29 36 43 -44 0
30 -45 -62 -72 0
30 -45 62 72 0
30 45 -62 72 0
30 45 62 -72 0
39 -50 -52 -54 0
39 -50 52 54 0
39 50 -52 54 0
39 50 52 -54 0
42 -48 -61 -69 0
42 -48 61 69 0
42 48 -61 69 0
42 48 61 -69 0
51 -58 -59 -70 0
51 -58 59 70 0
51 58 -59 70 0
51 58 59 -70 0
