p cnf 51 202
-1 9 0
1 -9 0
-22 -26 -28 37 0
-22 -26 28 -37 0
-22 26 -28 -37 0
-22 26 28 37 0
-21 -24 -25 51 0
-21 -24 25 -51 0
-21 -23 -34 38 0
-21 -23 34 -38 0
-21 23 -34 -38 0
-21 23 34 38 0
-21 24 -25 -51 0
-21 24 25 51 0
-18 -28 -35 47 0
-18 -28 35 -47 0
-18 -27 -44 49 0
-18 -27 44 -49 0
-18 27 -44 -49 0
-18 27 44 49 0
-18 28 -35 -47 0
-18 28 35 47 0
-16 -39 -46 50 0
-16 -39 46 -50 0
-16 39 -46 -50 0
-16 39 46 50 0
-15 -19 -20 33 0
-15 -19 20 -33 0
-15 19 -20 -33 0
-15 19 20 33 0
-14 -31 -35 50 0
-14 -31 35 -50 0
-14 31 -35 -50 0
-14 31 35 50 0
-13 -25 -26 33 0
-13 -25 26 -33 0
-13 25 -26 -33 0
-13 25 26 33 0
-12 -23 -36 46 0
-12 -23 36 -46 0
-12 -14 -37 51 0
-12 -14 37 -51 0
-12 14 -37 -51 0
-12 14 37 51 0
-12 23 -36 -46 0
-12 23 36 46 0
-9 -13 -40 42 0
-9 -13 40 -42 0
-9 13 -40 -42 0
-9 13 40 42 0
-8 -11 -43 48 0
-8 -11 43 -48 0
-8 -10 -16 41 0
-8 -10 16 -41 0
-8 10 -16 -41 0
-8 10 16 41 0
-8 11 -43 -48 0
-8 11 43 48 0
-7 -32 -34 40 0
-7 -32 34 -40 0
-7 32 -34 -40 0
-7 32 34 40 0
-6 -20 -30 47 0
-6 -20 30 -47 0
-6 20 -30 -47 0
-6 20 30 47 0
-5 -32 -36 45 0
-5 -32 36 -45 0
-5 -27 -39 43 0
-5 -27 39 -43 0
-5 27 -39 -43 0
-5 27 39 43 0
-5 32 -36 -45 0
-5 32 36 45 0
-4 -15 -24 29 0
-4 -15 24 -29 0
-4 -6 -10 31 0
-4 -6 10 -31 0
-4 6 -10 -31 0
-4 6 10 31 0
-4 15 -24 -29 0
-4 15 24 29 0
-3 -30 -48 49 0
-3 -30 48 -49 0
-3 -17 -19 42 0
-3 -17 19 -42 0
-3 17 -19 -42 0
-3 17 19 42 0
-3 30 -48 -49 0
-3 30 48 49 0
-2 -29 -38 41 0
-2 -29 38 -41 0
-2 -7 -11 17 0
-2 -7 11 -17 0
-2 7 -11 -17 0
-2 7 11 17 0
-2 29 -38 -41 0
-2 29 38 41 0
-1 -22 -44 45 0
-1 -22 44 -45 0
-1 22 -44 -45 0
-1 22 44 45 0
1 -22 -44 -45 0
1 -22 44 45 0
1 22 -44 45 0
1 22 44 -45 0
2 -29 -38 -41 0
2 -29 38 41 0
2 -7 -11 -17 0
2 -7 11 17 0
2 7 -11 17 0
2 7 11 -17 0
2 29 -38 41 0
2 29 38 -41 0
3 -30 -48 -49 0
3 -30 48 49 0
3 -17 -19 -42 0
3 -17 19 42 0
3 17 -19 42 0
3 17 19 -42 0
3 30 -48 49 0
3 30 48 -49 0
4 -15 -24 -29 0
4 -15 24 29 0
4 -6 -10 -31 0
4 -6 10 31 0
4 6 -10 31 0
4 6 10 -31 0
4 15 -24 29 0
4 15 24 -29 0
5 -32 -36 -45 0
5 -32 36 45 0
5 -27 -39 -43 0
5 -27 39 43 0
5 27 -39 43 0
5 27 39 -43 0
5 32 -36 45 0
5 32 36 -45 0
6 -20 -30 -47 0
6 -20 30 47 0
6 20 -30 47 0
6 20 30 -47 0
7 -32 -34 -40 0
7 -32 34 40 0
7 32 -34 40 0
7 32 34 -40 0
8 -11 -43 -48 0
8 -11 43 48 0
8 -10 -16 -41 0
8 -10 16 41 0
8 10 -16 41 0
8 10 16 -41 0
8 11 -43 48 0
8 11 43 -48 0
9 -13 -40 -42 0
9 -13 40 42 0
9 13 -40 42 0
9 13 40 -42 0
12 -23 -36 -46 0
12 -23 36 46 0
12 -14 -37 -51 0
12 -14 37 51 0
12 14 -37 51 0
12 14 37 -51 0
12 23 -36 46 0
12 23 36 -46 0
13 -25 -26 -33 0
13 -25 26 33 0
13 25 -26 33 0
13 25 26 -33 0
14 -31 -35 -50 0
14 -31 35 50 0
14 31 -35 50 0
14 31 35 -50 0
15 -19 -20 -33 0
15 -19 20 33 0
15 19 -20 33 0
15 19 20 -33 0
16 -39 -46 -50 0
16 -39 46 50 0
16 39 -46 50 0
16 39 46 -50 0
18 -28 -35 -47 0
18 -28 35 47 0
18 -27 -44 -49 0
18 -27 44 49 0
18 27 -44 49 0
18 27 44 -49 0
18 28 -35 47 0
18 28 35 -47 0
21 -24 -25 -51 0
21 -24 25 51 0
21 -23 -34 -38 0
21 -23 34 38 0
21 23 -34 38 0
21 23 34 -38 0
21 24 -25 51 0
21 24 25 -51 0
22 -26 -28 -37 0
22 -26 28 37 0
22 26 -28 37 0
22 26 28 -37 0
