p cnf 61 242
-2 30 0
2 -30 0
-38 -44 -46 61 0
-38 -44 46 -61 0
-38 44 -46 -61 0
-38 44 46 61 0
-36 -40 -48 61 0
-36 -40 48 -61 0
-36 40 -48 -61 0
-36 40 48 61 0
-33 -41 -42 56 0
-33 -41 42 -56 0
-33 41 -42 -56 0
-33 41 42 56 0
-27 -39 -47 60 0
-27 -39 47 -60 0
-27 39 -47 -60 0
-27 39 47 60 0
-25 -28 -35 47 0
-25 -28 35 -47 0
-25 28 -35 -47 0
-25 28 35 47 0
-22 -41 -43 45 0
-22 -41 43 -45 0
-22 -23 -51 53 0
-22 -23 51 -53 0
-22 23 -51 -53 0
-22 23 51 53 0
-22 41 -43 -45 0
-22 41 43 45 0
-21 -26 -32 53 0
-21 -26 32 -53 0
-21 26 -32 -53 0
-21 26 32 53 0
-18 -30 -49 57 0
-18 -30 49 -57 0
-18 30 -49 -57 0
-18 30 49 57 0
-16 -36 -49 52 0
-16 -36 49 -52 0
-16 36 -49 -52 0
-16 36 49 52 0
-14 -21 -38 55 0
-14 -21 38 -55 0
-14 21 -38 -55 0
-14 21 38 55 0
-13 -17 -40 45 0
-13 -17 40 -45 0
-13 17 -40 -45 0
-13 17 40 45 0
-12 -24 -28 44 0
-12 -24 28 -44 0
-12 24 -28 -44 0
-12 24 28 44 0
-11 -15 -34 54 0
-11 -15 34 -54 0
-11 15 -34 -54 0
-11 15 34 54 0
-10 -20 -24 39 0
-10 -20 24 -39 0
-10 20 -24 -39 0
-10 20 24 39 0
-9 -29 -32 34 0
-9 -29 32 -34 0
-9 29 -32 -34 0
-9 29 32 34 0
-8 -19 -37 56 0
-8 -19 37 -56 0
-8 19 -37 -56 0
-8 19 37 56 0
-7 -26 -43 58 0
-7 -26 43 -58 0
-7 -17 -25 46 0
-7 -17 25 -46 0
-7 17 -25 -46 0
-7 17 25 46 0
-7 26 -43 -58 0
-7 26 43 58 0
-6 -9 -35 58 0
-6 -9 35 -58 0
-6 -8 -11 60 0
-6 -8 11 -60 0
-6 8 -11 -60 0
-6 8 11 60 0
-6 9 -35 -58 0
-6 9 35 58 0
-5 -19 -31 54 0
-5 -19 31 -54 0
-5 -18 -23 33 0
-5 -18 23 -33 0
-5 18 -23 -33 0
-5 18 23 33 0
-5 19 -31 -54 0
-5 19 31 54 0
-4 -12 -29 55 0
-4 -12 29 -55 0
-4 -10 -15 50 0
-4 -10 15 -50 0
-4 10 -15 -50 0
-4 10 15 50 0
-4 12 -29 -55 0
-4 12 29 55 0
-3 -27 -37 59 0
-3 -27 37 -59 0
-3 -13 -42 52 0
-3 -13 42 -52 0
-3 13 -42 -52 0
-3 13 42 52 0
-3 27 -37 -59 0
-3 27 37 59 0
-2 -14 -48 51 0
-2 -14 48 -51 0
-2 14 -48 -51 0
-2 14 48 51 0
-1 -31 -50 57 0
-1 -31 50 -57 0
-1 -16 -20 59 0
-1 -16 20 -59 0
-1 16 -20 -59 0
-1 16 20 59 0
-1 31 -50 -57 0
-1 31 50 57 0
1 -31 -50 -57 0
1 -31 50 57 0
1 -16 -20 -59 0
1 -16 20 59 0
1 16 -20 59 0
1 16 20 -59 0
1 31 -50 57 0
1 31 50 -57 0
2 -14 -48 -51 0
2 -14 48 51 0
2 14 -48 51 0
2 14 48 -51 0
3 -27 -37 -59 0
3 -27 37 59 0
3 -13 -42 -52 0
3 -13 42 52 0
3 13 -42 52 0
3 13 42 -52 0
3 27 -37 59 0
3 27 37 -59 0
4 -12 -29 -55 0
4 -12 29 55 0
4 -10 -15 -50 0
4 -10 15 50 0
4 10 -15 50 0
4 10 15 -50 0
4 12 -29 55 0
4 12 29 -55 0
5 -19 -31 -54 0
5 -19 31 54 0
5 -18 -23 -33 0
5 -18 23 33 0
5 18 -23 33 0
5 18 23 -33 0
5 19 -31 54 0
5 19 31 -54 0
6 -9 -35 -58 0
6 -9 35 58 0
6 -8 -11 -60 0
6 -8 11 60 0
6 8 -11 60 0
6 8 11 -60 0
6 9 -35 58 0
6 9 35 -58 0
7 -26 -43 -58 0
7 -26 43 58 0
7 -17 -25 -46 0
7 -17 25 46 0
7 17 -25 46 0
7 17 25 -46 0
7 26 -43 58 0
7 26 43 -58 0
8 -19 -37 -56 0
8 -19 37 56 0
8 19 -37 56 0
8 19 37 -56 0
9 -29 -32 -34 0
9 -29 32 34 0
9 29 -32 34 0
9 29 32 -34 0
10 -20 -24 -39 0
10 -20 24 39 0
10 20 -24 39 0
10 20 24 -39 0
11 -15 -34 -54 0
11 -15 34 54 0
11 15 -34 54 0
11 15 34 -54 0
12 -24 -28 -44 0
12 -24 28 44 0
12 24 -28 44 0
12 24 28 -44 0
13 -17 -40 -45 0
13 -17 40 45 0
13 17 -40 45 0
13 17 40 -45 0
14 -21 -38 -55 0
14 -21 38 55 0
14 21 -38 55 0
14 21 38 -55 0
16 -36 -49 -52 0
16 -36 49 52 0
16 36 -49 52 0
16 36 49 -52 0
18 -30 -49 -57 0
18 -30 49 57 0
18 30 -49 57 0
18 30 49 -57 0
21 -26 -32 -53 0
21 -26 32 53 0
21 26 -32 53 0
21 26 32 -53 0
22 -41 -43 -45 0
22 -41 43 45 0
22 -23 -51 -53 0
22 -23 51 53 0
22 23 -51 53 0
22 23 51 -53 0
22 41 -43 45 0
22 41 43 -45 0
25 -28 -35 -47 0
25 -28 35 47 0
25 28 -35 47 0
25 28 35 -47 0
27 -39 -47 -60 0
27 -39 47 60 0
27 39 -47 60 0
27 39 47 -60 0
33 -41 -42 -56 0
33 -41 42 56 0
33 41 -42 56 0
33 41 42 -56 0
36 -40 -48 -61 0
36 -40 48 61 0
36 40 -48 61 0
36 40 48 -61 0
38 -44 -46 -61 0
38 -44 46 61 0
38 44 -46 61 0
38 44 46 -61 0
