p cnf 49 194
-21 35 0
21 -35 0
-31 -39 -40 48 0
-31 -39 40 -48 0
-31 39 -40 -48 0
-31 39 40 48 0
-28 -33 -35 45 0
-28 -33 35 -45 0
-28 33 -35 -45 0
-28 33 35 45 0
-16 -23 -24 38 0
-16 -23 24 -38 0
-16 -22 -41 44 0
-16 -22 41 -44 0
-16 22 -41 -44 0
-16 22 41 44 0
-16 23 -24 -38 0
-16 23 24 38 0
-15 -29 -32 34 0
-15 -29 32 -34 0
-15 29 -32 -34 0
-15 29 32 34 0
-14 -18 -19 48 0
-14 -18 19 -48 0
-14 18 -19 -48 0
-14 18 19 48 0
-13 -26 -38 43 0
-13 -26 38 -43 0
-13 26 -38 -43 0
-13 26 38 43 0
-12 -20 -28 29 0
-12 -20 28 -29 0
-12 20 -28 -29 0
-12 20 28 29 0
-11 -13 -36 39 0
-11 -13 36 -39 0
-11 13 -36 -39 0
-11 13 36 39 0
-10 -17 -20 22 0
-10 -17 20 -22 0
-10 17 -20 -22 0
-10 17 20 22 0
-9 -11 -19 32 0
-9 -11 19 -32 0
-9 11 -19 -32 0
-9 11 19 32 0
-8 -30 -37 47 0
-8 -30 37 -47 0
-8 -26 -31 46 0
-8 -26 31 -46 0
-8 26 -31 -46 0
-8 26 31 46 0
-8 30 -37 -47 0
-8 30 37 47 0
-6 -23 -25 36 0
-6 -23 25 -36 0
-6 -7 -40 42 0
-6 -7 40 -42 0
-6 7 -40 -42 0
-6 7 40 42 0
-6 23 -25 -36 0
-6 23 25 36 0
-5 -18 -21 42 0
-5 -18 21 -42 0
-5 -9 -12 25 0
-5 -9 12 -25 0
-5 9 -12 -25 0
-5 9 12 25 0
-5 18 -21 -42 0
-5 18 21 42 0
-4 -27 -30 49 0
-4 -27 30 -49 0
-4 -14 -34 45 0
-4 -14 34 -45 0
-4 14 -34 -45 0
-4 14 34 45 0
-4 27 -30 -49 0
-4 27 30 49 0
-3 -17 -27 33 0
-3 -17 27 -33 0
-3 17 -27 -33 0
-3 17 27 33 0
-2 -37 -41 43 0
-2 -37 41 -43 0
-2 -10 -15 49 0
-2 -10 15 -49 0
-2 10 -15 -49 0
-2 10 15 49 0
-2 37 -41 -43 0
-2 37 41 43 0
-1 -7 -24 46 0
-1 -7 24 -46 0
-1 -3 -44 47 0
-1 -3 44 -47 0
-1 3 -44 -47 0
-1 3 44 47 0
-1 7 -24 -46 0
-1 7 24 46 0
1 -7 -24 -46 0
1 -7 24 46 0
1 -3 -44 -47 0
1 -3 44 47 0
1 3 -44 47 0
1 3 44 -47 0
1 7 -24 46 0
1 7 24 -46 0
2 -37 -41 -43 0
2 -37 41 43 0
2 -10 -15 -49 0
2 -10 15 49 0
2 10 -15 49 0
2 10 15 -49 0
2 37 -41 43 0
2 37 41 -43 0
3 -17 -27 -33 0
3 -17 27 33 0
3 17 -27 33 0
3 17 27 -33 0
4 -27 -30 -49 0
4 -27 30 49 0
4 -14 -34 -45 0
4 -14 34 45 0
4 14 -34 45 0
4 14 34 -45 0
4 27 -30 49 0
4 27 30 -49 0
5 -18 -21 -42 0
5 -18 21 42 0
5 -9 -12 -25 0
5 -9 12 25 0
5 9 -12 25 0
5 9 12 -25 0
5 18 -21 42 0
5 18 21 -42 0
6 -23 -25 -36 0
6 -23 25 36 0
6 -7 -40 -42 0
6 -7 40 42 0
6 7 -40 42 0
6 7 40 -42 0
6 23 -25 36 0
6 23 25 -36 0
8 -30 -37 -47 0
8 -30 37 47 0
8 -26 -31 -46 0
8 -26 31 46 0
8 26 -31 46 0
8 26 31 -46 0
8 30 -37 47 0
8 30 37 -47 0
9 -11 -19 -32 0
9 -11 19 32 0
9 11 -19 32 0
9 11 19 -32 0
10 -17 -20 -22 0
10 -17 20 22 0
10 17 -20 22 0
10 17 20 -22 0
11 -13 -36 -39 0
11 -13 36 39 0
11 13 -36 39 0
11 13 36 -39 0
12 -20 -28 -29 0
12 -20 28 29 0
12 20 -28 29 0
12 20 28 -29 0
13 -26 -38 -43 0
13 -26 38 43 0
13 26 -38 43 0
13 26 38 -43 0
14 -18 -19 -48 0
14 -18 19 48 0
14 18 -19 48 0
14 18 19 -48 0
15 -29 -32 -34 0
15 -29 32 34 0
15 29 -32 34 0
15 29 32 -34 0
16 -23 -24 -38 0
16 -23 24 38 0
16 -22 -41 -44 0
16 -22 41 44 0
16 22 -41 44 0
16 22 41 -44 0
16 23 -24 38 0
16 23 24 -38 0
28 -33 -35 -45 0
28 -33 35 45 0
28 33 -35 45 0
28 33 35 -45 0
31 -39 -40 -48 0
31 -39 40 48 0
31 39 -40 48 0
31 39 40 -48 0
