p cnf 73 290
-14 42 0
14 -42 0
-59 -60 -66 69 0
-59 -60 66 -69 0
-59 60 -66 -69 0
-59 60 66 69 0
-46 -52 -66 72 0
-46 -52 66 -72 0
-46 52 -66 -72 0
-46 52 66 72 0
-44 -64 -65 72 0
-44 -64 65 -72 0
-44 64 -65 -72 0
-44 64 65 72 0
-37 -43 -49 62 0
-37 -43 49 -62 0
-37 43 -49 -62 0
-37 43 49 62 0
-35 -43 -59 64 0
-35 -43 59 -64 0
-35 43 -59 -64 0
-35 43 59 64 0
-33 -50 -68 70 0
-33 -50 68 -70 0
-33 50 -68 -70 0
-33 50 68 70 0
-30 -42 -51 69 0
-30 -42 51 -69 0
-30 -35 -41 63 0
-30 -35 41 -63 0
-30 35 -41 -63 0
-30 35 41 63 0
-30 42 -51 -69 0
-30 42 51 69 0
-28 -34 -39 68 0
-28 -34 39 -68 0
-28 34 -39 -68 0
-28 34 39 68 0
-26 -40 -60 73 0
-26 -40 60 -73 0
-26 -31 -33 51 0
-26 -31 33 -51 0
-26 31 -33 -51 0
-26 31 33 51 0
-26 40 -60 -73 0
-26 40 60 73 0
-25 -40 -46 57 0
-25 -40 46 -57 0
-25 40 -46 -57 0
-25 40 46 57 0
-23 -36 -37 65 0
-23 -36 37 -65 0
-23 36 -37 -65 0
-23 36 37 65 0
-22 -25 -45 56 0
-22 -25 45 -56 0
-22 25 -45 -56 0
-22 25 45 56 0
-21 -47 -53 58 0
-21 -47 53 -58 0
-21 47 -53 -58 0
-21 47 53 58 0
-19 -22 -71 73 0
-19 -22 71 -73 0
-19 22 -71 -73 0
-19 22 71 73 0
-16 -28 -57 67 0
-16 -28 57 -67 0
-16 28 -57 -67 0
-16 28 57 67 0
-15 -17 -29 54 0
-15 -17 29 -54 0
-15 17 -29 -54 0
-15 17 29 54 0
-13 -32 -53 54 0
-13 -32 53 -54 0
-13 -20 -27 41 0
-13 -20 27 -41 0
-13 20 -27 -41 0
-13 20 27 41 0
-13 32 -53 -54 0
-13 32 53 54 0
-11 -24 -29 50 0
-11 -24 29 -50 0
-11 -18 -19 31 0
-11 -18 19 -31 0
-11 18 -19 -31 0
-11 18 19 31 0
-11 24 -29 -50 0
-11 24 29 50 0
-10 -12 -16 52 0
-10 -12 16 -52 0
-10 12 -16 -52 0
-10 12 16 52 0
-9 -14 -27 70 0
-9 -14 27 -70 0
-9 14 -27 -70 0
-9 14 27 70 0
-8 -38 -48 61 0
-8 -38 48 -61 0
-8 38 -48 -61 0
-8 38 48 61 0
-6 -48 -56 67 0
-6 -48 56 -67 0
-6 48 -56 -67 0
-6 48 56 67 0
-5 -23 -38 45 0
-5 -23 38 -45 0
-5 -7 -49 71 0
-5 -7 49 -71 0
-5 7 -49 -71 0
-5 7 49 71 0
-5 23 -38 -45 0
-5 23 38 45 0
-4 -32 -62 63 0
-4 -32 62 -63 0
-4 -7 -17 18 0
-4 -7 17 -18 0
-4 7 -17 -18 0
-4 7 17 18 0
-4 32 -62 -63 0
-4 32 62 63 0
-3 -20 -55 58 0
-3 -20 55 -58 0
-3 -9 -10 34 0
-3 -9 10 -34 0
-3 9 -10 -34 0
-3 9 10 34 0
-3 20 -55 -58 0
-3 20 55 58 0
-2 -36 -47 61 0
-2 -36 47 -61 0
-2 -12 -44 55 0
-2 -12 44 -55 0
-2 12 -44 -55 0
-2 12 44 55 0
-2 36 -47 -61 0
-2 36 47 61 0
-1 -8 -15 21 0
-1 -8 15 -21 0
-1 -6 -24 39 0
-1 -6 24 -39 0
-1 6 -24 -39 0
-1 6 24 39 0
-1 8 -15 -21 0
-1 8 15 21 0
1 -8 -15 -21 0
1 -8 15 21 0
1 -6 -24 -39 0
1 -6 24 39 0
1 6 -24 39 0
1 6 24 -39 0
1 8 -15 21 0
1 8 15 -21 0
2 -36 -47 -61 0
2 -36 47 61 0
2 -12 -44 -55 0
2 -12 44 55 0
2 12 -44 55 0
2 12 44 -55 0
2 36 -47 61 0
2 36 47 -61 0
3 -20 -55 -58 0
3 -20 55 58 0
3 -9 -10 -34 0
3 -9 10 34 0
3 9 -10 34 0
3 9 10 -34 0
3 20 -55 58 0
3 20 55 -58 0
4 -32 -62 -63 0
4 -32 62 63 0
4 -7 -17 -18 0
4 -7 17 18 0
4 7 -17 18 0
4 7 17 -18 0
4 32 -62 63 0
4 32 62 -63 0
5 -23 -38 -45 0
5 -23 38 45 0
5 -7 -49 -71 0
5 -7 49 71 0
5 7 -49 71 0
5 7 49 -71 0
5 23 -38 45 0
5 23 38 -45 0
6 -48 -56 -67 0
6 -48 56 67 0
6 48 -56 67 0
6 48 56 -67 0
8 -38 -48 -61 0
8 -38 48 61 0
8 38 -48 61 0
8 38 48 -61 0
9 -14 -27 -70 0
9 -14 27 70 0
9 14 -27 70 0
9 14 27 -70 0
10 -12 -16 -52 0
10 -12 16 52 0
10 12 -16 52 0
10 12 16 -52 0
11 -24 -29 -50 0
11 -24 29 50 0
11 -18 -19 -31 0
11 -18 19 31 0
11 18 -19 31 0
11 18 19 -31 0
11 24 -29 50 0
11 24 29 -50 0
13 -32 -53 -54 0
13 -32 53 54 0
13 -20 -27 -41 0
13 -20 27 41 0
13 20 -27 41 0
13 20 27 -41 0
13 32 -53 54 0
13 32 53 -54 0
15 -17 -29 -54 0
15 -17 29 54 0
15 17 -29 54 0
15 17 29 -54 0
16 -28 -57 -67 0
16 -28 57 67 0
16 28 -57 67 0
16 28 57 -67 0
19 -22 -71 -73 0
19 -22 71 73 0
19 22 -71 73 0
19 22 71 -73 0
21 -47 -53 -58 0
21 -47 53 58 0
21 47 -53 58 0
21 47 53 -58 0
22 -25 -45 -56 0
22 -25 45 56 0
22 25 -45 56 0
22 25 45 -56 0
23 -36 -37 -65 0
23 -36 37 65 0
23 36 -37 65 0
23 36 37 -65 0
25 -40 -46 -57 0
25 -40 46 57 0
25 40 -46 57 0
25 40 46 -57 0
26 -40 -60 -73 0
26 -40 60 73 0
26 -31 -33 -51 0
26 -31 33 51 0
26 31 -33 51 0
26 31 33 -51 0
26 40 -60 73 0
26 40 60 -73 0
28 -34 -39 -68 0
28 -34 39 68 0
28 34 -39 68 0
28 34 39 -68 0
30 -42 -51 -69 0
30 -42 51 69 0
30 -35 -41 -63 0
30 -35 41 63 0
30 35 -41 63 0
30 35 41 -63 0
30 42 -51 69 0
30 42 51 -69 0
33 -50 -68 -70 0
33 -50 68 70 0
33 50 -68 70 0
33 50 68 -70 0
35 -43 -59 -64 0
35 -43 59 64 0
35 43 -59 64 0
35 43 59 -64 0
37 -43 -49 -62 0
37 -43 49 62 0
37 43 -49 62 0
37 43 49 -62 0
44 -64 -65 -72 0
44 -64 65 72 0
44 64 -65 72 0
44 64 65 -72 0
46 -52 -66 -72 0
46 -52 66 72 0
46 52 -66 72 0
46 52 66 -72 0
59 -60 -66 -69 0
59 -60 66 69 0
59 60 -66 69 0
59 60 66 -69 0
