p cnf 73 290
-4 8 0
4 -8 0
-55 -57 -65 67 0
-55 -57 65 -67 0
-55 57 -65 -67 0
-55 57 65 67 0
-54 -63 -65 66 0
-54 -63 65 -66 0
-54 63 -65 -66 0
-54 63 65 66 0
-52 -61 -63 64 0
-52 -61 63 -64 0
-52 61 -63 -64 0
-52 61 63 64 0
-50 -59 -61 62 0
-50 -59 61 -62 0
-50 59 -61 -62 0
-50 59 61 62 0
-48 -56 -59 60 0
-48 -56 59 -60 0
-48 56 -59 -60 0
-48 56 59 60 0
-46 -56 -57 58 0
-46 -56 57 -58 0
-46 56 -57 -58 0
-46 56 57 58 0
-43 -45 -53 55 0
-43 -45 53 -55 0
-43 45 -53 -55 0
-43 45 53 55 0
-42 -51 -53 54 0
-42 -51 53 -54 0
-42 51 -53 -54 0
-42 51 53 54 0
-40 -49 -51 52 0
-40 -49 51 -52 0
-40 49 -51 -52 0
-40 49 51 52 0
-38 -47 -49 50 0
-38 -47 49 -50 0
-38 47 -49 -50 0
-38 47 49 50 0
-36 -44 -47 48 0
-36 -44 47 -48 0
-36 44 -47 -48 0
-36 44 47 48 0
-34 -44 -45 46 0
-34 -44 45 -46 0
-34 44 -45 -46 0
-34 44 45 46 0
-31 -33 -41 43 0
-31 -33 41 -43 0
-31 33 -41 -43 0
-31 33 41 43 0
-30 -39 -41 42 0
-30 -39 41 -42 0
-30 39 -41 -42 0
-30 39 41 42 0
-28 -37 -39 40 0
-28 -37 39 -40 0
-28 37 -39 -40 0
-28 37 39 40 0
-26 -35 -37 38 0
-26 -35 37 -38 0
-26 35 -37 -38 0
-26 35 37 38 0
-24 -32 -35 36 0
-24 -32 35 -36 0
-24 32 -35 -36 0
-24 32 35 36 0
-22 -32 -33 34 0
-22 -32 33 -34 0
-22 32 -33 -34 0
-22 32 33 34 0
-19 -67 -69 73 0
-19 -67 69 -73 0
-19 67 -69 -73 0
-19 67 69 73 0
-18 -21 -29 31 0
-18 -21 29 -31 0
-18 21 -29 -31 0
-18 21 29 31 0
-17 -66 -72 73 0
-17 -66 72 -73 0
-17 66 -72 -73 0
-17 66 72 73 0
-16 -27 -29 30 0
-16 -27 29 -30 0
-16 27 -29 -30 0
-16 27 29 30 0
-14 -64 -71 72 0
-14 -64 71 -72 0
-14 64 -71 -72 0
-14 64 71 72 0
-13 -25 -27 28 0
-13 -25 27 -28 0
-13 25 -27 -28 0
-13 25 27 28 0
-12 -15 -16 17 0
-12 -15 16 -17 0
-12 15 -16 -17 0
-12 15 16 17 0
-11 -62 -70 71 0
-11 -62 70 -71 0
-11 62 -70 -71 0
-11 62 70 71 0
-10 -23 -25 26 0
-10 -23 25 -26 0
-10 23 -25 -26 0
-10 23 25 26 0
-9 -12 -13 14 0
-9 -12 13 -14 0
-9 12 -13 -14 0
-9 12 13 14 0
-7 -60 -68 70 0
-7 -60 68 -70 0
-7 60 -68 -70 0
-7 60 68 70 0
-6 -20 -23 24 0
-6 -20 23 -24 0
-6 20 -23 -24 0
-6 20 23 24 0
-5 -9 -10 11 0
-5 -9 10 -11 0
-5 -6 -7 8 0
-5 -6 7 -8 0
-5 6 -7 -8 0
-5 6 7 8 0
-5 9 -10 -11 0
-5 9 10 11 0
-3 -58 -68 69 0
-3 -58 68 -69 0
-3 58 -68 -69 0
-3 58 68 69 0
-2 -20 -21 22 0
-2 -20 21 -22 0
-2 20 -21 -22 0
-2 20 21 22 0
-1 -15 -18 19 0
-1 -15 18 -19 0
-1 -2 -3 4 0
-1 -2 3 -4 0
-1 2 -3 -4 0
-1 2 3 4 0
-1 15 -18 -19 0
-1 15 18 19 0
1 -15 -18 -19 0
1 -15 18 19 0
1 -2 -3 -4 0
1 -2 3 4 0
1 2 -3 4 0
1 2 3 -4 0
1 15 -18 19 0
1 15 18 -19 0
2 -20 -21 -22 0
2 -20 21 22 0
2 20 -21 22 0
2 20 21 -22 0
3 -58 -68 -69 0
3 -58 68 69 0
3 58 -68 69 0
3 58 68 -69 0
5 -9 -10 -11 0
5 -9 10 11 0
5 -6 -7 -8 0
5 -6 7 8 0
5 6 -7 8 0
5 6 7 -8 0
5 9 -10 11 0
5 9 10 -11 0
6 -20 -23 -24 0
6 -20 23 24 0
6 20 -23 24 0
6 20 23 -24 0
7 -60 -68 -70 0
7 -60 68 70 0
7 60 -68 70 0
7 60 68 -70 0
9 -12 -13 -14 0
9 -12 13 14 0
9 12 -13 14 0
9 12 13 -14 0
10 -23 -25 -26 0
10 -23 25 26 0
10 23 -25 26 0
10 23 25 -26 0
11 -62 -70 -71 0
11 -62 70 71 0
11 62 -70 71 0
11 62 70 -71 0
12 -15 -16 -17 0
12 -15 16 17 0
12 15 -16 17 0
12 15 16 -17 0
13 -25 -27 -28 0
13 -25 27 28 0
13 25 -27 28 0
13 25 27 -28 0
14 -64 -71 -72 0
14 -64 71 72 0
14 64 -71 72 0
14 64 71 -72 0
16 -27 -29 -30 0
16 -27 29 30 0
16 27 -29 30 0
16 27 29 -30 0
17 -66 -72 -73 0
17 -66 72 73 0
17 66 -72 73 0
17 66 72 -73 0
18 -21 -29 -31 0
18 -21 29 31 0
18 21 -29 31 0
18 21 29 -31 0
19 -67 -69 -73 0
19 -67 69 73 0
19 67 -69 73 0
19 67 69 -73 0
22 -32 -33 -34 0
22 -32 33 34 0
22 32 -33 34 0
22 32 33 -34 0
24 -32 -35 -36 0
24 -32 35 36 0
24 32 -35 36 0
24 32 35 -36 0
26 -35 -37 -38 0
26 -35 37 38 0
26 35 -37 38 0
26 35 37 -38 0
28 -37 -39 -40 0
28 -37 39 40 0
28 37 -39 40 0
28 37 39 -40 0
30 -39 -41 -42 0
30 -39 41 42 0
30 39 -41 42 0
30 39 41 -42 0
31 -33 -41 -43 0
31 -33 41 43 0
31 33 -41 43 0
31 33 41 -43 0
34 -44 -45 -46 0
34 -44 45 46 0
34 44 -45 46 0
34 44 45 -46 0
36 -44 -47 -48 0
36 -44 47 48 0
36 44 -47 48 0
36 44 47 -48 0
38 -47 -49 -50 0
38 -47 49 50 0
38 47 -49 50 0
38 47 49 -50 0
40 -49 -51 -52 0
40 -49 51 52 0
40 49 -51 52 0
40 49 51 -52 0
42 -51 -53 -54 0
42 -51 53 54 0
42 51 -53 54 0
42 51 53 -54 0
43 -45 -53 -55 0
43 -45 53 55 0
43 45 -53 55 0
43 45 53 -55 0
46 -56 -57 -58 0
46 -56 57 58 0
46 56 -57 58 0
46 56 57 -58 0
48 -56 -59 -60 0
48 -56 59 60 0
48 56 -59 60 0
48 56 59 -60 0
50 -59 -61 -62 0
50 -59 61 62 0
50 59 -61 62 0
50 59 61 -62 0
52 -61 -63 -64 0
52 -61 63 64 0
52 61 -63 64 0
52 61 63 -64 0
54 -63 -65 -66 0
54 -63 65 66 0
54 63 -65 66 0
54 63 65 -66 0
55 -57 -65 -67 0
55 -57 65 67 0
55 57 -65 67 0
55 57 65 -67 0
