p cnf 49 194
-2 24 0
2 -24 0
-25 -26 -37 43 0
-25 -26 37 -43 0
-25 26 -37 -43 0
-25 26 37 43 0
-22 -24 -32 42 0
-22 -24 32 -42 0
-22 24 -32 -42 0
-22 24 32 42 0
-16 -19 -28 48 0
-16 -19 28 -48 0
-16 -18 -39 46 0
-16 -18 39 -46 0
-16 18 -39 -46 0
-16 18 39 46 0
-16 19 -28 -48 0
-16 19 28 48 0
-14 -22 -30 47 0
-14 -22 30 -47 0
-14 22 -30 -47 0
-14 22 30 47 0
-13 -15 -36 48 0
-13 -15 36 -48 0
-13 15 -36 -48 0
-13 15 36 48 0
-12 -40 -42 45 0
-12 -40 42 -45 0
-12 -29 -37 49 0
-12 -29 37 -49 0
-12 29 -37 -49 0
-12 29 37 49 0
-12 40 -42 -45 0
-12 40 42 45 0
-11 -21 -31 34 0
-11 -21 31 -34 0
-11 21 -31 -34 0
-11 21 31 34 0
-9 -33 -38 43 0
-9 -33 38 -43 0
-9 -13 -18 29 0
-9 -13 18 -29 0
-9 13 -18 -29 0
-9 13 18 29 0
-9 33 -38 -43 0
-9 33 38 43 0
-8 -23 -25 41 0
-8 -23 25 -41 0
-8 23 -25 -41 0
-8 23 25 41 0
-7 -14 -35 45 0
-7 -14 35 -45 0
-7 14 -35 -45 0
-7 14 35 45 0
-6 -20 -21 47 0
-6 -20 21 -47 0
-6 -17 -35 44 0
-6 -17 35 -44 0
-6 17 -35 -44 0
-6 17 35 44 0
-6 20 -21 -47 0
-6 20 21 47 0
-5 -28 -30 34 0
-5 -28 30 -34 0
-5 -7 -27 39 0
-5 -7 27 -39 0
-5 7 -27 -39 0
-5 7 27 39 0
-5 28 -30 -34 0
-5 28 30 34 0
-4 -11 -27 44 0
-4 -11 27 -44 0
-4 -10 -38 46 0
-4 -10 38 -46 0
-4 10 -38 -46 0
-4 10 38 46 0
-4 11 -27 -44 0
-4 11 27 44 0
-3 -23 -33 36 0
-3 -23 33 -36 0
-3 -10 -19 31 0
-3 -10 19 -31 0
-3 10 -19 -31 0
-3 10 19 31 0
-3 23 -33 -36 0
-3 23 33 36 0
-2 -15 -41 49 0
-2 -15 41 -49 0
-2 15 -41 -49 0
-2 15 41 49 0
-1 -17 -26 40 0
-1 -17 26 -40 0
-1 -8 -20 32 0
-1 -8 20 -32 0
-1 8 -20 -32 0
-1 8 20 32 0
-1 17 -26 -40 0
-1 17 26 40 0
1 -17 -26 -40 0
1 -17 26 40 0
1 -8 -20 -32 0
1 -8 20 32 0
1 8 -20 32 0
1 8 20 -32 0
1 17 -26 40 0
1 17 26 -40 0
2 -15 -41 -49 0
2 -15 41 49 0
2 15 -41 49 0
2 15 41 -49 0
3 -23 -33 -36 0
3 -23 33 36 0
3 -10 -19 -31 0
3 -10 19 31 0
3 10 -19 31 0
3 10 19 -31 0
3 23 -33 36 0
3 23 33 -36 0
4 -11 -27 -44 0
4 -11 27 44 0
4 -10 -38 -46 0
4 -10 38 46 0
4 10 -38 46 0
4 10 38 -46 0
4 11 -27 44 0
4 11 27 -44 0
5 -28 -30 -34 0
5 -28 30 34 0
5 -7 -27 -39 0
5 -7 27 39 0
5 7 -27 39 0
5 7 27 -39 0
5 28 -30 34 0
5 28 30 -34 0
6 -20 -21 -47 0
6 -20 21 47 0
6 -17 -35 -44 0
6 -17 35 44 0
6 17 -35 44 0
6 17 35 -44 0
6 20 -21 47 0
6 20 21 -47 0
7 -14 -35 -45 0
7 -14 35 45 0
7 14 -35 45 0
7 14 35 -45 0
8 -23 -25 -41 0
8 -23 25 41 0
8 23 -25 41 0
8 23 25 -41 0
9 -33 -38 -43 0
9 -33 38 43 0
9 -13 -18 -29 0
9 -13 18 29 0
9 13 -18 29 0
9 13 18 -29 0
9 33 -38 43 0
9 33 38 -43 0
11 -21 -31 -34 0
11 -21 31 34 0
11 21 -31 34 0
11 21 31 -34 0
12 -40 -42 -45 0
12 -40 42 45 0
12 -29 -37 -49 0
12 -29 37 49 0
12 29 -37 49 0
12 29 37 -49 0
12 40 -42 45 0
12 40 42 -45 0
13 -15 -36 -48 0
13 -15 36 48 0
13 15 -36 48 0
13 15 36 -48 0
14 -22 -30 -47 0
14 -22 30 47 0
14 22 -30 47 0
14 22 30 -47 0
16 -19 -28 -48 0
16 -19 28 48 0
16 -18 -39 -46 0
16 -18 39 46 0
16 18 -39 46 0
16 18 39 -46 0
16 19 -28 48 0
16 19 28 -48 0
22 -24 -32 -42 0
22 -24 32 42 0
22 24 -32 42 0
22 24 32 -42 0
25 -26 -37 -43 0
25 -26 37 43 0
25 26 -37 43 0
25 26 37 -43 0
