p cnf 49 194
-23 48 0
23 -48 0
-30 -37 -39 44 0
-30 -37 39 -44 0
-30 37 -39 -44 0
-30 37 39 44 0
-25 -32 -42 46 0
-25 -32 42 -46 0
-25 32 -42 -46 0
-25 32 42 46 0
-21 -28 -39 42 0
-21 -28 39 -42 0
-21 28 -39 -42 0
-21 28 39 42 0
-18 -22 -30 45 0
-18 -22 30 -45 0
-18 22 -30 -45 0
-18 22 30 45 0
-14 -19 -31 40 0
-14 -19 31 -40 0
-14 -15 -20 29 0
-14 -15 20 -29 0
-14 15 -20 -29 0
-14 15 20 29 0
-14 19 -31 -40 0
-14 19 31 40 0
-12 -13 -32 38 0
-12 -13 32 -38 0
-12 13 -32 -38 0
-12 13 32 38 0
-11 -35 -41 47 0
-11 -35 41 -47 0
-11 -13 -18 21 0
-11 -13 18 -21 0
-11 13 -18 -21 0
-11 13 18 21 0
-11 35 -41 -47 0
-11 35 41 47 0
-10 -23 -38 41 0
-10 -23 38 -41 0
-10 23 -38 -41 0
-10 23 38 41 0
-9 -24 -27 40 0
-9 -24 27 -40 0
-9 -16 -20 26 0
-9 -16 20 -26 0
-9 16 -20 -26 0
-9 16 20 26 0
-9 24 -27 -40 0
-9 24 27 40 0
-8 -12 -34 36 0
-8 -12 34 -36 0
-8 12 -34 -36 0
-8 12 34 36 0
-7 -29 -33 44 0
-7 -29 33 -44 0
-7 -16 -17 49 0
-7 -16 17 -49 0
-7 16 -17 -49 0
-7 16 17 49 0
-7 29 -33 -44 0
-7 29 33 44 0
-6 -8 -24 48 0
-6 -8 24 -48 0
-6 8 -24 -48 0
-6 8 24 48 0
-5 -22 -31 47 0
-5 -22 31 -47 0
-5 22 -31 -47 0
-5 22 31 47 0
-4 -5 -15 37 0
-4 -5 15 -37 0
-4 5 -15 -37 0
-4 5 15 37 0
-3 -17 -25 34 0
-3 -17 25 -34 0
-3 -6 -26 43 0
-3 -6 26 -43 0
-3 6 -26 -43 0
-3 6 26 43 0
-3 17 -25 -34 0
-3 17 25 34 0
-2 -27 -36 49 0
-2 -27 36 -49 0
-2 -19 -33 45 0
-2 -19 33 -45 0
-2 19 -33 -45 0
-2 19 33 45 0
-2 27 -36 -49 0
-2 27 36 49 0
-1 -10 -43 46 0
-1 -10 43 -46 0
-1 -4 -28 35 0
-1 -4 28 -35 0
-1 4 -28 -35 0
-1 4 28 35 0
-1 10 -43 -46 0
-1 10 43 46 0
1 -10 -43 -46 0
1 -10 43 46 0
1 -4 -28 -35 0
1 -4 28 35 0
1 4 -28 35 0
1 4 28 -35 0
1 10 -43 46 0
1 10 43 -46 0
2 -27 -36 -49 0
2 -27 36 49 0
2 -19 -33 -45 0
2 -19 33 45 0
2 19 -33 45 0
2 19 33 -45 0
2 27 -36 49 0
2 27 36 -49 0
3 -17 -25 -34 0
3 -17 25 34 0
3 -6 -26 -43 0
3 -6 26 43 0
3 6 -26 43 0
3 6 26 -43 0
3 17 -25 34 0
3 17 25 -34 0
4 -5 -15 -37 0
4 -5 15 37 0
4 5 -15 37 0
4 5 15 -37 0
5 -22 -31 -47 0
5 -22 31 47 0
5 22 -31 47 0
5 22 31 -47 0
6 -8 -24 -48 0
6 -8 24 48 0
6 8 -24 48 0
6 8 24 -48 0
7 -29 -33 -44 0
7 -29 33 44 0
7 -16 -17 -49 0
7 -16 17 49 0
7 16 -17 49 0
7 16 17 -49 0
7 29 -33 44 0
7 29 33 -44 0
8 -12 -34 -36 0
8 -12 34 36 0
8 12 -34 36 0
8 12 34 -36 0
9 -24 -27 -40 0
9 -24 27 40 0
9 -16 -20 -26 0
9 -16 20 26 0
9 16 -20 26 0
9 16 20 -26 0
9 24 -27 40 0
9 24 27 -40 0
10 -23 -38 -41 0
10 -23 38 41 0
10 23 -38 41 0
10 23 38 -41 0
11 -35 -41 -47 0
11 -35 41 47 0
11 -13 -18 -21 0
11 -13 18 21 0
11 13 -18 21 0
11 13 18 -21 0
11 35 -41 47 0
11 35 41 -47 0
12 -13 -32 -38 0
12 -13 32 38 0
12 13 -32 38 0
12 13 32 -38 0
14 -19 -31 -40 0
14 -19 31 40 0
14 -15 -20 -29 0
14 -15 20 29 0
14 15 -20 29 0
14 15 20 -29 0
14 19 -31 40 0
14 19 31 -40 0
18 -22 -30 -45 0
18 -22 30 45 0
18 22 -30 45 0
18 22 30 -45 0
21 -28 -39 -42 0
21 -28 39 42 0
21 28 -39 42 0
21 28 39 -42 0
25 -32 -42 -46 0
25 -32 42 46 0
25 32 -42 46 0
25 32 42 -46 0
30 -37 -39 -44 0
30 -37 39 44 0
30 37 -39 44 0
30 37 39 -44 0
