p cnf 41 162
-4 8 0
4 -8 0
-26 -28 -34 36 0
-26 -28 34 -36 0
-26 28 -34 -36 0
-26 28 34 36 0
-25 -32 -34 35 0
-25 -32 34 -35 0
-25 32 -34 -35 0
-25 32 34 35 0
-23 -30 -32 33 0
-23 -30 32 -33 0
-23 30 -32 -33 0
-23 30 32 33 0
-21 -27 -30 31 0
-21 -27 30 -31 0
-21 27 -30 -31 0
-21 27 30 31 0
-19 -27 -28 29 0
-19 -27 28 -29 0
-19 27 -28 -29 0
-19 27 28 29 0
-16 -36 -38 41 0
-16 -36 38 -41 0
-16 36 -38 -41 0
-16 36 38 41 0
-15 -18 -24 26 0
-15 -18 24 -26 0
-15 18 -24 -26 0
-15 18 24 26 0
-14 -35 -40 41 0
-14 -35 40 -41 0
-14 35 -40 -41 0
-14 35 40 41 0
-13 -22 -24 25 0
-13 -22 24 -25 0
-13 22 -24 -25 0
-13 22 24 25 0
-11 -33 -39 40 0
-11 -33 39 -40 0
-11 33 -39 -40 0
-11 33 39 40 0
-10 -20 -22 23 0
-10 -20 22 -23 0
-10 20 -22 -23 0
-10 20 22 23 0
-9 -12 -13 14 0
-9 -12 13 -14 0
-9 12 -13 -14 0
-9 12 13 14 0
-7 -31 -37 39 0
-7 -31 37 -39 0
-7 31 -37 -39 0
-7 31 37 39 0
-6 -17 -20 21 0
-6 -17 20 -21 0
-6 17 -20 -21 0
-6 17 20 21 0
-5 -9 -10 11 0
-5 -9 10 -11 0
-5 -6 -7 8 0
-5 -6 7 -8 0
-5 6 -7 -8 0
-5 6 7 8 0
-5 9 -10 -11 0
-5 9 10 11 0
-3 -29 -37 38 0
-3 -29 37 -38 0
-3 29 -37 -38 0
-3 29 37 38 0
-2 -17 -18 19 0
-2 -17 18 -19 0
-2 17 -18 -19 0
-2 17 18 19 0
-1 -12 -15 16 0
-1 -12 15 -16 0
-1 -2 -3 4 0
-1 -2 3 -4 0
-1 2 -3 -4 0
-1 2 3 4 0
-1 12 -15 -16 0
-1 12 15 16 0
1 -12 -15 -16 0
1 -12 15 16 0
1 -2 -3 -4 0
1 -2 3 4 0
1 2 -3 4 0
1 2 3 -4 0
1 12 -15 16 0
1 12 15 -16 0
2 -17 -18 -19 0
2 -17 18 19 0
2 17 -18 19 0
2 17 18 -19 0
3 -29 -37 -38 0
3 -29 37 38 0
3 29 -37 38 0
3 29 37 -38 0
5 -9 -10 -11 0
5 -9 10 11 0
5 -6 -7 -8 0
5 -6 7 8 0
5 6 -7 8 0
5 6 7 -8 0
5 9 -10 11 0
5 9 10 -11 0
6 -17 -20 -21 0
6 -17 20 21 0
6 17 -20 21 0
6 17 20 -21 0
7 -31 -37 -39 0
7 -31 37 39 0
7 31 -37 39 0
7 31 37 -39 0
9 -12 -13 -14 0
9 -12 13 14 0
9 12 -13 14 0
9 12 13 -14 0
10 -20 -22 -23 0
10 -20 22 23 0
10 20 -22 23 0
10 20 22 -23 0
11 -33 -39 -40 0
11 -33 39 40 0
11 33 -39 40 0
11 33 39 -40 0
13 -22 -24 -25 0
13 -22 24 25 0
13 22 -24 25 0
13 22 24 -25 0
14 -35 -40 -41 0
14 -35 40 41 0
14 35 -40 41 0
14 35 40 -41 0
15 -18 -24 -26 0
15 -18 24 26 0
15 18 -24 26 0
15 18 24 -26 0
16 -36 -38 -41 0
16 -36 38 41 0
16 36 -38 41 0
16 36 38 -41 0
19 -27 -28 -29 0
19 -27 28 29 0
19 27 -28 29 0
19 27 28 -29 0
21 -27 -30 -31 0
21 -27 30 31 0
21 27 -30 31 0
21 27 30 -31 0
23 -30 -32 -33 0
23 -30 32 33 0
23 30 -32 33 0
23 30 32 -33 0
25 -32 -34 -35 0
25 -32 34 35 0
25 32 -34 35 0
25 32 34 -35 0
26 -28 -34 -36 0
26 -28 34 36 0
26 28 -34 36 0
26 28 34 -36 0
