p cnf 73 290
-10 29 0
10 -29 0
-46 -63 -65 70 0
-46 -63 65 -70 0
-46 63 -65 -70 0
-46 63 65 70 0
-40 -57 -62 73 0
-40 -57 62 -73 0
-40 57 -62 -73 0
-40 57 62 73 0
-34 -36 -51 57 0
-34 -36 51 -57 0
-34 36 -51 -57 0
-34 36 51 57 0
-32 -37 -51 67 0
-32 -37 51 -67 0
-32 37 -51 -67 0
-32 37 51 67 0
-29 -42 -46 58 0
-29 -42 46 -58 0
-29 42 -46 -58 0
-29 42 46 58 0
-26 -38 -60 69 0
-26 -38 60 -69 0
-26 38 -60 -69 0
-26 38 60 69 0
-25 -32 -58 61 0
-25 -32 58 -61 0
-25 32 -58 -61 0
-25 32 58 61 0
-24 -55 -67 73 0
-24 -55 67 -73 0
-24 55 -67 -73 0
-24 55 67 73 0
-23 -47 -48 63 0
-23 -47 48 -63 0
-23 -26 -27 54 0
-23 -26 27 -54 0
-23 26 -27 -54 0
-23 26 27 54 0
-23 47 -48 -63 0
-23 47 48 63 0
-22 -30 -55 65 0
-22 -30 55 -65 0
-22 30 -55 -65 0
-22 30 55 65 0
-20 -21 -61 68 0
-20 -21 61 -68 0
-20 21 -61 -68 0
-20 21 61 68 0
-18 -41 -49 66 0
-18 -41 49 -66 0
-18 -19 -35 59 0
-18 -19 35 -59 0
-18 19 -35 -59 0
-18 19 35 59 0
-18 41 -49 -66 0
-18 41 49 66 0
-16 -19 -44 60 0
-16 -19 44 -60 0
-16 19 -44 -60 0
-16 19 44 60 0
-15 -34 -41 53 0
-15 -34 41 -53 0
-15 34 -41 -53 0
-15 34 41 53 0
-13 -31 -35 53 0
-13 -31 35 -53 0
-13 -16 -39 54 0
-13 -16 39 -54 0
-13 16 -39 -54 0
-13 16 39 54 0
-13 31 -35 -53 0
-13 31 35 53 0
-12 -44 -50 71 0
-12 -44 50 -71 0
-12 44 -50 -71 0
-12 44 50 71 0
-10 -12 -64 68 0
-10 -12 64 -68 0
-10 12 -64 -68 0
-10 12 64 68 0
-9 -28 -52 56 0
-9 -28 52 -56 0
-9 28 -52 -56 0
-9 28 52 56 0
-8 -21 -33 37 0
-8 -21 33 -37 0
-8 21 -33 -37 0
-8 21 33 37 0
-7 -11 -30 45 0
-7 -11 30 -45 0
-7 -8 -24 56 0
-7 -8 24 -56 0
-7 8 -24 -56 0
-7 8 24 56 0
-7 11 -30 -45 0
-7 11 30 45 0
-6 -20 -50 59 0
-6 -20 50 -59 0
-6 -9 -33 49 0
-6 -9 33 -49 0
-6 9 -33 -49 0
-6 9 33 49 0
-6 20 -50 -59 0
-6 20 50 59 0
-5 -22 -48 62 0
-5 -22 48 -62 0
-5 -14 -27 72 0
-5 -14 27 -72 0
-5 14 -27 -72 0
-5 14 27 72 0
-5 22 -48 -62 0
-5 22 48 62 0
-4 -45 -64 70 0
-4 -45 64 -70 0
-4 -17 -69 71 0
-4 -17 69 -71 0
-4 17 -69 -71 0
-4 17 69 71 0
-4 45 -64 -70 0
-4 45 64 70 0
-3 -43 -52 66 0
-3 -43 52 -66 0
-3 -15 -40 72 0
-3 -15 40 -72 0
-3 15 -40 -72 0
-3 15 40 72 0
-3 43 -52 -66 0
-3 43 52 66 0
-2 -14 -38 43 0
-2 -14 38 -43 0
-2 -11 -17 28 0
-2 -11 17 -28 0
-2 11 -17 -28 0
-2 11 17 28 0
-2 14 -38 -43 0
-2 14 38 43 0
-1 -39 -42 47 0
-1 -39 42 -47 0
-1 -25 -31 36 0
-1 -25 31 -36 0
-1 25 -31 -36 0
-1 25 31 36 0
-1 39 -42 -47 0
-1 39 42 47 0
1 -39 -42 -47 0
1 -39 42 47 0
1 -25 -31 -36 0
1 -25 31 36 0
1 25 -31 36 0
1 25 31 -36 0
1 39 -42 47 0
1 39 42 -47 0
2 -14 -38 -43 0
2 -14 38 43 0
2 -11 -17 -28 0
2 -11 17 28 0
2 11 -17 28 0
2 11 17 -28 0
2 14 -38 43 0
2 14 38 -43 0
3 -43 -52 -66 0
3 -43 52 66 0
3 -15 -40 -72 0
3 -15 40 72 0
3 15 -40 72 0
3 15 40 -72 0
3 43 -52 66 0
3 43 52 -66 0
4 -45 -64 -70 0
4 -45 64 70 0
4 -17 -69 -71 0
4 -17 69 71 0
4 17 -69 71 0
4 17 69 -71 0
4 45 -64 70 0
4 45 64 -70 0
5 -22 -48 -62 0
5 -22 48 62 0
5 -14 -27 -72 0
5 -14 27 72 0
5 14 -27 72 0
5 14 27 -72 0
5 22 -48 62 0
5 22 48 -62 0
6 -20 -50 -59 0
6 -20 50 59 0
6 -9 -33 -49 0
6 -9 33 49 0
6 9 -33 49 0
6 9 33 -49 0
6 20 -50 59 0
6 20 50 -59 0
7 -11 -30 -45 0
7 -11 30 45 0
7 -8 -24 -56 0
7 -8 24 56 0
7 8 -24 56 0
7 8 24 -56 0
7 11 -30 45 0
7 11 30 -45 0
8 -21 -33 -37 0
8 -21 33 37 0
8 21 -33 37 0
8 21 33 -37 0
9 -28 -52 -56 0
9 -28 52 56 0
9 28 -52 56 0
9 28 52 -56 0
10 -12 -64 -68 0
10 -12 64 68 0
10 12 -64 68 0
10 12 64 -68 0
12 -44 -50 -71 0
12 -44 50 71 0
12 44 -50 71 0
12 44 50 -71 0
13 -31 -35 -53 0
13 -31 35 53 0
13 -16 -39 -54 0
13 -16 39 54 0
13 16 -39 54 0
13 16 39 -54 0
13 31 -35 53 0
13 31 35 -53 0
15 -34 -41 -53 0
15 -34 41 53 0
15 34 -41 53 0
15 34 41 -53 0
16 -19 -44 -60 0
16 -19 44 60 0
16 19 -44 60 0
16 19 44 -60 0
18 -41 -49 -66 0
18 -41 49 66 0
18 -19 -35 -59 0
18 -19 35 59 0
18 19 -35 59 0
18 19 35 -59 0
18 41 -49 66 0
18 41 49 -66 0
20 -21 -61 -68 0
20 -21 61 68 0
20 21 -61 68 0
20 21 61 -68 0
22 -30 -55 -65 0
22 -30 55 65 0
22 30 -55 65 0
22 30 55 -65 0
23 -47 -48 -63 0
23 -47 48 63 0
23 -26 -27 -54 0
23 -26 27 54 0
23 26 -27 54 0
23 26 27 -54 0
23 47 -48 63 0
23 47 48 -63 0
24 -55 -67 -73 0
24 -55 67 73 0
24 55 -67 73 0
24 55 67 -73 0
25 -32 -58 -61 0
25 -32 58 61 0
25 32 -58 61 0
25 32 58 -61 0
26 -38 -60 -69 0
26 -38 60 69 0
26 38 -60 69 0
26 38 60 -69 0
29 -42 -46 -58 0
29 -42 46 58 0
29 42 -46 58 0
29 42 46 -58 0
32 -37 -51 -67 0
32 -37 51 67 0
32 37 -51 67 0
32 37 51 -67 0
34 -36 -51 -57 0
34 -36 51 57 0
34 36 -51 57 0
34 36 51 -57 0
40 -57 -62 -73 0
40 -57 62 73 0
40 57 -62 73 0
40 57 62 -73 0
46 -63 -65 -70 0
46 -63 65 70 0
46 63 -65 70 0
46 63 65 -70 0
