p cnf 61 242
-7 38 0
7 -38 0
-34 -39 -42 59 0
-34 -39 42 -59 0
-34 39 -42 -59 0
-34 39 42 59 0
-33 -36 -41 58 0
-33 -36 41 -58 0
-33 36 -41 -58 0
-33 36 41 58 0
-24 -29 -44 50 0
-24 -29 44 -50 0
-24 29 -44 -50 0
-24 29 44 50 0
-23 -27 -40 55 0
-23 -27 40 -55 0
-23 27 -40 -55 0
-23 27 40 55 0
-21 -43 -44 57 0
-21 -43 44 -57 0
-21 -28 -41 45 0
-21 -28 41 -45 0
-21 28 -41 -45 0
-21 28 41 45 0
-21 43 -44 -57 0
-21 43 44 57 0
-18 -35 -46 51 0
-18 -35 46 -51 0
-18 35 -46 -51 0
-18 35 46 51 0
-15 -19 -29 49 0
-15 -19 29 -49 0
-15 19 -29 -49 0
-15 19 29 49 0
-14 -15 -26 39 0
-14 -15 26 -39 0
-14 15 -26 -39 0
-14 15 26 39 0
-13 -32 -37 52 0
-13 -32 37 -52 0
-13 32 -37 -52 0
-13 32 37 52 0
-12 -22 -24 55 0
-12 -22 24 -55 0
-12 -17 -19 34 0
-12 -17 19 -34 0
-12 17 -19 -34 0
-12 17 19 34 0
-12 22 -24 -55 0
-12 22 24 55 0
-11 -43 -48 49 0
-11 -43 48 -49 0
-11 -26 -37 56 0
-11 -26 37 -56 0
-11 26 -37 -56 0
-11 26 37 56 0
-11 43 -48 -49 0
-11 43 48 49 0
-10 -16 -38 40 0
-10 -16 38 -40 0
-10 16 -38 -40 0
-10 16 38 40 0
-9 -30 -47 53 0
-9 -30 47 -53 0
-9 30 -47 -53 0
-9 30 47 53 0
-8 -45 -54 56 0
-8 -45 54 -56 0
-8 -13 -30 33 0
-8 -13 30 -33 0
-8 13 -30 -33 0
-8 13 30 33 0
-8 45 -54 -56 0
-8 45 54 56 0
-7 -9 -25 58 0
-7 -9 25 -58 0
-7 9 -25 -58 0
-7 9 25 58 0
-6 -36 -57 60 0
-6 -36 57 -60 0
-6 -32 -46 48 0
-6 -32 46 -48 0
-6 32 -46 -48 0
-6 32 46 48 0
-6 36 -57 -60 0
-6 36 57 60 0
-5 -23 -28 50 0
-5 -23 28 -50 0
-5 -14 -31 54 0
-5 -14 31 -54 0
-5 14 -31 -54 0
-5 14 31 54 0
-5 23 -28 -50 0
-5 23 28 50 0
-4 -27 -31 59 0
-4 -27 31 -59 0
-4 -10 -47 61 0
-4 -10 47 -61 0
-4 10 -47 -61 0
-4 10 47 61 0
-4 27 -31 -59 0
-4 27 31 59 0
-3 -17 -18 20 0
-3 -17 18 -20 0
-3 17 -18 -20 0
-3 17 18 20 0
-2 -51 -52 53 0
-2 -51 52 -53 0
-2 -20 -42 61 0
-2 -20 42 -61 0
-2 20 -42 -61 0
-2 20 42 61 0
-2 51 -52 -53 0
-2 51 52 53 0
-1 -25 -35 60 0
-1 -25 35 -60 0
-1 -3 -16 22 0
-1 -3 16 -22 0
-1 3 -16 -22 0
-1 3 16 22 0
-1 25 -35 -60 0
-1 25 35 60 0
1 -25 -35 -60 0
1 -25 35 60 0
1 -3 -16 -22 0
1 -3 16 22 0
1 3 -16 22 0
1 3 16 -22 0
1 25 -35 60 0
1 25 35 -60 0
2 -51 -52 -53 0
2 -51 52 53 0
2 -20 -42 -61 0
2 -20 42 61 0
2 20 -42 61 0
2 20 42 -61 0
2 51 -52 53 0
2 51 52 -53 0
3 -17 -18 -20 0
3 -17 18 20 0
3 17 -18 20 0
3 17 18 -20 0
4 -27 -31 -59 0
4 -27 31 59 0
4 -10 -47 -61 0
4 -10 47 61 0
4 10 -47 61 0
4 10 47 -61 0
4 27 -31 59 0
4 27 31 -59 0
5 -23 -28 -50 0
5 -23 28 50 0
5 -14 -31 -54 0
5 -14 31 54 0
5 14 -31 54 0
5 14 31 -54 0
5 23 -28 50 0
5 23 28 -50 0
6 -36 -57 -60 0
6 -36 57 60 0
6 -32 -46 -48 0
6 -32 46 48 0
6 32 -46 48 0
6 32 46 -48 0
6 36 -57 60 0
6 36 57 -60 0
7 -9 -25 -58 0
7 -9 25 58 0
7 9 -25 58 0
7 9 25 -58 0
8 -45 -54 -56 0
8 -45 54 56 0
8 -13 -30 -33 0
8 -13 30 33 0
8 13 -30 33 0
8 13 30 -33 0
8 45 -54 56 0
8 45 54 -56 0
9 -30 -47 -53 0
9 -30 47 53 0
9 30 -47 53 0
9 30 47 -53 0
10 -16 -38 -40 0
10 -16 38 40 0
10 16 -38 40 0
10 16 38 -40 0
11 -43 -48 -49 0
11 -43 48 49 0
11 -26 -37 -56 0
11 -26 37 56 0
11 26 -37 56 0
11 26 37 -56 0
11 43 -48 49 0
11 43 48 -49 0
12 -22 -24 -55 0
12 -22 24 55 0
12 -17 -19 -34 0
12 -17 19 34 0
12 17 -19 34 0
12 17 19 -34 0
12 22 -24 55 0
12 22 24 -55 0
13 -32 -37 -52 0
13 -32 37 52 0
13 32 -37 52 0
13 32 37 -52 0
14 -15 -26 -39 0
14 -15 26 39 0
14 15 -26 39 0
14 15 26 -39 0
15 -19 -29 -49 0
15 -19 29 49 0
15 19 -29 49 0
15 19 29 -49 0
18 -35 -46 -51 0
18 -35 46 51 0
18 35 -46 51 0
18 35 46 -51 0
21 -43 -44 -57 0
21 -43 44 57 0
21 -28 -41 -45 0
21 -28 41 45 0
21 28 -41 45 0
21 28 41 -45 0
21 43 -44 57 0
21 43 44 -57 0
23 -27 -40 -55 0
23 -27 40 55 0
23 27 -40 55 0
23 27 40 -55 0
24 -29 -44 -50 0
24 -29 44 50 0
24 29 -44 50 0
24 29 44 -50 0
33 -36 -41 -58 0
33 -36 41 58 0
33 36 -41 58 0
33 36 41 -58 0
34 -39 -42 -59 0
34 -39 42 59 0
34 39 -42 59 0
34 39 42 -59 0
