p cnf 49 194
-29 46 0
29 -46 0
-38 -42 -47 48 0
-38 -42 47 -48 0
-38 42 -47 -48 0
-38 42 47 48 0
-27 -28 -32 48 0
-27 -28 32 -48 0
-27 28 -32 -48 0
-27 28 32 48 0
-21 -24 -36 40 0
-21 -24 36 -40 0
-21 -23 -31 33 0
-21 -23 31 -33 0
-21 23 -31 -33 0
-21 23 31 33 0
-21 24 -36 -40 0
-21 24 36 40 0
-20 -24 -28 35 0
-20 -24 28 -35 0
-20 24 -28 -35 0
-20 24 28 35 0
-16 -19 -22 30 0
-16 -19 22 -30 0
-16 19 -22 -30 0
-16 19 22 30 0
-15 -36 -44 45 0
-15 -36 44 -45 0
-15 36 -44 -45 0
-15 36 44 45 0
-13 -33 -41 42 0
-13 -33 41 -42 0
-13 33 -41 -42 0
-13 33 41 42 0
-12 -18 -19 37 0
-12 -18 19 -37 0
-12 18 -19 -37 0
-12 18 19 37 0
-10 -23 -39 43 0
-10 -23 39 -43 0
-10 23 -39 -43 0
-10 23 39 43 0
-8 -31 -35 38 0
-8 -31 35 -38 0
-8 -16 -17 39 0
-8 -16 17 -39 0
-8 16 -17 -39 0
-8 16 17 39 0
-8 31 -35 -38 0
-8 31 35 38 0
-7 -14 -18 29 0
-7 -14 18 -29 0
-7 -11 -34 49 0
-7 -11 34 -49 0
-7 11 -34 -49 0
-7 11 34 49 0
-7 14 -18 -29 0
-7 14 18 29 0
-6 -9 -11 37 0
-6 -9 11 -37 0
-6 9 -11 -37 0
-6 9 11 37 0
-5 -9 -10 30 0
-5 -9 10 -30 0
-5 9 -10 -30 0
-5 9 10 30 0
-4 -25 -27 46 0
-4 -25 27 -46 0
-4 -20 -26 44 0
-4 -20 26 -44 0
-4 20 -26 -44 0
-4 20 26 44 0
-4 25 -27 -46 0
-4 25 27 46 0
-3 -25 -45 49 0
-3 -25 45 -49 0
-3 -13 -32 40 0
-3 -13 32 -40 0
-3 13 -32 -40 0
-3 13 32 40 0
-3 25 -45 -49 0
-3 25 45 49 0
-2 -14 -22 26 0
-2 -14 22 -26 0
-2 -5 -15 34 0
-2 -5 15 -34 0
-2 5 -15 -34 0
-2 5 15 34 0
-2 14 -22 -26 0
-2 14 22 26 0
-1 -12 -17 47 0
-1 -12 17 -47 0
-1 -6 -41 43 0
-1 -6 41 -43 0
-1 6 -41 -43 0
-1 6 41 43 0
-1 12 -17 -47 0
-1 12 17 47 0
1 -12 -17 -47 0
1 -12 17 47 0
1 -6 -41 -43 0
1 -6 41 43 0
1 6 -41 43 0
1 6 41 -43 0
1 12 -17 47 0
1 12 17 -47 0
2 -14 -22 -26 0
2 -14 22 26 0
2 -5 -15 -34 0
2 -5 15 34 0
2 5 -15 34 0
2 5 15 -34 0
2 14 -22 26 0
2 14 22 -26 0
3 -25 -45 -49 0
3 -25 45 49 0
3 -13 -32 -40 0
3 -13 32 40 0
3 13 -32 40 0
3 13 32 -40 0
3 25 -45 49 0
3 25 45 -49 0
4 -25 -27 -46 0
4 -25 27 46 0
4 -20 -26 -44 0
4 -20 26 44 0
4 20 -26 44 0
4 20 26 -44 0
4 25 -27 46 0
4 25 27 -46 0
5 -9 -10 -30 0
5 -9 10 30 0
5 9 -10 30 0
5 9 10 -30 0
6 -9 -11 -37 0
6 -9 11 37 0
6 9 -11 37 0
6 9 11 -37 0
7 -14 -18 -29 0
7 -14 18 29 0
7 -11 -34 -49 0
7 -11 34 49 0
7 11 -34 49 0
7 11 34 -49 0
7 14 -18 29 0
7 14 18 -29 0
8 -31 -35 -38 0
8 -31 35 38 0
8 -16 -17 -39 0
8 -16 17 39 0
8 16 -17 39 0
8 16 17 -39 0
8 31 -35 38 0
8 31 35 -38 0
10 -23 -39 -43 0
10 -23 39 43 0
10 23 -39 43 0
10 23 39 -43 0
12 -18 -19 -37 0
12 -18 19 37 0
12 18 -19 37 0
12 18 19 -37 0
13 -33 -41 -42 0
13 -33 41 42 0
13 33 -41 42 0
13 33 41 -42 0
15 -36 -44 -45 0
15 -36 44 45 0
15 36 -44 45 0
15 36 44 -45 0
16 -19 -22 -30 0
16 -19 22 30 0
16 19 -22 30 0
16 19 22 -30 0
20 -24 -28 -35 0
20 -24 28 35 0
20 24 -28 35 0
20 24 28 -35 0
21 -24 -36 -40 0
21 -24 36 40 0
21 -23 -31 -33 0
21 -23 31 33 0
21 23 -31 33 0
21 23 31 -33 0
21 24 -36 40 0
21 24 36 -40 0
27 -28 -32 -48 0
27 -28 32 48 0
27 28 -32 48 0
27 28 32 -48 0
38 -42 -47 -48 0
38 -42 47 48 0
38 42 -47 48 0
38 42 47 -48 0
