p cnf 61 242
-37 49 0
37 -49 0
-35 -53 -54 61 0
-35 -53 54 -61 0
-35 53 -54 -61 0
-35 53 54 61 0
-33 -35 -37 52 0
-33 -35 37 -52 0
-33 35 -37 -52 0
-33 35 37 52 0
-27 -36 -38 42 0
-27 -36 38 -42 0
-27 36 -38 -42 0
-27 36 38 42 0
-26 -55 -57 60 0
-26 -55 57 -60 0
-26 55 -57 -60 0
-26 55 57 60 0
-24 -28 -29 31 0
-24 -28 29 -31 0
-24 28 -29 -31 0
-24 28 29 31 0
-23 -39 -44 51 0
-23 -39 44 -51 0
-23 39 -44 -51 0
-23 39 44 51 0
-21 -25 -40 50 0
-21 -25 40 -50 0
-21 25 -40 -50 0
-21 25 40 50 0
-19 -45 -53 58 0
-19 -45 53 -58 0
-19 -42 -44 47 0
-19 -42 44 -47 0
-19 42 -44 -47 0
-19 42 44 47 0
-19 45 -53 -58 0
-19 45 53 58 0
-14 -27 -48 58 0
-14 -27 48 -58 0
-14 -18 -50 54 0
-14 -18 50 -54 0
-14 18 -50 -54 0
-14 18 50 54 0
-14 27 -48 -58 0
-14 27 48 58 0
-12 -28 -40 46 0
-12 -28 40 -46 0
-12 28 -40 -46 0
-12 28 40 46 0
-11 -16 -30 56 0
-11 -16 30 -56 0
-11 16 -30 -56 0
-11 16 30 56 0
-10 -20 -29 59 0
-10 -20 29 -59 0
-10 -15 -23 45 0
-10 -15 23 -45 0
-10 15 -23 -45 0
-10 15 23 45 0
-10 20 -29 -59 0
-10 20 29 59 0
-9 -13 -26 52 0
-9 -13 26 -52 0
-9 13 -26 -52 0
-9 13 26 52 0
-8 -43 -56 57 0
-8 -43 56 -57 0
-8 43 -56 -57 0
-8 43 56 57 0
-7 -11 -22 41 0
-7 -11 22 -41 0
-7 11 -22 -41 0
-7 11 22 41 0
-6 -12 -20 55 0
-6 -12 20 -55 0
-6 -9 -15 61 0
-6 -9 15 -61 0
-6 9 -15 -61 0
-6 9 15 61 0
-6 12 -20 -55 0
-6 12 20 55 0
-5 -32 -33 47 0
-5 -32 33 -47 0
-5 -13 -39 43 0
-5 -13 39 -43 0
-5 13 -39 -43 0
-5 13 39 43 0
-5 32 -33 -47 0
-5 32 33 47 0
-4 -34 -36 41 0
-4 -34 36 -41 0
-4 -21 -24 48 0
-4 -21 24 -48 0
-4 21 -24 -48 0
-4 21 24 48 0
-4 34 -36 -41 0
-4 34 36 41 0
-3 -17 -18 49 0
-3 -17 18 -49 0
-3 -7 -32 38 0
-3 -7 32 -38 0
-3 7 -32 -38 0
-3 7 32 38 0
-3 17 -18 -49 0
-3 17 18 49 0
-2 -16 -31 34 0
-2 -16 31 -34 0
-2 -8 -51 59 0
-2 -8 51 -59 0
-2 8 -51 -59 0
-2 8 51 59 0
-2 16 -31 -34 0
-2 16 31 34 0
-1 -30 -46 60 0
-1 -30 46 -60 0
-1 -17 -22 25 0
-1 -17 22 -25 0
-1 17 -22 -25 0
-1 17 22 25 0
-1 30 -46 -60 0
-1 30 46 60 0
1 -30 -46 -60 0
1 -30 46 60 0
1 -17 -22 -25 0
1 -17 22 25 0
1 17 -22 25 0
1 17 22 -25 0
1 30 -46 60 0
1 30 46 -60 0
2 -16 -31 -34 0
2 -16 31 34 0
2 -8 -51 -59 0
2 -8 51 59 0
2 8 -51 59 0
2 8 51 -59 0
2 16 -31 34 0
2 16 31 -34 0
3 -17 -18 -49 0
3 -17 18 49 0
3 -7 -32 -38 0
3 -7 32 38 0
3 7 -32 38 0
3 7 32 -38 0
3 17 -18 49 0
3 17 18 -49 0
4 -34 -36 -41 0
4 -34 36 41 0
4 -21 -24 -48 0
4 -21 24 48 0
4 21 -24 48 0
4 21 24 -48 0
4 34 -36 41 0
4 34 36 -41 0
5 -32 -33 -47 0
5 -32 33 47 0
5 -13 -39 -43 0
5 -13 39 43 0
5 13 -39 43 0
5 13 39 -43 0
5 32 -33 47 0
5 32 33 -47 0
6 -12 -20 -55 0
6 -12 20 55 0
6 -9 -15 -61 0
6 -9 15 61 0
6 9 -15 61 0
6 9 15 -61 0
6 12 -20 55 0
6 12 20 -55 0
7 -11 -22 -41 0
7 -11 22 41 0
7 11 -22 41 0
7 11 22 -41 0
8 -43 -56 -57 0
8 -43 56 57 0
8 43 -56 57 0
8 43 56 -57 0
9 -13 -26 -52 0
9 -13 26 52 0
9 13 -26 52 0
9 13 26 -52 0
10 -20 -29 -59 0
10 -20 29 59 0
10 -15 -23 -45 0
10 -15 23 45 0
10 15 -23 45 0
10 15 23 -45 0
10 20 -29 59 0
10 20 29 -59 0
11 -16 -30 -56 0
11 -16 30 56 0
11 16 -30 56 0
11 16 30 -56 0
12 -28 -40 -46 0
12 -28 40 46 0
12 28 -40 46 0
12 28 40 -46 0
14 -27 -48 -58 0
14 -27 48 58 0
14 -18 -50 -54 0
14 -18 50 54 0
14 18 -50 54 0
14 18 50 -54 0
14 27 -48 58 0
14 27 48 -58 0
19 -45 -53 -58 0
19 -45 53 58 0
19 -42 -44 -47 0
19 -42 44 47 0
19 42 -44 47 0
19 42 44 -47 0
19 45 -53 58 0
19 45 53 -58 0
21 -25 -40 -50 0
21 -25 40 50 0
21 25 -40 50 0
21 25 40 -50 0
23 -39 -44 -51 0
23 -39 44 51 0
23 39 -44 51 0
23 39 44 -51 0
24 -28 -29 -31 0
24 -28 29 31 0
24 28 -29 31 0
24 28 29 -31 0
26 -55 -57 -60 0
26 -55 57 60 0
26 55 -57 60 0
26 55 57 -60 0
27 -36 -38 -42 0
27 -36 38 42 0
27 36 -38 42 0
27 36 38 -42 0
33 -35 -37 -52 0
33 -35 37 52 0
33 35 -37 52 0
33 35 37 -52 0
35 -53 -54 -61 0
35 -53 54 61 0
35 53 -54 61 0
35 53 54 -61 0
