p cnf 49 194
-12 23 0
12 -23 0
-28 -31 -32 35 0
-28 -31 32 -35 0
-28 31 -32 -35 0
-28 31 32 35 0
-22 -24 -26 38 0
-22 -24 26 -38 0
-22 24 -26 -38 0
-22 24 26 38 0
-19 -33 -43 48 0
-19 -33 43 -48 0
-19 33 -43 -48 0
-19 33 43 48 0
-16 -28 -46 48 0
-16 -28 46 -48 0
-16 28 -46 -48 0
-16 28 46 48 0
-15 -20 -21 42 0
-15 -20 21 -42 0
-15 20 -21 -42 0
-15 20 21 42 0
-14 -17 -29 32 0
-14 -17 29 -32 0
-14 17 -29 -32 0
-14 17 29 32 0
-13 -39 -44 47 0
-13 -39 44 -47 0
-13 39 -44 -47 0
-13 39 44 47 0
-12 -35 -42 45 0
-12 -35 42 -45 0
-12 35 -42 -45 0
-12 35 42 45 0
-11 -25 -38 41 0
-11 -25 38 -41 0
-11 25 -38 -41 0
-11 25 38 41 0
-10 -18 -21 36 0
-10 -18 21 -36 0
-10 -14 -23 30 0
-10 -14 23 -30 0
-10 14 -23 -30 0
-10 14 23 30 0
-10 18 -21 -36 0
-10 18 21 36 0
-9 -34 -36 40 0
-9 -34 36 -40 0
-9 -25 -37 49 0
-9 -25 37 -49 0
-9 25 -37 -49 0
-9 25 37 49 0
-9 34 -36 -40 0
-9 34 36 40 0
-6 -8 -27 44 0
-6 -8 27 -44 0
-6 8 -27 -44 0
-6 8 27 44 0
-5 -15 -27 43 0
-5 -15 27 -43 0
-5 -13 -16 45 0
-5 -13 16 -45 0
-5 13 -16 -45 0
-5 13 16 45 0
-5 15 -27 -43 0
-5 15 27 43 0
-4 -8 -34 41 0
-4 -8 34 -41 0
-4 -7 -26 39 0
-4 -7 26 -39 0
-4 7 -26 -39 0
-4 7 26 39 0
-4 8 -34 -41 0
-4 8 34 41 0
-3 -19 -20 31 0
-3 -19 20 -31 0
-3 -18 -29 37 0
-3 -18 29 -37 0
-3 18 -29 -37 0
-3 18 29 37 0
-3 19 -20 -31 0
-3 19 20 31 0
-2 -22 -46 47 0
-2 -22 46 -47 0
-2 -6 -11 33 0
-2 -6 11 -33 0
-2 6 -11 -33 0
-2 6 11 33 0
-2 22 -46 -47 0
-2 22 46 47 0
-1 -17 -24 49 0
-1 -17 24 -49 0
-1 -7 -30 40 0
-1 -7 30 -40 0
-1 7 -30 -40 0
-1 7 30 40 0
-1 17 -24 -49 0
-1 17 24 49 0
1 -17 -24 -49 0
1 -17 24 49 0
1 -7 -30 -40 0
1 -7 30 40 0
1 7 -30 40 0
1 7 30 -40 0
1 17 -24 49 0
1 17 24 -49 0
2 -22 -46 -47 0
2 -22 46 47 0
2 -6 -11 -33 0
2 -6 11 33 0
2 6 -11 33 0
2 6 11 -33 0
2 22 -46 47 0
2 22 46 -47 0
3 -19 -20 -31 0
3 -19 20 31 0
3 -18 -29 -37 0
3 -18 29 37 0
3 18 -29 37 0
3 18 29 -37 0
3 19 -20 31 0
3 19 20 -31 0
4 -8 -34 -41 0
4 -8 34 41 0
4 -7 -26 -39 0
4 -7 26 39 0
4 7 -26 39 0
4 7 26 -39 0
4 8 -34 41 0
4 8 34 -41 0
5 -15 -27 -43 0
5 -15 27 43 0
5 -13 -16 -45 0
5 -13 16 45 0
5 13 -16 45 0
5 13 16 -45 0
5 15 -27 43 0
5 15 27 -43 0
6 -8 -27 -44 0
6 -8 27 44 0
6 8 -27 44 0
6 8 27 -44 0
9 -34 -36 -40 0
9 -34 36 40 0
9 -25 -37 -49 0
9 -25 37 49 0
9 25 -37 49 0
9 25 37 -49 0
9 34 -36 40 0
9 34 36 -40 0
10 -18 -21 -36 0
10 -18 21 36 0
10 -14 -23 -30 0
10 -14 23 30 0
10 14 -23 30 0
10 14 23 -30 0
10 18 -21 36 0
10 18 21 -36 0
11 -25 -38 -41 0
11 -25 38 41 0
11 25 -38 41 0
11 25 38 -41 0
12 -35 -42 -45 0
12 -35 42 45 0
12 35 -42 45 0
12 35 42 -45 0
13 -39 -44 -47 0
13 -39 44 47 0
13 39 -44 47 0
13 39 44 -47 0
14 -17 -29 -32 0
14 -17 29 32 0
14 17 -29 32 0
14 17 29 -32 0
15 -20 -21 -42 0
15 -20 21 42 0
15 20 -21 42 0
15 20 21 -42 0
16 -28 -46 -48 0
16 -28 46 48 0
16 28 -46 48 0
16 28 46 -48 0
19 -33 -43 -48 0
19 -33 43 48 0
19 33 -43 48 0
19 33 43 -48 0
22 -24 -26 -38 0
22 -24 26 38 0
22 24 -26 38 0
22 24 26 -38 0
28 -31 -32 -35 0
28 -31 32 35 0
28 31 -32 35 0
28 31 32 -35 0
