p cnf 41 162
-28 34 0
28 -34 0
-17 -18 -29 30 0
-17 -18 29 -30 0
-17 18 -29 -30 0
-17 18 29 30 0
-16 -18 -32 40 0
-16 -18 32 -40 0
-16 18 -32 -40 0
-16 18 32 40 0
-14 -24 -34 39 0
-14 -24 34 -39 0
-14 24 -34 -39 0
-14 24 34 39 0
-13 -21 -24 30 0
-13 -21 24 -30 0
-13 21 -24 -30 0
-13 21 24 30 0
-12 -36 -37 38 0
-12 -36 37 -38 0
-12 36 -37 -38 0
-12 36 37 38 0
-11 -27 -31 41 0
-11 -27 31 -41 0
-11 27 -31 -41 0
-11 27 31 41 0
-10 -12 -16 31 0
-10 -12 16 -31 0
-10 12 -16 -31 0
-10 12 16 31 0
-9 -19 -27 40 0
-9 -19 27 -40 0
-9 19 -27 -40 0
-9 19 27 40 0
-8 -35 -36 41 0
-8 -35 36 -41 0
-8 -15 -19 23 0
-8 -15 19 -23 0
-8 15 -19 -23 0
-8 15 19 23 0
-8 35 -36 -41 0
-8 35 36 41 0
-6 -22 -28 38 0
-6 -22 28 -38 0
-6 -10 -13 25 0
-6 -10 13 -25 0
-6 10 -13 -25 0
-6 10 13 25 0
-6 22 -28 -38 0
-6 22 28 38 0
-5 -7 -20 23 0
-5 -7 20 -23 0
-5 7 -20 -23 0
-5 7 20 23 0
-4 -22 -26 35 0
-4 -22 26 -35 0
-4 -11 -25 33 0
-4 -11 25 -33 0
-4 11 -25 -33 0
-4 11 25 33 0
-4 22 -26 -35 0
-4 22 26 35 0
-3 -9 -17 20 0
-3 -9 17 -20 0
-3 9 -17 -20 0
-3 9 17 20 0
-2 -5 -14 26 0
-2 -5 14 -26 0
-2 -3 -21 33 0
-2 -3 21 -33 0
-2 3 -21 -33 0
-2 3 21 33 0
-2 5 -14 -26 0
-2 5 14 26 0
-1 -15 -32 37 0
-1 -15 32 -37 0
-1 -7 -29 39 0
-1 -7 29 -39 0
-1 7 -29 -39 0
-1 7 29 39 0
-1 15 -32 -37 0
-1 15 32 37 0
1 -15 -32 -37 0
1 -15 32 37 0
1 -7 -29 -39 0
1 -7 29 39 0
1 7 -29 39 0
1 7 29 -39 0
1 15 -32 37 0
1 15 32 -37 0
2 -5 -14 -26 0
2 -5 14 26 0
2 -3 -21 -33 0
2 -3 21 33 0
2 3 -21 33 0
2 3 21 -33 0
2 5 -14 26 0
2 5 14 -26 0
3 -9 -17 -20 0
3 -9 17 20 0
3 9 -17 20 0
3 9 17 -20 0
4 -22 -26 -35 0
4 -22 26 35 0
4 -11 -25 -33 0
4 -11 25 33 0
4 11 -25 33 0
4 11 25 -33 0
4 22 -26 35 0
4 22 26 -35 0
5 -7 -20 -23 0
5 -7 20 23 0
5 7 -20 23 0
5 7 20 -23 0
6 -22 -28 -38 0
6 -22 28 38 0
6 -10 -13 -25 0
6 -10 13 25 0
6 10 -13 25 0
6 10 13 -25 0
6 22 -28 38 0
6 22 28 -38 0
8 -35 -36 -41 0
8 -35 36 41 0
8 -15 -19 -23 0
8 -15 19 23 0
8 15 -19 23 0
8 15 19 -23 0
8 35 -36 41 0
8 35 36 -41 0
9 -19 -27 -40 0
9 -19 27 40 0
9 19 -27 40 0
9 19 27 -40 0
10 -12 -16 -31 0
10 -12 16 31 0
10 12 -16 31 0
10 12 16 -31 0
11 -27 -31 -41 0
11 -27 31 41 0
11 27 -31 41 0
11 27 31 -41 0
12 -36 -37 -38 0
12 -36 37 38 0
12 36 -37 38 0
12 36 37 -38 0
13 -21 -24 -30 0
13 -21 24 30 0
13 21 -24 30 0
13 21 24 -30 0
14 -24 -34 -39 0
14 -24 34 39 0
14 24 -34 39 0
14 24 34 -39 0
16 -18 -32 -40 0
16 -18 32 40 0
16 18 -32 40 0
16 18 32 -40 0
17 -18 -29 -30 0
17 -18 29 30 0
17 18 -29 30 0
17 18 29 -30 0
