p cnf 73 290
-33 67 0
33 -67 0
-46 -51 -61 69 0
-46 -51 61 -69 0
-46 51 -61 -69 0
-46 51 61 69 0
-37 -59 -67 71 0
-37 -59 67 -71 0
-37 -49 -57 65 0
-37 -49 57 -65 0
-37 49 -57 -65 0
-37 49 57 65 0
-37 59 -67 -71 0
-37 59 67 71 0
-35 -36 -39 62 0
-35 -36 39 -62 0
-35 36 -39 -62 0
-35 36 39 62 0
-28 -39 -49 54 0
-28 -39 49 -54 0
-28 39 -49 -54 0
-28 39 49 54 0
-26 -32 -64 72 0
-26 -32 64 -72 0
-26 32 -64 -72 0
-26 32 64 72 0
-24 -45 -61 66 0
-24 -45 61 -66 0
-24 45 -61 -66 0
-24 45 61 66 0
-23 -30 -56 69 0
-23 -30 56 -69 0
-23 30 -56 -69 0
-23 30 56 69 0
-22 -31 -40 48 0
-22 -31 40 -48 0
-22 31 -40 -48 0
-22 31 40 48 0
-20 -21 -23 43 0
-20 -21 23 -43 0
-20 21 -23 -43 0
-20 21 23 43 0
-19 -27 -32 60 0
-19 -27 32 -60 0
-19 -22 -38 47 0
-19 -22 38 -47 0
-19 22 -38 -47 0
-19 22 38 47 0
-19 27 -32 -60 0
-19 27 32 60 0
-18 -53 -58 62 0
-18 -53 58 -62 0
-18 53 -58 -62 0
-18 53 58 62 0
-17 -42 -60 63 0
-17 -42 60 -63 0
-17 -21 -25 41 0
-17 -21 25 -41 0
-17 21 -25 -41 0
-17 21 25 41 0
-17 42 -60 -63 0
-17 42 60 63 0
-16 -38 -58 64 0
-16 -38 58 -64 0
-16 38 -58 -64 0
-16 38 58 64 0
-14 -50 -52 59 0
-14 -50 52 -59 0
-14 50 -52 -59 0
-14 50 52 59 0
-13 -15 -28 33 0
-13 -15 28 -33 0
-13 15 -28 -33 0
-13 15 28 33 0
-12 -27 -48 65 0
-12 -27 48 -65 0
-12 27 -48 -65 0
-12 27 48 65 0
-11 -34 -36 73 0
-11 -34 36 -73 0
-11 34 -36 -73 0
-11 34 36 73 0
-10 -18 -26 54 0
-10 -18 26 -54 0
-10 -13 -44 45 0
-10 -13 44 -45 0
-10 13 -44 -45 0
-10 13 44 45 0
-10 18 -26 -54 0
-10 18 26 54 0
-8 -51 -68 73 0
-8 -51 68 -73 0
-8 -14 -15 66 0
-8 -14 15 -66 0
-8 14 -15 -66 0
-8 14 15 66 0
-8 51 -68 -73 0
-8 51 68 73 0
-7 -31 -35 57 0
-7 -31 35 -57 0
-7 -11 -55 70 0
-7 -11 55 -70 0
-7 11 -55 -70 0
-7 11 55 70 0
-7 31 -35 -57 0
-7 31 35 57 0
-6 -29 -40 55 0
-6 -29 40 -55 0
-6 29 -40 -55 0
-6 29 40 55 0
-5 -34 -46 53 0
-5 -34 46 -53 0
-5 34 -46 -53 0
-5 34 46 53 0
-4 -20 -29 47 0
-4 -20 29 -47 0
-4 -5 -16 56 0
-4 -5 16 -56 0
-4 5 -16 -56 0
-4 5 16 56 0
-4 20 -29 -47 0
-4 20 29 47 0
-3 -12 -42 71 0
-3 -12 42 -71 0
-3 -9 -25 52 0
-3 -9 25 -52 0
-3 9 -25 -52 0
-3 9 25 52 0
-3 12 -42 -71 0
-3 12 42 71 0
-2 -44 -63 72 0
-2 -44 63 -72 0
-2 -24 -30 41 0
-2 -24 30 -41 0
-2 24 -30 -41 0
-2 24 30 41 0
-2 44 -63 -72 0
-2 44 63 72 0
-1 -50 -68 70 0
-1 -50 68 -70 0
-1 -6 -9 43 0
-1 -6 9 -43 0
-1 6 -9 -43 0
-1 6 9 43 0
-1 50 -68 -70 0
-1 50 68 70 0
1 -50 -68 -70 0
1 -50 68 70 0
1 -6 -9 -43 0
1 -6 9 43 0
1 6 -9 43 0
1 6 9 -43 0
1 50 -68 70 0
1 50 68 -70 0
2 -44 -63 -72 0
2 -44 63 72 0
2 -24 -30 -41 0
2 -24 30 41 0
2 24 -30 41 0
2 24 30 -41 0
2 44 -63 72 0
2 44 63 -72 0
3 -12 -42 -71 0
3 -12 42 71 0
3 -9 -25 -52 0
3 -9 25 52 0
3 9 -25 52 0
3 9 25 -52 0
3 12 -42 71 0
3 12 42 -71 0
4 -20 -29 -47 0
4 -20 29 47 0
4 -5 -16 -56 0
4 -5 16 56 0
4 5 -16 56 0
4 5 16 -56 0
4 20 -29 47 0
4 20 29 -47 0
5 -34 -46 -53 0
5 -34 46 53 0
5 34 -46 53 0
5 34 46 -53 0
6 -29 -40 -55 0
6 -29 40 55 0
6 29 -40 55 0
6 29 40 -55 0
7 -31 -35 -57 0
7 -31 35 57 0
7 -11 -55 -70 0
7 -11 55 70 0
7 11 -55 70 0
7 11 55 -70 0
7 31 -35 57 0
7 31 35 -57 0
8 -51 -68 -73 0
8 -51 68 73 0
8 -14 -15 -66 0
8 -14 15 66 0
8 14 -15 66 0
8 14 15 -66 0
8 51 -68 73 0
8 51 68 -73 0
10 -18 -26 -54 0
10 -18 26 54 0
10 -13 -44 -45 0
10 -13 44 45 0
10 13 -44 45 0
10 13 44 -45 0
10 18 -26 54 0
10 18 26 -54 0
11 -34 -36 -73 0
11 -34 36 73 0
11 34 -36 73 0
11 34 36 -73 0
12 -27 -48 -65 0
12 -27 48 65 0
12 27 -48 65 0
12 27 48 -65 0
13 -15 -28 -33 0
13 -15 28 33 0
13 15 -28 33 0
13 15 28 -33 0
14 -50 -52 -59 0
14 -50 52 59 0
14 50 -52 59 0
14 50 52 -59 0
16 -38 -58 -64 0
16 -38 58 64 0
16 38 -58 64 0
16 38 58 -64 0
17 -42 -60 -63 0
17 -42 60 63 0
17 -21 -25 -41 0
17 -21 25 41 0
17 21 -25 41 0
17 21 25 -41 0
17 42 -60 63 0
17 42 60 -63 0
18 -53 -58 -62 0
18 -53 58 62 0
18 53 -58 62 0
18 53 58 -62 0
19 -27 -32 -60 0
19 -27 32 60 0
19 -22 -38 -47 0
19 -22 38 47 0
19 22 -38 47 0
19 22 38 -47 0
19 27 -32 60 0
19 27 32 -60 0
20 -21 -23 -43 0
20 -21 23 43 0
20 21 -23 43 0
20 21 23 -43 0
22 -31 -40 -48 0
22 -31 40 48 0
22 31 -40 48 0
22 31 40 -48 0
23 -30 -56 -69 0
23 -30 56 69 0
23 30 -56 69 0
23 30 56 -69 0
24 -45 -61 -66 0
24 -45 61 66 0
24 45 -61 66 0
24 45 61 -66 0
26 -32 -64 -72 0
26 -32 64 72 0
26 32 -64 72 0
26 32 64 -72 0
28 -39 -49 -54 0
28 -39 49 54 0
28 39 -49 54 0
28 39 49 -54 0
35 -36 -39 -62 0
35 -36 39 62 0
35 36 -39 62 0
35 36 39 -62 0
37 -59 -67 -71 0
37 -59 67 71 0
37 -49 -57 -65 0
37 -49 57 65 0
37 49 -57 65 0
37 49 57 -65 0
37 59 -67 71 0
37 59 67 -71 0
46 -51 -61 -69 0
46 -51 61 69 0
46 51 -61 69 0
46 51 61 -69 0
