p cnf 51 202
-33 34 0
33 -34 0
-32 -35 -38 48 0
-32 -35 38 -48 0
-32 35 -38 -48 0
-32 35 38 48 0
-21 -23 -43 50 0
-21 -23 43 -50 0
-21 23 -43 -50 0
-21 23 43 50 0
-18 -37 -41 47 0
-18 -37 41 -47 0
-18 -24 -30 45 0
-18 -24 30 -45 0
-18 24 -30 -45 0
-18 24 30 45 0
-18 37 -41 -47 0
-18 37 41 47 0
-16 -29 -33 36 0
-16 -29 33 -36 0
-16 -27 -31 49 0
-16 -27 31 -49 0
-16 27 -31 -49 0
-16 27 31 49 0
-16 29 -33 -36 0
-16 29 33 36 0
-14 -21 -30 39 0
-14 -21 30 -39 0
-14 21 -30 -39 0
-14 21 30 39 0
-13 -17 -28 35 0
-13 -17 28 -35 0
-13 17 -28 -35 0
-13 17 28 35 0
-12 -22 -36 51 0
-12 -22 36 -51 0
-12 22 -36 -51 0
-12 22 36 51 0
-11 -40 -44 47 0
-11 -40 44 -47 0
-11 40 -44 -47 0
-11 40 44 47 0
-10 -15 -24 25 0
-10 -15 24 -25 0
-10 15 -24 -25 0
-10 15 24 25 0
-8 -11 -20 26 0
-8 -11 20 -26 0
-8 11 -20 -26 0
-8 11 20 26 0
-7 -13 -19 49 0
-7 -13 19 -49 0
-7 -9 -15 32 0
-7 -9 15 -32 0
-7 9 -15 -32 0
-7 9 15 32 0
-7 13 -19 -49 0
-7 13 19 49 0
-6 -34 -42 46 0
-6 -34 42 -46 0
-6 -8 -17 27 0
-6 -8 17 -27 0
-6 8 -17 -27 0
-6 8 17 27 0
-6 34 -42 -46 0
-6 34 42 46 0
-5 -42 -48 50 0
-5 -42 48 -50 0
-5 42 -48 -50 0
-5 42 48 50 0
-4 -22 -31 44 0
-4 -22 31 -44 0
-4 -10 -19 37 0
-4 -10 19 -37 0
-4 10 -19 -37 0
-4 10 19 37 0
-4 22 -31 -44 0
-4 22 31 44 0
-3 -38 -43 45 0
-3 -38 43 -45 0
-3 -20 -28 41 0
-3 -20 28 -41 0
-3 20 -28 -41 0
-3 20 28 41 0
-3 38 -43 -45 0
-3 38 43 45 0
-2 -39 -40 51 0
-2 -39 40 -51 0
-2 -23 -26 46 0
-2 -23 26 -46 0
-2 23 -26 -46 0
-2 23 26 46 0
-2 39 -40 -51 0
-2 39 40 51 0
-1 -12 -14 25 0
-1 -12 14 -25 0
-1 -5 -9 29 0
-1 -5 9 -29 0
-1 5 -9 -29 0
-1 5 9 29 0
-1 12 -14 -25 0
-1 12 14 25 0
1 -12 -14 -25 0
1 -12 14 25 0
1 -5 -9 -29 0
1 -5 9 29 0
1 5 -9 29 0
1 5 9 -29 0
1 12 -14 25 0
1 12 14 -25 0
2 -39 -40 -51 0
2 -39 40 51 0
2 -23 -26 -46 0
2 -23 26 46 0
2 23 -26 46 0
2 23 26 -46 0
2 39 -40 51 0
2 39 40 -51 0
3 -38 -43 -45 0
3 -38 43 45 0
3 -20 -28 -41 0
3 -20 28 41 0
3 20 -28 41 0
3 20 28 -41 0
3 38 -43 45 0
3 38 43 -45 0
4 -22 -31 -44 0
4 -22 31 44 0
4 -10 -19 -37 0
4 -10 19 37 0
4 10 -19 37 0
4 10 19 -37 0
4 22 -31 44 0
4 22 31 -44 0
5 -42 -48 -50 0
5 -42 48 50 0
5 42 -48 50 0
5 42 48 -50 0
6 -34 -42 -46 0
6 -34 42 46 0
6 -8 -17 -27 0
6 -8 17 27 0
6 8 -17 27 0
6 8 17 -27 0
6 34 -42 46 0
6 34 42 -46 0
7 -13 -19 -49 0
7 -13 19 49 0
7 -9 -15 -32 0
7 -9 15 32 0
7 9 -15 32 0
7 9 15 -32 0
7 13 -19 49 0
7 13 19 -49 0
8 -11 -20 -26 0
8 -11 20 26 0
8 11 -20 26 0
8 11 20 -26 0
10 -15 -24 -25 0
10 -15 24 25 0
10 15 -24 25 0
10 15 24 -25 0
11 -40 -44 -47 0
11 -40 44 47 0
11 40 -44 47 0
11 40 44 -47 0
12 -22 -36 -51 0
12 -22 36 51 0
12 22 -36 51 0
12 22 36 -51 0
13 -17 -28 -35 0
13 -17 28 35 0
13 17 -28 35 0
13 17 28 -35 0
14 -21 -30 -39 0
14 -21 30 39 0
14 21 -30 39 0
14 21 30 -39 0
16 -29 -33 -36 0
16 -29 33 36 0
16 -27 -31 -49 0
16 -27 31 49 0
16 27 -31 49 0
16 27 31 -49 0
16 29 -33 36 0
16 29 33 -36 0
18 -37 -41 -47 0
18 -37 41 47 0
18 -24 -30 -45 0
18 -24 30 45 0
18 24 -30 45 0
18 24 30 -45 0
18 37 -41 47 0
18 37 41 -47 0
21 -23 -43 -50 0
21 -23 43 50 0
21 23 -43 50 0
21 23 43 -50 0
32 -35 -38 -48 0
32 -35 38 48 0
32 35 -38 48 0
32 35 38 -48 0
