p cnf 73 290
-63 73 0
63 -73 0
-52 -66 -67 73 0
-52 -66 67 -73 0
-52 66 -67 -73 0
-52 66 67 73 0
-38 -39 -55 58 0
-38 -39 55 -58 0
-38 39 -55 -58 0
-38 39 55 58 0
-35 -46 -51 68 0
-35 -46 51 -68 0
-35 46 -51 -68 0
-35 46 51 68 0
-34 -42 -59 70 0
-34 -42 59 -70 0
-34 42 -59 -70 0
-34 42 59 70 0
-29 -32 -37 71 0
-29 -32 37 -71 0
-29 32 -37 -71 0
-29 32 37 71 0
-27 -29 -31 42 0
-27 -29 31 -42 0
-27 29 -31 -42 0
-27 29 31 42 0
-24 -28 -49 54 0
-24 -28 49 -54 0
-24 28 -49 -54 0
-24 28 49 54 0
-22 -34 -44 72 0
-22 -34 44 -72 0
-22 34 -44 -72 0
-22 34 44 72 0
-20 -27 -44 69 0
-20 -27 44 -69 0
-20 27 -44 -69 0
-20 27 44 69 0
-19 -21 -26 57 0
-19 -21 26 -57 0
-19 21 -26 -57 0
-19 21 26 57 0
-18 -24 -33 68 0
-18 -24 33 -68 0
-18 24 -33 -68 0
-18 24 33 68 0
-17 -25 -46 47 0
-17 -25 46 -47 0
-17 -21 -33 65 0
-17 -21 33 -65 0
-17 21 -33 -65 0
-17 21 33 65 0
-17 25 -46 -47 0
-17 25 46 47 0
-16 -45 -47 67 0
-16 -45 47 -67 0
-16 45 -47 -67 0
-16 45 47 67 0
-15 -32 -48 55 0
-15 -32 48 -55 0
-15 32 -48 -55 0
-15 32 48 55 0
-14 -22 -35 53 0
-14 -22 35 -53 0
-14 22 -35 -53 0
-14 22 35 53 0
-13 -50 -53 69 0
-13 -50 53 -69 0
-13 -28 -51 62 0
-13 -28 51 -62 0
-13 28 -51 -62 0
-13 28 51 62 0
-13 50 -53 -69 0
-13 50 53 69 0
-12 -43 -48 60 0
-12 -43 48 -60 0
-12 43 -48 -60 0
-12 43 48 60 0
-11 -30 -60 66 0
-11 -30 60 -66 0
-11 30 -60 -66 0
-11 30 60 66 0
-10 -52 -56 62 0
-10 -52 56 -62 0
-10 52 -56 -62 0
-10 52 56 62 0
-8 -57 -64 70 0
-8 -57 64 -70 0
-8 -15 -41 61 0
-8 -15 41 -61 0
-8 15 -41 -61 0
-8 15 41 61 0
-8 57 -64 -70 0
-8 57 64 70 0
-7 -23 -58 63 0
-7 -23 58 -63 0
-7 23 -58 -63 0
-7 23 58 63 0
-6 -39 -40 41 0
-6 -39 40 -41 0
-6 -36 -64 72 0
-6 -36 64 -72 0
-6 36 -64 -72 0
-6 36 64 72 0
-6 39 -40 -41 0
-6 39 40 41 0
-5 -30 -45 65 0
-5 -30 45 -65 0
-5 -19 -43 61 0
-5 -19 43 -61 0
-5 19 -43 -61 0
-5 19 43 61 0
-5 30 -45 -65 0
-5 30 45 65 0
-4 -10 -11 49 0
-4 -10 11 -49 0
-4 -9 -12 71 0
-4 -9 12 -71 0
-4 9 -12 -71 0
-4 9 12 71 0
-4 10 -11 -49 0
-4 10 11 49 0
-3 -20 -37 38 0
-3 -20 37 -38 0
-3 -7 -50 56 0
-3 -7 50 -56 0
-3 7 -50 -56 0
-3 7 50 56 0
-3 20 -37 -38 0
-3 20 37 38 0
-2 -18 -26 59 0
-2 -18 26 -59 0
-2 -9 -31 54 0
-2 -9 31 -54 0
-2 9 -31 -54 0
-2 9 31 54 0
-2 18 -26 -59 0
-2 18 26 59 0
-1 -16 -23 40 0
-1 -16 23 -40 0
-1 -14 -25 36 0
-1 -14 25 -36 0
-1 14 -25 -36 0
-1 14 25 36 0
-1 16 -23 -40 0
-1 16 23 40 0
1 -16 -23 -40 0
1 -16 23 40 0
1 -14 -25 -36 0
1 -14 25 36 0
1 14 -25 36 0
1 14 25 -36 0
1 16 -23 40 0
1 16 23 -40 0
2 -18 -26 -59 0
2 -18 26 59 0
2 -9 -31 -54 0
2 -9 31 54 0
2 9 -31 54 0
2 9 31 -54 0
2 18 -26 59 0
2 18 26 -59 0
3 -20 -37 -38 0
3 -20 37 38 0
3 -7 -50 -56 0
3 -7 50 56 0
3 7 -50 56 0
3 7 50 -56 0
3 20 -37 38 0
3 20 37 -38 0
4 -10 -11 -49 0
4 -10 11 49 0
4 -9 -12 -71 0
4 -9 12 71 0
4 9 -12 71 0
4 9 12 -71 0
4 10 -11 49 0
4 10 11 -49 0
5 -30 -45 -65 0
5 -30 45 65 0
5 -19 -43 -61 0
5 -19 43 61 0
5 19 -43 61 0
5 19 43 -61 0
5 30 -45 65 0
5 30 45 -65 0
6 -39 -40 -41 0
6 -39 40 41 0
6 -36 -64 -72 0
6 -36 64 72 0
6 36 -64 72 0
6 36 64 -72 0
6 39 -40 41 0
6 39 40 -41 0
7 -23 -58 -63 0
7 -23 58 63 0
7 23 -58 63 0
7 23 58 -63 0
8 -57 -64 -70 0
8 -57 64 70 0
8 -15 -41 -61 0
8 -15 41 61 0
8 15 -41 61 0
8 15 41 -61 0
8 57 -64 70 0
8 57 64 -70 0
10 -52 -56 -62 0
10 -52 56 62 0
10 52 -56 62 0
10 52 56 -62 0
11 -30 -60 -66 0
11 -30 60 66 0
11 30 -60 66 0
11 30 60 -66 0
12 -43 -48 -60 0
12 -43 48 60 0
12 43 -48 60 0
12 43 48 -60 0
13 -50 -53 -69 0
13 -50 53 69 0
13 -28 -51 -62 0
13 -28 51 62 0
13 28 -51 62 0
13 28 51 -62 0
13 50 -53 69 0
13 50 53 -69 0
14 -22 -35 -53 0
14 -22 35 53 0
14 22 -35 53 0
14 22 35 -53 0
15 -32 -48 -55 0
15 -32 48 55 0
15 32 -48 55 0
15 32 48 -55 0
16 -45 -47 -67 0
16 -45 47 67 0
16 45 -47 67 0
16 45 47 -67 0
17 -25 -46 -47 0
17 -25 46 47 0
17 -21 -33 -65 0
17 -21 33 65 0
17 21 -33 65 0
17 21 33 -65 0
17 25 -46 47 0
17 25 46 -47 0
18 -24 -33 -68 0
18 -24 33 68 0
18 24 -33 68 0
18 24 33 -68 0
19 -21 -26 -57 0
19 -21 26 57 0
19 21 -26 57 0
19 21 26 -57 0
20 -27 -44 -69 0
20 -27 44 69 0
20 27 -44 69 0
20 27 44 -69 0
22 -34 -44 -72 0
22 -34 44 72 0
22 34 -44 72 0
22 34 44 -72 0
24 -28 -49 -54 0
24 -28 49 54 0
24 28 -49 54 0
24 28 49 -54 0
27 -29 -31 -42 0
27 -29 31 42 0
27 29 -31 42 0
27 29 31 -42 0
29 -32 -37 -71 0
29 -32 37 71 0
29 32 -37 71 0
29 32 37 -71 0
34 -42 -59 -70 0
34 -42 59 70 0
34 42 -59 70 0
34 42 59 -70 0
35 -46 -51 -68 0
35 -46 51 68 0
35 46 -51 68 0
35 46 51 -68 0
38 -39 -55 -58 0
38 -39 55 58 0
38 39 -55 58 0
38 39 55 -58 0
52 -66 -67 -73 0
52 -66 67 73 0
52 66 -67 73 0
52 66 67 -73 0
