p cnf 51 202
-18 24 0
18 -24 0
-34 -37 -48 49 0
-34 -37 48 -49 0
-34 37 -48 -49 0
-34 37 48 49 0
-30 -34 -40 50 0
-30 -34 40 -50 0
-30 34 -40 -50 0
-30 34 40 50 0
-27 -29 -36 50 0
-27 -29 36 -50 0
-27 29 -36 -50 0
-27 29 36 50 0
-24 -32 -33 45 0
-24 -32 33 -45 0
-24 32 -33 -45 0
-24 32 33 45 0
-22 -32 -37 47 0
-22 -32 37 -47 0
-22 32 -37 -47 0
-22 32 37 47 0
-21 -26 -38 51 0
-21 -26 38 -51 0
-21 26 -38 -51 0
-21 26 38 51 0
-17 -21 -25 35 0
-17 -21 25 -35 0
-17 21 -25 -35 0
-17 21 25 35 0
-16 -23 -35 41 0
-16 -23 35 -41 0
-16 23 -35 -41 0
-16 23 35 41 0
-15 -19 -40 43 0
-15 -19 40 -43 0
-15 19 -40 -43 0
-15 19 40 43 0
-14 -22 -30 46 0
-14 -22 30 -46 0
-14 22 -30 -46 0
-14 22 30 46 0
-13 -20 -29 46 0
-13 -20 29 -46 0
-13 20 -29 -46 0
-13 20 29 46 0
-12 -26 -44 45 0
-12 -26 44 -45 0
-12 26 -44 -45 0
-12 26 44 45 0
-10 -27 -39 43 0
-10 -27 39 -43 0
-10 -11 -17 28 0
-10 -11 17 -28 0
-10 11 -17 -28 0
-10 11 17 28 0
-10 27 -39 -43 0
-10 27 39 43 0
-7 -14 -31 33 0
-7 -14 31 -33 0
-7 -8 -12 19 0
-7 -8 12 -19 0
-7 8 -12 -19 0
-7 8 12 19 0
-7 14 -31 -33 0
-7 14 31 33 0
-6 -16 -18 38 0
-6 -16 18 -38 0
-6 16 -18 -38 0
-6 16 18 38 0
-4 -15 -44 49 0
-4 -15 44 -49 0
-4 -9 -28 51 0
-4 -9 28 -51 0
-4 9 -28 -51 0
-4 9 28 51 0
-4 15 -44 -49 0
-4 15 44 49 0
-3 -20 -31 41 0
-3 -20 31 -41 0
-3 -8 -25 39 0
-3 -8 25 -39 0
-3 8 -25 -39 0
-3 8 25 39 0
-3 20 -31 -41 0
-3 20 31 41 0
-2 -6 -42 47 0
-2 -6 42 -47 0
-2 -5 -13 23 0
-2 -5 13 -23 0
-2 5 -13 -23 0
-2 5 13 23 0
-2 6 -42 -47 0
-2 6 42 47 0
-1 -9 -42 48 0
-1 -9 42 -48 0
-1 -5 -11 36 0
-1 -5 11 -36 0
-1 5 -11 -36 0
-1 5 11 36 0
-1 9 -42 -48 0
-1 9 42 48 0
1 -9 -42 -48 0
1 -9 42 48 0
1 -5 -11 -36 0
1 -5 11 36 0
1 5 -11 36 0
1 5 11 -36 0
1 9 -42 48 0
1 9 42 -48 0
2 -6 -42 -47 0
2 -6 42 47 0
2 -5 -13 -23 0
2 -5 13 23 0
2 5 -13 23 0
2 5 13 -23 0
2 6 -42 47 0
2 6 42 -47 0
3 -20 -31 -41 0
3 -20 31 41 0
3 -8 -25 -39 0
3 -8 25 39 0
3 8 -25 39 0
3 8 25 -39 0
3 20 -31 41 0
3 20 31 -41 0
4 -15 -44 -49 0
4 -15 44 49 0
4 -9 -28 -51 0
4 -9 28 51 0
4 9 -28 51 0
4 9 28 -51 0
4 15 -44 49 0
4 15 44 -49 0
6 -16 -18 -38 0
6 -16 18 38 0
6 16 -18 38 0
6 16 18 -38 0
7 -14 -31 -33 0
7 -14 31 33 0
7 -8 -12 -19 0
7 -8 12 19 0
7 8 -12 19 0
7 8 12 -19 0
7 14 -31 33 0
7 14 31 -33 0
10 -27 -39 -43 0
10 -27 39 43 0
10 -11 -17 -28 0
10 -11 17 28 0
10 11 -17 28 0
10 11 17 -28 0
10 27 -39 43 0
10 27 39 -43 0
12 -26 -44 -45 0
12 -26 44 45 0
12 26 -44 45 0
12 26 44 -45 0
13 -20 -29 -46 0
13 -20 29 46 0
13 20 -29 46 0
13 20 29 -46 0
14 -22 -30 -46 0
14 -22 30 46 0
14 22 -30 46 0
14 22 30 -46 0
15 -19 -40 -43 0
15 -19 40 43 0
15 19 -40 43 0
15 19 40 -43 0
16 -23 -35 -41 0
16 -23 35 41 0
16 23 -35 41 0
16 23 35 -41 0
17 -21 -25 -35 0
17 -21 25 35 0
17 21 -25 35 0
17 21 25 -35 0
21 -26 -38 -51 0
21 -26 38 51 0
21 26 -38 51 0
21 26 38 -51 0
22 -32 -37 -47 0
22 -32 37 47 0
22 32 -37 47 0
22 32 37 -47 0
24 -32 -33 -45 0
24 -32 33 45 0
24 32 -33 45 0
24 32 33 -45 0
27 -29 -36 -50 0
27 -29 36 50 0
27 29 -36 50 0
27 29 36 -50 0
30 -34 -40 -50 0
30 -34 40 50 0
30 34 -40 50 0
30 34 40 -50 0
34 -37 -48 -49 0
34 -37 48 49 0
34 37 -48 49 0
34 37 48 -49 0
