p cnf 41 162
-21 35 0
21 -35 0
-24 -26 -40 41 0
-24 -26 40 -41 0
-24 26 -40 -41 0
-24 26 40 41 0
-19 -29 -30 37 0
-19 -29 30 -37 0
-19 29 -30 -37 0
-19 29 30 37 0
-18 -24 -27 38 0
-18 -24 27 -38 0
-18 24 -27 -38 0
-18 24 27 38 0
-13 -19 -20 34 0
-13 -19 20 -34 0
-13 19 -20 -34 0
-13 19 20 34 0
-11 -27 -35 36 0
-11 -27 35 -36 0
-11 27 -35 -36 0
-11 27 35 36 0
-10 -16 -22 39 0
-10 -16 22 -39 0
-10 -15 -23 31 0
-10 -15 23 -31 0
-10 15 -23 -31 0
-10 15 23 31 0
-10 16 -22 -39 0
-10 16 22 39 0
-9 -26 -28 37 0
-9 -26 28 -37 0
-9 -18 -20 33 0
-9 -18 20 -33 0
-9 18 -20 -33 0
-9 18 20 33 0
-9 26 -28 -37 0
-9 26 28 37 0
-8 -17 -25 28 0
-8 -17 25 -28 0
-8 17 -25 -28 0
-8 17 25 28 0
-7 -14 -21 39 0
-7 -14 21 -39 0
-7 14 -21 -39 0
-7 14 21 39 0
-6 -14 -25 33 0
-6 -14 25 -33 0
-6 14 -25 -33 0
-6 14 25 33 0
-5 -17 -30 31 0
-5 -17 30 -31 0
-5 -6 -16 34 0
-5 -6 16 -34 0
-5 6 -16 -34 0
-5 6 16 34 0
-5 17 -30 -31 0
-5 17 30 31 0
-4 -32 -36 40 0
-4 -32 36 -40 0
-4 -7 -8 15 0
-4 -7 8 -15 0
-4 7 -8 -15 0
-4 7 8 15 0
-4 32 -36 -40 0
-4 32 36 40 0
-3 -12 -23 32 0
-3 -12 23 -32 0
-3 12 -23 -32 0
-3 12 23 32 0
-2 -3 -11 22 0
-2 -3 11 -22 0
-2 3 -11 -22 0
-2 3 11 22 0
-1 -12 -29 41 0
-1 -12 29 -41 0
-1 -2 -13 38 0
-1 -2 13 -38 0
-1 2 -13 -38 0
-1 2 13 38 0
-1 12 -29 -41 0
-1 12 29 41 0
1 -12 -29 -41 0
1 -12 29 41 0
1 -2 -13 -38 0
1 -2 13 38 0
1 2 -13 38 0
1 2 13 -38 0
1 12 -29 41 0
1 12 29 -41 0
2 -3 -11 -22 0
2 -3 11 22 0
2 3 -11 22 0
2 3 11 -22 0
3 -12 -23 -32 0
3 -12 23 32 0
3 12 -23 32 0
3 12 23 -32 0
4 -32 -36 -40 0
4 -32 36 40 0
4 -7 -8 -15 0
4 -7 8 15 0
4 7 -8 15 0
4 7 8 -15 0
4 32 -36 40 0
4 32 36 -40 0
5 -17 -30 -31 0
5 -17 30 31 0
5 -6 -16 -34 0
5 -6 16 34 0
5 6 -16 34 0
5 6 16 -34 0
5 17 -30 31 0
5 17 30 -31 0
6 -14 -25 -33 0
6 -14 25 33 0
6 14 -25 33 0
6 14 25 -33 0
7 -14 -21 -39 0
7 -14 21 39 0
7 14 -21 39 0
7 14 21 -39 0
8 -17 -25 -28 0
8 -17 25 28 0
8 17 -25 28 0
8 17 25 -28 0
9 -26 -28 -37 0
9 -26 28 37 0
9 -18 -20 -33 0
9 -18 20 33 0
9 18 -20 33 0
9 18 20 -33 0
9 26 -28 37 0
9 26 28 -37 0
10 -16 -22 -39 0
10 -16 22 39 0
10 -15 -23 -31 0
10 -15 23 31 0
10 15 -23 31 0
10 15 23 -31 0
10 16 -22 39 0
10 16 22 -39 0
11 -27 -35 -36 0
11 -27 35 36 0
11 27 -35 36 0
11 27 35 -36 0
13 -19 -20 -34 0
13 -19 20 34 0
13 19 -20 34 0
13 19 20 -34 0
18 -24 -27 -38 0
18 -24 27 38 0
18 24 -27 38 0
18 24 27 -38 0
19 -29 -30 -37 0
19 -29 30 37 0
19 29 -30 37 0
19 29 30 -37 0
24 -26 -40 -41 0
24 -26 40 41 0
24 26 -40 41 0
24 26 40 -41 0
