p cnf 51 202
-29 48 0
29 -48 0
-38 -43 -49 50 0
-38 -43 49 -50 0
-38 43 -49 -50 0
-38 43 49 50 0
-27 -28 -32 50 0
-27 -28 32 -50 0
-27 28 -32 -50 0
-27 28 32 50 0
-24 -30 -45 46 0
-24 -30 45 -46 0
-24 30 -45 -46 0
-24 30 45 46 0
-14 -20 -22 23 0
-14 -20 22 -23 0
-14 20 -22 -23 0
-14 20 22 23 0
-13 -34 -43 47 0
-13 -34 43 -47 0
-13 34 -43 -47 0
-13 34 43 47 0
-12 -37 -41 47 0
-12 -37 41 -47 0
-12 37 -41 -47 0
-12 37 41 47 0
-11 -17 -25 51 0
-11 -17 25 -51 0
-11 17 -25 -51 0
-11 17 25 51 0
-10 -26 -30 36 0
-10 -26 30 -36 0
-10 26 -30 -36 0
-10 26 30 36 0
-9 -21 -31 40 0
-9 -21 31 -40 0
-9 -11 -42 44 0
-9 -11 42 -44 0
-9 11 -42 -44 0
-9 11 42 44 0
-9 21 -31 -40 0
-9 21 31 40 0
-8 -28 -35 39 0
-8 -28 35 -39 0
-8 -16 -26 38 0
-8 -16 26 -38 0
-8 16 -26 -38 0
-8 16 26 38 0
-8 28 -35 -39 0
-8 28 35 39 0
-7 -17 -19 37 0
-7 -17 19 -37 0
-7 -14 -18 29 0
-7 -14 18 -29 0
-7 14 -18 -29 0
-7 14 18 29 0
-7 17 -19 -37 0
-7 17 19 37 0
-6 -21 -23 24 0
-6 -21 23 -24 0
-6 -19 -33 42 0
-6 -19 33 -42 0
-6 19 -33 -42 0
-6 19 33 42 0
-6 21 -23 -24 0
-6 21 23 24 0
-5 -10 -39 40 0
-5 -10 39 -40 0
-5 10 -39 -40 0
-5 10 39 40 0
-4 -25 -27 48 0
-4 -25 27 -48 0
-4 -22 -31 35 0
-4 -22 31 -35 0
-4 22 -31 -35 0
-4 22 31 35 0
-4 25 -27 -48 0
-4 25 27 48 0
-3 -32 -34 51 0
-3 -32 34 -51 0
-3 -5 -15 44 0
-3 -5 15 -44 0
-3 5 -15 -44 0
-3 5 15 44 0
-3 32 -34 -51 0
-3 32 34 51 0
-2 -33 -41 46 0
-2 -33 41 -46 0
-2 -13 -15 36 0
-2 -13 15 -36 0
-2 13 -15 -36 0
-2 13 15 36 0
-2 33 -41 -46 0
-2 33 41 46 0
-1 -16 -20 45 0
-1 -16 20 -45 0
-1 -12 -18 49 0
-1 -12 18 -49 0
-1 12 -18 -49 0
-1 12 18 49 0
-1 16 -20 -45 0
-1 16 20 45 0
1 -16 -20 -45 0
1 -16 20 45 0
1 -12 -18 -49 0
1 -12 18 49 0
1 12 -18 49 0
1 12 18 -49 0
1 16 -20 45 0
1 16 20 -45 0
2 -33 -41 -46 0
2 -33 41 46 0
2 -13 -15 -36 0
2 -13 15 36 0
2 13 -15 36 0
2 13 15 -36 0
2 33 -41 46 0
2 33 41 -46 0
3 -32 -34 -51 0
3 -32 34 51 0
3 -5 -15 -44 0
3 -5 15 44 0
3 5 -15 44 0
3 5 15 -44 0
3 32 -34 51 0
3 32 34 -51 0
4 -25 -27 -48 0
4 -25 27 48 0
4 -22 -31 -35 0
4 -22 31 35 0
4 22 -31 35 0
4 22 31 -35 0
4 25 -27 48 0
4 25 27 -48 0
5 -10 -39 -40 0
5 -10 39 40 0
5 10 -39 40 0
5 10 39 -40 0
6 -21 -23 -24 0
6 -21 23 24 0
6 -19 -33 -42 0
6 -19 33 42 0
6 19 -33 42 0
6 19 33 -42 0
6 21 -23 24 0
6 21 23 -24 0
7 -17 -19 -37 0
7 -17 19 37 0
7 -14 -18 -29 0
7 -14 18 29 0
7 14 -18 29 0
7 14 18 -29 0
7 17 -19 37 0
7 17 19 -37 0
8 -28 -35 -39 0
8 -28 35 39 0
8 -16 -26 -38 0
8 -16 26 38 0
8 16 -26 38 0
8 16 26 -38 0
8 28 -35 39 0
8 28 35 -39 0
9 -21 -31 -40 0
9 -21 31 40 0
9 -11 -42 -44 0
9 -11 42 44 0
9 11 -42 44 0
9 11 42 -44 0
9 21 -31 40 0
9 21 31 -40 0
10 -26 -30 -36 0
10 -26 30 36 0
10 26 -30 36 0
10 26 30 -36 0
11 -17 -25 -51 0
11 -17 25 51 0
11 17 -25 51 0
11 17 25 -51 0
12 -37 -41 -47 0
12 -37 41 47 0
12 37 -41 47 0
12 37 41 -47 0
13 -34 -43 -47 0
13 -34 43 47 0
13 34 -43 47 0
13 34 43 -47 0
14 -20 -22 -23 0
14 -20 22 23 0
14 20 -22 23 0
14 20 22 -23 0
24 -30 -45 -46 0
24 -30 45 46 0
24 30 -45 46 0
24 30 45 -46 0
27 -28 -32 -50 0
27 -28 32 50 0
27 28 -32 50 0
27 28 32 -50 0
38 -43 -49 -50 0
38 -43 49 50 0
38 43 -49 50 0
38 43 49 -50 0
