p cnf 41 162
-3 20 0
3 -20 0
-24 -26 -31 39 0
-24 -26 31 -39 0
-24 26 -31 -39 0
-24 26 31 39 0
-18 -20 -27 33 0
-18 -20 27 -33 0
-18 20 -27 -33 0
-18 20 27 33 0
-15 -16 -25 34 0
-15 -16 25 -34 0
-15 16 -25 -34 0
-15 16 25 34 0
-14 -21 -35 38 0
-14 -21 35 -38 0
-14 21 -35 -38 0
-14 21 35 38 0
-13 -19 -22 37 0
-13 -19 22 -37 0
-13 19 -22 -37 0
-13 19 22 37 0
-12 -23 -39 41 0
-12 -23 39 -41 0
-12 23 -39 -41 0
-12 23 39 41 0
-11 -16 -19 32 0
-11 -16 19 -32 0
-11 16 -19 -32 0
-11 16 19 32 0
-10 -18 -28 31 0
-10 -18 28 -31 0
-10 -12 -14 30 0
-10 -12 14 -30 0
-10 12 -14 -30 0
-10 12 14 30 0
-10 18 -28 -31 0
-10 18 28 31 0
-8 -9 -32 36 0
-8 -9 32 -36 0
-8 9 -32 -36 0
-8 9 32 36 0
-6 -15 -24 36 0
-6 -15 24 -36 0
-6 15 -24 -36 0
-6 15 24 36 0
-5 -8 -26 27 0
-5 -8 26 -27 0
-5 -7 -23 40 0
-5 -7 23 -40 0
-5 7 -23 -40 0
-5 7 23 40 0
-5 8 -26 -27 0
-5 8 26 27 0
-4 -21 -22 25 0
-4 -21 22 -25 0
-4 -6 -17 28 0
-4 -6 17 -28 0
-4 6 -17 -28 0
-4 6 17 28 0
-4 21 -22 -25 0
-4 21 22 25 0
-3 -9 -13 17 0
-3 -9 13 -17 0
-3 9 -13 -17 0
-3 9 13 17 0
-2 -34 -35 41 0
-2 -34 35 -41 0
-2 -7 -11 29 0
-2 -7 11 -29 0
-2 7 -11 -29 0
-2 7 11 29 0
-2 34 -35 -41 0
-2 34 35 41 0
-1 -30 -33 40 0
-1 -30 33 -40 0
-1 -29 -37 38 0
-1 -29 37 -38 0
-1 29 -37 -38 0
-1 29 37 38 0
-1 30 -33 -40 0
-1 30 33 40 0
1 -30 -33 -40 0
1 -30 33 40 0
1 -29 -37 -38 0
1 -29 37 38 0
1 29 -37 38 0
1 29 37 -38 0
1 30 -33 40 0
1 30 33 -40 0
2 -34 -35 -41 0
2 -34 35 41 0
2 -7 -11 -29 0
2 -7 11 29 0
2 7 -11 29 0
2 7 11 -29 0
2 34 -35 41 0
2 34 35 -41 0
3 -9 -13 -17 0
3 -9 13 17 0
3 9 -13 17 0
3 9 13 -17 0
4 -21 -22 -25 0
4 -21 22 25 0
4 -6 -17 -28 0
4 -6 17 28 0
4 6 -17 28 0
4 6 17 -28 0
4 21 -22 25 0
4 21 22 -25 0
5 -8 -26 -27 0
5 -8 26 27 0
5 -7 -23 -40 0
5 -7 23 40 0
5 7 -23 40 0
5 7 23 -40 0
5 8 -26 27 0
5 8 26 -27 0
6 -15 -24 -36 0
6 -15 24 36 0
6 15 -24 36 0
6 15 24 -36 0
8 -9 -32 -36 0
8 -9 32 36 0
8 9 -32 36 0
8 9 32 -36 0
10 -18 -28 -31 0
10 -18 28 31 0
10 -12 -14 -30 0
10 -12 14 30 0
10 12 -14 30 0
10 12 14 -30 0
10 18 -28 31 0
10 18 28 -31 0
11 -16 -19 -32 0
11 -16 19 32 0
11 16 -19 32 0
11 16 19 -32 0
12 -23 -39 -41 0
12 -23 39 41 0
12 23 -39 41 0
12 23 39 -41 0
13 -19 -22 -37 0
13 -19 22 37 0
13 19 -22 37 0
13 19 22 -37 0
14 -21 -35 -38 0
14 -21 35 38 0
14 21 -35 38 0
14 21 35 -38 0
15 -16 -25 -34 0
15 -16 25 34 0
15 16 -25 34 0
15 16 25 -34 0
18 -20 -27 -33 0
18 -20 27 33 0
18 20 -27 33 0
18 20 27 -33 0
24 -26 -31 -39 0
24 -26 31 39 0
24 26 -31 39 0
24 26 31 -39 0
