p cnf 61 242
-19 57 0
19 -57 0
-39 -40 -51 61 0
-39 -40 51 -61 0
-39 40 -51 -61 0
-39 40 51 61 0
-37 -39 -46 58 0
-37 -39 46 -58 0
-37 39 -46 -58 0
-37 39 46 58 0
-33 -38 -52 53 0
-33 -38 52 -53 0
-33 38 -52 -53 0
-33 38 52 53 0
-30 -35 -41 48 0
-30 -35 41 -48 0
-30 35 -41 -48 0
-30 35 41 48 0
-27 -30 -44 49 0
-27 -30 44 -49 0
-27 30 -44 -49 0
-27 30 44 49 0
-26 -29 -45 53 0
-26 -29 45 -53 0
-26 29 -45 -53 0
-26 29 45 53 0
-24 -25 -26 42 0
-24 -25 26 -42 0
-24 25 -26 -42 0
-24 25 26 42 0
-22 -34 -40 47 0
-22 -34 40 -47 0
-22 34 -40 -47 0
-22 34 40 47 0
-18 -34 -45 46 0
-18 -34 45 -46 0
-18 34 -45 -46 0
-18 34 45 46 0
-15 -19 -50 56 0
-15 -19 50 -56 0
-15 19 -50 -56 0
-15 19 50 56 0
-13 -35 -42 43 0
-13 -35 42 -43 0
-13 -29 -37 44 0
-13 -29 37 -44 0
-13 29 -37 -44 0
-13 29 37 44 0
-13 35 -42 -43 0
-13 35 42 43 0
-12 -28 -48 57 0
-12 -28 48 -57 0
-12 28 -48 -57 0
-12 28 48 57 0
-11 -21 -32 54 0
-11 -21 32 -54 0
-11 21 -32 -54 0
-11 21 32 54 0
-10 -31 -54 59 0
-10 -31 54 -59 0
-10 31 -54 -59 0
-10 31 54 59 0
-8 -25 -33 36 0
-8 -25 33 -36 0
-8 25 -33 -36 0
-8 25 33 36 0
-7 -12 -43 60 0
-7 -12 43 -60 0
-7 -9 -50 51 0
-7 -9 50 -51 0
-7 9 -50 -51 0
-7 9 50 51 0
-7 12 -43 -60 0
-7 12 43 60 0
-6 -15 -21 23 0
-6 -15 21 -23 0
-6 -14 -17 55 0
-6 -14 17 -55 0
-6 14 -17 -55 0
-6 14 17 55 0
-6 15 -21 -23 0
-6 15 21 23 0
-5 -32 -56 61 0
-5 -32 56 -61 0
-5 -27 -58 59 0
-5 -27 58 -59 0
-5 27 -58 -59 0
-5 27 58 59 0
-5 32 -56 -61 0
-5 32 56 61 0
-4 -11 -47 55 0
-4 -11 47 -55 0
-4 -10 -18 38 0
-4 -10 18 -38 0
-4 10 -18 -38 0
-4 10 18 38 0
-4 11 -47 -55 0
-4 11 47 55 0
-3 -31 -49 52 0
-3 -31 49 -52 0
-3 -8 -20 41 0
-3 -8 20 -41 0
-3 8 -20 -41 0
-3 8 20 41 0
-3 31 -49 -52 0
-3 31 49 52 0
-2 -16 -24 60 0
-2 -16 24 -60 0
-2 -9 -14 22 0
-2 -9 14 -22 0
-2 9 -14 -22 0
-2 9 14 22 0
-2 16 -24 -60 0
-2 16 24 60 0
-1 -20 -23 28 0
-1 -20 23 -28 0
-1 -16 -17 36 0
-1 -16 17 -36 0
-1 16 -17 -36 0
-1 16 17 36 0
-1 20 -23 -28 0
-1 20 23 28 0
1 -20 -23 -28 0
1 -20 23 28 0
1 -16 -17 -36 0
1 -16 17 36 0
1 16 -17 36 0
1 16 17 -36 0
1 20 -23 28 0
1 20 23 -28 0
2 -16 -24 -60 0
2 -16 24 60 0
2 -9 -14 -22 0
2 -9 14 22 0
2 9 -14 22 0
2 9 14 -22 0
2 16 -24 60 0
2 16 24 -60 0
3 -31 -49 -52 0
3 -31 49 52 0
3 -8 -20 -41 0
3 -8 20 41 0
3 8 -20 41 0
3 8 20 -41 0
3 31 -49 52 0
3 31 49 -52 0
4 -11 -47 -55 0
4 -11 47 55 0
4 -10 -18 -38 0
4 -10 18 38 0
4 10 -18 38 0
4 10 18 -38 0
4 11 -47 55 0
4 11 47 -55 0
5 -32 -56 -61 0
5 -32 56 61 0
5 -27 -58 -59 0
5 -27 58 59 0
5 27 -58 59 0
5 27 58 -59 0
5 32 -56 61 0
5 32 56 -61 0
6 -15 -21 -23 0
6 -15 21 23 0
6 -14 -17 -55 0
6 -14 17 55 0
6 14 -17 55 0
6 14 17 -55 0
6 15 -21 23 0
6 15 21 -23 0
7 -12 -43 -60 0
7 -12 43 60 0
7 -9 -50 -51 0
7 -9 50 51 0
7 9 -50 51 0
7 9 50 -51 0
7 12 -43 60 0
7 12 43 -60 0
8 -25 -33 -36 0
8 -25 33 36 0
8 25 -33 36 0
8 25 33 -36 0
10 -31 -54 -59 0
10 -31 54 59 0
10 31 -54 59 0
10 31 54 -59 0
11 -21 -32 -54 0
11 -21 32 54 0
11 21 -32 54 0
11 21 32 -54 0
12 -28 -48 -57 0
12 -28 48 57 0
12 28 -48 57 0
12 28 48 -57 0
13 -35 -42 -43 0
13 -35 42 43 0
13 -29 -37 -44 0
13 -29 37 44 0
13 29 -37 44 0
13 29 37 -44 0
13 35 -42 43 0
13 35 42 -43 0
15 -19 -50 -56 0
15 -19 50 56 0
15 19 -50 56 0
15 19 50 -56 0
18 -34 -45 -46 0
18 -34 45 46 0
18 34 -45 46 0
18 34 45 -46 0
22 -34 -40 -47 0
22 -34 40 47 0
22 34 -40 47 0
22 34 40 -47 0
24 -25 -26 -42 0
24 -25 26 42 0
24 25 -26 42 0
24 25 26 -42 0
26 -29 -45 -53 0
26 -29 45 53 0
26 29 -45 53 0
26 29 45 -53 0
27 -30 -44 -49 0
27 -30 44 49 0
27 30 -44 49 0
27 30 44 -49 0
30 -35 -41 -48 0
30 -35 41 48 0
30 35 -41 48 0
30 35 41 -48 0
33 -38 -52 -53 0
33 -38 52 53 0
33 38 -52 53 0
33 38 52 -53 0
37 -39 -46 -58 0
37 -39 46 58 0
37 39 -46 58 0
37 39 46 -58 0
39 -40 -51 -61 0
39 -40 51 61 0
39 40 -51 61 0
39 40 51 -61 0
