p cnf 49 194
-5 48 0
5 -48 0
-30 -31 -37 49 0
-30 -31 37 -49 0
-30 31 -37 -49 0
-30 31 37 49 0
-22 -26 -33 42 0
-22 -26 33 -42 0
-22 26 -33 -42 0
-22 26 33 42 0
-20 -28 -34 37 0
-20 -28 34 -37 0
-20 28 -34 -37 0
-20 28 34 37 0
-17 -20 -25 29 0
-17 -20 25 -29 0
-17 20 -25 -29 0
-17 20 25 29 0
-15 -19 -24 31 0
-15 -19 24 -31 0
-15 19 -24 -31 0
-15 19 24 31 0
-14 -22 -38 40 0
-14 -22 38 -40 0
-14 22 -38 -40 0
-14 22 38 40 0
-13 -24 -34 47 0
-13 -24 34 -47 0
-13 24 -34 -47 0
-13 24 34 47 0
-11 -23 -44 45 0
-11 -23 44 -45 0
-11 -17 -35 49 0
-11 -17 35 -49 0
-11 17 -35 -49 0
-11 17 35 49 0
-11 23 -44 -45 0
-11 23 44 45 0
-10 -27 -28 36 0
-10 -27 28 -36 0
-10 -12 -25 39 0
-10 -12 25 -39 0
-10 12 -25 -39 0
-10 12 25 39 0
-10 27 -28 -36 0
-10 27 28 36 0
-8 -30 -36 46 0
-8 -30 36 -46 0
-8 -9 -15 21 0
-8 -9 15 -21 0
-8 9 -15 -21 0
-8 9 15 21 0
-8 30 -36 -46 0
-8 30 36 46 0
-7 -16 -26 48 0
-7 -16 26 -48 0
-7 -13 -14 41 0
-7 -13 14 -41 0
-7 13 -14 -41 0
-7 13 14 41 0
-7 16 -26 -48 0
-7 16 26 48 0
-6 -38 -43 45 0
-6 -38 43 -45 0
-6 38 -43 -45 0
-6 38 43 45 0
-5 -21 -27 47 0
-5 -21 27 -47 0
-5 21 -27 -47 0
-5 21 27 47 0
-4 -32 -33 43 0
-4 -32 33 -43 0
-4 32 -33 -43 0
-4 32 33 43 0
-3 -18 -23 32 0
-3 -18 23 -32 0
-3 -12 -35 46 0
-3 -12 35 -46 0
-3 12 -35 -46 0
-3 12 35 46 0
-3 18 -23 -32 0
-3 18 23 32 0
-2 -29 -40 44 0
-2 -29 40 -44 0
-2 -18 -39 42 0
-2 -18 39 -42 0
-2 18 -39 -42 0
-2 18 39 42 0
-2 29 -40 -44 0
-2 29 40 44 0
-1 -6 -19 41 0
-1 -6 19 -41 0
-1 -4 -9 16 0
-1 -4 9 -16 0
-1 4 -9 -16 0
-1 4 9 16 0
-1 6 -19 -41 0
-1 6 19 41 0
1 -6 -19 -41 0
1 -6 19 41 0
1 -4 -9 -16 0
1 -4 9 16 0
1 4 -9 16 0
1 4 9 -16 0
1 6 -19 41 0
1 6 19 -41 0
2 -29 -40 -44 0
2 -29 40 44 0
2 -18 -39 -42 0
2 -18 39 42 0
2 18 -39 42 0
2 18 39 -42 0
2 29 -40 44 0
2 29 40 -44 0
3 -18 -23 -32 0
3 -18 23 32 0
3 -12 -35 -46 0
3 -12 35 46 0
3 12 -35 46 0
3 12 35 -46 0
3 18 -23 32 0
3 18 23 -32 0
4 -32 -33 -43 0
4 -32 33 43 0
4 32 -33 43 0
4 32 33 -43 0
5 -21 -27 -47 0
5 -21 27 47 0
5 21 -27 47 0
5 21 27 -47 0
6 -38 -43 -45 0
6 -38 43 45 0
6 38 -43 45 0
6 38 43 -45 0
7 -16 -26 -48 0
7 -16 26 48 0
7 -13 -14 -41 0
7 -13 14 41 0
7 13 -14 41 0
7 13 14 -41 0
7 16 -26 48 0
7 16 26 -48 0
8 -30 -36 -46 0
8 -30 36 46 0
8 -9 -15 -21 0
8 -9 15 21 0
8 9 -15 21 0
8 9 15 -21 0
8 30 -36 46 0
8 30 36 -46 0
10 -27 -28 -36 0
10 -27 28 36 0
10 -12 -25 -39 0
10 -12 25 39 0
10 12 -25 39 0
10 12 25 -39 0
10 27 -28 36 0
10 27 28 -36 0
11 -23 -44 -45 0
11 -23 44 45 0
11 -17 -35 -49 0
11 -17 35 49 0
11 17 -35 49 0
11 17 35 -49 0
11 23 -44 45 0
11 23 44 -45 0
13 -24 -34 -47 0
13 -24 34 47 0
13 24 -34 47 0
13 24 34 -47 0
14 -22 -38 -40 0
14 -22 38 40 0
14 22 -38 40 0
14 22 38 -40 0
15 -19 -24 -31 0
15 -19 24 31 0
15 19 -24 31 0
15 19 24 -31 0
17 -20 -25 -29 0
17 -20 25 29 0
17 20 -25 29 0
17 20 25 -29 0
20 -28 -34 -37 0
20 -28 34 37 0
20 28 -34 37 0
20 28 34 -37 0
22 -26 -33 -42 0
22 -26 33 42 0
22 26 -33 42 0
22 26 33 -42 0
30 -31 -37 -49 0
30 -31 37 49 0
30 31 -37 49 0
30 31 37 -49 0
