p cnf 41 162
-1 16 0
1 -16 0
-17 -34 -35 41 0
-17 -34 35 -41 0
-17 34 -35 -41 0
-17 34 35 41 0
-16 -18 -22 39 0
-16 -18 22 -39 0
-16 18 -22 -39 0
-16 18 22 39 0
-15 -22 -25 31 0
-15 -22 25 -31 0
-15 22 -25 -31 0
-15 22 25 31 0
-14 -24 -30 37 0
-14 -24 30 -37 0
-14 -17 -26 32 0
-14 -17 26 -32 0
-14 17 -26 -32 0
-14 17 26 32 0
-14 24 -30 -37 0
-14 24 30 37 0
-13 -27 -31 33 0
-13 -27 31 -33 0
-13 -21 -23 38 0
-13 -21 23 -38 0
-13 21 -23 -38 0
-13 21 23 38 0
-13 27 -31 -33 0
-13 27 31 33 0
-10 -24 -36 40 0
-10 -24 36 -40 0
-10 24 -36 -40 0
-10 24 36 40 0
-8 -37 -38 41 0
-8 -37 38 -41 0
-8 -12 -20 40 0
-8 -12 20 -40 0
-8 12 -20 -40 0
-8 12 20 40 0
-8 37 -38 -41 0
-8 37 38 41 0
-7 -15 -21 30 0
-7 -15 21 -30 0
-7 15 -21 -30 0
-7 15 21 30 0
-6 -10 -26 29 0
-6 -10 26 -29 0
-6 -9 -12 34 0
-6 -9 12 -34 0
-6 9 -12 -34 0
-6 9 12 34 0
-6 10 -26 -29 0
-6 10 26 29 0
-5 -18 -28 29 0
-5 -18 28 -29 0
-5 -11 -25 36 0
-5 -11 25 -36 0
-5 11 -25 -36 0
-5 11 25 36 0
-5 18 -28 -29 0
-5 18 28 29 0
-4 -19 -23 35 0
-4 -19 23 -35 0
-4 19 -23 -35 0
-4 19 23 35 0
-3 -11 -20 33 0
-3 -11 20 -33 0
-3 11 -20 -33 0
-3 11 20 33 0
-2 -4 -27 39 0
-2 -4 27 -39 0
-2 -3 -9 28 0
-2 -3 9 -28 0
-2 3 -9 -28 0
-2 3 9 28 0
-2 4 -27 -39 0
-2 4 27 39 0
-1 -7 -19 32 0
-1 -7 19 -32 0
-1 7 -19 -32 0
-1 7 19 32 0
1 -7 -19 -32 0
1 -7 19 32 0
1 7 -19 32 0
1 7 19 -32 0
2 -4 -27 -39 0
2 -4 27 39 0
2 -3 -9 -28 0
2 -3 9 28 0
2 3 -9 28 0
2 3 9 -28 0
2 4 -27 39 0
2 4 27 -39 0
3 -11 -20 -33 0
3 -11 20 33 0
3 11 -20 33 0
3 11 20 -33 0
4 -19 -23 -35 0
4 -19 23 35 0
4 19 -23 35 0
4 19 23 -35 0
5 -18 -28 -29 0
5 -18 28 29 0
5 -11 -25 -36 0
5 -11 25 36 0
5 11 -25 36 0
5 11 25 -36 0
5 18 -28 29 0
5 18 28 -29 0
6 -10 -26 -29 0
6 -10 26 29 0
6 -9 -12 -34 0
6 -9 12 34 0
6 9 -12 34 0
6 9 12 -34 0
6 10 -26 29 0
6 10 26 -29 0
7 -15 -21 -30 0
7 -15 21 30 0
7 15 -21 30 0
7 15 21 -30 0
8 -37 -38 -41 0
8 -37 38 41 0
8 -12 -20 -40 0
8 -12 20 40 0
8 12 -20 40 0
8 12 20 -40 0
8 37 -38 41 0
8 37 38 -41 0
10 -24 -36 -40 0
10 -24 36 40 0
10 24 -36 40 0
10 24 36 -40 0
13 -27 -31 -33 0
13 -27 31 33 0
13 -21 -23 -38 0
13 -21 23 38 0
13 21 -23 38 0
13 21 23 -38 0
13 27 -31 33 0
13 27 31 -33 0
14 -24 -30 -37 0
14 -24 30 37 0
14 -17 -26 -32 0
14 -17 26 32 0
14 17 -26 32 0
14 17 26 -32 0
14 24 -30 37 0
14 24 30 -37 0
15 -22 -25 -31 0
15 -22 25 31 0
15 22 -25 31 0
15 22 25 -31 0
16 -18 -22 -39 0
16 -18 22 39 0
16 18 -22 39 0
16 18 22 -39 0
17 -34 -35 -41 0
17 -34 35 41 0
17 34 -35 41 0
17 34 35 -41 0
