p cnf 61 242
-14 36 0
14 -36 0
-34 -44 -54 57 0
-34 -44 54 -57 0
-34 -42 -45 60 0
-34 -42 45 -60 0
-34 42 -45 -60 0
-34 42 45 60 0
-34 44 -54 -57 0
-34 44 54 57 0
-33 -50 -58 59 0
-33 -50 58 -59 0
-33 50 -58 -59 0
-33 50 58 59 0
-30 -35 -46 58 0
-30 -35 46 -58 0
-30 35 -46 -58 0
-30 35 46 58 0
-22 -29 -32 38 0
-22 -29 32 -38 0
-22 29 -32 -38 0
-22 29 32 38 0
-21 -25 -51 59 0
-21 -25 51 -59 0
-21 25 -51 -59 0
-21 25 51 59 0
-20 -24 -37 56 0
-20 -24 37 -56 0
-20 24 -37 -56 0
-20 24 37 56 0
-17 -39 -49 54 0
-17 -39 49 -54 0
-17 39 -49 -54 0
-17 39 49 54 0
-16 -42 -46 55 0
-16 -42 46 -55 0
-16 -29 -33 41 0
-16 -29 33 -41 0
-16 29 -33 -41 0
-16 29 33 41 0
-16 42 -46 -55 0
-16 42 46 55 0
-15 -24 -27 53 0
-15 -24 27 -53 0
-15 -18 -28 61 0
-15 -18 28 -61 0
-15 18 -28 -61 0
-15 18 28 61 0
-15 24 -27 -53 0
-15 24 27 53 0
-14 -22 -48 52 0
-14 -22 48 -52 0
-14 22 -48 -52 0
-14 22 48 52 0
-12 -21 -40 61 0
-12 -21 40 -61 0
-12 -19 -47 53 0
-12 -19 47 -53 0
-12 19 -47 -53 0
-12 19 47 53 0
-12 21 -40 -61 0
-12 21 40 61 0
-10 -17 -43 60 0
-10 -17 43 -60 0
-10 -11 -28 51 0
-10 -11 28 -51 0
-10 11 -28 -51 0
-10 11 28 51 0
-10 17 -43 -60 0
-10 17 43 60 0
-8 -26 -38 39 0
-8 -26 38 -39 0
-8 -25 -41 43 0
-8 -25 41 -43 0
-8 25 -41 -43 0
-8 25 41 43 0
-8 26 -38 -39 0
-8 26 38 39 0
-7 -9 -56 57 0
-7 -9 56 -57 0
-7 9 -56 -57 0
-7 9 56 57 0
-6 -32 -44 55 0
-6 -32 44 -55 0
-6 -7 -31 52 0
-6 -7 31 -52 0
-6 7 -31 -52 0
-6 7 31 52 0
-6 32 -44 -55 0
-6 32 44 55 0
-4 -19 -26 48 0
-4 -19 26 -48 0
-4 -9 -27 49 0
-4 -9 27 -49 0
-4 9 -27 -49 0
-4 9 27 49 0
-4 19 -26 -48 0
-4 19 26 48 0
-3 -23 -36 47 0
-3 -23 36 -47 0
-3 -5 -40 50 0
-3 -5 40 -50 0
-3 5 -40 -50 0
-3 5 40 50 0
-3 23 -36 -47 0
-3 23 36 47 0
-2 -13 -18 37 0
-2 -13 18 -37 0
-2 -11 -35 45 0
-2 -11 35 -45 0
-2 11 -35 -45 0
-2 11 35 45 0
-2 13 -18 -37 0
-2 13 18 37 0
-1 -20 -23 31 0
-1 -20 23 -31 0
-1 -5 -13 30 0
-1 -5 13 -30 0
-1 5 -13 -30 0
-1 5 13 30 0
-1 20 -23 -31 0
-1 20 23 31 0
1 -20 -23 -31 0
1 -20 23 31 0
1 -5 -13 -30 0
1 -5 13 30 0
1 5 -13 30 0
1 5 13 -30 0
1 20 -23 31 0
1 20 23 -31 0
2 -13 -18 -37 0
2 -13 18 37 0
2 -11 -35 -45 0
2 -11 35 45 0
2 11 -35 45 0
2 11 35 -45 0
2 13 -18 37 0
2 13 18 -37 0
3 -23 -36 -47 0
3 -23 36 47 0
3 -5 -40 -50 0
3 -5 40 50 0
3 5 -40 50 0
3 5 40 -50 0
3 23 -36 47 0
3 23 36 -47 0
4 -19 -26 -48 0
4 -19 26 48 0
4 -9 -27 -49 0
4 -9 27 49 0
4 9 -27 49 0
4 9 27 -49 0
4 19 -26 48 0
4 19 26 -48 0
6 -32 -44 -55 0
6 -32 44 55 0
6 -7 -31 -52 0
6 -7 31 52 0
6 7 -31 52 0
6 7 31 -52 0
6 32 -44 55 0
6 32 44 -55 0
7 -9 -56 -57 0
7 -9 56 57 0
7 9 -56 57 0
7 9 56 -57 0
8 -26 -38 -39 0
8 -26 38 39 0
8 -25 -41 -43 0
8 -25 41 43 0
8 25 -41 43 0
8 25 41 -43 0
8 26 -38 39 0
8 26 38 -39 0
10 -17 -43 -60 0
10 -17 43 60 0
10 -11 -28 -51 0
10 -11 28 51 0
10 11 -28 51 0
10 11 28 -51 0
10 17 -43 60 0
10 17 43 -60 0
12 -21 -40 -61 0
12 -21 40 61 0
12 -19 -47 -53 0
12 -19 47 53 0
12 19 -47 53 0
12 19 47 -53 0
12 21 -40 61 0
12 21 40 -61 0
14 -22 -48 -52 0
14 -22 48 52 0
14 22 -48 52 0
14 22 48 -52 0
15 -24 -27 -53 0
15 -24 27 53 0
15 -18 -28 -61 0
15 -18 28 61 0
15 18 -28 61 0
15 18 28 -61 0
15 24 -27 53 0
15 24 27 -53 0
16 -42 -46 -55 0
16 -42 46 55 0
16 -29 -33 -41 0
16 -29 33 41 0
16 29 -33 41 0
16 29 33 -41 0
16 42 -46 55 0
16 42 46 -55 0
17 -39 -49 -54 0
17 -39 49 54 0
17 39 -49 54 0
17 39 49 -54 0
20 -24 -37 -56 0
20 -24 37 56 0
20 24 -37 56 0
20 24 37 -56 0
21 -25 -51 -59 0
21 -25 51 59 0
21 25 -51 59 0
21 25 51 -59 0
22 -29 -32 -38 0
22 -29 32 38 0
22 29 -32 38 0
22 29 32 -38 0
30 -35 -46 -58 0
30 -35 46 58 0
30 35 -46 58 0
30 35 46 -58 0
33 -50 -58 -59 0
33 -50 58 59 0
33 50 -58 59 0
33 50 58 -59 0
34 -44 -54 -57 0
34 -44 54 57 0
34 -42 -45 -60 0
34 -42 45 60 0
34 42 -45 60 0
34 42 45 -60 0
34 44 -54 57 0
34 44 54 -57 0
