p cnf 61 242
-11 16 0
11 -16 0
-33 -48 -54 58 0
-33 -48 54 -58 0
-33 48 -54 -58 0
-33 48 54 58 0
-29 -56 -59 61 0
-29 -56 59 -61 0
-29 56 -59 -61 0
-29 56 59 61 0
-26 -36 -46 49 0
-26 -36 46 -49 0
-26 36 -46 -49 0
-26 36 46 49 0
-24 -26 -35 61 0
-24 -26 35 -61 0
-24 26 -35 -61 0
-24 26 35 61 0
-22 -28 -39 60 0
-22 -28 39 -60 0
-22 -24 -38 53 0
-22 -24 38 -53 0
-22 24 -38 -53 0
-22 24 38 53 0
-22 28 -39 -60 0
-22 28 39 60 0
-18 -23 -36 55 0
-18 -23 36 -55 0
-18 23 -36 -55 0
-18 23 36 55 0
-17 -19 -27 52 0
-17 -19 27 -52 0
-17 19 -27 -52 0
-17 19 27 52 0
-15 -28 -35 44 0
-15 -28 35 -44 0
-15 28 -35 -44 0
-15 28 35 44 0
-13 -30 -40 45 0
-13 -30 40 -45 0
-13 30 -40 -45 0
-13 30 40 45 0
-12 -32 -44 49 0
-12 -32 44 -49 0
-12 -14 -54 57 0
-12 -14 54 -57 0
-12 14 -54 -57 0
-12 14 54 57 0
-12 32 -44 -49 0
-12 32 44 49 0
-10 -29 -37 46 0
-10 -29 37 -46 0
-10 -18 -30 51 0
-10 -18 30 -51 0
-10 18 -30 -51 0
-10 18 30 51 0
-10 29 -37 -46 0
-10 29 37 46 0
-9 -16 -43 56 0
-9 -16 43 -56 0
-9 16 -43 -56 0
-9 16 43 56 0
-8 -19 -31 43 0
-8 -19 31 -43 0
-8 -13 -38 59 0
-8 -13 38 -59 0
-8 13 -38 -59 0
-8 13 38 59 0
-8 19 -31 -43 0
-8 19 31 43 0
-7 -9 -37 48 0
-7 -9 37 -48 0
-7 9 -37 -48 0
-7 9 37 48 0
-6 -25 -31 40 0
-6 -25 31 -40 0
-6 -7 -20 51 0
-6 -7 20 -51 0
-6 7 -20 -51 0
-6 7 20 51 0
-6 25 -31 -40 0
-6 25 31 40 0
-5 -32 -34 55 0
-5 -32 34 -55 0
-5 -14 -41 42 0
-5 -14 41 -42 0
-5 14 -41 -42 0
-5 14 41 42 0
-5 32 -34 -55 0
-5 32 34 55 0
-4 -27 -39 50 0
-4 -27 39 -50 0
-4 -21 -41 47 0
-4 -21 41 -47 0
-4 21 -41 -47 0
-4 21 41 47 0
-4 27 -39 -50 0
-4 27 39 50 0
-3 -15 -50 57 0
-3 -15 50 -57 0
-3 -11 -52 58 0
-3 -11 52 -58 0
-3 11 -52 -58 0
-3 11 52 58 0
-3 15 -50 -57 0
-3 15 50 57 0
-2 -23 -45 53 0
-2 -23 45 -53 0
-2 -21 -34 60 0
-2 -21 34 -60 0
-2 21 -34 -60 0
-2 21 34 60 0
-2 23 -45 -53 0
-2 23 45 53 0
-1 -20 -33 42 0
-1 -20 33 -42 0
-1 -17 -25 47 0
-1 -17 25 -47 0
-1 17 -25 -47 0
-1 17 25 47 0
-1 20 -33 -42 0
-1 20 33 42 0
1 -20 -33 -42 0
1 -20 33 42 0
1 -17 -25 -47 0
1 -17 25 47 0
1 17 -25 47 0
1 17 25 -47 0
1 20 -33 42 0
1 20 33 -42 0
2 -23 -45 -53 0
2 -23 45 53 0
2 -21 -34 -60 0
2 -21 34 60 0
2 21 -34 60 0
2 21 34 -60 0
2 23 -45 53 0
2 23 45 -53 0
3 -15 -50 -57 0
3 -15 50 57 0
3 -11 -52 -58 0
3 -11 52 58 0
3 11 -52 58 0
3 11 52 -58 0
3 15 -50 57 0
3 15 50 -57 0
4 -27 -39 -50 0
4 -27 39 50 0
4 -21 -41 -47 0
4 -21 41 47 0
4 21 -41 47 0
4 21 41 -47 0
4 27 -39 50 0
4 27 39 -50 0
5 -32 -34 -55 0
5 -32 34 55 0
5 -14 -41 -42 0
5 -14 41 42 0
5 14 -41 42 0
5 14 41 -42 0
5 32 -34 55 0
5 32 34 -55 0
6 -25 -31 -40 0
6 -25 31 40 0
6 -7 -20 -51 0
6 -7 20 51 0
6 7 -20 51 0
6 7 20 -51 0
6 25 -31 40 0
6 25 31 -40 0
7 -9 -37 -48 0
7 -9 37 48 0
7 9 -37 48 0
7 9 37 -48 0
8 -19 -31 -43 0
8 -19 31 43 0
8 -13 -38 -59 0
8 -13 38 59 0
8 13 -38 59 0
8 13 38 -59 0
8 19 -31 43 0
8 19 31 -43 0
9 -16 -43 -56 0
9 -16 43 56 0
9 16 -43 56 0
9 16 43 -56 0
10 -29 -37 -46 0
10 -29 37 46 0
10 -18 -30 -51 0
10 -18 30 51 0
10 18 -30 51 0
10 18 30 -51 0
10 29 -37 46 0
10 29 37 -46 0
12 -32 -44 -49 0
12 -32 44 49 0
12 -14 -54 -57 0
12 -14 54 57 0
12 14 -54 57 0
12 14 54 -57 0
12 32 -44 49 0
12 32 44 -49 0
13 -30 -40 -45 0
13 -30 40 45 0
13 30 -40 45 0
13 30 40 -45 0
15 -28 -35 -44 0
15 -28 35 44 0
15 28 -35 44 0
15 28 35 -44 0
17 -19 -27 -52 0
17 -19 27 52 0
17 19 -27 52 0
17 19 27 -52 0
18 -23 -36 -55 0
18 -23 36 55 0
18 23 -36 55 0
18 23 36 -55 0
22 -28 -39 -60 0
22 -28 39 60 0
22 -24 -38 -53 0
22 -24 38 53 0
22 24 -38 53 0
22 24 38 -53 0
22 28 -39 60 0
22 28 39 -60 0
24 -26 -35 -61 0
24 -26 35 61 0
24 26 -35 61 0
24 26 35 -61 0
26 -36 -46 -49 0
26 -36 46 49 0
26 36 -46 49 0
26 36 46 -49 0
29 -56 -59 -61 0
29 -56 59 61 0
29 56 -59 61 0
29 56 59 -61 0
33 -48 -54 -58 0
33 -48 54 58 0
33 48 -54 58 0
33 48 54 -58 0
