p cnf 73 290
-17 33 0
17 -33 0
-63 -66 -68 69 0
-63 -66 68 -69 0
-63 66 -68 -69 0
-63 66 68 69 0
-45 -55 -58 62 0
-45 -55 58 -62 0
-45 55 -58 -62 0
-45 55 58 62 0
-35 -41 -43 57 0
-35 -41 43 -57 0
-35 -37 -50 52 0
-35 -37 50 -52 0
-35 37 -50 -52 0
-35 37 50 52 0
-35 41 -43 -57 0
-35 41 43 57 0
-34 -44 -51 72 0
-34 -44 51 -72 0
-34 44 -51 -72 0
-34 44 51 72 0
-32 -40 -49 64 0
-32 -40 49 -64 0
-32 40 -49 -64 0
-32 40 49 64 0
-31 -46 -59 73 0
-31 -46 59 -73 0
-31 46 -59 -73 0
-31 46 59 73 0
-30 -38 -39 56 0
-30 -38 39 -56 0
-30 38 -39 -56 0
-30 38 39 56 0
-24 -42 -58 61 0
-24 -42 58 -61 0
-24 42 -58 -61 0
-24 42 58 61 0
-23 -34 -57 68 0
-23 -34 57 -68 0
-23 -25 -53 67 0
-23 -25 53 -67 0
-23 25 -53 -67 0
-23 25 53 67 0
-23 34 -57 -68 0
-23 34 57 68 0
-21 -36 -52 54 0
-21 -36 52 -54 0
-21 36 -52 -54 0
-21 36 52 54 0
-20 -28 -43 53 0
-20 -28 43 -53 0
-20 -27 -62 70 0
-20 -27 62 -70 0
-20 27 -62 -70 0
-20 27 62 70 0
-20 28 -43 -53 0
-20 28 43 53 0
-17 -21 -26 40 0
-17 -21 26 -40 0
-17 21 -26 -40 0
-17 21 26 40 0
-16 -32 -42 60 0
-16 -32 42 -60 0
-16 32 -42 -60 0
-16 32 42 60 0
-15 -18 -25 44 0
-15 -18 25 -44 0
-15 18 -25 -44 0
-15 18 25 44 0
-14 -22 -46 63 0
-14 -22 46 -63 0
-14 22 -46 -63 0
-14 22 46 63 0
-12 -55 -56 71 0
-12 -55 56 -71 0
-12 55 -56 -71 0
-12 55 56 71 0
-11 -19 -31 47 0
-11 -19 31 -47 0
-11 19 -31 -47 0
-11 19 31 47 0
-9 -10 -29 64 0
-9 -10 29 -64 0
-9 10 -29 -64 0
-9 10 29 64 0
-8 -41 -65 69 0
-8 -41 65 -69 0
-8 -33 -50 60 0
-8 -33 50 -60 0
-8 33 -50 -60 0
-8 33 50 60 0
-8 41 -65 -69 0
-8 41 65 69 0
-7 -59 -67 70 0
-7 -59 67 -70 0
-7 -11 -15 39 0
-7 -11 15 -39 0
-7 11 -15 -39 0
-7 11 15 39 0
-7 59 -67 -70 0
-7 59 67 70 0
-6 -36 -48 71 0
-6 -36 48 -71 0
-6 -28 -37 45 0
-6 -28 37 -45 0
-6 28 -37 -45 0
-6 28 37 45 0
-6 36 -48 -71 0
-6 36 48 71 0
-5 -9 -13 26 0
-5 -9 13 -26 0
-5 9 -13 -26 0
-5 9 13 26 0
-4 -29 -30 47 0
-4 -29 30 -47 0
-4 -12 -24 49 0
-4 -12 24 -49 0
-4 12 -24 -49 0
-4 12 24 49 0
-4 29 -30 -47 0
-4 29 30 47 0
-3 -27 -61 73 0
-3 -27 61 -73 0
-3 -16 -22 65 0
-3 -16 22 -65 0
-3 16 -22 -65 0
-3 16 22 65 0
-3 27 -61 -73 0
-3 27 61 73 0
-2 -13 -51 66 0
-2 -13 51 -66 0
-2 -10 -14 19 0
-2 -10 14 -19 0
-2 10 -14 -19 0
-2 10 14 19 0
-2 13 -51 -66 0
-2 13 51 66 0
-1 -18 -38 48 0
-1 -18 38 -48 0
-1 -5 -54 72 0
-1 -5 54 -72 0
-1 5 -54 -72 0
-1 5 54 72 0
-1 18 -38 -48 0
-1 18 38 48 0
1 -18 -38 -48 0
1 -18 38 48 0
1 -5 -54 -72 0
1 -5 54 72 0
1 5 -54 72 0
1 5 54 -72 0
1 18 -38 48 0
1 18 38 -48 0
2 -13 -51 -66 0
2 -13 51 66 0
2 -10 -14 -19 0
2 -10 14 19 0
2 10 -14 19 0
2 10 14 -19 0
2 13 -51 66 0
2 13 51 -66 0
3 -27 -61 -73 0
3 -27 61 73 0
3 -16 -22 -65 0
3 -16 22 65 0
3 16 -22 65 0
3 16 22 -65 0
3 27 -61 73 0
3 27 61 -73 0
4 -29 -30 -47 0
4 -29 30 47 0
4 -12 -24 -49 0
4 -12 24 49 0
4 12 -24 49 0
4 12 24 -49 0
4 29 -30 47 0
4 29 30 -47 0
5 -9 -13 -26 0
5 -9 13 26 0
5 9 -13 26 0
5 9 13 -26 0
6 -36 -48 -71 0
6 -36 48 71 0
6 -28 -37 -45 0
6 -28 37 45 0
6 28 -37 45 0
6 28 37 -45 0
6 36 -48 71 0
6 36 48 -71 0
7 -59 -67 -70 0
7 -59 67 70 0
7 -11 -15 -39 0
7 -11 15 39 0
7 11 -15 39 0
7 11 15 -39 0
7 59 -67 70 0
7 59 67 -70 0
8 -41 -65 -69 0
8 -41 65 69 0
8 -33 -50 -60 0
8 -33 50 60 0
8 33 -50 60 0
8 33 50 -60 0
8 41 -65 69 0
8 41 65 -69 0
9 -10 -29 -64 0
9 -10 29 64 0
9 10 -29 64 0
9 10 29 -64 0
11 -19 -31 -47 0
11 -19 31 47 0
11 19 -31 47 0
11 19 31 -47 0
12 -55 -56 -71 0
12 -55 56 71 0
12 55 -56 71 0
12 55 56 -71 0
14 -22 -46 -63 0
14 -22 46 63 0
14 22 -46 63 0
14 22 46 -63 0
15 -18 -25 -44 0
15 -18 25 44 0
15 18 -25 44 0
15 18 25 -44 0
16 -32 -42 -60 0
16 -32 42 60 0
16 32 -42 60 0
16 32 42 -60 0
17 -21 -26 -40 0
17 -21 26 40 0
17 21 -26 40 0
17 21 26 -40 0
20 -28 -43 -53 0
20 -28 43 53 0
20 -27 -62 -70 0
20 -27 62 70 0
20 27 -62 70 0
20 27 62 -70 0
20 28 -43 53 0
20 28 43 -53 0
21 -36 -52 -54 0
21 -36 52 54 0
21 36 -52 54 0
21 36 52 -54 0
23 -34 -57 -68 0
23 -34 57 68 0
23 -25 -53 -67 0
23 -25 53 67 0
23 25 -53 67 0
23 25 53 -67 0
23 34 -57 68 0
23 34 57 -68 0
24 -42 -58 -61 0
24 -42 58 61 0
24 42 -58 61 0
24 42 58 -61 0
30 -38 -39 -56 0
30 -38 39 56 0
30 38 -39 56 0
30 38 39 -56 0
31 -46 -59 -73 0
31 -46 59 73 0
31 46 -59 73 0
31 46 59 -73 0
32 -40 -49 -64 0
32 -40 49 64 0
32 40 -49 64 0
32 40 49 -64 0
34 -44 -51 -72 0
34 -44 51 72 0
34 44 -51 72 0
34 44 51 -72 0
35 -41 -43 -57 0
35 -41 43 57 0
35 -37 -50 -52 0
35 -37 50 52 0
35 37 -50 52 0
35 37 50 -52 0
35 41 -43 57 0
35 41 43 -57 0
45 -55 -58 -62 0
45 -55 58 62 0
45 55 -58 62 0
45 55 58 -62 0
63 -66 -68 -69 0
63 -66 68 69 0
63 66 -68 69 0
63 66 68 -69 0
