p cnf 41 162
-1 38 0
1 -38 0
-24 -29 -34 36 0
-24 -29 34 -36 0
-24 29 -34 -36 0
-24 29 34 36 0
-20 -21 -22 27 0
-20 -21 22 -27 0
-20 21 -22 -27 0
-20 21 22 27 0
-17 -30 -39 40 0
-17 -30 39 -40 0
-17 30 -39 -40 0
-17 30 39 40 0
-16 -22 -34 35 0
-16 -22 34 -35 0
-16 22 -34 -35 0
-16 22 34 35 0
-13 -14 -19 23 0
-13 -14 19 -23 0
-13 14 -19 -23 0
-13 14 19 23 0
-12 -18 -25 29 0
-12 -18 25 -29 0
-12 18 -25 -29 0
-12 18 25 29 0
-9 -12 -15 28 0
-9 -12 15 -28 0
-9 12 -15 -28 0
-9 12 15 28 0
-8 -21 -26 31 0
-8 -21 26 -31 0
-8 21 -26 -31 0
-8 21 26 31 0
-7 -20 -33 36 0
-7 -20 33 -36 0
-7 -8 -30 41 0
-7 -8 30 -41 0
-7 8 -30 -41 0
-7 8 30 41 0
-7 20 -33 -36 0
-7 20 33 36 0
-6 -17 -25 37 0
-6 -17 25 -37 0
-6 -9 -10 23 0
-6 -9 10 -23 0
-6 9 -10 -23 0
-6 9 10 23 0
-6 17 -25 -37 0
-6 17 25 37 0
-5 -11 -15 38 0
-5 -11 15 -38 0
-5 11 -15 -38 0
-5 11 15 38 0
-4 -14 -31 32 0
-4 -14 31 -32 0
-4 -10 -11 40 0
-4 -10 11 -40 0
-4 10 -11 -40 0
-4 10 11 40 0
-4 14 -31 -32 0
-4 14 31 32 0
-3 -19 -28 35 0
-3 -19 28 -35 0
-3 -5 -27 32 0
-3 -5 27 -32 0
-3 5 -27 -32 0
-3 5 27 32 0
-3 19 -28 -35 0
-3 19 28 35 0
-2 -24 -37 41 0
-2 -24 37 -41 0
-2 -13 -16 26 0
-2 -13 16 -26 0
-2 13 -16 -26 0
-2 13 16 26 0
-2 24 -37 -41 0
-2 24 37 41 0
-1 -18 -33 39 0
-1 -18 33 -39 0
-1 18 -33 -39 0
-1 18 33 39 0
1 -18 -33 -39 0
1 -18 33 39 0
1 18 -33 39 0
1 18 33 -39 0
2 -24 -37 -41 0
2 -24 37 41 0
2 -13 -16 -26 0
2 -13 16 26 0
2 13 -16 26 0
2 13 16 -26 0
2 24 -37 41 0
2 24 37 -41 0
3 -19 -28 -35 0
3 -19 28 35 0
3 -5 -27 -32 0
3 -5 27 32 0
3 5 -27 32 0
3 5 27 -32 0
3 19 -28 35 0
3 19 28 -35 0
4 -14 -31 -32 0
4 -14 31 32 0
4 -10 -11 -40 0
4 -10 11 40 0
4 10 -11 40 0
4 10 11 -40 0
4 14 -31 32 0
4 14 31 -32 0
5 -11 -15 -38 0
5 -11 15 38 0
5 11 -15 38 0
5 11 15 -38 0
6 -17 -25 -37 0
6 -17 25 37 0
6 -9 -10 -23 0
6 -9 10 23 0
6 9 -10 23 0
6 9 10 -23 0
6 17 -25 37 0
6 17 25 -37 0
7 -20 -33 -36 0
7 -20 33 36 0
7 -8 -30 -41 0
7 -8 30 41 0
7 8 -30 41 0
7 8 30 -41 0
7 20 -33 36 0
7 20 33 -36 0
8 -21 -26 -31 0
8 -21 26 31 0
8 21 -26 31 0
8 21 26 -31 0
9 -12 -15 -28 0
9 -12 15 28 0
9 12 -15 28 0
9 12 15 -28 0
12 -18 -25 -29 0
12 -18 25 29 0
12 18 -25 29 0
12 18 25 -29 0
13 -14 -19 -23 0
13 -14 19 23 0
13 14 -19 23 0
13 14 19 -23 0
16 -22 -34 -35 0
16 -22 34 35 0
16 22 -34 35 0
16 22 34 -35 0
17 -30 -39 -40 0
17 -30 39 40 0
17 30 -39 40 0
17 30 39 -40 0
20 -21 -22 -27 0
20 -21 22 27 0
20 21 -22 27 0
20 21 22 -27 0
24 -29 -34 -36 0
24 -29 34 36 0
24 29 -34 36 0
24 29 34 -36 0
