p cnf 41 162
-6 39 0
6 -39 0
-24 -32 -39 41 0
-24 -32 39 -41 0
-24 32 -39 -41 0
-24 32 39 41 0
-18 -26 -32 35 0
-18 -26 32 -35 0
-18 26 -32 -35 0
-18 26 32 35 0
-16 -22 -26 33 0
-16 -22 26 -33 0
-16 22 -26 -33 0
-16 22 26 33 0
-14 -17 -19 29 0
-14 -17 19 -29 0
-14 17 -19 -29 0
-14 17 19 29 0
-13 -21 -25 36 0
-13 -21 25 -36 0
-13 21 -25 -36 0
-13 21 25 36 0
-12 -13 -30 33 0
-12 -13 30 -33 0
-12 13 -30 -33 0
-12 13 30 33 0
-11 -27 -36 38 0
-11 -27 36 -38 0
-11 27 -36 -38 0
-11 27 36 38 0
-10 -15 -29 35 0
-10 -15 29 -35 0
-10 15 -29 -35 0
-10 15 29 35 0
-9 -14 -18 34 0
-9 -14 18 -34 0
-9 14 -18 -34 0
-9 14 18 34 0
-8 -20 -34 41 0
-8 -20 34 -41 0
-8 20 -34 -41 0
-8 20 34 41 0
-7 -20 -23 27 0
-7 -20 23 -27 0
-7 20 -23 -27 0
-7 20 23 27 0
-6 -16 -23 25 0
-6 -16 23 -25 0
-6 16 -23 -25 0
-6 16 23 25 0
-5 -12 -15 37 0
-5 -12 15 -37 0
-5 12 -15 -37 0
-5 12 15 37 0
-4 -5 -17 40 0
-4 -5 17 -40 0
-4 5 -17 -40 0
-4 5 17 40 0
-3 -10 -24 28 0
-3 -10 24 -28 0
-3 -8 -19 31 0
-3 -8 19 -31 0
-3 8 -19 -31 0
-3 8 19 31 0
-3 10 -24 -28 0
-3 10 24 28 0
-2 -30 -38 40 0
-2 -30 38 -40 0
-2 -7 -9 22 0
-2 -7 9 -22 0
-2 7 -9 -22 0
-2 7 9 22 0
-2 30 -38 -40 0
-2 30 38 40 0
-1 -21 -28 37 0
-1 -21 28 -37 0
-1 -4 -11 31 0
-1 -4 11 -31 0
-1 4 -11 -31 0
-1 4 11 31 0
-1 21 -28 -37 0
-1 21 28 37 0
1 -21 -28 -37 0
1 -21 28 37 0
1 -4 -11 -31 0
1 -4 11 31 0
1 4 -11 31 0
1 4 11 -31 0
1 21 -28 37 0
1 21 28 -37 0
2 -30 -38 -40 0
2 -30 38 40 0
2 -7 -9 -22 0
2 -7 9 22 0
2 7 -9 22 0
2 7 9 -22 0
2 30 -38 40 0
2 30 38 -40 0
3 -10 -24 -28 0
3 -10 24 28 0
3 -8 -19 -31 0
3 -8 19 31 0
3 8 -19 31 0
3 8 19 -31 0
3 10 -24 28 0
3 10 24 -28 0
4 -5 -17 -40 0
4 -5 17 40 0
4 5 -17 40 0
4 5 17 -40 0
5 -12 -15 -37 0
5 -12 15 37 0
5 12 -15 37 0
5 12 15 -37 0
6 -16 -23 -25 0
6 -16 23 25 0
6 16 -23 25 0
6 16 23 -25 0
7 -20 -23 -27 0
7 -20 23 27 0
7 20 -23 27 0
7 20 23 -27 0
8 -20 -34 -41 0
8 -20 34 41 0
8 20 -34 41 0
8 20 34 -41 0
9 -14 -18 -34 0
9 -14 18 34 0
9 14 -18 34 0
9 14 18 -34 0
10 -15 -29 -35 0
10 -15 29 35 0
10 15 -29 35 0
10 15 29 -35 0
11 -27 -36 -38 0
11 -27 36 38 0
11 27 -36 38 0
11 27 36 -38 0
12 -13 -30 -33 0
12 -13 30 33 0
12 13 -30 33 0
12 13 30 -33 0
13 -21 -25 -36 0
13 -21 25 36 0
13 21 -25 36 0
13 21 25 -36 0
14 -17 -19 -29 0
14 -17 19 29 0
14 17 -19 29 0
14 17 19 -29 0
16 -22 -26 -33 0
16 -22 26 33 0
16 22 -26 33 0
16 22 26 -33 0
18 -26 -32 -35 0
18 -26 32 35 0
18 26 -32 35 0
18 26 32 -35 0
24 -32 -39 -41 0
24 -32 39 41 0
24 32 -39 41 0
24 32 39 -41 0
