p cnf 61 242
-18 34 0
18 -34 0
-33 -38 -41 44 0
-33 -38 41 -44 0
-33 38 -41 -44 0
-33 38 41 44 0
-32 -34 -50 52 0
-32 -34 50 -52 0
-32 34 -50 -52 0
-32 34 50 52 0
-31 -39 -40 41 0
-31 -39 40 -41 0
-31 39 -40 -41 0
-31 39 40 41 0
-29 -51 -53 60 0
-29 -51 53 -60 0
-29 -30 -47 57 0
-29 -30 47 -57 0
-29 30 -47 -57 0
-29 30 47 57 0
-29 51 -53 -60 0
-29 51 53 60 0
-28 -36 -43 47 0
-28 -36 43 -47 0
-28 36 -43 -47 0
-28 36 43 47 0
-27 -33 -46 50 0
-27 -33 46 -50 0
-27 33 -46 -50 0
-27 33 46 50 0
-26 -35 -43 60 0
-26 -35 43 -60 0
-26 35 -43 -60 0
-26 35 43 60 0
-21 -39 -46 59 0
-21 -39 46 -59 0
-21 39 -46 -59 0
-21 39 46 59 0
-20 -25 -35 61 0
-20 -25 35 -61 0
-20 25 -35 -61 0
-20 25 35 61 0
-18 -22 -25 38 0
-18 -22 25 -38 0
-18 22 -25 -38 0
-18 22 25 38 0
-17 -23 -30 55 0
-17 -23 30 -55 0
-17 23 -30 -55 0
-17 23 30 55 0
-14 -17 -28 54 0
-14 -17 28 -54 0
-14 17 -28 -54 0
-14 17 28 54 0
-10 -45 -49 59 0
-10 -45 49 -59 0
-10 -24 -31 51 0
-10 -24 31 -51 0
-10 24 -31 -51 0
-10 24 31 51 0
-10 45 -49 -59 0
-10 45 49 59 0
-9 -20 -36 42 0
-9 -20 36 -42 0
-9 20 -36 -42 0
-9 20 36 42 0
-8 -49 -52 58 0
-8 -49 52 -58 0
-8 -22 -24 26 0
-8 -22 24 -26 0
-8 22 -24 -26 0
-8 22 24 26 0
-8 49 -52 -58 0
-8 49 52 58 0
-7 -9 -15 48 0
-7 -9 15 -48 0
-7 9 -15 -48 0
-7 9 15 48 0
-6 -15 -19 57 0
-6 -15 19 -57 0
-6 15 -19 -57 0
-6 15 19 57 0
-5 -44 -48 61 0
-5 -44 48 -61 0
-5 -19 -40 53 0
-5 -19 40 -53 0
-5 19 -40 -53 0
-5 19 40 53 0
-5 44 -48 -61 0
-5 44 48 61 0
-4 -37 -45 55 0
-4 -37 45 -55 0
-4 -13 -54 58 0
-4 -13 54 -58 0
-4 13 -54 -58 0
-4 13 54 58 0
-4 37 -45 -55 0
-4 37 45 55 0
-3 -13 -32 56 0
-3 -13 32 -56 0
-3 -11 -16 27 0
-3 -11 16 -27 0
-3 11 -16 -27 0
-3 11 16 27 0
-3 13 -32 -56 0
-3 13 32 56 0
-2 -11 -21 37 0
-2 -11 21 -37 0
-2 -6 -12 23 0
-2 -6 12 -23 0
-2 6 -12 -23 0
-2 6 12 23 0
-2 11 -21 -37 0
-2 11 21 37 0
-1 -14 -42 56 0
-1 -14 42 -56 0
-1 -7 -12 16 0
-1 -7 12 -16 0
-1 7 -12 -16 0
-1 7 12 16 0
-1 14 -42 -56 0
-1 14 42 56 0
1 -14 -42 -56 0
1 -14 42 56 0
1 -7 -12 -16 0
1 -7 12 16 0
1 7 -12 16 0
1 7 12 -16 0
1 14 -42 56 0
1 14 42 -56 0
2 -11 -21 -37 0
2 -11 21 37 0
2 -6 -12 -23 0
2 -6 12 23 0
2 6 -12 23 0
2 6 12 -23 0
2 11 -21 37 0
2 11 21 -37 0
3 -13 -32 -56 0
3 -13 32 56 0
3 -11 -16 -27 0
3 -11 16 27 0
3 11 -16 27 0
3 11 16 -27 0
3 13 -32 56 0
3 13 32 -56 0
4 -37 -45 -55 0
4 -37 45 55 0
4 -13 -54 -58 0
4 -13 54 58 0
4 13 -54 58 0
4 13 54 -58 0
4 37 -45 55 0
4 37 45 -55 0
5 -44 -48 -61 0
5 -44 48 61 0
5 -19 -40 -53 0
5 -19 40 53 0
5 19 -40 53 0
5 19 40 -53 0
5 44 -48 61 0
5 44 48 -61 0
6 -15 -19 -57 0
6 -15 19 57 0
6 15 -19 57 0
6 15 19 -57 0
7 -9 -15 -48 0
7 -9 15 48 0
7 9 -15 48 0
7 9 15 -48 0
8 -49 -52 -58 0
8 -49 52 58 0
8 -22 -24 -26 0
8 -22 24 26 0
8 22 -24 26 0
8 22 24 -26 0
8 49 -52 58 0
8 49 52 -58 0
9 -20 -36 -42 0
9 -20 36 42 0
9 20 -36 42 0
9 20 36 -42 0
10 -45 -49 -59 0
10 -45 49 59 0
10 -24 -31 -51 0
10 -24 31 51 0
10 24 -31 51 0
10 24 31 -51 0
10 45 -49 59 0
10 45 49 -59 0
14 -17 -28 -54 0
14 -17 28 54 0
14 17 -28 54 0
14 17 28 -54 0
17 -23 -30 -55 0
17 -23 30 55 0
17 23 -30 55 0
17 23 30 -55 0
18 -22 -25 -38 0
18 -22 25 38 0
18 22 -25 38 0
18 22 25 -38 0
20 -25 -35 -61 0
20 -25 35 61 0
20 25 -35 61 0
20 25 35 -61 0
21 -39 -46 -59 0
21 -39 46 59 0
21 39 -46 59 0
21 39 46 -59 0
26 -35 -43 -60 0
26 -35 43 60 0
26 35 -43 60 0
26 35 43 -60 0
27 -33 -46 -50 0
27 -33 46 50 0
27 33 -46 50 0
27 33 46 -50 0
28 -36 -43 -47 0
28 -36 43 47 0
28 36 -43 47 0
28 36 43 -47 0
29 -51 -53 -60 0
29 -51 53 60 0
29 -30 -47 -57 0
29 -30 47 57 0
29 30 -47 57 0
29 30 47 -57 0
29 51 -53 60 0
29 51 53 -60 0
31 -39 -40 -41 0
31 -39 40 41 0
31 39 -40 41 0
31 39 40 -41 0
32 -34 -50 -52 0
32 -34 50 52 0
32 34 -50 52 0
32 34 50 -52 0
33 -38 -41 -44 0
33 -38 41 44 0
33 38 -41 44 0
33 38 41 -44 0
