p cnf 61 242
-28 50 0
28 -50 0
-31 -32 -57 61 0
-31 -32 57 -61 0
-31 32 -57 -61 0
-31 32 57 61 0
-26 -43 -51 55 0
-26 -43 51 -55 0
-26 -38 -52 54 0
-26 -38 52 -54 0
-26 38 -52 -54 0
-26 38 52 54 0
-26 43 -51 -55 0
-26 43 51 55 0
-25 -27 -31 48 0
-25 -27 31 -48 0
-25 27 -31 -48 0
-25 27 31 48 0
-24 -54 -56 59 0
-24 -54 56 -59 0
-24 54 -56 -59 0
-24 54 56 59 0
-20 -33 -40 53 0
-20 -33 40 -53 0
-20 33 -40 -53 0
-20 33 40 53 0
-19 -24 -45 49 0
-19 -24 45 -49 0
-19 24 -45 -49 0
-19 24 45 49 0
-17 -37 -39 60 0
-17 -37 39 -60 0
-17 37 -39 -60 0
-17 37 39 60 0
-15 -21 -34 38 0
-15 -21 34 -38 0
-15 21 -34 -38 0
-15 21 34 38 0
-14 -22 -39 57 0
-14 -22 39 -57 0
-14 22 -39 -57 0
-14 22 39 57 0
-13 -17 -32 55 0
-13 -17 32 -55 0
-13 17 -32 -55 0
-13 17 32 55 0
-11 -23 -36 48 0
-11 -23 36 -48 0
-11 -16 -20 42 0
-11 -16 20 -42 0
-11 16 -20 -42 0
-11 16 20 42 0
-11 23 -36 -48 0
-11 23 36 48 0
-10 -30 -56 58 0
-10 -30 56 -58 0
-10 -12 -40 49 0
-10 -12 40 -49 0
-10 12 -40 -49 0
-10 12 40 49 0
-10 30 -56 -58 0
-10 30 56 58 0
-9 -19 -21 33 0
-9 -19 21 -33 0
-9 -18 -41 46 0
-9 -18 41 -46 0
-9 18 -41 -46 0
-9 18 41 46 0
-9 19 -21 -33 0
-9 19 21 33 0
-8 -34 -43 46 0
-8 -34 43 -46 0
-8 -13 -27 44 0
-8 -13 27 -44 0
-8 13 -27 -44 0
-8 13 27 44 0
-8 34 -43 -46 0
-8 34 43 46 0
-7 -28 -52 58 0
-7 -28 52 -58 0
-7 -15 -36 53 0
-7 -15 36 -53 0
-7 15 -36 -53 0
-7 15 36 53 0
-7 28 -52 -58 0
-7 28 52 58 0
-6 -25 -42 47 0
-6 -25 42 -47 0
-6 25 -42 -47 0
-6 25 42 47 0
-5 -23 -50 61 0
-5 -23 50 -61 0
-5 23 -50 -61 0
-5 23 50 61 0
-4 -14 -29 47 0
-4 -14 29 -47 0
-4 14 -29 -47 0
-4 14 29 47 0
-3 -6 -41 44 0
-3 -6 41 -44 0
-3 -4 -35 37 0
-3 -4 35 -37 0
-3 4 -35 -37 0
-3 4 35 37 0
-3 6 -41 -44 0
-3 6 41 44 0
-2 -12 -16 29 0
-2 -12 16 -29 0
-2 -5 -22 30 0
-2 -5 22 -30 0
-2 5 -22 -30 0
-2 5 22 30 0
-2 12 -16 -29 0
-2 12 16 29 0
-1 -51 -59 60 0
-1 -51 59 -60 0
-1 -18 -35 45 0
-1 -18 35 -45 0
-1 18 -35 -45 0
-1 18 35 45 0
-1 51 -59 -60 0
-1 51 59 60 0
1 -51 -59 -60 0
1 -51 59 60 0
1 -18 -35 -45 0
1 -18 35 45 0
1 18 -35 45 0
1 18 35 -45 0
1 51 -59 60 0
1 51 59 -60 0
2 -12 -16 -29 0
2 -12 16 29 0
2 -5 -22 -30 0
2 -5 22 30 0
2 5 -22 30 0
2 5 22 -30 0
2 12 -16 29 0
2 12 16 -29 0
3 -6 -41 -44 0
3 -6 41 44 0
3 -4 -35 -37 0
3 -4 35 37 0
3 4 -35 37 0
3 4 35 -37 0
3 6 -41 44 0
3 6 41 -44 0
4 -14 -29 -47 0
4 -14 29 47 0
4 14 -29 47 0
4 14 29 -47 0
5 -23 -50 -61 0
5 -23 50 61 0
5 23 -50 61 0
5 23 50 -61 0
6 -25 -42 -47 0
6 -25 42 47 0
6 25 -42 47 0
6 25 42 -47 0
7 -28 -52 -58 0
7 -28 52 58 0
7 -15 -36 -53 0
7 -15 36 53 0
7 15 -36 53 0
7 15 36 -53 0
7 28 -52 58 0
7 28 52 -58 0
8 -34 -43 -46 0
8 -34 43 46 0
8 -13 -27 -44 0
8 -13 27 44 0
8 13 -27 44 0
8 13 27 -44 0
8 34 -43 46 0
8 34 43 -46 0
9 -19 -21 -33 0
9 -19 21 33 0
9 -18 -41 -46 0
9 -18 41 46 0
9 18 -41 46 0
9 18 41 -46 0
9 19 -21 33 0
9 19 21 -33 0
10 -30 -56 -58 0
10 -30 56 58 0
10 -12 -40 -49 0
10 -12 40 49 0
10 12 -40 49 0
10 12 40 -49 0
10 30 -56 58 0
10 30 56 -58 0
11 -23 -36 -48 0
11 -23 36 48 0
11 -16 -20 -42 0
11 -16 20 42 0
11 16 -20 42 0
11 16 20 -42 0
11 23 -36 48 0
11 23 36 -48 0
13 -17 -32 -55 0
13 -17 32 55 0
13 17 -32 55 0
13 17 32 -55 0
14 -22 -39 -57 0
14 -22 39 57 0
14 22 -39 57 0
14 22 39 -57 0
15 -21 -34 -38 0
15 -21 34 38 0
15 21 -34 38 0
15 21 34 -38 0
17 -37 -39 -60 0
17 -37 39 60 0
17 37 -39 60 0
17 37 39 -60 0
19 -24 -45 -49 0
19 -24 45 49 0
19 24 -45 49 0
19 24 45 -49 0
20 -33 -40 -53 0
20 -33 40 53 0
20 33 -40 53 0
20 33 40 -53 0
24 -54 -56 -59 0
24 -54 56 59 0
24 54 -56 59 0
24 54 56 -59 0
25 -27 -31 -48 0
25 -27 31 48 0
25 27 -31 48 0
25 27 31 -48 0
26 -43 -51 -55 0
26 -43 51 55 0
26 -38 -52 -54 0
26 -38 52 54 0
26 38 -52 54 0
26 38 52 -54 0
26 43 -51 55 0
26 43 51 -55 0
31 -32 -57 -61 0
31 -32 57 61 0
31 32 -57 61 0
31 32 57 -61 0
