p cnf 41 162
-16 34 0
16 -34 0
-27 -36 -37 40 0
-27 -36 37 -40 0
-27 36 -37 -40 0
-27 36 37 40 0
-21 -23 -29 35 0
-21 -23 29 -35 0
-21 23 -29 -35 0
-21 23 29 35 0
-18 -25 -29 41 0
-18 -25 29 -41 0
-18 25 -29 -41 0
-18 25 29 41 0
-15 -17 -26 38 0
-15 -17 26 -38 0
-15 17 -26 -38 0
-15 17 26 38 0
-14 -25 -37 38 0
-14 -25 37 -38 0
-14 25 -37 -38 0
-14 25 37 38 0
-12 -19 -22 28 0
-12 -19 22 -28 0
-12 19 -22 -28 0
-12 19 22 28 0
-11 -21 -31 39 0
-11 -21 31 -39 0
-11 21 -31 -39 0
-11 21 31 39 0
-9 -12 -13 26 0
-9 -12 13 -26 0
-9 12 -13 -26 0
-9 12 13 26 0
-6 -13 -24 40 0
-6 -13 24 -40 0
-6 -7 -19 30 0
-6 -7 19 -30 0
-6 7 -19 -30 0
-6 7 19 30 0
-6 13 -24 -40 0
-6 13 24 40 0
-5 -15 -28 39 0
-5 -15 28 -39 0
-5 -14 -16 35 0
-5 -14 16 -35 0
-5 14 -16 -35 0
-5 14 16 35 0
-5 15 -28 -39 0
-5 15 28 39 0
-4 -11 -17 41 0
-4 -11 17 -41 0
-4 -9 -10 33 0
-4 -9 10 -33 0
-4 9 -10 -33 0
-4 9 10 33 0
-4 11 -17 -41 0
-4 11 17 41 0
-3 -22 -31 33 0
-3 -22 31 -33 0
-3 -7 -8 20 0
-3 -7 8 -20 0
-3 7 -8 -20 0
-3 7 8 20 0
-3 22 -31 -33 0
-3 22 31 33 0
-2 -30 -34 36 0
-2 -30 34 -36 0
-2 -20 -23 32 0
-2 -20 23 -32 0
-2 20 -23 -32 0
-2 20 23 32 0
-2 30 -34 -36 0
-2 30 34 36 0
-1 -18 -27 32 0
-1 -18 27 -32 0
-1 -8 -10 24 0
-1 -8 10 -24 0
-1 8 -10 -24 0
-1 8 10 24 0
-1 18 -27 -32 0
-1 18 27 32 0
1 -18 -27 -32 0
1 -18 27 32 0
1 -8 -10 -24 0
1 -8 10 24 0
1 8 -10 24 0
1 8 10 -24 0
1 18 -27 32 0
1 18 27 -32 0
2 -30 -34 -36 0
2 -30 34 36 0
2 -20 -23 -32 0
2 -20 23 32 0
2 20 -23 32 0
2 20 23 -32 0
2 30 -34 36 0
2 30 34 -36 0
3 -22 -31 -33 0
3 -22 31 33 0
3 -7 -8 -20 0
3 -7 8 20 0
3 7 -8 20 0
3 7 8 -20 0
3 22 -31 33 0
3 22 31 -33 0
4 -11 -17 -41 0
4 -11 17 41 0
4 -9 -10 -33 0
4 -9 10 33 0
4 9 -10 33 0
4 9 10 -33 0
4 11 -17 41 0
4 11 17 -41 0
5 -15 -28 -39 0
5 -15 28 39 0
5 -14 -16 -35 0
5 -14 16 35 0
5 14 -16 35 0
5 14 16 -35 0
5 15 -28 39 0
5 15 28 -39 0
6 -13 -24 -40 0
6 -13 24 40 0
6 -7 -19 -30 0
6 -7 19 30 0
6 7 -19 30 0
6 7 19 -30 0
6 13 -24 40 0
6 13 24 -40 0
9 -12 -13 -26 0
9 -12 13 26 0
9 12 -13 26 0
9 12 13 -26 0
11 -21 -31 -39 0
11 -21 31 39 0
11 21 -31 39 0
11 21 31 -39 0
12 -19 -22 -28 0
12 -19 22 28 0
12 19 -22 28 0
12 19 22 -28 0
14 -25 -37 -38 0
14 -25 37 38 0
14 25 -37 38 0
14 25 37 -38 0
15 -17 -26 -38 0
15 -17 26 38 0
15 17 -26 38 0
15 17 26 -38 0
18 -25 -29 -41 0
18 -25 29 41 0
18 25 -29 41 0
18 25 29 -41 0
21 -23 -29 -35 0
21 -23 29 35 0
21 23 -29 35 0
21 23 29 -35 0
27 -36 -37 -40 0
27 -36 37 40 0
27 36 -37 40 0
27 36 37 -40 0
