p cnf 73 290
-37 44 0
37 -44 0
-55 -60 -63 64 0
-55 -60 63 -64 0
-55 60 -63 -64 0
-55 60 63 64 0
-46 -58 -61 66 0
-46 -58 61 -66 0
-46 58 -61 -66 0
-46 58 61 66 0
-39 -41 -49 67 0
-39 -41 49 -67 0
-39 41 -49 -67 0
-39 41 49 67 0
-31 -51 -58 69 0
-31 -51 58 -69 0
-31 -34 -52 55 0
-31 -34 52 -55 0
-31 34 -52 -55 0
-31 34 52 55 0
-31 51 -58 -69 0
-31 51 58 69 0
-29 -34 -46 54 0
-29 -34 46 -54 0
-29 34 -46 -54 0
-29 34 46 54 0
-28 -44 -48 62 0
-28 -44 48 -62 0
-28 -32 -42 51 0
-28 -32 42 -51 0
-28 32 -42 -51 0
-28 32 42 51 0
-28 44 -48 -62 0
-28 44 48 62 0
-27 -43 -54 72 0
-27 -43 54 -72 0
-27 43 -54 -72 0
-27 43 54 72 0
-25 -27 -61 73 0
-25 -27 61 -73 0
-25 27 -61 -73 0
-25 27 61 73 0
-24 -26 -32 38 0
-24 -26 32 -38 0
-24 26 -32 -38 0
-24 26 32 38 0
-21 -23 -38 50 0
-21 -23 38 -50 0
-21 23 -38 -50 0
-21 23 38 50 0
-20 -33 -47 68 0
-20 -33 47 -68 0
-20 33 -47 -68 0
-20 33 47 68 0
-19 -29 -63 71 0
-19 -29 63 -71 0
-19 -20 -43 45 0
-19 -20 43 -45 0
-19 20 -43 -45 0
-19 20 43 45 0
-19 29 -63 -71 0
-19 29 63 71 0
-18 -41 -48 60 0
-18 -41 48 -60 0
-18 -30 -36 71 0
-18 -30 36 -71 0
-18 30 -36 -71 0
-18 30 36 71 0
-18 41 -48 -60 0
-18 41 48 60 0
-14 -24 -39 62 0
-14 -24 39 -62 0
-14 24 -39 -62 0
-14 24 39 62 0
-13 -30 -45 53 0
-13 -30 45 -53 0
-13 30 -45 -53 0
-13 30 45 53 0
-11 -22 -33 35 0
-11 -22 33 -35 0
-11 -16 -59 67 0
-11 -16 59 -67 0
-11 16 -59 -67 0
-11 16 59 67 0
-11 22 -33 -35 0
-11 22 33 35 0
-10 -42 -66 70 0
-10 -42 66 -70 0
-10 -36 -37 65 0
-10 -36 37 -65 0
-10 36 -37 -65 0
-10 36 37 65 0
-10 42 -66 -70 0
-10 42 66 70 0
-9 -17 -40 50 0
-9 -17 40 -50 0
-9 17 -40 -50 0
-9 17 40 50 0
-8 -9 -15 73 0
-8 -9 15 -73 0
-8 9 -15 -73 0
-8 9 15 73 0
-7 -16 -53 68 0
-7 -16 53 -68 0
-7 16 -53 -68 0
-7 16 53 68 0
-5 -14 -21 59 0
-5 -14 21 -59 0
-5 -7 -40 56 0
-5 -7 40 -56 0
-5 7 -40 -56 0
-5 7 40 56 0
-5 14 -21 -59 0
-5 14 21 59 0
-4 -12 -35 57 0
-4 -12 35 -57 0
-4 -8 -47 72 0
-4 -8 47 -72 0
-4 8 -47 -72 0
-4 8 47 72 0
-4 12 -35 -57 0
-4 12 35 57 0
-3 -22 -49 64 0
-3 -22 49 -64 0
-3 -6 -52 57 0
-3 -6 52 -57 0
-3 6 -52 -57 0
-3 6 52 57 0
-3 22 -49 -64 0
-3 22 49 64 0
-2 -12 -15 23 0
-2 -12 15 -23 0
-2 -6 -26 69 0
-2 -6 26 -69 0
-2 6 -26 -69 0
-2 6 26 69 0
-2 12 -15 -23 0
-2 12 15 23 0
-1 -17 -25 70 0
-1 -17 25 -70 0
-1 -13 -56 65 0
-1 -13 56 -65 0
-1 13 -56 -65 0
-1 13 56 65 0
-1 17 -25 -70 0
-1 17 25 70 0
1 -17 -25 -70 0
1 -17 25 70 0
1 -13 -56 -65 0
1 -13 56 65 0
1 13 -56 65 0
1 13 56 -65 0
1 17 -25 70 0
1 17 25 -70 0
2 -12 -15 -23 0
2 -12 15 23 0
2 -6 -26 -69 0
2 -6 26 69 0
2 6 -26 69 0
2 6 26 -69 0
2 12 -15 23 0
2 12 15 -23 0
3 -22 -49 -64 0
3 -22 49 64 0
3 -6 -52 -57 0
3 -6 52 57 0
3 6 -52 57 0
3 6 52 -57 0
3 22 -49 64 0
3 22 49 -64 0
4 -12 -35 -57 0
4 -12 35 57 0
4 -8 -47 -72 0
4 -8 47 72 0
4 8 -47 72 0
4 8 47 -72 0
4 12 -35 57 0
4 12 35 -57 0
5 -14 -21 -59 0
5 -14 21 59 0
5 -7 -40 -56 0
5 -7 40 56 0
5 7 -40 56 0
5 7 40 -56 0
5 14 -21 59 0
5 14 21 -59 0
7 -16 -53 -68 0
7 -16 53 68 0
7 16 -53 68 0
7 16 53 -68 0
8 -9 -15 -73 0
8 -9 15 73 0
8 9 -15 73 0
8 9 15 -73 0
9 -17 -40 -50 0
9 -17 40 50 0
9 17 -40 50 0
9 17 40 -50 0
10 -42 -66 -70 0
10 -42 66 70 0
10 -36 -37 -65 0
10 -36 37 65 0
10 36 -37 65 0
10 36 37 -65 0
10 42 -66 70 0
10 42 66 -70 0
11 -22 -33 -35 0
11 -22 33 35 0
11 -16 -59 -67 0
11 -16 59 67 0
11 16 -59 67 0
11 16 59 -67 0
11 22 -33 35 0
11 22 33 -35 0
13 -30 -45 -53 0
13 -30 45 53 0
13 30 -45 53 0
13 30 45 -53 0
14 -24 -39 -62 0
14 -24 39 62 0
14 24 -39 62 0
14 24 39 -62 0
18 -41 -48 -60 0
18 -41 48 60 0
18 -30 -36 -71 0
18 -30 36 71 0
18 30 -36 71 0
18 30 36 -71 0
18 41 -48 60 0
18 41 48 -60 0
19 -29 -63 -71 0
19 -29 63 71 0
19 -20 -43 -45 0
19 -20 43 45 0
19 20 -43 45 0
19 20 43 -45 0
19 29 -63 71 0
19 29 63 -71 0
20 -33 -47 -68 0
20 -33 47 68 0
20 33 -47 68 0
20 33 47 -68 0
21 -23 -38 -50 0
21 -23 38 50 0
21 23 -38 50 0
21 23 38 -50 0
24 -26 -32 -38 0
24 -26 32 38 0
24 26 -32 38 0
24 26 32 -38 0
25 -27 -61 -73 0
25 -27 61 73 0
25 27 -61 73 0
25 27 61 -73 0
27 -43 -54 -72 0
27 -43 54 72 0
27 43 -54 72 0
27 43 54 -72 0
28 -44 -48 -62 0
28 -44 48 62 0
28 -32 -42 -51 0
28 -32 42 51 0
28 32 -42 51 0
28 32 42 -51 0
28 44 -48 62 0
28 44 48 -62 0
29 -34 -46 -54 0
29 -34 46 54 0
29 34 -46 54 0
29 34 46 -54 0
31 -51 -58 -69 0
31 -51 58 69 0
31 -34 -52 -55 0
31 -34 52 55 0
31 34 -52 55 0
31 34 52 -55 0
31 51 -58 69 0
31 51 58 -69 0
39 -41 -49 -67 0
39 -41 49 67 0
39 41 -49 67 0
39 41 49 -67 0
46 -58 -61 -66 0
46 -58 61 66 0
46 58 -61 66 0
46 58 61 -66 0
55 -60 -63 -64 0
55 -60 63 64 0
55 60 -63 64 0
55 60 63 -64 0
