p cnf 51 202
-7 49 0
7 -49 0
-38 -41 -46 51 0
-38 -41 46 -51 0
-38 41 -46 -51 0
-38 41 46 51 0
-27 -29 -40 51 0
-27 -29 40 -51 0
-27 29 -40 -51 0
-27 29 40 51 0
-18 -25 -48 50 0
-18 -25 48 -50 0
-18 25 -48 -50 0
-18 25 48 50 0
-17 -31 -37 46 0
-17 -31 37 -46 0
-17 31 -37 -46 0
-17 31 37 46 0
-16 -27 -42 44 0
-16 -27 42 -44 0
-16 27 -42 -44 0
-16 27 42 44 0
-15 -19 -28 31 0
-15 -19 28 -31 0
-15 19 -28 -31 0
-15 19 28 31 0
-13 -17 -24 43 0
-13 -17 24 -43 0
-13 -14 -20 50 0
-13 -14 20 -50 0
-13 14 -20 -50 0
-13 14 20 50 0
-13 17 -24 -43 0
-13 17 24 43 0
-12 -21 -30 33 0
-12 -21 30 -33 0
-12 21 -30 -33 0
-12 21 30 33 0
-11 -34 -40 45 0
-11 -34 40 -45 0
-11 34 -40 -45 0
-11 34 40 45 0
-10 -44 -45 49 0
-10 -44 45 -49 0
-10 -22 -33 35 0
-10 -22 33 -35 0
-10 22 -33 -35 0
-10 22 33 35 0
-10 44 -45 -49 0
-10 44 45 49 0
-9 -22 -26 42 0
-9 -22 26 -42 0
-9 22 -26 -42 0
-9 22 26 42 0
-8 -15 -26 32 0
-8 -15 26 -32 0
-8 15 -26 -32 0
-8 15 26 32 0
-6 -36 -43 47 0
-6 -36 43 -47 0
-6 -11 -23 38 0
-6 -11 23 -38 0
-6 11 -23 -38 0
-6 11 23 38 0
-6 36 -43 -47 0
-6 36 43 47 0
-5 -14 -34 47 0
-5 -14 34 -47 0
-5 -7 -18 21 0
-5 -7 18 -21 0
-5 7 -18 -21 0
-5 7 18 21 0
-5 14 -34 -47 0
-5 14 34 47 0
-4 -19 -24 39 0
-4 -19 24 -39 0
-4 -8 -30 48 0
-4 -8 30 -48 0
-4 8 -30 -48 0
-4 8 30 48 0
-4 19 -24 -39 0
-4 19 24 39 0
-3 -9 -28 41 0
-3 -9 28 -41 0
-3 9 -28 -41 0
-3 9 28 41 0
-2 -20 -29 37 0
-2 -20 29 -37 0
-2 -16 -25 32 0
-2 -16 25 -32 0
-2 16 -25 -32 0
-2 16 25 32 0
-2 20 -29 -37 0
-2 20 29 37 0
-1 -12 -36 39 0
-1 -12 36 -39 0
-1 -3 -23 35 0
-1 -3 23 -35 0
-1 3 -23 -35 0
-1 3 23 35 0
-1 12 -36 -39 0
-1 12 36 39 0
1 -12 -36 -39 0
1 -12 36 39 0
1 -3 -23 -35 0
1 -3 23 35 0
1 3 -23 35 0
1 3 23 -35 0
1 12 -36 39 0
1 12 36 -39 0
2 -20 -29 -37 0
2 -20 29 37 0
2 -16 -25 -32 0
2 -16 25 32 0
2 16 -25 32 0
2 16 25 -32 0
2 20 -29 37 0
2 20 29 -37 0
3 -9 -28 -41 0
3 -9 28 41 0
3 9 -28 41 0
3 9 28 -41 0
4 -19 -24 -39 0
4 -19 24 39 0
4 -8 -30 -48 0
4 -8 30 48 0
4 8 -30 48 0
4 8 30 -48 0
4 19 -24 39 0
4 19 24 -39 0
5 -14 -34 -47 0
5 -14 34 47 0
5 -7 -18 -21 0
5 -7 18 21 0
5 7 -18 21 0
5 7 18 -21 0
5 14 -34 47 0
5 14 34 -47 0
6 -36 -43 -47 0
6 -36 43 47 0
6 -11 -23 -38 0
6 -11 23 38 0
6 11 -23 38 0
6 11 23 -38 0
6 36 -43 47 0
6 36 43 -47 0
8 -15 -26 -32 0
8 -15 26 32 0
8 15 -26 32 0
8 15 26 -32 0
9 -22 -26 -42 0
9 -22 26 42 0
9 22 -26 42 0
9 22 26 -42 0
10 -44 -45 -49 0
10 -44 45 49 0
10 -22 -33 -35 0
10 -22 33 35 0
10 22 -33 35 0
10 22 33 -35 0
10 44 -45 49 0
10 44 45 -49 0
11 -34 -40 -45 0
11 -34 40 45 0
11 34 -40 45 0
11 34 40 -45 0
12 -21 -30 -33 0
12 -21 30 33 0
12 21 -30 33 0
12 21 30 -33 0
13 -17 -24 -43 0
13 -17 24 43 0
13 -14 -20 -50 0
13 -14 20 50 0
13 14 -20 50 0
13 14 20 -50 0
13 17 -24 43 0
13 17 24 -43 0
15 -19 -28 -31 0
15 -19 28 31 0
15 19 -28 31 0
15 19 28 -31 0
16 -27 -42 -44 0
16 -27 42 44 0
16 27 -42 44 0
16 27 42 -44 0
17 -31 -37 -46 0
17 -31 37 46 0
17 31 -37 46 0
17 31 37 -46 0
18 -25 -48 -50 0
18 -25 48 50 0
18 25 -48 50 0
18 25 48 -50 0
27 -29 -40 -51 0
27 -29 40 51 0
27 29 -40 51 0
27 29 40 -51 0
38 -41 -46 -51 0
38 -41 46 51 0
38 41 -46 51 0
38 41 46 -51 0
