p cnf 61 242
-28 41 0
28 -41 0
-37 -39 -51 58 0
-37 -39 51 -58 0
-37 39 -51 -58 0
-37 39 51 58 0
-34 -43 -56 60 0
-34 -43 56 -60 0
-34 43 -56 -60 0
-34 43 56 60 0
-32 -38 -49 50 0
-32 -38 49 -50 0
-32 38 -49 -50 0
-32 38 49 50 0
-28 -40 -42 53 0
-28 -40 42 -53 0
-28 40 -42 -53 0
-28 40 42 53 0
-23 -27 -51 54 0
-23 -27 51 -54 0
-23 27 -51 -54 0
-23 27 51 54 0
-21 -32 -44 52 0
-21 -32 44 -52 0
-21 32 -44 -52 0
-21 32 44 52 0
-17 -24 -25 35 0
-17 -24 25 -35 0
-17 -21 -30 56 0
-17 -21 30 -56 0
-17 21 -30 -56 0
-17 21 30 56 0
-17 24 -25 -35 0
-17 24 25 35 0
-16 -41 -57 59 0
-16 -41 57 -59 0
-16 41 -57 -59 0
-16 41 57 59 0
-15 -20 -42 55 0
-15 -20 42 -55 0
-15 20 -42 -55 0
-15 20 42 55 0
-14 -22 -48 59 0
-14 -22 48 -59 0
-14 22 -48 -59 0
-14 22 48 59 0
-13 -18 -26 30 0
-13 -18 26 -30 0
-13 18 -26 -30 0
-13 18 26 30 0
-12 -36 -49 57 0
-12 -36 49 -57 0
-12 -13 -40 52 0
-12 -13 40 -52 0
-12 13 -40 -52 0
-12 13 40 52 0
-12 36 -49 -57 0
-12 36 49 57 0
-10 -26 -47 53 0
-10 -26 47 -53 0
-10 -15 -35 46 0
-10 -15 35 -46 0
-10 15 -35 -46 0
-10 15 35 46 0
-10 26 -47 -53 0
-10 26 47 53 0
-9 -16 -19 20 0
-9 -16 19 -20 0
-9 -14 -27 31 0
-9 -14 27 -31 0
-9 14 -27 -31 0
-9 14 27 31 0
-9 16 -19 -20 0
-9 16 19 20 0
-8 -24 -44 55 0
-8 -24 44 -55 0
-8 -19 -23 50 0
-8 -19 23 -50 0
-8 19 -23 -50 0
-8 19 23 50 0
-8 24 -44 -55 0
-8 24 44 55 0
-7 -38 -54 61 0
-7 -38 54 -61 0
-7 -33 -39 60 0
-7 -33 39 -60 0
-7 33 -39 -60 0
-7 33 39 60 0
-7 38 -54 -61 0
-7 38 54 61 0
-5 -18 -43 45 0
-5 -18 43 -45 0
-5 -11 -29 47 0
-5 -11 29 -47 0
-5 11 -29 -47 0
-5 11 29 47 0
-5 18 -43 -45 0
-5 18 43 45 0
-4 -6 -11 22 0
-4 -6 11 -22 0
-4 6 -11 -22 0
-4 6 11 22 0
-3 -6 -31 58 0
-3 -6 31 -58 0
-3 6 -31 -58 0
-3 6 31 58 0
-2 -36 -48 61 0
-2 -36 48 -61 0
-2 -4 -33 45 0
-2 -4 33 -45 0
-2 4 -33 -45 0
-2 4 33 45 0
-2 36 -48 -61 0
-2 36 48 61 0
-1 -25 -34 37 0
-1 -25 34 -37 0
-1 -3 -29 46 0
-1 -3 29 -46 0
-1 3 -29 -46 0
-1 3 29 46 0
-1 25 -34 -37 0
-1 25 34 37 0
1 -25 -34 -37 0
1 -25 34 37 0
1 -3 -29 -46 0
1 -3 29 46 0
1 3 -29 46 0
1 3 29 -46 0
1 25 -34 37 0
1 25 34 -37 0
2 -36 -48 -61 0
2 -36 48 61 0
2 -4 -33 -45 0
2 -4 33 45 0
2 4 -33 45 0
2 4 33 -45 0
2 36 -48 61 0
2 36 48 -61 0
3 -6 -31 -58 0
3 -6 31 58 0
3 6 -31 58 0
3 6 31 -58 0
4 -6 -11 -22 0
4 -6 11 22 0
4 6 -11 22 0
4 6 11 -22 0
5 -18 -43 -45 0
5 -18 43 45 0
5 -11 -29 -47 0
5 -11 29 47 0
5 11 -29 47 0
5 11 29 -47 0
5 18 -43 45 0
5 18 43 -45 0
7 -38 -54 -61 0
7 -38 54 61 0
7 -33 -39 -60 0
7 -33 39 60 0
7 33 -39 60 0
7 33 39 -60 0
7 38 -54 61 0
7 38 54 -61 0
8 -24 -44 -55 0
8 -24 44 55 0
8 -19 -23 -50 0
8 -19 23 50 0
8 19 -23 50 0
8 19 23 -50 0
8 24 -44 55 0
8 24 44 -55 0
9 -16 -19 -20 0
9 -16 19 20 0
9 -14 -27 -31 0
9 -14 27 31 0
9 14 -27 31 0
9 14 27 -31 0
9 16 -19 20 0
9 16 19 -20 0
10 -26 -47 -53 0
10 -26 47 53 0
10 -15 -35 -46 0
10 -15 35 46 0
10 15 -35 46 0
10 15 35 -46 0
10 26 -47 53 0
10 26 47 -53 0
12 -36 -49 -57 0
12 -36 49 57 0
12 -13 -40 -52 0
12 -13 40 52 0
12 13 -40 52 0
12 13 40 -52 0
12 36 -49 57 0
12 36 49 -57 0
13 -18 -26 -30 0
13 -18 26 30 0
13 18 -26 30 0
13 18 26 -30 0
14 -22 -48 -59 0
14 -22 48 59 0
14 22 -48 59 0
14 22 48 -59 0
15 -20 -42 -55 0
15 -20 42 55 0
15 20 -42 55 0
15 20 42 -55 0
16 -41 -57 -59 0
16 -41 57 59 0
16 41 -57 59 0
16 41 57 -59 0
17 -24 -25 -35 0
17 -24 25 35 0
17 -21 -30 -56 0
17 -21 30 56 0
17 21 -30 56 0
17 21 30 -56 0
17 24 -25 35 0
17 24 25 -35 0
21 -32 -44 -52 0
21 -32 44 52 0
21 32 -44 52 0
21 32 44 -52 0
23 -27 -51 -54 0
23 -27 51 54 0
23 27 -51 54 0
23 27 51 -54 0
28 -40 -42 -53 0
28 -40 42 53 0
28 40 -42 53 0
28 40 42 -53 0
32 -38 -49 -50 0
32 -38 49 50 0
32 38 -49 50 0
32 38 49 -50 0
34 -43 -56 -60 0
34 -43 56 60 0
34 43 -56 60 0
34 43 56 -60 0
37 -39 -51 -58 0
37 -39 51 58 0
37 39 -51 58 0
37 39 51 -58 0
