p cnf 41 162
-7 14 0
7 -14 0
-27 -30 -36 41 0
-27 -30 36 -41 0
-27 30 -36 -41 0
-27 30 36 41 0
-22 -33 -38 40 0
-22 -33 38 -40 0
-22 33 -38 -40 0
-22 33 38 40 0
-18 -24 -32 38 0
-18 -24 32 -38 0
-18 -23 -30 37 0
-18 -23 30 -37 0
-18 23 -30 -37 0
-18 23 30 37 0
-18 24 -32 -38 0
-18 24 32 38 0
-15 -19 -21 34 0
-15 -19 21 -34 0
-15 19 -21 -34 0
-15 19 21 34 0
-14 -29 -31 33 0
-14 -29 31 -33 0
-14 29 -31 -33 0
-14 29 31 33 0
-10 -20 -35 40 0
-10 -20 35 -40 0
-10 -17 -21 25 0
-10 -17 21 -25 0
-10 17 -21 -25 0
-10 17 21 25 0
-10 20 -35 -40 0
-10 20 35 40 0
-9 -11 -25 26 0
-9 -11 25 -26 0
-9 11 -25 -26 0
-9 11 25 26 0
-8 -9 -34 39 0
-8 -9 34 -39 0
-8 9 -34 -39 0
-8 9 34 39 0
-7 -12 -32 41 0
-7 -12 32 -41 0
-7 12 -32 -41 0
-7 12 32 41 0
-6 -11 -28 37 0
-6 -11 28 -37 0
-6 11 -28 -37 0
-6 11 28 37 0
-5 -17 -22 23 0
-5 -17 22 -23 0
-5 -15 -29 36 0
-5 -15 29 -36 0
-5 15 -29 -36 0
-5 15 29 36 0
-5 17 -22 -23 0
-5 17 22 23 0
-3 -19 -20 31 0
-3 -19 20 -31 0
-3 -4 -16 39 0
-3 -4 16 -39 0
-3 4 -16 -39 0
-3 4 16 39 0
-3 19 -20 -31 0
-3 19 20 31 0
-2 -16 -26 35 0
-2 -16 26 -35 0
-2 -13 -24 28 0
-2 -13 24 -28 0
-2 13 -24 -28 0
-2 13 24 28 0
-2 16 -26 -35 0
-2 16 26 35 0
-1 -6 -8 27 0
-1 -6 8 -27 0
-1 -4 -12 13 0
-1 -4 12 -13 0
-1 4 -12 -13 0
-1 4 12 13 0
-1 6 -8 -27 0
-1 6 8 27 0
1 -6 -8 -27 0
1 -6 8 27 0
1 -4 -12 -13 0
1 -4 12 13 0
1 4 -12 13 0
1 4 12 -13 0
1 6 -8 27 0
1 6 8 -27 0
2 -16 -26 -35 0
2 -16 26 35 0
2 -13 -24 -28 0
2 -13 24 28 0
2 13 -24 28 0
2 13 24 -28 0
2 16 -26 35 0
2 16 26 -35 0
3 -19 -20 -31 0
3 -19 20 31 0
3 -4 -16 -39 0
3 -4 16 39 0
3 4 -16 39 0
3 4 16 -39 0
3 19 -20 31 0
3 19 20 -31 0
5 -17 -22 -23 0
5 -17 22 23 0
5 -15 -29 -36 0
5 -15 29 36 0
5 15 -29 36 0
5 15 29 -36 0
5 17 -22 23 0
5 17 22 -23 0
6 -11 -28 -37 0
6 -11 28 37 0
6 11 -28 37 0
6 11 28 -37 0
7 -12 -32 -41 0
7 -12 32 41 0
7 12 -32 41 0
7 12 32 -41 0
8 -9 -34 -39 0
8 -9 34 39 0
8 9 -34 39 0
8 9 34 -39 0
9 -11 -25 -26 0
9 -11 25 26 0
9 11 -25 26 0
9 11 25 -26 0
10 -20 -35 -40 0
10 -20 35 40 0
10 -17 -21 -25 0
10 -17 21 25 0
10 17 -21 25 0
10 17 21 -25 0
10 20 -35 40 0
10 20 35 -40 0
14 -29 -31 -33 0
14 -29 31 33 0
14 29 -31 33 0
14 29 31 -33 0
15 -19 -21 -34 0
15 -19 21 34 0
15 19 -21 34 0
15 19 21 -34 0
18 -24 -32 -38 0
18 -24 32 38 0
18 -23 -30 -37 0
18 -23 30 37 0
18 23 -30 37 0
18 23 30 -37 0
18 24 -32 38 0
18 24 32 -38 0
22 -33 -38 -40 0
22 -33 38 40 0
22 33 -38 40 0
22 33 38 -40 0
27 -30 -36 -41 0
27 -30 36 41 0
27 30 -36 41 0
27 30 36 -41 0
