p cnf 51 202
-13 36 0
13 -36 0
-40 -42 -44 49 0
-40 -42 44 -49 0
-40 42 -44 -49 0
-40 42 44 49 0
-20 -40 -47 51 0
-20 -40 47 -51 0
-20 -29 -34 35 0
-20 -29 34 -35 0
-20 29 -34 -35 0
-20 29 34 35 0
-20 40 -47 -51 0
-20 40 47 51 0
-16 -36 -39 50 0
-16 -36 39 -50 0
-16 -17 -29 45 0
-16 -17 29 -45 0
-16 17 -29 -45 0
-16 17 29 45 0
-16 36 -39 -50 0
-16 36 39 50 0
-15 -19 -28 38 0
-15 -19 28 -38 0
-15 -18 -22 25 0
-15 -18 22 -25 0
-15 18 -22 -25 0
-15 18 22 25 0
-15 19 -28 -38 0
-15 19 28 38 0
-14 -19 -21 24 0
-14 -19 21 -24 0
-14 19 -21 -24 0
-14 19 21 24 0
-13 -14 -33 46 0
-13 -14 33 -46 0
-13 14 -33 -46 0
-13 14 33 46 0
-12 -37 -41 51 0
-12 -37 41 -51 0
-12 37 -41 -51 0
-12 37 41 51 0
-11 -28 -44 48 0
-11 -28 44 -48 0
-11 -21 -43 50 0
-11 -21 43 -50 0
-11 21 -43 -50 0
-11 21 43 50 0
-11 28 -44 -48 0
-11 28 44 48 0
-10 -17 -42 43 0
-10 -17 42 -43 0
-10 17 -42 -43 0
-10 17 42 43 0
-9 -12 -32 34 0
-9 -12 32 -34 0
-9 12 -32 -34 0
-9 12 32 34 0
-8 -22 -47 48 0
-8 -22 47 -48 0
-8 22 -47 -48 0
-8 22 47 48 0
-7 -31 -32 45 0
-7 -31 32 -45 0
-7 -10 -26 27 0
-7 -10 26 -27 0
-7 10 -26 -27 0
-7 10 26 27 0
-7 31 -32 -45 0
-7 31 32 45 0
-5 -26 -41 49 0
-5 -26 41 -49 0
-5 -6 -23 38 0
-5 -6 23 -38 0
-5 6 -23 -38 0
-5 6 23 38 0
-5 26 -41 -49 0
-5 26 41 49 0
-4 -8 -35 39 0
-4 -8 35 -39 0
-4 8 -35 -39 0
-4 8 35 39 0
-3 -6 -25 37 0
-3 -6 25 -37 0
-3 6 -25 -37 0
-3 6 25 37 0
-2 -4 -18 46 0
-2 -4 18 -46 0
-2 -3 -9 30 0
-2 -3 9 -30 0
-2 3 -9 -30 0
-2 3 9 30 0
-2 4 -18 -46 0
-2 4 18 46 0
-1 -30 -31 33 0
-1 -30 31 -33 0
-1 -23 -24 27 0
-1 -23 24 -27 0
-1 23 -24 -27 0
-1 23 24 27 0
-1 30 -31 -33 0
-1 30 31 33 0
1 -30 -31 -33 0
1 -30 31 33 0
1 -23 -24 -27 0
1 -23 24 27 0
1 23 -24 27 0
1 23 24 -27 0
1 30 -31 33 0
1 30 31 -33 0
2 -4 -18 -46 0
2 -4 18 46 0
2 -3 -9 -30 0
2 -3 9 30 0
2 3 -9 30 0
2 3 9 -30 0
2 4 -18 46 0
2 4 18 -46 0
3 -6 -25 -37 0
3 -6 25 37 0
3 6 -25 37 0
3 6 25 -37 0
4 -8 -35 -39 0
4 -8 35 39 0
4 8 -35 39 0
4 8 35 -39 0
5 -26 -41 -49 0
5 -26 41 49 0
5 -6 -23 -38 0
5 -6 23 38 0
5 6 -23 38 0
5 6 23 -38 0
5 26 -41 49 0
5 26 41 -49 0
7 -31 -32 -45 0
7 -31 32 45 0
7 -10 -26 -27 0
7 -10 26 27 0
7 10 -26 27 0
7 10 26 -27 0
7 31 -32 45 0
7 31 32 -45 0
8 -22 -47 -48 0
8 -22 47 48 0
8 22 -47 48 0
8 22 47 -48 0
9 -12 -32 -34 0
9 -12 32 34 0
9 12 -32 34 0
9 12 32 -34 0
10 -17 -42 -43 0
10 -17 42 43 0
10 17 -42 43 0
10 17 42 -43 0
11 -28 -44 -48 0
11 -28 44 48 0
11 -21 -43 -50 0
11 -21 43 50 0
11 21 -43 50 0
11 21 43 -50 0
11 28 -44 48 0
11 28 44 -48 0
12 -37 -41 -51 0
12 -37 41 51 0
12 37 -41 51 0
12 37 41 -51 0
13 -14 -33 -46 0
13 -14 33 46 0
13 14 -33 46 0
13 14 33 -46 0
14 -19 -21 -24 0
14 -19 21 24 0
14 19 -21 24 0
14 19 21 -24 0
15 -19 -28 -38 0
15 -19 28 38 0
15 -18 -22 -25 0
15 -18 22 25 0
15 18 -22 25 0
15 18 22 -25 0
15 19 -28 38 0
15 19 28 -38 0
16 -36 -39 -50 0
16 -36 39 50 0
16 -17 -29 -45 0
16 -17 29 45 0
16 17 -29 45 0
16 17 29 -45 0
16 36 -39 50 0
16 36 39 -50 0
20 -40 -47 -51 0
20 -40 47 51 0
20 -29 -34 -35 0
20 -29 34 35 0
20 29 -34 35 0
20 29 34 -35 0
20 40 -47 51 0
20 40 47 -51 0
40 -42 -44 -49 0
40 -42 44 49 0
40 42 -44 49 0
40 42 44 -49 0
