p cnf 73 290
-23 25 0
23 -25 0
-42 -54 -58 73 0
-42 -54 58 -73 0
-42 54 -58 -73 0
-42 54 58 73 0
-40 -49 -52 61 0
-40 -49 52 -61 0
-40 49 -52 -61 0
-40 49 52 61 0
-38 -44 -61 70 0
-38 -44 61 -70 0
-38 44 -61 -70 0
-38 44 61 70 0
-37 -39 -48 54 0
-37 -39 48 -54 0
-37 39 -48 -54 0
-37 39 48 54 0
-33 -56 -64 73 0
-33 -56 64 -73 0
-33 -47 -65 71 0
-33 -47 65 -71 0
-33 47 -65 -71 0
-33 47 65 71 0
-33 56 -64 -73 0
-33 56 64 73 0
-31 -44 -51 57 0
-31 -44 51 -57 0
-31 44 -51 -57 0
-31 44 51 57 0
-29 -32 -43 59 0
-29 -32 43 -59 0
-29 32 -43 -59 0
-29 32 43 59 0
-28 -35 -41 72 0
-28 -35 41 -72 0
-28 -30 -36 68 0
-28 -30 36 -68 0
-28 30 -36 -68 0
-28 30 36 68 0
-28 35 -41 -72 0
-28 35 41 72 0
-23 -37 -45 53 0
-23 -37 45 -53 0
-23 37 -45 -53 0
-23 37 45 53 0
-18 -19 -24 62 0
-18 -19 24 -62 0
-18 19 -24 -62 0
-18 19 24 62 0
-17 -57 -60 68 0
-17 -57 60 -68 0
-17 -21 -26 70 0
-17 -21 26 -70 0
-17 21 -26 -70 0
-17 21 26 70 0
-17 57 -60 -68 0
-17 57 60 68 0
-16 -19 -27 32 0
-16 -19 27 -32 0
-16 19 -27 -32 0
-16 19 27 32 0
-14 -48 -64 67 0
-14 -48 64 -67 0
-14 48 -64 -67 0
-14 48 64 67 0
-12 -35 -50 66 0
-12 -35 50 -66 0
-12 -14 -63 71 0
-12 -14 63 -71 0
-12 14 -63 -71 0
-12 14 63 71 0
-12 35 -50 -66 0
-12 35 50 66 0
-11 -18 -20 65 0
-11 -18 20 -65 0
-11 -15 -22 56 0
-11 -15 22 -56 0
-11 15 -22 -56 0
-11 15 22 56 0
-11 18 -20 -65 0
-11 18 20 65 0
-10 -16 -46 69 0
-10 -16 46 -69 0
-10 -13 -34 50 0
-10 -13 34 -50 0
-10 13 -34 -50 0
-10 13 34 50 0
-10 16 -46 -69 0
-10 16 46 69 0
-9 -24 -26 46 0
-9 -24 26 -46 0
-9 24 -26 -46 0
-9 24 26 46 0
-8 -34 -41 55 0
-8 -34 41 -55 0
-8 -21 -40 69 0
-8 -21 40 -69 0
-8 21 -40 -69 0
-8 21 40 69 0
-8 34 -41 -55 0
-8 34 41 55 0
-7 -30 -42 51 0
-7 -30 42 -51 0
-7 30 -42 -51 0
-7 30 42 51 0
-6 -29 -53 67 0
-6 -29 53 -67 0
-6 -13 -27 63 0
-6 -13 27 -63 0
-6 13 -27 -63 0
-6 13 27 63 0
-6 29 -53 -67 0
-6 29 53 67 0
-5 -15 -59 62 0
-5 -15 59 -62 0
-5 15 -59 -62 0
-5 15 59 62 0
-4 -25 -49 55 0
-4 -25 49 -55 0
-4 -7 -39 72 0
-4 -7 39 -72 0
-4 7 -39 -72 0
-4 7 39 72 0
-4 25 -49 -55 0
-4 25 49 55 0
-3 -22 -31 58 0
-3 -22 31 -58 0
-3 22 -31 -58 0
-3 22 31 58 0
-2 -43 -45 52 0
-2 -43 45 -52 0
-2 -3 -5 38 0
-2 -3 5 -38 0
-2 3 -5 -38 0
-2 3 5 38 0
-2 43 -45 -52 0
-2 43 45 52 0
-1 -36 -47 66 0
-1 -36 47 -66 0
-1 -9 -20 60 0
-1 -9 20 -60 0
-1 9 -20 -60 0
-1 9 20 60 0
-1 36 -47 -66 0
-1 36 47 66 0
1 -36 -47 -66 0
1 -36 47 66 0
1 -9 -20 -60 0
1 -9 20 60 0
1 9 -20 60 0
1 9 20 -60 0
1 36 -47 66 0
1 36 47 -66 0
2 -43 -45 -52 0
2 -43 45 52 0
2 -3 -5 -38 0
2 -3 5 38 0
2 3 -5 38 0
2 3 5 -38 0
2 43 -45 52 0
2 43 45 -52 0
3 -22 -31 -58 0
3 -22 31 58 0
3 22 -31 58 0
3 22 31 -58 0
4 -25 -49 -55 0
4 -25 49 55 0
4 -7 -39 -72 0
4 -7 39 72 0
4 7 -39 72 0
4 7 39 -72 0
4 25 -49 55 0
4 25 49 -55 0
5 -15 -59 -62 0
5 -15 59 62 0
5 15 -59 62 0
5 15 59 -62 0
6 -29 -53 -67 0
6 -29 53 67 0
6 -13 -27 -63 0
6 -13 27 63 0
6 13 -27 63 0
6 13 27 -63 0
6 29 -53 67 0
6 29 53 -67 0
7 -30 -42 -51 0
7 -30 42 51 0
7 30 -42 51 0
7 30 42 -51 0
8 -34 -41 -55 0
8 -34 41 55 0
8 -21 -40 -69 0
8 -21 40 69 0
8 21 -40 69 0
8 21 40 -69 0
8 34 -41 55 0
8 34 41 -55 0
9 -24 -26 -46 0
9 -24 26 46 0
9 24 -26 46 0
9 24 26 -46 0
10 -16 -46 -69 0
10 -16 46 69 0
10 -13 -34 -50 0
10 -13 34 50 0
10 13 -34 50 0
10 13 34 -50 0
10 16 -46 69 0
10 16 46 -69 0
11 -18 -20 -65 0
11 -18 20 65 0
11 -15 -22 -56 0
11 -15 22 56 0
11 15 -22 56 0
11 15 22 -56 0
11 18 -20 65 0
11 18 20 -65 0
12 -35 -50 -66 0
12 -35 50 66 0
12 -14 -63 -71 0
12 -14 63 71 0
12 14 -63 71 0
12 14 63 -71 0
12 35 -50 66 0
12 35 50 -66 0
14 -48 -64 -67 0
14 -48 64 67 0
14 48 -64 67 0
14 48 64 -67 0
16 -19 -27 -32 0
16 -19 27 32 0
16 19 -27 32 0
16 19 27 -32 0
17 -57 -60 -68 0
17 -57 60 68 0
17 -21 -26 -70 0
17 -21 26 70 0
17 21 -26 70 0
17 21 26 -70 0
17 57 -60 68 0
17 57 60 -68 0
18 -19 -24 -62 0
18 -19 24 62 0
18 19 -24 62 0
18 19 24 -62 0
23 -37 -45 -53 0
23 -37 45 53 0
23 37 -45 53 0
23 37 45 -53 0
28 -35 -41 -72 0
28 -35 41 72 0
28 -30 -36 -68 0
28 -30 36 68 0
28 30 -36 68 0
28 30 36 -68 0
28 35 -41 72 0
28 35 41 -72 0
29 -32 -43 -59 0
29 -32 43 59 0
29 32 -43 59 0
29 32 43 -59 0
31 -44 -51 -57 0
31 -44 51 57 0
31 44 -51 57 0
31 44 51 -57 0
33 -56 -64 -73 0
33 -56 64 73 0
33 -47 -65 -71 0
33 -47 65 71 0
33 47 -65 71 0
33 47 65 -71 0
33 56 -64 73 0
33 56 64 -73 0
37 -39 -48 -54 0
37 -39 48 54 0
37 39 -48 54 0
37 39 48 -54 0
38 -44 -61 -70 0
38 -44 61 70 0
38 44 -61 70 0
38 44 61 -70 0
40 -49 -52 -61 0
40 -49 52 61 0
40 49 -52 61 0
40 49 52 -61 0
42 -54 -58 -73 0
42 -54 58 73 0
42 54 -58 73 0
42 54 58 -73 0
