p cnf 61 242
-3 35 0
3 -35 0
-27 -34 -39 49 0
-27 -34 39 -49 0
-27 -28 -32 45 0
-27 -28 32 -45 0
-27 28 -32 -45 0
-27 28 32 45 0
-27 34 -39 -49 0
-27 34 39 49 0
-26 -31 -53 54 0
-26 -31 53 -54 0
-26 31 -53 -54 0
-26 31 53 54 0
-24 -37 -59 60 0
-24 -37 59 -60 0
-24 37 -59 -60 0
-24 37 59 60 0
-23 -53 -59 61 0
-23 -53 59 -61 0
-23 53 -59 -61 0
-23 53 59 61 0
-22 -30 -43 61 0
-22 -30 43 -61 0
-22 30 -43 -61 0
-22 30 43 61 0
-21 -45 -52 60 0
-21 -45 52 -60 0
-21 -41 -51 57 0
-21 -41 51 -57 0
-21 41 -51 -57 0
-21 41 51 57 0
-21 45 -52 -60 0
-21 45 52 60 0
-19 -33 -54 55 0
-19 -33 54 -55 0
-19 -23 -42 51 0
-19 -23 42 -51 0
-19 23 -42 -51 0
-19 23 42 51 0
-19 33 -54 -55 0
-19 33 54 55 0
-16 -38 -47 49 0
-16 -38 47 -49 0
-16 -28 -41 55 0
-16 -28 41 -55 0
-16 28 -41 -55 0
-16 28 41 55 0
-16 38 -47 -49 0
-16 38 47 49 0
-13 -33 -38 58 0
-13 -33 38 -58 0
-13 33 -38 -58 0
-13 33 38 58 0
-11 -44 -48 50 0
-11 -44 48 -50 0
-11 44 -48 -50 0
-11 44 48 50 0
-10 -15 -39 40 0
-10 -15 39 -40 0
-10 15 -39 -40 0
-10 15 39 40 0
-9 -13 -26 36 0
-9 -13 26 -36 0
-9 13 -26 -36 0
-9 13 26 36 0
-8 -20 -25 29 0
-8 -20 25 -29 0
-8 -10 -17 18 0
-8 -10 17 -18 0
-8 10 -17 -18 0
-8 10 17 18 0
-8 20 -25 -29 0
-8 20 25 29 0
-7 -42 -43 44 0
-7 -42 43 -44 0
-7 -12 -14 57 0
-7 -12 14 -57 0
-7 12 -14 -57 0
-7 12 14 57 0
-7 42 -43 -44 0
-7 42 43 44 0
-6 -12 -46 50 0
-6 -12 46 -50 0
-6 12 -46 -50 0
-6 12 46 50 0
-5 -11 -20 30 0
-5 -11 20 -30 0
-5 -9 -17 56 0
-5 -9 17 -56 0
-5 9 -17 -56 0
-5 9 17 56 0
-5 11 -20 -30 0
-5 11 20 30 0
-4 -48 -56 58 0
-4 -48 56 -58 0
-4 -15 -46 47 0
-4 -15 46 -47 0
-4 15 -46 -47 0
-4 15 46 47 0
-4 48 -56 -58 0
-4 48 56 58 0
-3 -6 -25 40 0
-3 -6 25 -40 0
-3 6 -25 -40 0
-3 6 25 40 0
-2 -24 -31 32 0
-2 -24 31 -32 0
-2 -18 -34 36 0
-2 -18 34 -36 0
-2 18 -34 -36 0
-2 18 34 36 0
-2 24 -31 -32 0
-2 24 31 32 0
-1 -22 -29 37 0
-1 -22 29 -37 0
-1 -14 -35 52 0
-1 -14 35 -52 0
-1 14 -35 -52 0
-1 14 35 52 0
-1 22 -29 -37 0
-1 22 29 37 0
1 -22 -29 -37 0
1 -22 29 37 0
1 -14 -35 -52 0
1 -14 35 52 0
1 14 -35 52 0
1 14 35 -52 0
1 22 -29 37 0
1 22 29 -37 0
2 -24 -31 -32 0
2 -24 31 32 0
2 -18 -34 -36 0
2 -18 34 36 0
2 18 -34 36 0
2 18 34 -36 0
2 24 -31 32 0
2 24 31 -32 0
3 -6 -25 -40 0
3 -6 25 40 0
3 6 -25 40 0
3 6 25 -40 0
4 -48 -56 -58 0
4 -48 56 58 0
4 -15 -46 -47 0
4 -15 46 47 0
4 15 -46 47 0
4 15 46 -47 0
4 48 -56 58 0
4 48 56 -58 0
5 -11 -20 -30 0
5 -11 20 30 0
5 -9 -17 -56 0
5 -9 17 56 0
5 9 -17 56 0
5 9 17 -56 0
5 11 -20 30 0
5 11 20 -30 0
6 -12 -46 -50 0
6 -12 46 50 0
6 12 -46 50 0
6 12 46 -50 0
7 -42 -43 -44 0
7 -42 43 44 0
7 -12 -14 -57 0
7 -12 14 57 0
7 12 -14 57 0
7 12 14 -57 0
7 42 -43 44 0
7 42 43 -44 0
8 -20 -25 -29 0
8 -20 25 29 0
8 -10 -17 -18 0
8 -10 17 18 0
8 10 -17 18 0
8 10 17 -18 0
8 20 -25 29 0
8 20 25 -29 0
9 -13 -26 -36 0
9 -13 26 36 0
9 13 -26 36 0
9 13 26 -36 0
10 -15 -39 -40 0
10 -15 39 40 0
10 15 -39 40 0
10 15 39 -40 0
11 -44 -48 -50 0
11 -44 48 50 0
11 44 -48 50 0
11 44 48 -50 0
13 -33 -38 -58 0
13 -33 38 58 0
13 33 -38 58 0
13 33 38 -58 0
16 -38 -47 -49 0
16 -38 47 49 0
16 -28 -41 -55 0
16 -28 41 55 0
16 28 -41 55 0
16 28 41 -55 0
16 38 -47 49 0
16 38 47 -49 0
19 -33 -54 -55 0
19 -33 54 55 0
19 -23 -42 -51 0
19 -23 42 51 0
19 23 -42 51 0
19 23 42 -51 0
19 33 -54 55 0
19 33 54 -55 0
21 -45 -52 -60 0
21 -45 52 60 0
21 -41 -51 -57 0
21 -41 51 57 0
21 41 -51 57 0
21 41 51 -57 0
21 45 -52 60 0
21 45 52 -60 0
22 -30 -43 -61 0
22 -30 43 61 0
22 30 -43 61 0
22 30 43 -61 0
23 -53 -59 -61 0
23 -53 59 61 0
23 53 -59 61 0
23 53 59 -61 0
24 -37 -59 -60 0
24 -37 59 60 0
24 37 -59 60 0
24 37 59 -60 0
26 -31 -53 -54 0
26 -31 53 54 0
26 31 -53 54 0
26 31 53 -54 0
27 -34 -39 -49 0
27 -34 39 49 0
27 -28 -32 -45 0
27 -28 32 45 0
27 28 -32 45 0
27 28 32 -45 0
27 34 -39 49 0
27 34 39 -49 0
