p cnf 61 242
-27 44 0
27 -44 0
-40 -47 -55 60 0
-40 -47 55 -60 0
-40 47 -55 -60 0
-40 47 55 60 0
-29 -38 -52 56 0
-29 -38 52 -56 0
-29 38 -52 -56 0
-29 38 52 56 0
-27 -28 -31 41 0
-27 -28 31 -41 0
-27 28 -31 -41 0
-27 28 31 41 0
-26 -30 -38 59 0
-26 -30 38 -59 0
-26 30 -38 -59 0
-26 30 38 59 0
-23 -43 -55 59 0
-23 -43 55 -59 0
-23 43 -55 -59 0
-23 43 55 59 0
-22 -25 -39 45 0
-22 -25 39 -45 0
-22 25 -39 -45 0
-22 25 39 45 0
-21 -36 -45 54 0
-21 -36 45 -54 0
-21 36 -45 -54 0
-21 36 45 54 0
-20 -46 -48 61 0
-20 -46 48 -61 0
-20 -34 -35 40 0
-20 -34 35 -40 0
-20 34 -35 -40 0
-20 34 35 40 0
-20 46 -48 -61 0
-20 46 48 61 0
-17 -18 -39 57 0
-17 -18 39 -57 0
-17 18 -39 -57 0
-17 18 39 57 0
-16 -29 -42 48 0
-16 -29 42 -48 0
-16 29 -42 -48 0
-16 29 42 48 0
-14 -19 -53 58 0
-14 -19 53 -58 0
-14 -16 -30 47 0
-14 -16 30 -47 0
-14 16 -30 -47 0
-14 16 30 47 0
-14 19 -53 -58 0
-14 19 53 58 0
-13 -15 -23 44 0
-13 -15 23 -44 0
-13 15 -23 -44 0
-13 15 23 44 0
-12 -37 -50 61 0
-12 -37 50 -61 0
-12 37 -50 -61 0
-12 37 50 61 0
-11 -31 -32 49 0
-11 -31 32 -49 0
-11 -19 -24 60 0
-11 -19 24 -60 0
-11 19 -24 -60 0
-11 19 24 60 0
-11 31 -32 -49 0
-11 31 32 49 0
-9 -12 -24 34 0
-9 -12 24 -34 0
-9 12 -24 -34 0
-9 12 24 34 0
-8 -18 -46 56 0
-8 -18 46 -56 0
-8 18 -46 -56 0
-8 18 46 56 0
-7 -33 -41 54 0
-7 -33 41 -54 0
-7 -10 -32 53 0
-7 -10 32 -53 0
-7 10 -32 -53 0
-7 10 32 53 0
-7 33 -41 -54 0
-7 33 41 54 0
-6 -22 -37 51 0
-6 -22 37 -51 0
-6 22 -37 -51 0
-6 22 37 51 0
-5 -42 -50 58 0
-5 -42 50 -58 0
-5 -6 -10 36 0
-5 -6 10 -36 0
-5 6 -10 -36 0
-5 6 10 36 0
-5 42 -50 -58 0
-5 42 50 58 0
-4 -9 -49 51 0
-4 -9 49 -51 0
-4 9 -49 -51 0
-4 9 49 51 0
-3 -4 -25 28 0
-3 -4 25 -28 0
-3 4 -25 -28 0
-3 4 25 28 0
-2 -8 -35 43 0
-2 -8 35 -43 0
-2 -3 -15 57 0
-2 -3 15 -57 0
-2 3 -15 -57 0
-2 3 15 57 0
-2 8 -35 -43 0
-2 8 35 43 0
-1 -17 -21 52 0
-1 -17 21 -52 0
-1 -13 -26 33 0
-1 -13 26 -33 0
-1 13 -26 -33 0
-1 13 26 33 0
-1 17 -21 -52 0
-1 17 21 52 0
1 -17 -21 -52 0
1 -17 21 52 0
1 -13 -26 -33 0
1 -13 26 33 0
1 13 -26 33 0
1 13 26 -33 0
1 17 -21 52 0
1 17 21 -52 0
2 -8 -35 -43 0
2 -8 35 43 0
2 -3 -15 -57 0
2 -3 15 57 0
2 3 -15 57 0
2 3 15 -57 0
2 8 -35 43 0
2 8 35 -43 0
3 -4 -25 -28 0
3 -4 25 28 0
3 4 -25 28 0
3 4 25 -28 0
4 -9 -49 -51 0
4 -9 49 51 0
4 9 -49 51 0
4 9 49 -51 0
5 -42 -50 -58 0
5 -42 50 58 0
5 -6 -10 -36 0
5 -6 10 36 0
5 6 -10 36 0
5 6 10 -36 0
5 42 -50 58 0
5 42 50 -58 0
6 -22 -37 -51 0
6 -22 37 51 0
6 22 -37 51 0
6 22 37 -51 0
7 -33 -41 -54 0
7 -33 41 54 0
7 -10 -32 -53 0
7 -10 32 53 0
7 10 -32 53 0
7 10 32 -53 0
7 33 -41 54 0
7 33 41 -54 0
8 -18 -46 -56 0
8 -18 46 56 0
8 18 -46 56 0
8 18 46 -56 0
9 -12 -24 -34 0
9 -12 24 34 0
9 12 -24 34 0
9 12 24 -34 0
11 -31 -32 -49 0
11 -31 32 49 0
11 -19 -24 -60 0
11 -19 24 60 0
11 19 -24 60 0
11 19 24 -60 0
11 31 -32 49 0
11 31 32 -49 0
12 -37 -50 -61 0
12 -37 50 61 0
12 37 -50 61 0
12 37 50 -61 0
13 -15 -23 -44 0
13 -15 23 44 0
13 15 -23 44 0
13 15 23 -44 0
14 -19 -53 -58 0
14 -19 53 58 0
14 -16 -30 -47 0
14 -16 30 47 0
14 16 -30 47 0
14 16 30 -47 0
14 19 -53 58 0
14 19 53 -58 0
16 -29 -42 -48 0
16 -29 42 48 0
16 29 -42 48 0
16 29 42 -48 0
17 -18 -39 -57 0
17 -18 39 57 0
17 18 -39 57 0
17 18 39 -57 0
20 -46 -48 -61 0
20 -46 48 61 0
20 -34 -35 -40 0
20 -34 35 40 0
20 34 -35 40 0
20 34 35 -40 0
20 46 -48 61 0
20 46 48 -61 0
21 -36 -45 -54 0
21 -36 45 54 0
21 36 -45 54 0
21 36 45 -54 0
22 -25 -39 -45 0
22 -25 39 45 0
22 25 -39 45 0
22 25 39 -45 0
23 -43 -55 -59 0
23 -43 55 59 0
23 43 -55 59 0
23 43 55 -59 0
26 -30 -38 -59 0
26 -30 38 59 0
26 30 -38 59 0
26 30 38 -59 0
27 -28 -31 -41 0
27 -28 31 41 0
27 28 -31 41 0
27 28 31 -41 0
29 -38 -52 -56 0
29 -38 52 56 0
29 38 -52 56 0
29 38 52 -56 0
40 -47 -55 -60 0
40 -47 55 60 0
40 47 -55 60 0
40 47 55 -60 0
