p cnf 49 194
-1 5 0
1 -5 0
-20 -21 -24 30 0
-20 -21 24 -30 0
-20 21 -24 -30 0
-20 21 24 30 0
-19 -27 -33 44 0
-19 -27 33 -44 0
-19 27 -33 -44 0
-19 27 33 44 0
-18 -26 -43 45 0
-18 -26 43 -45 0
-18 26 -43 -45 0
-18 26 43 45 0
-17 -27 -36 37 0
-17 -27 36 -37 0
-17 -21 -29 35 0
-17 -21 29 -35 0
-17 21 -29 -35 0
-17 21 29 35 0
-17 27 -36 -37 0
-17 27 36 37 0
-15 -29 -31 32 0
-15 -29 31 -32 0
-15 29 -31 -32 0
-15 29 31 32 0
-12 -24 -38 47 0
-12 -24 38 -47 0
-12 24 -38 -47 0
-12 24 38 47 0
-11 -16 -41 49 0
-11 -16 41 -49 0
-11 16 -41 -49 0
-11 16 41 49 0
-9 -33 -35 38 0
-9 -33 35 -38 0
-9 -13 -15 26 0
-9 -13 15 -26 0
-9 13 -15 -26 0
-9 13 15 26 0
-9 33 -35 -38 0
-9 33 35 38 0
-8 -22 -42 48 0
-8 -22 42 -48 0
-8 -10 -11 23 0
-8 -10 11 -23 0
-8 10 -11 -23 0
-8 10 11 23 0
-8 22 -42 -48 0
-8 22 42 48 0
-7 -41 -42 46 0
-7 -41 42 -46 0
-7 -28 -40 45 0
-7 -28 40 -45 0
-7 28 -40 -45 0
-7 28 40 45 0
-7 41 -42 -46 0
-7 41 42 46 0
-6 -23 -36 39 0
-6 -23 36 -39 0
-6 -19 -40 49 0
-6 -19 40 -49 0
-6 19 -40 -49 0
-6 19 40 49 0
-6 23 -36 -39 0
-6 23 36 39 0
-5 -14 -22 34 0
-5 -14 22 -34 0
-5 14 -22 -34 0
-5 14 22 34 0
-4 -14 -43 46 0
-4 -14 43 -46 0
-4 -12 -13 25 0
-4 -12 13 -25 0
-4 12 -13 -25 0
-4 12 13 25 0
-4 14 -43 -46 0
-4 14 43 46 0
-3 -28 -39 48 0
-3 -28 39 -48 0
-3 -18 -31 34 0
-3 -18 31 -34 0
-3 18 -31 -34 0
-3 18 31 34 0
-3 28 -39 -48 0
-3 28 39 48 0
-2 -16 -44 47 0
-2 -16 44 -47 0
-2 -10 -20 37 0
-2 -10 20 -37 0
-2 10 -20 -37 0
-2 10 20 37 0
-2 16 -44 -47 0
-2 16 44 47 0
-1 -25 -30 32 0
-1 -25 30 -32 0
-1 25 -30 -32 0
-1 25 30 32 0
1 -25 -30 -32 0
1 -25 30 32 0
1 25 -30 32 0
1 25 30 -32 0
2 -16 -44 -47 0
2 -16 44 47 0
2 -10 -20 -37 0
2 -10 20 37 0
2 10 -20 37 0
2 10 20 -37 0
2 16 -44 47 0
2 16 44 -47 0
3 -28 -39 -48 0
3 -28 39 48 0
3 -18 -31 -34 0
3 -18 31 34 0
3 18 -31 34 0
3 18 31 -34 0
3 28 -39 48 0
3 28 39 -48 0
4 -14 -43 -46 0
4 -14 43 46 0
4 -12 -13 -25 0
4 -12 13 25 0
4 12 -13 25 0
4 12 13 -25 0
4 14 -43 46 0
4 14 43 -46 0
5 -14 -22 -34 0
5 -14 22 34 0
5 14 -22 34 0
5 14 22 -34 0
6 -23 -36 -39 0
6 -23 36 39 0
6 -19 -40 -49 0
6 -19 40 49 0
6 19 -40 49 0
6 19 40 -49 0
6 23 -36 39 0
6 23 36 -39 0
7 -41 -42 -46 0
7 -41 42 46 0
7 -28 -40 -45 0
7 -28 40 45 0
7 28 -40 45 0
7 28 40 -45 0
7 41 -42 46 0
7 41 42 -46 0
8 -22 -42 -48 0
8 -22 42 48 0
8 -10 -11 -23 0
8 -10 11 23 0
8 10 -11 23 0
8 10 11 -23 0
8 22 -42 48 0
8 22 42 -48 0
9 -33 -35 -38 0
9 -33 35 38 0
9 -13 -15 -26 0
9 -13 15 26 0
9 13 -15 26 0
9 13 15 -26 0
9 33 -35 38 0
9 33 35 -38 0
11 -16 -41 -49 0
11 -16 41 49 0
11 16 -41 49 0
11 16 41 -49 0
12 -24 -38 -47 0
12 -24 38 47 0
12 24 -38 47 0
12 24 38 -47 0
15 -29 -31 -32 0
15 -29 31 32 0
15 29 -31 32 0
15 29 31 -32 0
17 -27 -36 -37 0
17 -27 36 37 0
17 -21 -29 -35 0
17 -21 29 35 0
17 21 -29 35 0
17 21 29 -35 0
17 27 -36 37 0
17 27 36 -37 0
18 -26 -43 -45 0
18 -26 43 45 0
18 26 -43 45 0
18 26 43 -45 0
19 -27 -33 -44 0
19 -27 33 44 0
19 27 -33 44 0
19 27 33 -44 0
20 -21 -24 -30 0
20 -21 24 30 0
20 21 -24 30 0
20 21 24 -30 0
