p cnf 73 290
-9 45 0
9 -45 0
-33 -42 -65 73 0
-33 -42 65 -73 0
-33 -39 -66 70 0
-33 -39 66 -70 0
-33 39 -66 -70 0
-33 39 66 70 0
-33 42 -65 -73 0
-33 42 65 73 0
-32 -52 -59 61 0
-32 -52 59 -61 0
-32 -38 -66 68 0
-32 -38 66 -68 0
-32 38 -66 -68 0
-32 38 66 68 0
-32 52 -59 -61 0
-32 52 59 61 0
-30 -40 -53 59 0
-30 -40 53 -59 0
-30 40 -53 -59 0
-30 40 53 59 0
-28 -31 -49 58 0
-28 -31 49 -58 0
-28 31 -49 -58 0
-28 31 49 58 0
-27 -56 -57 58 0
-27 -56 57 -58 0
-27 56 -57 -58 0
-27 56 57 58 0
-26 -30 -57 68 0
-26 -30 57 -68 0
-26 30 -57 -68 0
-26 30 57 68 0
-25 -35 -41 51 0
-25 -35 41 -51 0
-25 35 -41 -51 0
-25 35 41 51 0
-23 -38 -54 65 0
-23 -38 54 -65 0
-23 38 -54 -65 0
-23 38 54 65 0
-22 -29 -69 72 0
-22 -29 69 -72 0
-22 29 -69 -72 0
-22 29 69 72 0
-20 -23 -25 61 0
-20 -23 25 -61 0
-20 23 -25 -61 0
-20 23 25 61 0
-19 -43 -44 72 0
-19 -43 44 -72 0
-19 43 -44 -72 0
-19 43 44 72 0
-18 -27 -50 53 0
-18 -27 50 -53 0
-18 27 -50 -53 0
-18 27 50 53 0
-15 -44 -51 55 0
-15 -44 51 -55 0
-15 -29 -36 62 0
-15 -29 36 -62 0
-15 29 -36 -62 0
-15 29 36 62 0
-15 44 -51 -55 0
-15 44 51 55 0
-14 -42 -45 46 0
-14 -42 45 -46 0
-14 42 -45 -46 0
-14 42 45 46 0
-13 -24 -34 39 0
-13 -24 34 -39 0
-13 24 -34 -39 0
-13 24 34 39 0
-12 -24 -60 64 0
-12 -24 60 -64 0
-12 -17 -41 52 0
-12 -17 41 -52 0
-12 17 -41 -52 0
-12 17 41 52 0
-12 24 -60 -64 0
-12 24 60 64 0
-11 -16 -46 49 0
-11 -16 46 -49 0
-11 16 -46 -49 0
-11 16 46 49 0
-10 -14 -21 62 0
-10 -14 21 -62 0
-10 14 -21 -62 0
-10 14 21 62 0
-9 -28 -54 67 0
-9 -28 54 -67 0
-9 28 -54 -67 0
-9 28 54 67 0
-7 -11 -56 63 0
-7 -11 56 -63 0
-7 -8 -26 70 0
-7 -8 26 -70 0
-7 8 -26 -70 0
-7 8 26 70 0
-7 11 -56 -63 0
-7 11 56 63 0
-6 -10 -16 69 0
-6 -10 16 -69 0
-6 10 -16 -69 0
-6 10 16 69 0
-5 -37 -64 71 0
-5 -37 64 -71 0
-5 -22 -47 48 0
-5 -22 47 -48 0
-5 22 -47 -48 0
-5 22 47 48 0
-5 37 -64 -71 0
-5 37 64 71 0
-4 -18 -19 47 0
-4 -18 19 -47 0
-4 -17 -40 71 0
-4 -17 40 -71 0
-4 17 -40 -71 0
-4 17 40 71 0
-4 18 -19 -47 0
-4 18 19 47 0
-3 -35 -36 60 0
-3 -35 36 -60 0
-3 -13 -21 73 0
-3 -13 21 -73 0
-3 13 -21 -73 0
-3 13 21 73 0
-3 35 -36 -60 0
-3 35 36 60 0
-2 -31 -43 50 0
-2 -31 43 -50 0
-2 -20 -55 67 0
-2 -20 55 -67 0
-2 20 -55 -67 0
-2 20 55 67 0
-2 31 -43 -50 0
-2 31 43 50 0
-1 -8 -34 37 0
-1 -8 34 -37 0
-1 -6 -48 63 0
-1 -6 48 -63 0
-1 6 -48 -63 0
-1 6 48 63 0
-1 8 -34 -37 0
-1 8 34 37 0
1 -8 -34 -37 0
1 -8 34 37 0
1 -6 -48 -63 0
1 -6 48 63 0
1 6 -48 63 0
1 6 48 -63 0
1 8 -34 37 0
1 8 34 -37 0
2 -31 -43 -50 0
2 -31 43 50 0
2 -20 -55 -67 0
2 -20 55 67 0
2 20 -55 67 0
2 20 55 -67 0
2 31 -43 50 0
2 31 43 -50 0
3 -35 -36 -60 0
3 -35 36 60 0
3 -13 -21 -73 0
3 -13 21 73 0
3 13 -21 73 0
3 13 21 -73 0
3 35 -36 60 0
3 35 36 -60 0
4 -18 -19 -47 0
4 -18 19 47 0
4 -17 -40 -71 0
4 -17 40 71 0
4 17 -40 71 0
4 17 40 -71 0
4 18 -19 47 0
4 18 19 -47 0
5 -37 -64 -71 0
5 -37 64 71 0
5 -22 -47 -48 0
5 -22 47 48 0
5 22 -47 48 0
5 22 47 -48 0
5 37 -64 71 0
5 37 64 -71 0
6 -10 -16 -69 0
6 -10 16 69 0
6 10 -16 69 0
6 10 16 -69 0
7 -11 -56 -63 0
7 -11 56 63 0
7 -8 -26 -70 0
7 -8 26 70 0
7 8 -26 70 0
7 8 26 -70 0
7 11 -56 63 0
7 11 56 -63 0
9 -28 -54 -67 0
9 -28 54 67 0
9 28 -54 67 0
9 28 54 -67 0
10 -14 -21 -62 0
10 -14 21 62 0
10 14 -21 62 0
10 14 21 -62 0
11 -16 -46 -49 0
11 -16 46 49 0
11 16 -46 49 0
11 16 46 -49 0
12 -24 -60 -64 0
12 -24 60 64 0
12 -17 -41 -52 0
12 -17 41 52 0
12 17 -41 52 0
12 17 41 -52 0
12 24 -60 64 0
12 24 60 -64 0
13 -24 -34 -39 0
13 -24 34 39 0
13 24 -34 39 0
13 24 34 -39 0
14 -42 -45 -46 0
14 -42 45 46 0
14 42 -45 46 0
14 42 45 -46 0
15 -44 -51 -55 0
15 -44 51 55 0
15 -29 -36 -62 0
15 -29 36 62 0
15 29 -36 62 0
15 29 36 -62 0
15 44 -51 55 0
15 44 51 -55 0
18 -27 -50 -53 0
18 -27 50 53 0
18 27 -50 53 0
18 27 50 -53 0
19 -43 -44 -72 0
19 -43 44 72 0
19 43 -44 72 0
19 43 44 -72 0
20 -23 -25 -61 0
20 -23 25 61 0
20 23 -25 61 0
20 23 25 -61 0
22 -29 -69 -72 0
22 -29 69 72 0
22 29 -69 72 0
22 29 69 -72 0
23 -38 -54 -65 0
23 -38 54 65 0
23 38 -54 65 0
23 38 54 -65 0
25 -35 -41 -51 0
25 -35 41 51 0
25 35 -41 51 0
25 35 41 -51 0
26 -30 -57 -68 0
26 -30 57 68 0
26 30 -57 68 0
26 30 57 -68 0
27 -56 -57 -58 0
27 -56 57 58 0
27 56 -57 58 0
27 56 57 -58 0
28 -31 -49 -58 0
28 -31 49 58 0
28 31 -49 58 0
28 31 49 -58 0
30 -40 -53 -59 0
30 -40 53 59 0
30 40 -53 59 0
30 40 53 -59 0
32 -52 -59 -61 0
32 -52 59 61 0
32 -38 -66 -68 0
32 -38 66 68 0
32 38 -66 68 0
32 38 66 -68 0
32 52 -59 61 0
32 52 59 -61 0
33 -42 -65 -73 0
33 -42 65 73 0
33 -39 -66 -70 0
33 -39 66 70 0
33 39 -66 70 0
33 39 66 -70 0
33 42 -65 73 0
33 42 65 -73 0
