p cnf 49 194
-6 41 0
6 -41 0
-32 -36 -39 46 0
-32 -36 39 -46 0
-32 36 -39 -46 0
-32 36 39 46 0
-22 -27 -31 40 0
-22 -27 31 -40 0
-22 27 -31 -40 0
-22 27 31 40 0
-21 -28 -38 45 0
-21 -28 38 -45 0
-21 28 -38 -45 0
-21 28 38 45 0
-19 -24 -25 48 0
-19 -24 25 -48 0
-19 24 -25 -48 0
-19 24 25 48 0
-18 -23 -34 36 0
-18 -23 34 -36 0
-18 23 -34 -36 0
-18 23 34 36 0
-17 -25 -26 45 0
-17 -25 26 -45 0
-17 25 -26 -45 0
-17 25 26 45 0
-15 -16 -34 41 0
-15 -16 34 -41 0
-15 16 -34 -41 0
-15 16 34 41 0
-14 -33 -35 49 0
-14 -33 35 -49 0
-14 -32 -40 47 0
-14 -32 40 -47 0
-14 32 -40 -47 0
-14 32 40 47 0
-14 33 -35 -49 0
-14 33 35 49 0
-13 -16 -22 44 0
-13 -16 22 -44 0
-13 16 -22 -44 0
-13 16 22 44 0
-9 -15 -31 39 0
-9 -15 31 -39 0
-9 15 -31 -39 0
-9 15 31 39 0
-8 -10 -18 20 0
-8 -10 18 -20 0
-8 10 -18 -20 0
-8 10 18 20 0
-7 -30 -42 48 0
-7 -30 42 -48 0
-7 -10 -17 37 0
-7 -10 17 -37 0
-7 10 -17 -37 0
-7 10 17 37 0
-7 30 -42 -48 0
-7 30 42 48 0
-6 -8 -26 29 0
-6 -8 26 -29 0
-6 8 -26 -29 0
-6 8 26 29 0
-5 -12 -28 37 0
-5 -12 28 -37 0
-5 -11 -33 42 0
-5 -11 33 -42 0
-5 11 -33 -42 0
-5 11 33 42 0
-5 12 -28 -37 0
-5 12 28 37 0
-4 -12 -46 49 0
-4 -12 46 -49 0
-4 -9 -38 43 0
-4 -9 38 -43 0
-4 9 -38 -43 0
-4 9 38 43 0
-4 12 -46 -49 0
-4 12 46 49 0
-3 -24 -29 44 0
-3 -24 29 -44 0
-3 24 -29 -44 0
-3 24 29 44 0
-2 -13 -23 47 0
-2 -13 23 -47 0
-2 -3 -20 30 0
-2 -3 20 -30 0
-2 3 -20 -30 0
-2 3 20 30 0
-2 13 -23 -47 0
-2 13 23 47 0
-1 -27 -35 43 0
-1 -27 35 -43 0
-1 -11 -19 21 0
-1 -11 19 -21 0
-1 11 -19 -21 0
-1 11 19 21 0
-1 27 -35 -43 0
-1 27 35 43 0
1 -27 -35 -43 0
1 -27 35 43 0
1 -11 -19 -21 0
1 -11 19 21 0
1 11 -19 21 0
1 11 19 -21 0
1 27 -35 43 0
1 27 35 -43 0
2 -13 -23 -47 0
2 -13 23 47 0
2 -3 -20 -30 0
2 -3 20 30 0
2 3 -20 30 0
2 3 20 -30 0
2 13 -23 47 0
2 13 23 -47 0
3 -24 -29 -44 0
3 -24 29 44 0
3 24 -29 44 0
3 24 29 -44 0
4 -12 -46 -49 0
4 -12 46 49 0
4 -9 -38 -43 0
4 -9 38 43 0
4 9 -38 43 0
4 9 38 -43 0
4 12 -46 49 0
4 12 46 -49 0
5 -12 -28 -37 0
5 -12 28 37 0
5 -11 -33 -42 0
5 -11 33 42 0
5 11 -33 42 0
5 11 33 -42 0
5 12 -28 37 0
5 12 28 -37 0
6 -8 -26 -29 0
6 -8 26 29 0
6 8 -26 29 0
6 8 26 -29 0
7 -30 -42 -48 0
7 -30 42 48 0
7 -10 -17 -37 0
7 -10 17 37 0
7 10 -17 37 0
7 10 17 -37 0
7 30 -42 48 0
7 30 42 -48 0
8 -10 -18 -20 0
8 -10 18 20 0
8 10 -18 20 0
8 10 18 -20 0
9 -15 -31 -39 0
9 -15 31 39 0
9 15 -31 39 0
9 15 31 -39 0
13 -16 -22 -44 0
13 -16 22 44 0
13 16 -22 44 0
13 16 22 -44 0
14 -33 -35 -49 0
14 -33 35 49 0
14 -32 -40 -47 0
14 -32 40 47 0
14 32 -40 47 0
14 32 40 -47 0
14 33 -35 49 0
14 33 35 -49 0
15 -16 -34 -41 0
15 -16 34 41 0
15 16 -34 41 0
15 16 34 -41 0
17 -25 -26 -45 0
17 -25 26 45 0
17 25 -26 45 0
17 25 26 -45 0
18 -23 -34 -36 0
18 -23 34 36 0
18 23 -34 36 0
18 23 34 -36 0
19 -24 -25 -48 0
19 -24 25 48 0
19 24 -25 48 0
19 24 25 -48 0
21 -28 -38 -45 0
21 -28 38 45 0
21 28 -38 45 0
21 28 38 -45 0
22 -27 -31 -40 0
22 -27 31 40 0
22 27 -31 40 0
22 27 31 -40 0
32 -36 -39 -46 0
32 -36 39 46 0
32 36 -39 46 0
32 36 39 -46 0
