p cnf 61 242
-35 40 0
35 -40 0
-49 -53 -54 59 0
-49 -53 54 -59 0
-49 53 -54 -59 0
-49 53 54 59 0
-37 -40 -60 61 0
-37 -40 60 -61 0
-37 40 -60 -61 0
-37 40 60 61 0
-31 -35 -36 58 0
-31 -35 36 -58 0
-31 35 -36 -58 0
-31 35 36 58 0
-29 -32 -43 52 0
-29 -32 43 -52 0
-29 32 -43 -52 0
-29 32 43 52 0
-27 -44 -56 57 0
-27 -44 56 -57 0
-27 -37 -39 48 0
-27 -37 39 -48 0
-27 37 -39 -48 0
-27 37 39 48 0
-27 44 -56 -57 0
-27 44 56 57 0
-25 -28 -49 50 0
-25 -28 49 -50 0
-25 28 -49 -50 0
-25 28 49 50 0
-23 -33 -51 61 0
-23 -33 51 -61 0
-23 33 -51 -61 0
-23 33 51 61 0
-17 -38 -39 41 0
-17 -38 39 -41 0
-17 -30 -44 45 0
-17 -30 44 -45 0
-17 30 -44 -45 0
-17 30 44 45 0
-17 38 -39 -41 0
-17 38 39 41 0
-16 -38 -53 60 0
-16 -38 53 -60 0
-16 -18 -28 31 0
-16 -18 28 -31 0
-16 18 -28 -31 0
-16 18 28 31 0
-16 38 -53 -60 0
-16 38 53 60 0
-14 -20 -41 54 0
-14 -20 41 -54 0
-14 20 -41 -54 0
-14 20 41 54 0
-13 -42 -55 56 0
-13 -42 55 -56 0
-13 -26 -33 48 0
-13 -26 33 -48 0
-13 26 -33 -48 0
-13 26 33 48 0
-13 42 -55 -56 0
-13 42 55 56 0
-12 -22 -36 51 0
-12 -22 36 -51 0
-12 22 -36 -51 0
-12 22 36 51 0
-10 -18 -19 47 0
-10 -18 19 -47 0
-10 18 -19 -47 0
-10 18 19 47 0
-9 -12 -21 34 0
-9 -12 21 -34 0
-9 -10 -24 58 0
-9 -10 24 -58 0
-9 10 -24 -58 0
-9 10 24 58 0
-9 12 -21 -34 0
-9 12 21 34 0
-7 -8 -14 26 0
-7 -8 14 -26 0
-7 8 -14 -26 0
-7 8 14 26 0
-6 -20 -30 43 0
-6 -20 30 -43 0
-6 -7 -42 46 0
-6 -7 42 -46 0
-6 7 -42 -46 0
-6 7 42 46 0
-6 20 -30 -43 0
-6 20 30 43 0
-5 -11 -29 46 0
-5 -11 29 -46 0
-5 11 -29 -46 0
-5 11 29 46 0
-4 -19 -50 52 0
-4 -19 50 -52 0
-4 -11 -15 34 0
-4 -11 15 -34 0
-4 11 -15 -34 0
-4 11 15 34 0
-4 19 -50 -52 0
-4 19 50 52 0
-3 -5 -21 55 0
-3 -5 21 -55 0
-3 5 -21 -55 0
-3 5 21 55 0
-2 -32 -45 47 0
-2 -32 45 -47 0
-2 -3 -24 57 0
-2 -3 24 -57 0
-2 3 -24 -57 0
-2 3 24 57 0
-2 32 -45 -47 0
-2 32 45 47 0
-1 -15 -22 25 0
-1 -15 22 -25 0
-1 -8 -23 59 0
-1 -8 23 -59 0
-1 8 -23 -59 0
-1 8 23 59 0
-1 15 -22 -25 0
-1 15 22 25 0
1 -15 -22 -25 0
1 -15 22 25 0
1 -8 -23 -59 0
1 -8 23 59 0
1 8 -23 59 0
1 8 23 -59 0
1 15 -22 25 0
1 15 22 -25 0
2 -32 -45 -47 0
2 -32 45 47 0
2 -3 -24 -57 0
2 -3 24 57 0
2 3 -24 57 0
2 3 24 -57 0
2 32 -45 47 0
2 32 45 -47 0
3 -5 -21 -55 0
3 -5 21 55 0
3 5 -21 55 0
3 5 21 -55 0
4 -19 -50 -52 0
4 -19 50 52 0
4 -11 -15 -34 0
4 -11 15 34 0
4 11 -15 34 0
4 11 15 -34 0
4 19 -50 52 0
4 19 50 -52 0
5 -11 -29 -46 0
5 -11 29 46 0
5 11 -29 46 0
5 11 29 -46 0
6 -20 -30 -43 0
6 -20 30 43 0
6 -7 -42 -46 0
6 -7 42 46 0
6 7 -42 46 0
6 7 42 -46 0
6 20 -30 43 0
6 20 30 -43 0
7 -8 -14 -26 0
7 -8 14 26 0
7 8 -14 26 0
7 8 14 -26 0
9 -12 -21 -34 0
9 -12 21 34 0
9 -10 -24 -58 0
9 -10 24 58 0
9 10 -24 58 0
9 10 24 -58 0
9 12 -21 34 0
9 12 21 -34 0
10 -18 -19 -47 0
10 -18 19 47 0
10 18 -19 47 0
10 18 19 -47 0
12 -22 -36 -51 0
12 -22 36 51 0
12 22 -36 51 0
12 22 36 -51 0
13 -42 -55 -56 0
13 -42 55 56 0
13 -26 -33 -48 0
13 -26 33 48 0
13 26 -33 48 0
13 26 33 -48 0
13 42 -55 56 0
13 42 55 -56 0
14 -20 -41 -54 0
14 -20 41 54 0
14 20 -41 54 0
14 20 41 -54 0
16 -38 -53 -60 0
16 -38 53 60 0
16 -18 -28 -31 0
16 -18 28 31 0
16 18 -28 31 0
16 18 28 -31 0
16 38 -53 60 0
16 38 53 -60 0
17 -38 -39 -41 0
17 -38 39 41 0
17 -30 -44 -45 0
17 -30 44 45 0
17 30 -44 45 0
17 30 44 -45 0
17 38 -39 41 0
17 38 39 -41 0
23 -33 -51 -61 0
23 -33 51 61 0
23 33 -51 61 0
23 33 51 -61 0
25 -28 -49 -50 0
25 -28 49 50 0
25 28 -49 50 0
25 28 49 -50 0
27 -44 -56 -57 0
27 -44 56 57 0
27 -37 -39 -48 0
27 -37 39 48 0
27 37 -39 48 0
27 37 39 -48 0
27 44 -56 57 0
27 44 56 -57 0
29 -32 -43 -52 0
29 -32 43 52 0
29 32 -43 52 0
29 32 43 -52 0
31 -35 -36 -58 0
31 -35 36 58 0
31 35 -36 58 0
31 35 36 -58 0
37 -40 -60 -61 0
37 -40 60 61 0
37 40 -60 61 0
37 40 60 -61 0
49 -53 -54 -59 0
49 -53 54 59 0
49 53 -54 59 0
49 53 54 -59 0
