p cnf 41 162
-23 27 0
23 -27 0
-27 -30 -33 36 0
-27 -30 33 -36 0
-27 30 -33 -36 0
-27 30 33 36 0
-26 -31 -36 38 0
-26 -31 36 -38 0
-26 31 -36 -38 0
-26 31 36 38 0
-16 -17 -25 37 0
-16 -17 25 -37 0
-16 17 -25 -37 0
-16 17 25 37 0
-13 -14 -28 33 0
-13 -14 28 -33 0
-13 14 -28 -33 0
-13 14 28 33 0
-12 -19 -28 32 0
-12 -19 28 -32 0
-12 19 -28 -32 0
-12 19 28 32 0
-11 -32 -35 39 0
-11 -32 35 -39 0
-11 -14 -29 31 0
-11 -14 29 -31 0
-11 14 -29 -31 0
-11 14 29 31 0
-11 32 -35 -39 0
-11 32 35 39 0
-10 -35 -37 41 0
-10 -35 37 -41 0
-10 35 -37 -41 0
-10 35 37 41 0
-9 -17 -20 34 0
-9 -17 20 -34 0
-9 17 -20 -34 0
-9 17 20 34 0
-7 -21 -22 23 0
-7 -21 22 -23 0
-7 21 -22 -23 0
-7 21 22 23 0
-6 -10 -18 40 0
-6 -10 18 -40 0
-6 10 -18 -40 0
-6 10 18 40 0
-5 -20 -29 41 0
-5 -20 29 -41 0
-5 -18 -24 26 0
-5 -18 24 -26 0
-5 18 -24 -26 0
-5 18 24 26 0
-5 20 -29 -41 0
-5 20 29 41 0
-4 -7 -8 15 0
-4 -7 8 -15 0
-4 7 -8 -15 0
-4 7 8 15 0
-3 -13 -21 34 0
-3 -13 21 -34 0
-3 -4 -12 25 0
-3 -4 12 -25 0
-3 4 -12 -25 0
-3 4 12 25 0
-3 13 -21 -34 0
-3 13 21 34 0
-2 -9 -22 24 0
-2 -9 22 -24 0
-2 -6 -15 16 0
-2 -6 15 -16 0
-2 6 -15 -16 0
-2 6 15 16 0
-2 9 -22 -24 0
-2 9 22 24 0
-1 -38 -39 40 0
-1 -38 39 -40 0
-1 -8 -19 30 0
-1 -8 19 -30 0
-1 8 -19 -30 0
-1 8 19 30 0
-1 38 -39 -40 0
-1 38 39 40 0
1 -38 -39 -40 0
1 -38 39 40 0
1 -8 -19 -30 0
1 -8 19 30 0
1 8 -19 30 0
1 8 19 -30 0
1 38 -39 40 0
1 38 39 -40 0
2 -9 -22 -24 0
2 -9 22 24 0
2 -6 -15 -16 0
2 -6 15 16 0
2 6 -15 16 0
2 6 15 -16 0
2 9 -22 24 0
2 9 22 -24 0
3 -13 -21 -34 0
3 -13 21 34 0
3 -4 -12 -25 0
3 -4 12 25 0
3 4 -12 25 0
3 4 12 -25 0
3 13 -21 34 0
3 13 21 -34 0
4 -7 -8 -15 0
4 -7 8 15 0
4 7 -8 15 0
4 7 8 -15 0
5 -20 -29 -41 0
5 -20 29 41 0
5 -18 -24 -26 0
5 -18 24 26 0
5 18 -24 26 0
5 18 24 -26 0
5 20 -29 41 0
5 20 29 -41 0
6 -10 -18 -40 0
6 -10 18 40 0
6 10 -18 40 0
6 10 18 -40 0
7 -21 -22 -23 0
7 -21 22 23 0
7 21 -22 23 0
7 21 22 -23 0
9 -17 -20 -34 0
9 -17 20 34 0
9 17 -20 34 0
9 17 20 -34 0
10 -35 -37 -41 0
10 -35 37 41 0
10 35 -37 41 0
10 35 37 -41 0
11 -32 -35 -39 0
11 -32 35 39 0
11 -14 -29 -31 0
11 -14 29 31 0
11 14 -29 31 0
11 14 29 -31 0
11 32 -35 39 0
11 32 35 -39 0
12 -19 -28 -32 0
12 -19 28 32 0
12 19 -28 32 0
12 19 28 -32 0
13 -14 -28 -33 0
13 -14 28 33 0
13 14 -28 33 0
13 14 28 -33 0
16 -17 -25 -37 0
16 -17 25 37 0
16 17 -25 37 0
16 17 25 -37 0
26 -31 -36 -38 0
26 -31 36 38 0
26 31 -36 38 0
26 31 36 -38 0
27 -30 -33 -36 0
27 -30 33 36 0
27 30 -33 36 0
27 30 33 -36 0
