p cnf 51 202
-49 50 0
49 -50 0
-28 -29 -36 48 0
-28 -29 36 -48 0
-28 29 -36 -48 0
-28 29 36 48 0
-27 -37 -40 43 0
-27 -37 40 -43 0
-27 -28 -32 35 0
-27 -28 32 -35 0
-27 28 -32 -35 0
-27 28 32 35 0
-27 37 -40 -43 0
-27 37 40 43 0
-23 -26 -33 41 0
-23 -26 33 -41 0
-23 26 -33 -41 0
-23 26 33 41 0
-16 -30 -41 49 0
-16 -30 41 -49 0
-16 -24 -38 40 0
-16 -24 38 -40 0
-16 24 -38 -40 0
-16 24 38 40 0
-16 30 -41 -49 0
-16 30 41 49 0
-13 -19 -33 42 0
-13 -19 33 -42 0
-13 19 -33 -42 0
-13 19 33 42 0
-12 -22 -26 44 0
-12 -22 26 -44 0
-12 -18 -21 34 0
-12 -18 21 -34 0
-12 18 -21 -34 0
-12 18 21 34 0
-12 22 -26 -44 0
-12 22 26 44 0
-11 -15 -29 34 0
-11 -15 29 -34 0
-11 15 -29 -34 0
-11 15 29 34 0
-10 -37 -44 50 0
-10 -37 44 -50 0
-10 -18 -32 45 0
-10 -18 32 -45 0
-10 18 -32 -45 0
-10 18 32 45 0
-10 37 -44 -50 0
-10 37 44 50 0
-9 -38 -46 51 0
-9 -38 46 -51 0
-9 -19 -30 31 0
-9 -19 30 -31 0
-9 19 -30 -31 0
-9 19 30 31 0
-9 38 -46 -51 0
-9 38 46 51 0
-7 -13 -21 47 0
-7 -13 21 -47 0
-7 13 -21 -47 0
-7 13 21 47 0
-6 -17 -20 36 0
-6 -17 20 -36 0
-6 17 -20 -36 0
-6 17 20 36 0
-5 -8 -14 42 0
-5 -8 14 -42 0
-5 -6 -7 11 0
-5 -6 7 -11 0
-5 6 -7 -11 0
-5 6 7 11 0
-5 8 -14 -42 0
-5 8 14 42 0
-4 -31 -45 47 0
-4 -31 45 -47 0
-4 -17 -35 46 0
-4 -17 35 -46 0
-4 17 -35 -46 0
-4 17 35 46 0
-4 31 -45 -47 0
-4 31 45 47 0
-3 -24 -25 39 0
-3 -24 25 -39 0
-3 -14 -20 51 0
-3 -14 20 -51 0
-3 14 -20 -51 0
-3 14 20 51 0
-3 24 -25 -39 0
-3 24 25 39 0
-2 -25 -43 48 0
-2 -25 43 -48 0
-2 25 -43 -48 0
-2 25 43 48 0
-1 -8 -23 39 0
-1 -8 23 -39 0
-1 -2 -15 22 0
-1 -2 15 -22 0
-1 2 -15 -22 0
-1 2 15 22 0
-1 8 -23 -39 0
-1 8 23 39 0
1 -8 -23 -39 0
1 -8 23 39 0
1 -2 -15 -22 0
1 -2 15 22 0
1 2 -15 22 0
1 2 15 -22 0
1 8 -23 39 0
1 8 23 -39 0
2 -25 -43 -48 0
2 -25 43 48 0
2 25 -43 48 0
2 25 43 -48 0
3 -24 -25 -39 0
3 -24 25 39 0
3 -14 -20 -51 0
3 -14 20 51 0
3 14 -20 51 0
3 14 20 -51 0
3 24 -25 39 0
3 24 25 -39 0
4 -31 -45 -47 0
4 -31 45 47 0
4 -17 -35 -46 0
4 -17 35 46 0
4 17 -35 46 0
4 17 35 -46 0
4 31 -45 47 0
4 31 45 -47 0
5 -8 -14 -42 0
5 -8 14 42 0
5 -6 -7 -11 0
5 -6 7 11 0
5 6 -7 11 0
5 6 7 -11 0
5 8 -14 42 0
5 8 14 -42 0
6 -17 -20 -36 0
6 -17 20 36 0
6 17 -20 36 0
6 17 20 -36 0
7 -13 -21 -47 0
7 -13 21 47 0
7 13 -21 47 0
7 13 21 -47 0
9 -38 -46 -51 0
9 -38 46 51 0
9 -19 -30 -31 0
9 -19 30 31 0
9 19 -30 31 0
9 19 30 -31 0
9 38 -46 51 0
9 38 46 -51 0
10 -37 -44 -50 0
10 -37 44 50 0
10 -18 -32 -45 0
10 -18 32 45 0
10 18 -32 45 0
10 18 32 -45 0
10 37 -44 50 0
10 37 44 -50 0
11 -15 -29 -34 0
11 -15 29 34 0
11 15 -29 34 0
11 15 29 -34 0
12 -22 -26 -44 0
12 -22 26 44 0
12 -18 -21 -34 0
12 -18 21 34 0
12 18 -21 34 0
12 18 21 -34 0
12 22 -26 44 0
12 22 26 -44 0
13 -19 -33 -42 0
13 -19 33 42 0
13 19 -33 42 0
13 19 33 -42 0
16 -30 -41 -49 0
16 -30 41 49 0
16 -24 -38 -40 0
16 -24 38 40 0
16 24 -38 40 0
16 24 38 -40 0
16 30 -41 49 0
16 30 41 -49 0
23 -26 -33 -41 0
23 -26 33 41 0
23 26 -33 41 0
23 26 33 -41 0
27 -37 -40 -43 0
27 -37 40 43 0
27 -28 -32 -35 0
27 -28 32 35 0
27 28 -32 35 0
27 28 32 -35 0
27 37 -40 43 0
27 37 40 -43 0
28 -29 -36 -48 0
28 -29 36 48 0
28 29 -36 48 0
28 29 36 -48 0
