p cnf 73 290
-14 55 0
14 -55 0
-42 -49 -56 62 0
-42 -49 56 -62 0
-42 49 -56 -62 0
-42 49 56 62 0
-41 -47 -53 67 0
-41 -47 53 -67 0
-41 47 -53 -67 0
-41 47 53 67 0
-39 -40 -59 66 0
-39 -40 59 -66 0
-39 40 -59 -66 0
-39 40 59 66 0
-31 -32 -35 70 0
-31 -32 35 -70 0
-31 32 -35 -70 0
-31 32 35 70 0
-28 -36 -37 52 0
-28 -36 37 -52 0
-28 36 -37 -52 0
-28 36 37 52 0
-26 -38 -41 72 0
-26 -38 41 -72 0
-26 38 -41 -72 0
-26 38 41 72 0
-25 -46 -47 71 0
-25 -46 47 -71 0
-25 46 -47 -71 0
-25 46 47 71 0
-22 -30 -54 73 0
-22 -30 54 -73 0
-22 30 -54 -73 0
-22 30 54 73 0
-18 -51 -64 66 0
-18 -51 64 -66 0
-18 51 -64 -66 0
-18 51 64 66 0
-17 -23 -42 45 0
-17 -23 42 -45 0
-17 23 -42 -45 0
-17 23 42 45 0
-16 -34 -52 61 0
-16 -34 52 -61 0
-16 34 -52 -61 0
-16 34 52 61 0
-15 -25 -27 34 0
-15 -25 27 -34 0
-15 -19 -58 67 0
-15 -19 58 -67 0
-15 19 -58 -67 0
-15 19 58 67 0
-15 25 -27 -34 0
-15 25 27 34 0
-13 -50 -57 69 0
-13 -50 57 -69 0
-13 -38 -46 68 0
-13 -38 46 -68 0
-13 38 -46 -68 0
-13 38 46 68 0
-13 50 -57 -69 0
-13 50 57 69 0
-12 -21 -35 57 0
-12 -21 35 -57 0
-12 -14 -29 36 0
-12 -14 29 -36 0
-12 14 -29 -36 0
-12 14 29 36 0
-12 21 -35 -57 0
-12 21 35 57 0
-11 -56 -58 60 0
-11 -56 58 -60 0
-11 56 -58 -60 0
-11 56 58 60 0
-10 -32 -40 73 0
-10 -32 40 -73 0
-10 -20 -45 48 0
-10 -20 45 -48 0
-10 20 -45 -48 0
-10 20 45 48 0
-10 32 -40 -73 0
-10 32 40 73 0
-9 -26 -30 59 0
-9 -26 30 -59 0
-9 -11 -51 53 0
-9 -11 51 -53 0
-9 11 -51 -53 0
-9 11 51 53 0
-9 26 -30 -59 0
-9 26 30 59 0
-8 -31 -39 69 0
-8 -31 39 -69 0
-8 -18 -24 63 0
-8 -18 24 -63 0
-8 18 -24 -63 0
-8 18 24 63 0
-8 31 -39 -69 0
-8 31 39 69 0
-7 -29 -33 61 0
-7 -29 33 -61 0
-7 -21 -44 68 0
-7 -21 44 -68 0
-7 21 -44 -68 0
-7 21 44 68 0
-7 29 -33 -61 0
-7 29 33 61 0
-6 -48 -55 70 0
-6 -48 55 -70 0
-6 -23 -37 65 0
-6 -23 37 -65 0
-6 23 -37 -65 0
-6 23 37 65 0
-6 48 -55 -70 0
-6 48 55 70 0
-5 -16 -19 49 0
-5 -16 19 -49 0
-5 16 -19 -49 0
-5 16 19 49 0
-4 -43 -63 65 0
-4 -43 63 -65 0
-4 -17 -60 64 0
-4 -17 60 -64 0
-4 17 -60 -64 0
-4 17 60 64 0
-4 43 -63 -65 0
-4 43 63 65 0
-3 -20 -54 62 0
-3 -20 54 -62 0
-3 20 -54 -62 0
-3 20 54 62 0
-2 -27 -28 43 0
-2 -27 28 -43 0
-2 -24 -50 71 0
-2 -24 50 -71 0
-2 24 -50 -71 0
-2 24 50 71 0
-2 27 -28 -43 0
-2 27 28 43 0
-1 -22 -44 72 0
-1 -22 44 -72 0
-1 -3 -5 33 0
-1 -3 5 -33 0
-1 3 -5 -33 0
-1 3 5 33 0
-1 22 -44 -72 0
-1 22 44 72 0
1 -22 -44 -72 0
1 -22 44 72 0
1 -3 -5 -33 0
1 -3 5 33 0
1 3 -5 33 0
1 3 5 -33 0
1 22 -44 72 0
1 22 44 -72 0
2 -27 -28 -43 0
2 -27 28 43 0
2 -24 -50 -71 0
2 -24 50 71 0
2 24 -50 71 0
2 24 50 -71 0
2 27 -28 43 0
2 27 28 -43 0
3 -20 -54 -62 0
3 -20 54 62 0
3 20 -54 62 0
3 20 54 -62 0
4 -43 -63 -65 0
4 -43 63 65 0
4 -17 -60 -64 0
4 -17 60 64 0
4 17 -60 64 0
4 17 60 -64 0
4 43 -63 65 0
4 43 63 -65 0
5 -16 -19 -49 0
5 -16 19 49 0
5 16 -19 49 0
5 16 19 -49 0
6 -48 -55 -70 0
6 -48 55 70 0
6 -23 -37 -65 0
6 -23 37 65 0
6 23 -37 65 0
6 23 37 -65 0
6 48 -55 70 0
6 48 55 -70 0
7 -29 -33 -61 0
7 -29 33 61 0
7 -21 -44 -68 0
7 -21 44 68 0
7 21 -44 68 0
7 21 44 -68 0
7 29 -33 61 0
7 29 33 -61 0
8 -31 -39 -69 0
8 -31 39 69 0
8 -18 -24 -63 0
8 -18 24 63 0
8 18 -24 63 0
8 18 24 -63 0
8 31 -39 69 0
8 31 39 -69 0
9 -26 -30 -59 0
9 -26 30 59 0
9 -11 -51 -53 0
9 -11 51 53 0
9 11 -51 53 0
9 11 51 -53 0
9 26 -30 59 0
9 26 30 -59 0
10 -32 -40 -73 0
10 -32 40 73 0
10 -20 -45 -48 0
10 -20 45 48 0
10 20 -45 48 0
10 20 45 -48 0
10 32 -40 73 0
10 32 40 -73 0
11 -56 -58 -60 0
11 -56 58 60 0
11 56 -58 60 0
11 56 58 -60 0
12 -21 -35 -57 0
12 -21 35 57 0
12 -14 -29 -36 0
12 -14 29 36 0
12 14 -29 36 0
12 14 29 -36 0
12 21 -35 57 0
12 21 35 -57 0
13 -50 -57 -69 0
13 -50 57 69 0
13 -38 -46 -68 0
13 -38 46 68 0
13 38 -46 68 0
13 38 46 -68 0
13 50 -57 69 0
13 50 57 -69 0
15 -25 -27 -34 0
15 -25 27 34 0
15 -19 -58 -67 0
15 -19 58 67 0
15 19 -58 67 0
15 19 58 -67 0
15 25 -27 34 0
15 25 27 -34 0
16 -34 -52 -61 0
16 -34 52 61 0
16 34 -52 61 0
16 34 52 -61 0
17 -23 -42 -45 0
17 -23 42 45 0
17 23 -42 45 0
17 23 42 -45 0
18 -51 -64 -66 0
18 -51 64 66 0
18 51 -64 66 0
18 51 64 -66 0
22 -30 -54 -73 0
22 -30 54 73 0
22 30 -54 73 0
22 30 54 -73 0
25 -46 -47 -71 0
25 -46 47 71 0
25 46 -47 71 0
25 46 47 -71 0
26 -38 -41 -72 0
26 -38 41 72 0
26 38 -41 72 0
26 38 41 -72 0
28 -36 -37 -52 0
28 -36 37 52 0
28 36 -37 52 0
28 36 37 -52 0
31 -32 -35 -70 0
31 -32 35 70 0
31 32 -35 70 0
31 32 35 -70 0
39 -40 -59 -66 0
39 -40 59 66 0
39 40 -59 66 0
39 40 59 -66 0
41 -47 -53 -67 0
41 -47 53 67 0
41 47 -53 67 0
41 47 53 -67 0
42 -49 -56 -62 0
42 -49 56 62 0
42 49 -56 62 0
42 49 56 -62 0
