p cnf 73 290
-25 39 0
25 -39 0
-35 -49 -67 68 0
-35 -49 67 -68 0
-35 49 -67 -68 0
-35 49 67 68 0
-32 -66 -68 71 0
-32 -66 68 -71 0
-32 -39 -55 62 0
-32 -39 55 -62 0
-32 39 -55 -62 0
-32 39 55 62 0
-32 66 -68 -71 0
-32 66 68 71 0
-31 -38 -65 70 0
-31 -38 65 -70 0
-31 38 -65 -70 0
-31 38 65 70 0
-30 -43 -53 54 0
-30 -43 53 -54 0
-30 43 -53 -54 0
-30 43 53 54 0
-27 -45 -56 64 0
-27 -45 56 -64 0
-27 45 -56 -64 0
-27 45 56 64 0
-26 -33 -36 53 0
-26 -33 36 -53 0
-26 33 -36 -53 0
-26 33 36 53 0
-23 -33 -34 60 0
-23 -33 34 -60 0
-23 33 -34 -60 0
-23 33 34 60 0
-21 -40 -62 73 0
-21 -40 62 -73 0
-21 40 -62 -73 0
-21 40 62 73 0
-20 -47 -59 63 0
-20 -47 59 -63 0
-20 47 -59 -63 0
-20 47 59 63 0
-19 -50 -65 66 0
-19 -50 65 -66 0
-19 -25 -41 51 0
-19 -25 41 -51 0
-19 25 -41 -51 0
-19 25 41 51 0
-19 50 -65 -66 0
-19 50 65 66 0
-17 -48 -56 57 0
-17 -48 56 -57 0
-17 -37 -60 61 0
-17 -37 60 -61 0
-17 37 -60 -61 0
-17 37 60 61 0
-17 48 -56 -57 0
-17 48 56 57 0
-16 -29 -58 64 0
-16 -29 58 -64 0
-16 29 -58 -64 0
-16 29 58 64 0
-15 -18 -20 48 0
-15 -18 20 -48 0
-15 18 -20 -48 0
-15 18 20 48 0
-13 -23 -46 69 0
-13 -23 46 -69 0
-13 23 -46 -69 0
-13 23 46 69 0
-12 -14 -46 61 0
-12 -14 46 -61 0
-12 14 -46 -61 0
-12 14 46 61 0
-11 -12 -44 49 0
-11 -12 44 -49 0
-11 12 -44 -49 0
-11 12 44 49 0
-10 -16 -28 42 0
-10 -16 28 -42 0
-10 16 -28 -42 0
-10 16 28 42 0
-9 -30 -50 67 0
-9 -30 50 -67 0
-9 -26 -38 69 0
-9 -26 38 -69 0
-9 26 -38 -69 0
-9 26 38 69 0
-9 30 -50 -67 0
-9 30 50 67 0
-8 -44 -71 73 0
-8 -44 71 -73 0
-8 -14 -24 72 0
-8 -14 24 -72 0
-8 14 -24 -72 0
-8 14 24 72 0
-8 44 -71 -73 0
-8 44 71 73 0
-7 -10 -41 70 0
-7 -10 41 -70 0
-7 10 -41 -70 0
-7 10 41 70 0
-6 -21 -27 72 0
-6 -21 27 -72 0
-6 21 -27 -72 0
-6 21 27 72 0
-5 -35 -54 63 0
-5 -35 54 -63 0
-5 -11 -15 37 0
-5 -11 15 -37 0
-5 11 -15 -37 0
-5 11 15 37 0
-5 35 -54 -63 0
-5 35 54 63 0
-4 -52 -55 59 0
-4 -52 55 -59 0
-4 -18 -40 45 0
-4 -18 40 -45 0
-4 18 -40 -45 0
-4 18 40 45 0
-4 52 -55 -59 0
-4 52 55 59 0
-3 -29 -34 57 0
-3 -29 34 -57 0
-3 -22 -36 42 0
-3 -22 36 -42 0
-3 22 -36 -42 0
-3 22 36 42 0
-3 29 -34 -57 0
-3 29 34 57 0
-2 -13 -24 31 0
-2 -13 24 -31 0
-2 -6 -7 58 0
-2 -6 7 -58 0
-2 6 -7 -58 0
-2 6 7 58 0
-2 13 -24 -31 0
-2 13 24 31 0
-1 -28 -51 52 0
-1 -28 51 -52 0
-1 -22 -43 47 0
-1 -22 43 -47 0
-1 22 -43 -47 0
-1 22 43 47 0
-1 28 -51 -52 0
-1 28 51 52 0
1 -28 -51 -52 0
1 -28 51 52 0
1 -22 -43 -47 0
1 -22 43 47 0
1 22 -43 47 0
1 22 43 -47 0
1 28 -51 52 0
1 28 51 -52 0
2 -13 -24 -31 0
2 -13 24 31 0
2 -6 -7 -58 0
2 -6 7 58 0
2 6 -7 58 0
2 6 7 -58 0
2 13 -24 31 0
2 13 24 -31 0
3 -29 -34 -57 0
3 -29 34 57 0
3 -22 -36 -42 0
3 -22 36 42 0
3 22 -36 42 0
3 22 36 -42 0
3 29 -34 57 0
3 29 34 -57 0
4 -52 -55 -59 0
4 -52 55 59 0
4 -18 -40 -45 0
4 -18 40 45 0
4 18 -40 45 0
4 18 40 -45 0
4 52 -55 59 0
4 52 55 -59 0
5 -35 -54 -63 0
5 -35 54 63 0
5 -11 -15 -37 0
5 -11 15 37 0
5 11 -15 37 0
5 11 15 -37 0
5 35 -54 63 0
5 35 54 -63 0
6 -21 -27 -72 0
6 -21 27 72 0
6 21 -27 72 0
6 21 27 -72 0
7 -10 -41 -70 0
7 -10 41 70 0
7 10 -41 70 0
7 10 41 -70 0
8 -44 -71 -73 0
8 -44 71 73 0
8 -14 -24 -72 0
8 -14 24 72 0
8 14 -24 72 0
8 14 24 -72 0
8 44 -71 73 0
8 44 71 -73 0
9 -30 -50 -67 0
9 -30 50 67 0
9 -26 -38 -69 0
9 -26 38 69 0
9 26 -38 69 0
9 26 38 -69 0
9 30 -50 67 0
9 30 50 -67 0
10 -16 -28 -42 0
10 -16 28 42 0
10 16 -28 42 0
10 16 28 -42 0
11 -12 -44 -49 0
11 -12 44 49 0
11 12 -44 49 0
11 12 44 -49 0
12 -14 -46 -61 0
12 -14 46 61 0
12 14 -46 61 0
12 14 46 -61 0
13 -23 -46 -69 0
13 -23 46 69 0
13 23 -46 69 0
13 23 46 -69 0
15 -18 -20 -48 0
15 -18 20 48 0
15 18 -20 48 0
15 18 20 -48 0
16 -29 -58 -64 0
16 -29 58 64 0
16 29 -58 64 0
16 29 58 -64 0
17 -48 -56 -57 0
17 -48 56 57 0
17 -37 -60 -61 0
17 -37 60 61 0
17 37 -60 61 0
17 37 60 -61 0
17 48 -56 57 0
17 48 56 -57 0
19 -50 -65 -66 0
19 -50 65 66 0
19 -25 -41 -51 0
19 -25 41 51 0
19 25 -41 51 0
19 25 41 -51 0
19 50 -65 66 0
19 50 65 -66 0
20 -47 -59 -63 0
20 -47 59 63 0
20 47 -59 63 0
20 47 59 -63 0
21 -40 -62 -73 0
21 -40 62 73 0
21 40 -62 73 0
21 40 62 -73 0
23 -33 -34 -60 0
23 -33 34 60 0
23 33 -34 60 0
23 33 34 -60 0
26 -33 -36 -53 0
26 -33 36 53 0
26 33 -36 53 0
26 33 36 -53 0
27 -45 -56 -64 0
27 -45 56 64 0
27 45 -56 64 0
27 45 56 -64 0
30 -43 -53 -54 0
30 -43 53 54 0
30 43 -53 54 0
30 43 53 -54 0
31 -38 -65 -70 0
31 -38 65 70 0
31 38 -65 70 0
31 38 65 -70 0
32 -66 -68 -71 0
32 -66 68 71 0
32 -39 -55 -62 0
32 -39 55 62 0
32 39 -55 62 0
32 39 55 -62 0
32 66 -68 71 0
32 66 68 -71 0
35 -49 -67 -68 0
35 -49 67 68 0
35 49 -67 68 0
35 49 67 -68 0
