p cnf 49 194
-30 35 0
30 -35 0
-24 -28 -39 48 0
-24 -28 39 -48 0
-24 28 -39 -48 0
-24 28 39 48 0
-19 -29 -41 47 0
-19 -29 41 -47 0
-19 -25 -40 49 0
-19 -25 40 -49 0
-19 25 -40 -49 0
-19 25 40 49 0
-19 29 -41 -47 0
-19 29 41 47 0
-16 -27 -32 46 0
-16 -27 32 -46 0
-16 -18 -35 39 0
-16 -18 35 -39 0
-16 18 -35 -39 0
-16 18 35 39 0
-16 27 -32 -46 0
-16 27 32 46 0
-14 -18 -26 42 0
-14 -18 26 -42 0
-14 18 -26 -42 0
-14 18 26 42 0
-12 -15 -29 33 0
-12 -15 29 -33 0
-12 15 -29 -33 0
-12 15 29 33 0
-11 -22 -23 37 0
-11 -22 23 -37 0
-11 22 -23 -37 0
-11 22 23 37 0
-10 -30 -41 44 0
-10 -30 41 -44 0
-10 -17 -32 40 0
-10 -17 32 -40 0
-10 17 -32 -40 0
-10 17 32 40 0
-10 30 -41 -44 0
-10 30 41 44 0
-9 -11 -12 21 0
-9 -11 12 -21 0
-9 11 -12 -21 0
-9 11 12 21 0
-8 -33 -42 44 0
-8 -33 42 -44 0
-8 33 -42 -44 0
-8 33 42 44 0
-7 -13 -24 26 0
-7 -13 24 -26 0
-7 13 -24 -26 0
-7 13 24 26 0
-6 -14 -20 27 0
-6 -14 20 -27 0
-6 -7 -34 38 0
-6 -7 34 -38 0
-6 7 -34 -38 0
-6 7 34 38 0
-6 14 -20 -27 0
-6 14 20 27 0
-5 -22 -34 43 0
-5 -22 34 -43 0
-5 -13 -21 36 0
-5 -13 21 -36 0
-5 13 -21 -36 0
-5 13 21 36 0
-5 22 -34 -43 0
-5 22 34 43 0
-4 -31 -36 48 0
-4 -31 36 -48 0
-4 -9 -45 47 0
-4 -9 45 -47 0
-4 9 -45 -47 0
-4 9 45 47 0
-4 31 -36 -48 0
-4 31 36 48 0
-3 -37 -45 49 0
-3 -37 45 -49 0
-3 37 -45 -49 0
-3 37 45 49 0
-2 -28 -38 46 0
-2 -28 38 -46 0
-2 -3 -31 43 0
-2 -3 31 -43 0
-2 3 -31 -43 0
-2 3 31 43 0
-2 28 -38 -46 0
-2 28 38 46 0
-1 -15 -23 25 0
-1 -15 23 -25 0
-1 -8 -17 20 0
-1 -8 17 -20 0
-1 8 -17 -20 0
-1 8 17 20 0
-1 15 -23 -25 0
-1 15 23 25 0
1 -15 -23 -25 0
1 -15 23 25 0
1 -8 -17 -20 0
1 -8 17 20 0
1 8 -17 20 0
1 8 17 -20 0
1 15 -23 25 0
1 15 23 -25 0
2 -28 -38 -46 0
2 -28 38 46 0
2 -3 -31 -43 0
2 -3 31 43 0
2 3 -31 43 0
2 3 31 -43 0
2 28 -38 46 0
2 28 38 -46 0
3 -37 -45 -49 0
3 -37 45 49 0
3 37 -45 49 0
3 37 45 -49 0
4 -31 -36 -48 0
4 -31 36 48 0
4 -9 -45 -47 0
4 -9 45 47 0
4 9 -45 47 0
4 9 45 -47 0
4 31 -36 48 0
4 31 36 -48 0
5 -22 -34 -43 0
5 -22 34 43 0
5 -13 -21 -36 0
5 -13 21 36 0
5 13 -21 36 0
5 13 21 -36 0
5 22 -34 43 0
5 22 34 -43 0
6 -14 -20 -27 0
6 -14 20 27 0
6 -7 -34 -38 0
6 -7 34 38 0
6 7 -34 38 0
6 7 34 -38 0
6 14 -20 27 0
6 14 20 -27 0
7 -13 -24 -26 0
7 -13 24 26 0
7 13 -24 26 0
7 13 24 -26 0
8 -33 -42 -44 0
8 -33 42 44 0
8 33 -42 44 0
8 33 42 -44 0
9 -11 -12 -21 0
9 -11 12 21 0
9 11 -12 21 0
9 11 12 -21 0
10 -30 -41 -44 0
10 -30 41 44 0
10 -17 -32 -40 0
10 -17 32 40 0
10 17 -32 40 0
10 17 32 -40 0
10 30 -41 44 0
10 30 41 -44 0
11 -22 -23 -37 0
11 -22 23 37 0
11 22 -23 37 0
11 22 23 -37 0
12 -15 -29 -33 0
12 -15 29 33 0
12 15 -29 33 0
12 15 29 -33 0
14 -18 -26 -42 0
14 -18 26 42 0
14 18 -26 42 0
14 18 26 -42 0
16 -27 -32 -46 0
16 -27 32 46 0
16 -18 -35 -39 0
16 -18 35 39 0
16 18 -35 39 0
16 18 35 -39 0
16 27 -32 46 0
16 27 32 -46 0
19 -29 -41 -47 0
19 -29 41 47 0
19 -25 -40 -49 0
19 -25 40 49 0
19 25 -40 49 0
19 25 40 -49 0
19 29 -41 47 0
19 29 41 -47 0
24 -28 -39 -48 0
24 -28 39 48 0
24 28 -39 48 0
24 28 39 -48 0
