p cnf 41 162
-16 38 0
16 -38 0
-28 -31 -33 35 0
-28 -31 33 -35 0
-28 31 -33 -35 0
-28 31 33 35 0
-23 -24 -29 40 0
-23 -24 29 -40 0
-23 24 -29 -40 0
-23 24 29 40 0
-14 -17 -32 41 0
-14 -17 32 -41 0
-14 17 -32 -41 0
-14 17 32 41 0
-13 -19 -21 28 0
-13 -19 21 -28 0
-13 19 -21 -28 0
-13 19 21 28 0
-12 -26 -32 36 0
-12 -26 32 -36 0
-12 -24 -37 39 0
-12 -24 37 -39 0
-12 24 -37 -39 0
-12 24 37 39 0
-12 26 -32 -36 0
-12 26 32 36 0
-11 -19 -22 25 0
-11 -19 22 -25 0
-11 19 -22 -25 0
-11 19 22 25 0
-9 -17 -20 27 0
-9 -17 20 -27 0
-9 17 -20 -27 0
-9 17 20 27 0
-8 -15 -18 36 0
-8 -15 18 -36 0
-8 15 -18 -36 0
-8 15 18 36 0
-6 -21 -34 38 0
-6 -21 34 -38 0
-6 -10 -18 33 0
-6 -10 18 -33 0
-6 10 -18 -33 0
-6 10 18 33 0
-6 21 -34 -38 0
-6 21 34 38 0
-5 -7 -11 35 0
-5 -7 11 -35 0
-5 7 -11 -35 0
-5 7 11 35 0
-4 -9 -23 26 0
-4 -9 23 -26 0
-4 -8 -16 30 0
-4 -8 16 -30 0
-4 8 -16 -30 0
-4 8 16 30 0
-4 9 -23 -26 0
-4 9 23 26 0
-3 -15 -31 41 0
-3 -15 31 -41 0
-3 -13 -20 30 0
-3 -13 20 -30 0
-3 13 -20 -30 0
-3 13 20 30 0
-3 15 -31 -41 0
-3 15 31 41 0
-2 -22 -29 34 0
-2 -22 29 -34 0
-2 -5 -10 37 0
-2 -5 10 -37 0
-2 5 -10 -37 0
-2 5 10 37 0
-2 22 -29 -34 0
-2 22 29 34 0
-1 -25 -27 40 0
-1 -25 27 -40 0
-1 -7 -14 39 0
-1 -7 14 -39 0
-1 7 -14 -39 0
-1 7 14 39 0
-1 25 -27 -40 0
-1 25 27 40 0
1 -25 -27 -40 0
1 -25 27 40 0
1 -7 -14 -39 0
1 -7 14 39 0
1 7 -14 39 0
1 7 14 -39 0
1 25 -27 40 0
1 25 27 -40 0
2 -22 -29 -34 0
2 -22 29 34 0
2 -5 -10 -37 0
2 -5 10 37 0
2 5 -10 37 0
2 5 10 -37 0
2 22 -29 34 0
2 22 29 -34 0
3 -15 -31 -41 0
3 -15 31 41 0
3 -13 -20 -30 0
3 -13 20 30 0
3 13 -20 30 0
3 13 20 -30 0
3 15 -31 41 0
3 15 31 -41 0
4 -9 -23 -26 0
4 -9 23 26 0
4 -8 -16 -30 0
4 -8 16 30 0
4 8 -16 30 0
4 8 16 -30 0
4 9 -23 26 0
4 9 23 -26 0
5 -7 -11 -35 0
5 -7 11 35 0
5 7 -11 35 0
5 7 11 -35 0
6 -21 -34 -38 0
6 -21 34 38 0
6 -10 -18 -33 0
6 -10 18 33 0
6 10 -18 33 0
6 10 18 -33 0
6 21 -34 38 0
6 21 34 -38 0
8 -15 -18 -36 0
8 -15 18 36 0
8 15 -18 36 0
8 15 18 -36 0
9 -17 -20 -27 0
9 -17 20 27 0
9 17 -20 27 0
9 17 20 -27 0
11 -19 -22 -25 0
11 -19 22 25 0
11 19 -22 25 0
11 19 22 -25 0
12 -26 -32 -36 0
12 -26 32 36 0
12 -24 -37 -39 0
12 -24 37 39 0
12 24 -37 39 0
12 24 37 -39 0
12 26 -32 36 0
12 26 32 -36 0
13 -19 -21 -28 0
13 -19 21 28 0
13 19 -21 28 0
13 19 21 -28 0
14 -17 -32 -41 0
14 -17 32 41 0
14 17 -32 41 0
14 17 32 -41 0
23 -24 -29 -40 0
23 -24 29 40 0
23 24 -29 40 0
23 24 29 -40 0
28 -31 -33 -35 0
28 -31 33 35 0
28 31 -33 35 0
28 31 33 -35 0
