p cnf 41 162
-14 41 0
14 -41 0
-27 -28 -34 37 0
-27 -28 34 -37 0
-27 28 -34 -37 0
-27 28 34 37 0
-18 -21 -32 36 0
-18 -21 32 -36 0
-18 21 -32 -36 0
-18 21 32 36 0
-16 -20 -25 26 0
-16 -20 25 -26 0
-16 20 -25 -26 0
-16 20 25 26 0
-13 -29 -34 38 0
-13 -29 34 -38 0
-13 29 -34 -38 0
-13 29 34 38 0
-12 -22 -35 39 0
-12 -22 35 -39 0
-12 22 -35 -39 0
-12 22 35 39 0
-11 -23 -31 40 0
-11 -23 31 -40 0
-11 23 -31 -40 0
-11 23 31 40 0
-8 -24 -31 35 0
-8 -24 31 -35 0
-8 -16 -30 36 0
-8 -16 30 -36 0
-8 16 -30 -36 0
-8 16 30 36 0
-8 24 -31 -35 0
-8 24 31 35 0
-7 -15 -25 32 0
-7 -15 25 -32 0
-7 15 -25 -32 0
-7 15 25 32 0
-6 -11 -12 38 0
-6 -11 12 -38 0
-6 11 -12 -38 0
-6 11 12 38 0
-5 -9 -17 40 0
-5 -9 17 -40 0
-5 -6 -28 33 0
-5 -6 28 -33 0
-5 6 -28 -33 0
-5 6 28 33 0
-5 9 -17 -40 0
-5 9 17 40 0
-4 -13 -20 22 0
-4 -13 20 -22 0
-4 -7 -27 41 0
-4 -7 27 -41 0
-4 7 -27 -41 0
-4 7 27 41 0
-4 13 -20 -22 0
-4 13 20 22 0
-3 -10 -23 30 0
-3 -10 23 -30 0
-3 -9 -19 21 0
-3 -9 19 -21 0
-3 9 -19 -21 0
-3 9 19 21 0
-3 10 -23 -30 0
-3 10 23 30 0
-2 -17 -18 24 0
-2 -17 18 -24 0
-2 -14 -33 39 0
-2 -14 33 -39 0
-2 14 -33 -39 0
-2 14 33 39 0
-2 17 -18 -24 0
-2 17 18 24 0
-1 -15 -19 37 0
-1 -15 19 -37 0
-1 -10 -26 29 0
-1 -10 26 -29 0
-1 10 -26 -29 0
-1 10 26 29 0
-1 15 -19 -37 0
-1 15 19 37 0
1 -15 -19 -37 0
1 -15 19 37 0
1 -10 -26 -29 0
1 -10 26 29 0
1 10 -26 29 0
1 10 26 -29 0
1 15 -19 37 0
1 15 19 -37 0
2 -17 -18 -24 0
2 -17 18 24 0
2 -14 -33 -39 0
2 -14 33 39 0
2 14 -33 39 0
2 14 33 -39 0
2 17 -18 24 0
2 17 18 -24 0
3 -10 -23 -30 0
3 -10 23 30 0
3 -9 -19 -21 0
3 -9 19 21 0
3 9 -19 21 0
3 9 19 -21 0
3 10 -23 30 0
3 10 23 -30 0
4 -13 -20 -22 0
4 -13 20 22 0
4 -7 -27 -41 0
4 -7 27 41 0
4 7 -27 41 0
4 7 27 -41 0
4 13 -20 22 0
4 13 20 -22 0
5 -9 -17 -40 0
5 -9 17 40 0
5 -6 -28 -33 0
5 -6 28 33 0
5 6 -28 33 0
5 6 28 -33 0
5 9 -17 40 0
5 9 17 -40 0
6 -11 -12 -38 0
6 -11 12 38 0
6 11 -12 38 0
6 11 12 -38 0
7 -15 -25 -32 0
7 -15 25 32 0
7 15 -25 32 0
7 15 25 -32 0
8 -24 -31 -35 0
8 -24 31 35 0
8 -16 -30 -36 0
8 -16 30 36 0
8 16 -30 36 0
8 16 30 -36 0
8 24 -31 35 0
8 24 31 -35 0
11 -23 -31 -40 0
11 -23 31 40 0
11 23 -31 40 0
11 23 31 -40 0
12 -22 -35 -39 0
12 -22 35 39 0
12 22 -35 39 0
12 22 35 -39 0
13 -29 -34 -38 0
13 -29 34 38 0
13 29 -34 38 0
13 29 34 -38 0
16 -20 -25 -26 0
16 -20 25 26 0
16 20 -25 26 0
16 20 25 -26 0
18 -21 -32 -36 0
18 -21 32 36 0
18 21 -32 36 0
18 21 32 -36 0
27 -28 -34 -37 0
27 -28 34 37 0
27 28 -34 37 0
27 28 34 -37 0
