p cnf 49 194
-13 48 0
13 -48 0
-33 -34 -35 49 0
-33 -34 35 -49 0
-33 34 -35 -49 0
-33 34 35 49 0
-21 -26 -28 31 0
-21 -26 28 -31 0
-21 26 -28 -31 0
-21 26 28 31 0
-18 -22 -38 45 0
-18 -22 38 -45 0
-18 22 -38 -45 0
-18 22 38 45 0
-16 -32 -42 48 0
-16 -32 42 -48 0
-16 -17 -23 43 0
-16 -17 23 -43 0
-16 17 -23 -43 0
-16 17 23 43 0
-16 32 -42 -48 0
-16 32 42 48 0
-15 -17 -29 38 0
-15 -17 29 -38 0
-15 17 -29 -38 0
-15 17 29 38 0
-13 -14 -27 44 0
-13 -14 27 -44 0
-13 14 -27 -44 0
-13 14 27 44 0
-12 -20 -30 39 0
-12 -20 30 -39 0
-12 20 -30 -39 0
-12 20 30 39 0
-11 -15 -32 47 0
-11 -15 32 -47 0
-11 15 -32 -47 0
-11 15 32 47 0
-10 -24 -28 30 0
-10 -24 28 -30 0
-10 -11 -14 40 0
-10 -11 14 -40 0
-10 11 -14 -40 0
-10 11 14 40 0
-10 24 -28 -30 0
-10 24 28 30 0
-9 -34 -37 41 0
-9 -34 37 -41 0
-9 34 -37 -41 0
-9 34 37 41 0
-8 -20 -21 37 0
-8 -20 21 -37 0
-8 -18 -46 49 0
-8 -18 46 -49 0
-8 18 -46 -49 0
-8 18 46 49 0
-8 20 -21 -37 0
-8 20 21 37 0
-7 -33 -36 43 0
-7 -33 36 -43 0
-7 -26 -29 46 0
-7 -26 29 -46 0
-7 26 -29 -46 0
-7 26 29 46 0
-7 33 -36 -43 0
-7 33 36 43 0
-5 -22 -25 47 0
-5 -22 25 -47 0
-5 -6 -39 40 0
-5 -6 39 -40 0
-5 6 -39 -40 0
-5 6 39 40 0
-5 22 -25 -47 0
-5 22 25 47 0
-4 -9 -12 19 0
-4 -9 12 -19 0
-4 9 -12 -19 0
-4 9 12 19 0
-3 -4 -6 44 0
-3 -4 6 -44 0
-3 4 -6 -44 0
-3 4 6 44 0
-2 -23 -35 45 0
-2 -23 35 -45 0
-2 -3 -25 42 0
-2 -3 25 -42 0
-2 3 -25 -42 0
-2 3 25 42 0
-2 23 -35 -45 0
-2 23 35 45 0
-1 -31 -36 41 0
-1 -31 36 -41 0
-1 -19 -24 27 0
-1 -19 24 -27 0
-1 19 -24 -27 0
-1 19 24 27 0
-1 31 -36 -41 0
-1 31 36 41 0
1 -31 -36 -41 0
1 -31 36 41 0
1 -19 -24 -27 0
1 -19 24 27 0
1 19 -24 27 0
1 19 24 -27 0
1 31 -36 41 0
1 31 36 -41 0
2 -23 -35 -45 0
2 -23 35 45 0
2 -3 -25 -42 0
2 -3 25 42 0
2 3 -25 42 0
2 3 25 -42 0
2 23 -35 45 0
2 23 35 -45 0
3 -4 -6 -44 0
3 -4 6 44 0
3 4 -6 44 0
3 4 6 -44 0
4 -9 -12 -19 0
4 -9 12 19 0
4 9 -12 19 0
4 9 12 -19 0
5 -22 -25 -47 0
5 -22 25 47 0
5 -6 -39 -40 0
5 -6 39 40 0
5 6 -39 40 0
5 6 39 -40 0
5 22 -25 47 0
5 22 25 -47 0
7 -33 -36 -43 0
7 -33 36 43 0
7 -26 -29 -46 0
7 -26 29 46 0
7 26 -29 46 0
7 26 29 -46 0
7 33 -36 43 0
7 33 36 -43 0
8 -20 -21 -37 0
8 -20 21 37 0
8 -18 -46 -49 0
8 -18 46 49 0
8 18 -46 49 0
8 18 46 -49 0
8 20 -21 37 0
8 20 21 -37 0
9 -34 -37 -41 0
9 -34 37 41 0
9 34 -37 41 0
9 34 37 -41 0
10 -24 -28 -30 0
10 -24 28 30 0
10 -11 -14 -40 0
10 -11 14 40 0
10 11 -14 40 0
10 11 14 -40 0
10 24 -28 30 0
10 24 28 -30 0
11 -15 -32 -47 0
11 -15 32 47 0
11 15 -32 47 0
11 15 32 -47 0
12 -20 -30 -39 0
12 -20 30 39 0
12 20 -30 39 0
12 20 30 -39 0
13 -14 -27 -44 0
13 -14 27 44 0
13 14 -27 44 0
13 14 27 -44 0
15 -17 -29 -38 0
15 -17 29 38 0
15 17 -29 38 0
15 17 29 -38 0
16 -32 -42 -48 0
16 -32 42 48 0
16 -17 -23 -43 0
16 -17 23 43 0
16 17 -23 43 0
16 17 23 -43 0
16 32 -42 48 0
16 32 42 -48 0
18 -22 -38 -45 0
18 -22 38 45 0
18 22 -38 45 0
18 22 38 -45 0
21 -26 -28 -31 0
21 -26 28 31 0
21 26 -28 31 0
21 26 28 -31 0
33 -34 -35 -49 0
33 -34 35 49 0
33 34 -35 49 0
33 34 35 -49 0
