p cnf 51 202
-9 15 0
9 -15 0
-30 -32 -36 43 0
-30 -32 36 -43 0
-30 32 -36 -43 0
-30 32 36 43 0
-29 -40 -44 45 0
-29 -40 44 -45 0
-29 40 -44 -45 0
-29 40 44 45 0
-27 -45 -50 51 0
-27 -45 50 -51 0
-27 45 -50 -51 0
-27 45 50 51 0
-22 -36 -37 46 0
-22 -36 37 -46 0
-22 -28 -31 48 0
-22 -28 31 -48 0
-22 28 -31 -48 0
-22 28 31 48 0
-22 36 -37 -46 0
-22 36 37 46 0
-18 -21 -46 49 0
-18 -21 46 -49 0
-18 21 -46 -49 0
-18 21 46 49 0
-16 -17 -21 48 0
-16 -17 21 -48 0
-16 17 -21 -48 0
-16 17 21 48 0
-14 -18 -23 32 0
-14 -18 23 -32 0
-14 18 -23 -32 0
-14 18 23 32 0
-12 -26 -47 49 0
-12 -26 47 -49 0
-12 26 -47 -49 0
-12 26 47 49 0
-9 -24 -29 42 0
-9 -24 29 -42 0
-9 24 -29 -42 0
-9 24 29 42 0
-8 -15 -28 39 0
-8 -15 28 -39 0
-8 15 -28 -39 0
-8 15 28 39 0
-7 -11 -20 43 0
-7 -11 20 -43 0
-7 -8 -10 37 0
-7 -8 10 -37 0
-7 8 -10 -37 0
-7 8 10 37 0
-7 11 -20 -43 0
-7 11 20 43 0
-6 -17 -24 26 0
-6 -17 24 -26 0
-6 -13 -35 44 0
-6 -13 35 -44 0
-6 13 -35 -44 0
-6 13 35 44 0
-6 17 -24 -26 0
-6 17 24 26 0
-5 -20 -33 51 0
-5 -20 33 -51 0
-5 -10 -12 42 0
-5 -10 12 -42 0
-5 10 -12 -42 0
-5 10 12 42 0
-5 20 -33 -51 0
-5 20 33 51 0
-4 -39 -40 41 0
-4 -39 40 -41 0
-4 -19 -25 31 0
-4 -19 25 -31 0
-4 19 -25 -31 0
-4 19 25 31 0
-4 39 -40 -41 0
-4 39 40 41 0
-3 -23 -34 38 0
-3 -23 34 -38 0
-3 -16 -25 35 0
-3 -16 25 -35 0
-3 16 -25 -35 0
-3 16 25 35 0
-3 23 -34 -38 0
-3 23 34 38 0
-2 -14 -33 47 0
-2 -14 33 -47 0
-2 -13 -27 34 0
-2 -13 27 -34 0
-2 13 -27 -34 0
-2 13 27 34 0
-2 14 -33 -47 0
-2 14 33 47 0
-1 -19 -30 38 0
-1 -19 30 -38 0
-1 -11 -41 50 0
-1 -11 41 -50 0
-1 11 -41 -50 0
-1 11 41 50 0
-1 19 -30 -38 0
-1 19 30 38 0
1 -19 -30 -38 0
1 -19 30 38 0
1 -11 -41 -50 0
1 -11 41 50 0
1 11 -41 50 0
1 11 41 -50 0
1 19 -30 38 0
1 19 30 -38 0
2 -14 -33 -47 0
2 -14 33 47 0
2 -13 -27 -34 0
2 -13 27 34 0
2 13 -27 34 0
2 13 27 -34 0
2 14 -33 47 0
2 14 33 -47 0
3 -23 -34 -38 0
3 -23 34 38 0
3 -16 -25 -35 0
3 -16 25 35 0
3 16 -25 35 0
3 16 25 -35 0
3 23 -34 38 0
3 23 34 -38 0
4 -39 -40 -41 0
4 -39 40 41 0
4 -19 -25 -31 0
4 -19 25 31 0
4 19 -25 31 0
4 19 25 -31 0
4 39 -40 41 0
4 39 40 -41 0
5 -20 -33 -51 0
5 -20 33 51 0
5 -10 -12 -42 0
5 -10 12 42 0
5 10 -12 42 0
5 10 12 -42 0
5 20 -33 51 0
5 20 33 -51 0
6 -17 -24 -26 0
6 -17 24 26 0
6 -13 -35 -44 0
6 -13 35 44 0
6 13 -35 44 0
6 13 35 -44 0
6 17 -24 26 0
6 17 24 -26 0
7 -11 -20 -43 0
7 -11 20 43 0
7 -8 -10 -37 0
7 -8 10 37 0
7 8 -10 37 0
7 8 10 -37 0
7 11 -20 43 0
7 11 20 -43 0
8 -15 -28 -39 0
8 -15 28 39 0
8 15 -28 39 0
8 15 28 -39 0
9 -24 -29 -42 0
9 -24 29 42 0
9 24 -29 42 0
9 24 29 -42 0
12 -26 -47 -49 0
12 -26 47 49 0
12 26 -47 49 0
12 26 47 -49 0
14 -18 -23 -32 0
14 -18 23 32 0
14 18 -23 32 0
14 18 23 -32 0
16 -17 -21 -48 0
16 -17 21 48 0
16 17 -21 48 0
16 17 21 -48 0
18 -21 -46 -49 0
18 -21 46 49 0
18 21 -46 49 0
18 21 46 -49 0
22 -36 -37 -46 0
22 -36 37 46 0
22 -28 -31 -48 0
22 -28 31 48 0
22 28 -31 48 0
22 28 31 -48 0
22 36 -37 46 0
22 36 37 -46 0
27 -45 -50 -51 0
27 -45 50 51 0
27 45 -50 51 0
27 45 50 -51 0
29 -40 -44 -45 0
29 -40 44 45 0
29 40 -44 45 0
29 40 44 -45 0
30 -32 -36 -43 0
30 -32 36 43 0
30 32 -36 43 0
30 32 36 -43 0
