p cnf 73 290
-2 73 0
2 -73 0
-44 -48 -55 65 0
-44 -48 55 -65 0
-44 48 -55 -65 0
-44 48 55 65 0
-43 -49 -57 63 0
-43 -49 57 -63 0
-43 49 -57 -63 0
-43 49 57 63 0
-33 -39 -52 71 0
-33 -39 52 -71 0
-33 39 -52 -71 0
-33 39 52 71 0
-32 -41 -49 60 0
-32 -41 49 -60 0
-32 41 -49 -60 0
-32 41 49 60 0
-31 -42 -58 68 0
-31 -42 58 -68 0
-31 42 -58 -68 0
-31 42 58 68 0
-29 -37 -61 72 0
-29 -37 61 -72 0
-29 37 -61 -72 0
-29 37 61 72 0
-27 -40 -66 70 0
-27 -40 66 -70 0
-27 40 -66 -70 0
-27 40 66 70 0
-25 -46 -60 73 0
-25 -46 60 -73 0
-25 46 -60 -73 0
-25 46 60 73 0
-23 -25 -26 57 0
-23 -25 26 -57 0
-23 25 -26 -57 0
-23 25 26 57 0
-22 -38 -44 71 0
-22 -38 44 -71 0
-22 -32 -36 56 0
-22 -32 36 -56 0
-22 32 -36 -56 0
-22 32 36 56 0
-22 38 -44 -71 0
-22 38 44 71 0
-21 -59 -61 62 0
-21 -59 61 -62 0
-21 59 -61 -62 0
-21 59 61 62 0
-20 -30 -31 63 0
-20 -30 31 -63 0
-20 30 -31 -63 0
-20 30 31 63 0
-19 -38 -45 53 0
-19 -38 45 -53 0
-19 38 -45 -53 0
-19 38 45 53 0
-16 -34 -62 67 0
-16 -34 62 -67 0
-16 -23 -28 54 0
-16 -23 28 -54 0
-16 23 -28 -54 0
-16 23 28 54 0
-16 34 -62 -67 0
-16 34 62 67 0
-13 -34 -47 72 0
-13 -34 47 -72 0
-13 -18 -28 68 0
-13 -18 28 -68 0
-13 18 -28 -68 0
-13 18 28 68 0
-13 34 -47 -72 0
-13 34 47 72 0
-12 -33 -45 59 0
-12 -33 45 -59 0
-12 33 -45 -59 0
-12 33 45 59 0
-11 -20 -51 69 0
-11 -20 51 -69 0
-11 20 -51 -69 0
-11 20 51 69 0
-10 -17 -24 27 0
-10 -17 24 -27 0
-10 17 -24 -27 0
-10 17 24 27 0
-9 -51 -52 65 0
-9 -51 52 -65 0
-9 51 -52 -65 0
-9 51 52 65 0
-8 -42 -47 69 0
-8 -42 47 -69 0
-8 -9 -29 35 0
-8 -9 29 -35 0
-8 9 -29 -35 0
-8 9 29 35 0
-8 42 -47 -69 0
-8 42 47 69 0
-7 -19 -21 40 0
-7 -19 21 -40 0
-7 -10 -14 37 0
-7 -10 14 -37 0
-7 10 -14 -37 0
-7 10 14 37 0
-7 19 -21 -40 0
-7 19 21 40 0
-6 -30 -41 64 0
-6 -30 41 -64 0
-6 -15 -50 58 0
-6 -15 50 -58 0
-6 15 -50 -58 0
-6 15 50 58 0
-6 30 -41 -64 0
-6 30 41 64 0
-5 -36 -48 64 0
-5 -36 48 -64 0
-5 36 -48 -64 0
-5 36 48 64 0
-4 -12 -26 67 0
-4 -12 26 -67 0
-4 -11 -39 43 0
-4 -11 39 -43 0
-4 11 -39 -43 0
-4 11 39 43 0
-4 12 -26 -67 0
-4 12 26 67 0
-3 -46 -54 70 0
-3 -46 54 -70 0
-3 -18 -24 50 0
-3 -18 24 -50 0
-3 18 -24 -50 0
-3 18 24 50 0
-3 46 -54 -70 0
-3 46 54 70 0
-2 -53 -56 66 0
-2 -53 56 -66 0
-2 53 -56 -66 0
-2 53 56 66 0
-1 -14 -35 55 0
-1 -14 35 -55 0
-1 -5 -15 17 0
-1 -5 15 -17 0
-1 5 -15 -17 0
-1 5 15 17 0
-1 14 -35 -55 0
-1 14 35 55 0
1 -14 -35 -55 0
1 -14 35 55 0
1 -5 -15 -17 0
1 -5 15 17 0
1 5 -15 17 0
1 5 15 -17 0
1 14 -35 55 0
1 14 35 -55 0
2 -53 -56 -66 0
2 -53 56 66 0
2 53 -56 66 0
2 53 56 -66 0
3 -46 -54 -70 0
3 -46 54 70 0
3 -18 -24 -50 0
3 -18 24 50 0
3 18 -24 50 0
3 18 24 -50 0
3 46 -54 70 0
3 46 54 -70 0
4 -12 -26 -67 0
4 -12 26 67 0
4 -11 -39 -43 0
4 -11 39 43 0
4 11 -39 43 0
4 11 39 -43 0
4 12 -26 67 0
4 12 26 -67 0
5 -36 -48 -64 0
5 -36 48 64 0
5 36 -48 64 0
5 36 48 -64 0
6 -30 -41 -64 0
6 -30 41 64 0
6 -15 -50 -58 0
6 -15 50 58 0
6 15 -50 58 0
6 15 50 -58 0
6 30 -41 64 0
6 30 41 -64 0
7 -19 -21 -40 0
7 -19 21 40 0
7 -10 -14 -37 0
7 -10 14 37 0
7 10 -14 37 0
7 10 14 -37 0
7 19 -21 40 0
7 19 21 -40 0
8 -42 -47 -69 0
8 -42 47 69 0
8 -9 -29 -35 0
8 -9 29 35 0
8 9 -29 35 0
8 9 29 -35 0
8 42 -47 69 0
8 42 47 -69 0
9 -51 -52 -65 0
9 -51 52 65 0
9 51 -52 65 0
9 51 52 -65 0
10 -17 -24 -27 0
10 -17 24 27 0
10 17 -24 27 0
10 17 24 -27 0
11 -20 -51 -69 0
11 -20 51 69 0
11 20 -51 69 0
11 20 51 -69 0
12 -33 -45 -59 0
12 -33 45 59 0
12 33 -45 59 0
12 33 45 -59 0
13 -34 -47 -72 0
13 -34 47 72 0
13 -18 -28 -68 0
13 -18 28 68 0
13 18 -28 68 0
13 18 28 -68 0
13 34 -47 72 0
13 34 47 -72 0
16 -34 -62 -67 0
16 -34 62 67 0
16 -23 -28 -54 0
16 -23 28 54 0
16 23 -28 54 0
16 23 28 -54 0
16 34 -62 67 0
16 34 62 -67 0
19 -38 -45 -53 0
19 -38 45 53 0
19 38 -45 53 0
19 38 45 -53 0
20 -30 -31 -63 0
20 -30 31 63 0
20 30 -31 63 0
20 30 31 -63 0
21 -59 -61 -62 0
21 -59 61 62 0
21 59 -61 62 0
21 59 61 -62 0
22 -38 -44 -71 0
22 -38 44 71 0
22 -32 -36 -56 0
22 -32 36 56 0
22 32 -36 56 0
22 32 36 -56 0
22 38 -44 71 0
22 38 44 -71 0
23 -25 -26 -57 0
23 -25 26 57 0
23 25 -26 57 0
23 25 26 -57 0
25 -46 -60 -73 0
25 -46 60 73 0
25 46 -60 73 0
25 46 60 -73 0
27 -40 -66 -70 0
27 -40 66 70 0
27 40 -66 70 0
27 40 66 -70 0
29 -37 -61 -72 0
29 -37 61 72 0
29 37 -61 72 0
29 37 61 -72 0
31 -42 -58 -68 0
31 -42 58 68 0
31 42 -58 68 0
31 42 58 -68 0
32 -41 -49 -60 0
32 -41 49 60 0
32 41 -49 60 0
32 41 49 -60 0
33 -39 -52 -71 0
33 -39 52 71 0
33 39 -52 71 0
33 39 52 -71 0
43 -49 -57 -63 0
43 -49 57 63 0
43 49 -57 63 0
43 49 57 -63 0
44 -48 -55 -65 0
44 -48 55 65 0
44 48 -55 65 0
44 48 55 -65 0
