p cnf 73 290
-33 43 0
33 -43 0
-37 -47 -50 61 0
-37 -47 50 -61 0
-37 47 -50 -61 0
-37 47 50 61 0
-31 -43 -68 73 0
-31 -43 68 -73 0
-31 43 -68 -73 0
-31 43 68 73 0
-30 -32 -36 63 0
-30 -32 36 -63 0
-30 32 -36 -63 0
-30 32 36 63 0
-29 -39 -53 73 0
-29 -39 53 -73 0
-29 39 -53 -73 0
-29 39 53 73 0
-28 -63 -67 68 0
-28 -63 67 -68 0
-28 -55 -64 72 0
-28 -55 64 -72 0
-28 55 -64 -72 0
-28 55 64 72 0
-28 63 -67 -68 0
-28 63 67 68 0
-25 -34 -60 67 0
-25 -34 60 -67 0
-25 34 -60 -67 0
-25 34 60 67 0
-22 -41 -57 58 0
-22 -41 57 -58 0
-22 41 -57 -58 0
-22 41 57 58 0
-20 -23 -61 69 0
-20 -23 61 -69 0
-20 23 -61 -69 0
-20 23 61 69 0
-19 -24 -44 65 0
-19 -24 44 -65 0
-19 -22 -36 69 0
-19 -22 36 -69 0
-19 22 -36 -69 0
-19 22 36 69 0
-19 24 -44 -65 0
-19 24 44 65 0
-18 -40 -51 58 0
-18 -40 51 -58 0
-18 40 -51 -58 0
-18 40 51 58 0
-16 -45 -47 51 0
-16 -45 47 -51 0
-16 45 -47 -51 0
-16 45 47 51 0
-15 -26 -40 62 0
-15 -26 40 -62 0
-15 26 -40 -62 0
-15 26 40 62 0
-14 -20 -21 65 0
-14 -20 21 -65 0
-14 20 -21 -65 0
-14 20 21 65 0
-13 -31 -32 57 0
-13 -31 32 -57 0
-13 -18 -53 66 0
-13 -18 53 -66 0
-13 18 -53 -66 0
-13 18 53 66 0
-13 31 -32 -57 0
-13 31 32 57 0
-12 -15 -46 56 0
-12 -15 46 -56 0
-12 15 -46 -56 0
-12 15 46 56 0
-11 -26 -41 44 0
-11 -26 41 -44 0
-11 26 -41 -44 0
-11 26 41 44 0
-10 -24 -42 72 0
-10 -24 42 -72 0
-10 24 -42 -72 0
-10 24 42 72 0
-9 -35 -70 71 0
-9 -35 70 -71 0
-9 -25 -48 52 0
-9 -25 48 -52 0
-9 25 -48 -52 0
-9 25 48 52 0
-9 35 -70 -71 0
-9 35 70 71 0
-8 -38 -45 66 0
-8 -38 45 -66 0
-8 -17 -39 52 0
-8 -17 39 -52 0
-8 17 -39 -52 0
-8 17 39 52 0
-8 38 -45 -66 0
-8 38 45 66 0
-7 -27 -56 59 0
-7 -27 56 -59 0
-7 27 -56 -59 0
-7 27 56 59 0
-6 -38 -48 50 0
-6 -38 48 -50 0
-6 -23 -30 34 0
-6 -23 30 -34 0
-6 23 -30 -34 0
-6 23 30 34 0
-6 38 -48 -50 0
-6 38 48 50 0
-5 -17 -27 35 0
-5 -17 27 -35 0
-5 -12 -29 49 0
-5 -12 29 -49 0
-5 12 -29 -49 0
-5 12 29 49 0
-5 17 -27 -35 0
-5 17 27 35 0
-4 -16 -59 62 0
-4 -16 59 -62 0
-4 16 -59 -62 0
-4 16 59 62 0
-3 -33 -49 64 0
-3 -33 49 -64 0
-3 -11 -42 46 0
-3 -11 42 -46 0
-3 11 -42 -46 0
-3 11 42 46 0
-3 33 -49 -64 0
-3 33 49 64 0
-2 -55 -60 71 0
-2 -55 60 -71 0
-2 -10 -14 54 0
-2 -10 14 -54 0
-2 10 -14 -54 0
-2 10 14 54 0
-2 55 -60 -71 0
-2 55 60 71 0
-1 -7 -54 70 0
-1 -7 54 -70 0
-1 -4 -21 37 0
-1 -4 21 -37 0
-1 4 -21 -37 0
-1 4 21 37 0
-1 7 -54 -70 0
-1 7 54 70 0
1 -7 -54 -70 0
1 -7 54 70 0
1 -4 -21 -37 0
1 -4 21 37 0
1 4 -21 37 0
1 4 21 -37 0
1 7 -54 70 0
1 7 54 -70 0
2 -55 -60 -71 0
2 -55 60 71 0
2 -10 -14 -54 0
2 -10 14 54 0
2 10 -14 54 0
2 10 14 -54 0
2 55 -60 71 0
2 55 60 -71 0
3 -33 -49 -64 0
3 -33 49 64 0
3 -11 -42 -46 0
3 -11 42 46 0
3 11 -42 46 0
3 11 42 -46 0
3 33 -49 64 0
3 33 49 -64 0
4 -16 -59 -62 0
4 -16 59 62 0
4 16 -59 62 0
4 16 59 -62 0
5 -17 -27 -35 0
5 -17 27 35 0
5 -12 -29 -49 0
5 -12 29 49 0
5 12 -29 49 0
5 12 29 -49 0
5 17 -27 35 0
5 17 27 -35 0
6 -38 -48 -50 0
6 -38 48 50 0
6 -23 -30 -34 0
6 -23 30 34 0
6 23 -30 34 0
6 23 30 -34 0
6 38 -48 50 0
6 38 48 -50 0
7 -27 -56 -59 0
7 -27 56 59 0
7 27 -56 59 0
7 27 56 -59 0
8 -38 -45 -66 0
8 -38 45 66 0
8 -17 -39 -52 0
8 -17 39 52 0
8 17 -39 52 0
8 17 39 -52 0
8 38 -45 66 0
8 38 45 -66 0
9 -35 -70 -71 0
9 -35 70 71 0
9 -25 -48 -52 0
9 -25 48 52 0
9 25 -48 52 0
9 25 48 -52 0
9 35 -70 71 0
9 35 70 -71 0
10 -24 -42 -72 0
10 -24 42 72 0
10 24 -42 72 0
10 24 42 -72 0
11 -26 -41 -44 0
11 -26 41 44 0
11 26 -41 44 0
11 26 41 -44 0
12 -15 -46 -56 0
12 -15 46 56 0
12 15 -46 56 0
12 15 46 -56 0
13 -31 -32 -57 0
13 -31 32 57 0
13 -18 -53 -66 0
13 -18 53 66 0
13 18 -53 66 0
13 18 53 -66 0
13 31 -32 57 0
13 31 32 -57 0
14 -20 -21 -65 0
14 -20 21 65 0
14 20 -21 65 0
14 20 21 -65 0
15 -26 -40 -62 0
15 -26 40 62 0
15 26 -40 62 0
15 26 40 -62 0
16 -45 -47 -51 0
16 -45 47 51 0
16 45 -47 51 0
16 45 47 -51 0
18 -40 -51 -58 0
18 -40 51 58 0
18 40 -51 58 0
18 40 51 -58 0
19 -24 -44 -65 0
19 -24 44 65 0
19 -22 -36 -69 0
19 -22 36 69 0
19 22 -36 69 0
19 22 36 -69 0
19 24 -44 65 0
19 24 44 -65 0
20 -23 -61 -69 0
20 -23 61 69 0
20 23 -61 69 0
20 23 61 -69 0
22 -41 -57 -58 0
22 -41 57 58 0
22 41 -57 58 0
22 41 57 -58 0
25 -34 -60 -67 0
25 -34 60 67 0
25 34 -60 67 0
25 34 60 -67 0
28 -63 -67 -68 0
28 -63 67 68 0
28 -55 -64 -72 0
28 -55 64 72 0
28 55 -64 72 0
28 55 64 -72 0
28 63 -67 68 0
28 63 67 -68 0
29 -39 -53 -73 0
29 -39 53 73 0
29 39 -53 73 0
29 39 53 -73 0
30 -32 -36 -63 0
30 -32 36 63 0
30 32 -36 63 0
30 32 36 -63 0
31 -43 -68 -73 0
31 -43 68 73 0
31 43 -68 73 0
31 43 68 -73 0
37 -47 -50 -61 0
37 -47 50 61 0
37 47 -50 61 0
37 47 50 -61 0
