p cnf 41 162
-30 37 0
30 -37 0
-19 -27 -32 33 0
-19 -27 32 -33 0
-19 27 -32 -33 0
-19 27 32 33 0
-18 -21 -31 41 0
-18 -21 31 -41 0
-18 21 -31 -41 0
-18 21 31 41 0
-17 -22 -23 25 0
-17 -22 23 -25 0
-17 22 -23 -25 0
-17 22 23 25 0
-15 -16 -33 38 0
-15 -16 33 -38 0
-15 16 -33 -38 0
-15 16 33 38 0
-13 -26 -29 40 0
-13 -26 29 -40 0
-13 26 -29 -40 0
-13 26 29 40 0
-12 -16 -18 36 0
-12 -16 18 -36 0
-12 16 -18 -36 0
-12 16 18 36 0
-9 -20 -27 34 0
-9 -20 27 -34 0
-9 -11 -15 31 0
-9 -11 15 -31 0
-9 11 -15 -31 0
-9 11 15 31 0
-9 20 -27 -34 0
-9 20 27 34 0
-8 -10 -14 37 0
-8 -10 14 -37 0
-8 10 -14 -37 0
-8 10 14 37 0
-7 -13 -22 35 0
-7 -13 22 -35 0
-7 13 -22 -35 0
-7 13 22 35 0
-6 -25 -28 32 0
-6 -25 28 -32 0
-6 25 -28 -32 0
-6 25 28 32 0
-5 -34 -40 41 0
-5 -34 40 -41 0
-5 -19 -35 36 0
-5 -19 35 -36 0
-5 19 -35 -36 0
-5 19 35 36 0
-5 34 -40 -41 0
-5 34 40 41 0
-4 -14 -23 39 0
-4 -14 23 -39 0
-4 14 -23 -39 0
-4 14 23 39 0
-3 -20 -24 28 0
-3 -20 24 -28 0
-3 -10 -17 29 0
-3 -10 17 -29 0
-3 10 -17 -29 0
-3 10 17 29 0
-3 20 -24 -28 0
-3 20 24 28 0
-2 -11 -24 30 0
-2 -11 24 -30 0
-2 -6 -38 39 0
-2 -6 38 -39 0
-2 6 -38 -39 0
-2 6 38 39 0
-2 11 -24 -30 0
-2 11 24 30 0
-1 -8 -21 26 0
-1 -8 21 -26 0
-1 -4 -7 12 0
-1 -4 7 -12 0
-1 4 -7 -12 0
-1 4 7 12 0
-1 8 -21 -26 0
-1 8 21 26 0
1 -8 -21 -26 0
1 -8 21 26 0
1 -4 -7 -12 0
1 -4 7 12 0
1 4 -7 12 0
1 4 7 -12 0
1 8 -21 26 0
1 8 21 -26 0
2 -11 -24 -30 0
2 -11 24 30 0
2 -6 -38 -39 0
2 -6 38 39 0
2 6 -38 39 0
2 6 38 -39 0
2 11 -24 30 0
2 11 24 -30 0
3 -20 -24 -28 0
3 -20 24 28 0
3 -10 -17 -29 0
3 -10 17 29 0
3 10 -17 29 0
3 10 17 -29 0
3 20 -24 28 0
3 20 24 -28 0
4 -14 -23 -39 0
4 -14 23 39 0
4 14 -23 39 0
4 14 23 -39 0
5 -34 -40 -41 0
5 -34 40 41 0
5 -19 -35 -36 0
5 -19 35 36 0
5 19 -35 36 0
5 19 35 -36 0
5 34 -40 41 0
5 34 40 -41 0
6 -25 -28 -32 0
6 -25 28 32 0
6 25 -28 32 0
6 25 28 -32 0
7 -13 -22 -35 0
7 -13 22 35 0
7 13 -22 35 0
7 13 22 -35 0
8 -10 -14 -37 0
8 -10 14 37 0
8 10 -14 37 0
8 10 14 -37 0
9 -20 -27 -34 0
9 -20 27 34 0
9 -11 -15 -31 0
9 -11 15 31 0
9 11 -15 31 0
9 11 15 -31 0
9 20 -27 34 0
9 20 27 -34 0
12 -16 -18 -36 0
12 -16 18 36 0
12 16 -18 36 0
12 16 18 -36 0
13 -26 -29 -40 0
13 -26 29 40 0
13 26 -29 40 0
13 26 29 -40 0
15 -16 -33 -38 0
15 -16 33 38 0
15 16 -33 38 0
15 16 33 -38 0
17 -22 -23 -25 0
17 -22 23 25 0
17 22 -23 25 0
17 22 23 -25 0
18 -21 -31 -41 0
18 -21 31 41 0
18 21 -31 41 0
18 21 31 -41 0
19 -27 -32 -33 0
19 -27 32 33 0
19 27 -32 33 0
19 27 32 -33 0
