p cnf 51 202
-21 31 0
21 -31 0
-28 -39 -49 50 0
-28 -39 49 -50 0
-28 39 -49 -50 0
-28 39 49 50 0
-24 -27 -44 47 0
-24 -27 44 -47 0
-24 27 -44 -47 0
-24 27 44 47 0
-21 -26 -32 38 0
-21 -26 32 -38 0
-21 26 -32 -38 0
-21 26 32 38 0
-20 -24 -43 49 0
-20 -24 43 -49 0
-20 24 -43 -49 0
-20 24 43 49 0
-18 -22 -45 47 0
-18 -22 45 -47 0
-18 22 -45 -47 0
-18 22 45 47 0
-16 -17 -26 51 0
-16 -17 26 -51 0
-16 17 -26 -51 0
-16 17 26 51 0
-15 -23 -31 45 0
-15 -23 31 -45 0
-15 -16 -25 44 0
-15 -16 25 -44 0
-15 16 -25 -44 0
-15 16 25 44 0
-15 23 -31 -45 0
-15 23 31 45 0
-13 -36 -39 42 0
-13 -36 39 -42 0
-13 36 -39 -42 0
-13 36 39 42 0
-12 -14 -29 34 0
-12 -14 29 -34 0
-12 14 -29 -34 0
-12 14 29 34 0
-11 -23 -33 37 0
-11 -23 33 -37 0
-11 23 -33 -37 0
-11 23 33 37 0
-10 -11 -35 48 0
-10 -11 35 -48 0
-10 11 -35 -48 0
-10 11 35 48 0
-9 -32 -34 37 0
-9 -32 34 -37 0
-9 32 -34 -37 0
-9 32 34 37 0
-8 -12 -13 30 0
-8 -12 13 -30 0
-8 12 -13 -30 0
-8 12 13 30 0
-7 -8 -41 50 0
-7 -8 41 -50 0
-7 8 -41 -50 0
-7 8 41 50 0
-6 -27 -28 40 0
-6 -27 28 -40 0
-6 27 -28 -40 0
-6 27 28 40 0
-5 -20 -36 51 0
-5 -20 36 -51 0
-5 -14 -38 46 0
-5 -14 38 -46 0
-5 14 -38 -46 0
-5 14 38 46 0
-5 20 -36 -51 0
-5 20 36 51 0
-4 -19 -22 33 0
-4 -19 22 -33 0
-4 -6 -7 10 0
-4 -6 7 -10 0
-4 6 -7 -10 0
-4 6 7 10 0
-4 19 -22 -33 0
-4 19 22 33 0
-3 -25 -40 48 0
-3 -25 40 -48 0
-3 25 -40 -48 0
-3 25 40 48 0
-2 -9 -30 35 0
-2 -9 30 -35 0
-2 -3 -17 42 0
-2 -3 17 -42 0
-2 3 -17 -42 0
-2 3 17 42 0
-2 9 -30 -35 0
-2 9 30 35 0
-1 -19 -29 41 0
-1 -19 29 -41 0
-1 -18 -43 46 0
-1 -18 43 -46 0
-1 18 -43 -46 0
-1 18 43 46 0
-1 19 -29 -41 0
-1 19 29 41 0
1 -19 -29 -41 0
1 -19 29 41 0
1 -18 -43 -46 0
1 -18 43 46 0
1 18 -43 46 0
1 18 43 -46 0
1 19 -29 41 0
1 19 29 -41 0
2 -9 -30 -35 0
2 -9 30 35 0
2 -3 -17 -42 0
2 -3 17 42 0
2 3 -17 42 0
2 3 17 -42 0
2 9 -30 35 0
2 9 30 -35 0
3 -25 -40 -48 0
3 -25 40 48 0
3 25 -40 48 0
3 25 40 -48 0
4 -19 -22 -33 0
4 -19 22 33 0
4 -6 -7 -10 0
4 -6 7 10 0
4 6 -7 10 0
4 6 7 -10 0
4 19 -22 33 0
4 19 22 -33 0
5 -20 -36 -51 0
5 -20 36 51 0
5 -14 -38 -46 0
5 -14 38 46 0
5 14 -38 46 0
5 14 38 -46 0
5 20 -36 51 0
5 20 36 -51 0
6 -27 -28 -40 0
6 -27 28 40 0
6 27 -28 40 0
6 27 28 -40 0
7 -8 -41 -50 0
7 -8 41 50 0
7 8 -41 50 0
7 8 41 -50 0
8 -12 -13 -30 0
8 -12 13 30 0
8 12 -13 30 0
8 12 13 -30 0
9 -32 -34 -37 0
9 -32 34 37 0
9 32 -34 37 0
9 32 34 -37 0
10 -11 -35 -48 0
10 -11 35 48 0
10 11 -35 48 0
10 11 35 -48 0
11 -23 -33 -37 0
11 -23 33 37 0
11 23 -33 37 0
11 23 33 -37 0
12 -14 -29 -34 0
12 -14 29 34 0
12 14 -29 34 0
12 14 29 -34 0
13 -36 -39 -42 0
13 -36 39 42 0
13 36 -39 42 0
13 36 39 -42 0
15 -23 -31 -45 0
15 -23 31 45 0
15 -16 -25 -44 0
15 -16 25 44 0
15 16 -25 44 0
15 16 25 -44 0
15 23 -31 45 0
15 23 31 -45 0
16 -17 -26 -51 0
16 -17 26 51 0
16 17 -26 51 0
16 17 26 -51 0
18 -22 -45 -47 0
18 -22 45 47 0
18 22 -45 47 0
18 22 45 -47 0
20 -24 -43 -49 0
20 -24 43 49 0
20 24 -43 49 0
20 24 43 -49 0
21 -26 -32 -38 0
21 -26 32 38 0
21 26 -32 38 0
21 26 32 -38 0
24 -27 -44 -47 0
24 -27 44 47 0
24 27 -44 47 0
24 27 44 -47 0
28 -39 -49 -50 0
28 -39 49 50 0
28 39 -49 50 0
28 39 49 -50 0
