p cnf 73 290
-12 43 0
12 -43 0
-48 -51 -52 57 0
-48 -51 52 -57 0
-48 51 -52 -57 0
-48 51 52 57 0
-47 -50 -63 65 0
-47 -50 63 -65 0
-47 50 -63 -65 0
-47 50 63 65 0
-43 -56 -65 69 0
-43 -56 65 -69 0
-43 56 -65 -69 0
-43 56 65 69 0
-40 -41 -67 70 0
-40 -41 67 -70 0
-40 41 -67 -70 0
-40 41 67 70 0
-39 -51 -55 60 0
-39 -51 55 -60 0
-39 51 -55 -60 0
-39 51 55 60 0
-38 -47 -49 68 0
-38 -47 49 -68 0
-38 47 -49 -68 0
-38 47 49 68 0
-35 -46 -54 71 0
-35 -46 54 -71 0
-35 46 -54 -71 0
-35 46 54 71 0
-28 -44 -48 67 0
-28 -44 48 -67 0
-28 44 -48 -67 0
-28 44 48 67 0
-26 -60 -64 73 0
-26 -60 64 -73 0
-26 60 -64 -73 0
-26 60 64 73 0
-25 -27 -44 58 0
-25 -27 44 -58 0
-25 27 -44 -58 0
-25 27 44 58 0
-24 -30 -45 59 0
-24 -30 45 -59 0
-24 30 -45 -59 0
-24 30 45 59 0
-23 -29 -45 54 0
-23 -29 45 -54 0
-23 29 -45 -54 0
-23 29 45 54 0
-21 -35 -49 72 0
-21 -35 49 -72 0
-21 35 -49 -72 0
-21 35 49 72 0
-20 -42 -68 71 0
-20 -42 68 -71 0
-20 42 -68 -71 0
-20 42 68 71 0
-16 -17 -28 39 0
-16 -17 28 -39 0
-16 17 -28 -39 0
-16 17 28 39 0
-15 -29 -33 36 0
-15 -29 33 -36 0
-15 -24 -25 52 0
-15 -24 25 -52 0
-15 24 -25 -52 0
-15 24 25 52 0
-15 29 -33 -36 0
-15 29 33 36 0
-14 -31 -46 59 0
-14 -31 46 -59 0
-14 31 -46 -59 0
-14 31 46 59 0
-13 -38 -53 62 0
-13 -38 53 -62 0
-13 38 -53 -62 0
-13 38 53 62 0
-11 -18 -42 50 0
-11 -18 42 -50 0
-11 -12 -27 36 0
-11 -12 27 -36 0
-11 12 -27 -36 0
-11 12 27 36 0
-11 18 -42 -50 0
-11 18 42 50 0
-10 -23 -37 72 0
-10 -23 37 -72 0
-10 23 -37 -72 0
-10 23 37 72 0
-9 -32 -41 61 0
-9 -32 41 -61 0
-9 32 -41 -61 0
-9 32 41 61 0
-8 -10 -33 56 0
-8 -10 33 -56 0
-8 10 -33 -56 0
-8 10 33 56 0
-7 -8 -34 55 0
-7 -8 34 -55 0
-7 8 -34 -55 0
-7 8 34 55 0
-6 -19 -22 26 0
-6 -19 22 -26 0
-6 19 -22 -26 0
-6 19 22 26 0
-5 -17 -34 69 0
-5 -17 34 -69 0
-5 -13 -63 66 0
-5 -13 63 -66 0
-5 13 -63 -66 0
-5 13 63 66 0
-5 17 -34 -69 0
-5 17 34 69 0
-4 -30 -57 64 0
-4 -30 57 -64 0
-4 -19 -31 32 0
-4 -19 31 -32 0
-4 19 -31 -32 0
-4 19 31 32 0
-4 30 -57 -64 0
-4 30 57 64 0
-3 -22 -61 62 0
-3 -22 61 -62 0
-3 -16 -40 66 0
-3 -16 40 -66 0
-3 16 -40 -66 0
-3 16 40 66 0
-3 22 -61 -62 0
-3 22 61 62 0
-2 -7 -37 73 0
-2 -7 37 -73 0
-2 -6 -21 53 0
-2 -6 21 -53 0
-2 6 -21 -53 0
-2 6 21 53 0
-2 7 -37 -73 0
-2 7 37 73 0
-1 -18 -58 70 0
-1 -18 58 -70 0
-1 -9 -14 20 0
-1 -9 14 -20 0
-1 9 -14 -20 0
-1 9 14 20 0
-1 18 -58 -70 0
-1 18 58 70 0
1 -18 -58 -70 0
1 -18 58 70 0
1 -9 -14 -20 0
1 -9 14 20 0
1 9 -14 20 0
1 9 14 -20 0
1 18 -58 70 0
1 18 58 -70 0
2 -7 -37 -73 0
2 -7 37 73 0
2 -6 -21 -53 0
2 -6 21 53 0
2 6 -21 53 0
2 6 21 -53 0
2 7 -37 73 0
2 7 37 -73 0
3 -22 -61 -62 0
3 -22 61 62 0
3 -16 -40 -66 0
3 -16 40 66 0
3 16 -40 66 0
3 16 40 -66 0
3 22 -61 62 0
3 22 61 -62 0
4 -30 -57 -64 0
4 -30 57 64 0
4 -19 -31 -32 0
4 -19 31 32 0
4 19 -31 32 0
4 19 31 -32 0
4 30 -57 64 0
4 30 57 -64 0
5 -17 -34 -69 0
5 -17 34 69 0
5 -13 -63 -66 0
5 -13 63 66 0
5 13 -63 66 0
5 13 63 -66 0
5 17 -34 69 0
5 17 34 -69 0
6 -19 -22 -26 0
6 -19 22 26 0
6 19 -22 26 0
6 19 22 -26 0
7 -8 -34 -55 0
7 -8 34 55 0
7 8 -34 55 0
7 8 34 -55 0
8 -10 -33 -56 0
8 -10 33 56 0
8 10 -33 56 0
8 10 33 -56 0
9 -32 -41 -61 0
9 -32 41 61 0
9 32 -41 61 0
9 32 41 -61 0
10 -23 -37 -72 0
10 -23 37 72 0
10 23 -37 72 0
10 23 37 -72 0
11 -18 -42 -50 0
11 -18 42 50 0
11 -12 -27 -36 0
11 -12 27 36 0
11 12 -27 36 0
11 12 27 -36 0
11 18 -42 50 0
11 18 42 -50 0
13 -38 -53 -62 0
13 -38 53 62 0
13 38 -53 62 0
13 38 53 -62 0
14 -31 -46 -59 0
14 -31 46 59 0
14 31 -46 59 0
14 31 46 -59 0
15 -29 -33 -36 0
15 -29 33 36 0
15 -24 -25 -52 0
15 -24 25 52 0
15 24 -25 52 0
15 24 25 -52 0
15 29 -33 36 0
15 29 33 -36 0
16 -17 -28 -39 0
16 -17 28 39 0
16 17 -28 39 0
16 17 28 -39 0
20 -42 -68 -71 0
20 -42 68 71 0
20 42 -68 71 0
20 42 68 -71 0
21 -35 -49 -72 0
21 -35 49 72 0
21 35 -49 72 0
21 35 49 -72 0
23 -29 -45 -54 0
23 -29 45 54 0
23 29 -45 54 0
23 29 45 -54 0
24 -30 -45 -59 0
24 -30 45 59 0
24 30 -45 59 0
24 30 45 -59 0
25 -27 -44 -58 0
25 -27 44 58 0
25 27 -44 58 0
25 27 44 -58 0
26 -60 -64 -73 0
26 -60 64 73 0
26 60 -64 73 0
26 60 64 -73 0
28 -44 -48 -67 0
28 -44 48 67 0
28 44 -48 67 0
28 44 48 -67 0
35 -46 -54 -71 0
35 -46 54 71 0
35 46 -54 71 0
35 46 54 -71 0
38 -47 -49 -68 0
38 -47 49 68 0
38 47 -49 68 0
38 47 49 -68 0
39 -51 -55 -60 0
39 -51 55 60 0
39 51 -55 60 0
39 51 55 -60 0
40 -41 -67 -70 0
40 -41 67 70 0
40 41 -67 70 0
40 41 67 -70 0
43 -56 -65 -69 0
43 -56 65 69 0
43 56 -65 69 0
43 56 65 -69 0
47 -50 -63 -65 0
47 -50 63 65 0
47 50 -63 65 0
47 50 63 -65 0
48 -51 -52 -57 0
48 -51 52 57 0
48 51 -52 57 0
48 51 52 -57 0
