p cnf 41 162
-3 4 0
3 -4 0
-21 -26 -29 34 0
-21 -26 29 -34 0
-21 -25 -32 41 0
-21 -25 32 -41 0
-21 25 -32 -41 0
-21 25 32 41 0
-21 26 -29 -34 0
-21 26 29 34 0
-16 -18 -23 39 0
-16 -18 23 -39 0
-16 18 -23 -39 0
-16 18 23 39 0
-15 -20 -32 39 0
-15 -20 32 -39 0
-15 20 -32 -39 0
-15 20 32 39 0
-12 -26 -33 40 0
-12 -26 33 -40 0
-12 26 -33 -40 0
-12 26 33 40 0
-11 -30 -36 37 0
-11 -30 36 -37 0
-11 30 -36 -37 0
-11 30 36 37 0
-10 -17 -22 28 0
-10 -17 22 -28 0
-10 17 -22 -28 0
-10 17 22 28 0
-9 -28 -35 41 0
-9 -28 35 -41 0
-9 -14 -29 37 0
-9 -14 29 -37 0
-9 14 -29 -37 0
-9 14 29 37 0
-9 28 -35 -41 0
-9 28 35 41 0
-8 -17 -18 25 0
-8 -17 18 -25 0
-8 17 -18 -25 0
-8 17 18 25 0
-7 -13 -27 38 0
-7 -13 27 -38 0
-7 13 -27 -38 0
-7 13 27 38 0
-6 -15 -30 35 0
-6 -15 30 -35 0
-6 -13 -16 22 0
-6 -13 16 -22 0
-6 13 -16 -22 0
-6 13 16 22 0
-6 15 -30 -35 0
-6 15 30 35 0
-5 -8 -12 19 0
-5 -8 12 -19 0
-5 -7 -23 31 0
-5 -7 23 -31 0
-5 7 -23 -31 0
-5 7 23 31 0
-5 8 -12 -19 0
-5 8 12 19 0
-4 -11 -20 34 0
-4 -11 20 -34 0
-4 11 -20 -34 0
-4 11 20 34 0
-3 -24 -31 40 0
-3 -24 31 -40 0
-3 24 -31 -40 0
-3 24 31 40 0
-2 -10 -19 27 0
-2 -10 19 -27 0
-2 10 -19 -27 0
-2 10 19 27 0
-1 -24 -36 38 0
-1 -24 36 -38 0
-1 -2 -14 33 0
-1 -2 14 -33 0
-1 2 -14 -33 0
-1 2 14 33 0
-1 24 -36 -38 0
-1 24 36 38 0
1 -24 -36 -38 0
1 -24 36 38 0
1 -2 -14 -33 0
1 -2 14 33 0
1 2 -14 33 0
1 2 14 -33 0
1 24 -36 38 0
1 24 36 -38 0
2 -10 -19 -27 0
2 -10 19 27 0
2 10 -19 27 0
2 10 19 -27 0
3 -24 -31 -40 0
3 -24 31 40 0
3 24 -31 40 0
3 24 31 -40 0
4 -11 -20 -34 0
4 -11 20 34 0
4 11 -20 34 0
4 11 20 -34 0
5 -8 -12 -19 0
5 -8 12 19 0
5 -7 -23 -31 0
5 -7 23 31 0
5 7 -23 31 0
5 7 23 -31 0
5 8 -12 19 0
5 8 12 -19 0
6 -15 -30 -35 0
6 -15 30 35 0
6 -13 -16 -22 0
6 -13 16 22 0
6 13 -16 22 0
6 13 16 -22 0
6 15 -30 35 0
6 15 30 -35 0
7 -13 -27 -38 0
7 -13 27 38 0
7 13 -27 38 0
7 13 27 -38 0
8 -17 -18 -25 0
8 -17 18 25 0
8 17 -18 25 0
8 17 18 -25 0
9 -28 -35 -41 0
9 -28 35 41 0
9 -14 -29 -37 0
9 -14 29 37 0
9 14 -29 37 0
9 14 29 -37 0
9 28 -35 41 0
9 28 35 -41 0
10 -17 -22 -28 0
10 -17 22 28 0
10 17 -22 28 0
10 17 22 -28 0
11 -30 -36 -37 0
11 -30 36 37 0
11 30 -36 37 0
11 30 36 -37 0
12 -26 -33 -40 0
12 -26 33 40 0
12 26 -33 40 0
12 26 33 -40 0
15 -20 -32 -39 0
15 -20 32 39 0
15 20 -32 39 0
15 20 32 -39 0
16 -18 -23 -39 0
16 -18 23 39 0
16 18 -23 39 0
16 18 23 -39 0
21 -26 -29 -34 0
21 -26 29 34 0
21 -25 -32 -41 0
21 -25 32 41 0
21 25 -32 41 0
21 25 32 -41 0
21 26 -29 34 0
21 26 29 -34 0
