p cnf 49 194
-28 37 0
28 -37 0
-28 -36 -45 46 0
-28 -36 45 -46 0
-28 36 -45 -46 0
-28 36 45 46 0
-26 -31 -33 43 0
-26 -31 33 -43 0
-26 31 -33 -43 0
-26 31 33 43 0
-19 -27 -31 41 0
-19 -27 31 -41 0
-19 -20 -38 42 0
-19 -20 38 -42 0
-19 20 -38 -42 0
-19 20 38 42 0
-19 27 -31 -41 0
-19 27 31 41 0
-18 -22 -30 48 0
-18 -22 30 -48 0
-18 22 -30 -48 0
-18 22 30 48 0
-15 -23 -24 34 0
-15 -23 24 -34 0
-15 23 -24 -34 0
-15 23 24 34 0
-13 -21 -36 39 0
-13 -21 36 -39 0
-13 -16 -43 49 0
-13 -16 43 -49 0
-13 16 -43 -49 0
-13 16 43 49 0
-13 21 -36 -39 0
-13 21 36 39 0
-12 -26 -42 47 0
-12 -26 42 -47 0
-12 -25 -45 49 0
-12 -25 45 -49 0
-12 25 -45 -49 0
-12 25 45 49 0
-12 26 -42 -47 0
-12 26 42 47 0
-11 -14 -24 37 0
-11 -14 24 -37 0
-11 14 -24 -37 0
-11 14 24 37 0
-10 -15 -17 30 0
-10 -15 17 -30 0
-10 15 -17 -30 0
-10 15 17 30 0
-9 -10 -14 39 0
-9 -10 14 -39 0
-9 10 -14 -39 0
-9 10 14 39 0
-8 -27 -35 48 0
-8 -27 35 -48 0
-8 27 -35 -48 0
-8 27 35 48 0
-6 -17 -35 44 0
-6 -17 35 -44 0
-6 17 -35 -44 0
-6 17 35 44 0
-5 -11 -29 40 0
-5 -11 29 -40 0
-5 -6 -9 32 0
-5 -6 9 -32 0
-5 6 -9 -32 0
-5 6 9 32 0
-5 11 -29 -40 0
-5 11 29 40 0
-4 -40 -46 47 0
-4 -40 46 -47 0
-4 -21 -32 33 0
-4 -21 32 -33 0
-4 21 -32 -33 0
-4 21 32 33 0
-4 40 -46 -47 0
-4 40 46 47 0
-3 -16 -18 41 0
-3 -16 18 -41 0
-3 16 -18 -41 0
-3 16 18 41 0
-2 -29 -34 44 0
-2 -29 34 -44 0
-2 -7 -8 20 0
-2 -7 8 -20 0
-2 7 -8 -20 0
-2 7 8 20 0
-2 29 -34 -44 0
-2 29 34 44 0
-1 -7 -22 23 0
-1 -7 22 -23 0
-1 -3 -25 38 0
-1 -3 25 -38 0
-1 3 -25 -38 0
-1 3 25 38 0
-1 7 -22 -23 0
-1 7 22 23 0
1 -7 -22 -23 0
1 -7 22 23 0
1 -3 -25 -38 0
1 -3 25 38 0
1 3 -25 38 0
1 3 25 -38 0
1 7 -22 23 0
1 7 22 -23 0
2 -29 -34 -44 0
2 -29 34 44 0
2 -7 -8 -20 0
2 -7 8 20 0
2 7 -8 20 0
2 7 8 -20 0
2 29 -34 44 0
2 29 34 -44 0
3 -16 -18 -41 0
3 -16 18 41 0
3 16 -18 41 0
3 16 18 -41 0
4 -40 -46 -47 0
4 -40 46 47 0
4 -21 -32 -33 0
4 -21 32 33 0
4 21 -32 33 0
4 21 32 -33 0
4 40 -46 47 0
4 40 46 -47 0
5 -11 -29 -40 0
5 -11 29 40 0
5 -6 -9 -32 0
5 -6 9 32 0
5 6 -9 32 0
5 6 9 -32 0
5 11 -29 40 0
5 11 29 -40 0
6 -17 -35 -44 0
6 -17 35 44 0
6 17 -35 44 0
6 17 35 -44 0
8 -27 -35 -48 0
8 -27 35 48 0
8 27 -35 48 0
8 27 35 -48 0
9 -10 -14 -39 0
9 -10 14 39 0
9 10 -14 39 0
9 10 14 -39 0
10 -15 -17 -30 0
10 -15 17 30 0
10 15 -17 30 0
10 15 17 -30 0
11 -14 -24 -37 0
11 -14 24 37 0
11 14 -24 37 0
11 14 24 -37 0
12 -26 -42 -47 0
12 -26 42 47 0
12 -25 -45 -49 0
12 -25 45 49 0
12 25 -45 49 0
12 25 45 -49 0
12 26 -42 47 0
12 26 42 -47 0
13 -21 -36 -39 0
13 -21 36 39 0
13 -16 -43 -49 0
13 -16 43 49 0
13 16 -43 49 0
13 16 43 -49 0
13 21 -36 39 0
13 21 36 -39 0
15 -23 -24 -34 0
15 -23 24 34 0
15 23 -24 34 0
15 23 24 -34 0
18 -22 -30 -48 0
18 -22 30 48 0
18 22 -30 48 0
18 22 30 -48 0
19 -27 -31 -41 0
19 -27 31 41 0
19 -20 -38 -42 0
19 -20 38 42 0
19 20 -38 42 0
19 20 38 -42 0
19 27 -31 41 0
19 27 31 -41 0
26 -31 -33 -43 0
26 -31 33 43 0
26 31 -33 43 0
26 31 33 -43 0
28 -36 -45 -46 0
28 -36 45 46 0
28 36 -45 46 0
28 36 45 -46 0
