p cnf 49 194
-34 38 0
34 -38 0
-29 -32 -34 40 0
-29 -32 34 -40 0
-29 32 -34 -40 0
-29 32 34 40 0
-24 -31 -41 44 0
-24 -31 41 -44 0
-24 31 -41 -44 0
-24 31 41 44 0
-21 -25 -30 49 0
-21 -25 30 -49 0
-21 25 -30 -49 0
-21 25 30 49 0
-19 -26 -27 40 0
-19 -26 27 -40 0
-19 26 -27 -40 0
-19 26 27 40 0
-14 -15 -28 49 0
-14 -15 28 -49 0
-14 15 -28 -49 0
-14 15 28 49 0
-12 -21 -23 42 0
-12 -21 23 -42 0
-12 21 -23 -42 0
-12 21 23 42 0
-11 -27 -33 48 0
-11 -27 33 -48 0
-11 27 -33 -48 0
-11 27 33 48 0
-10 -24 -39 48 0
-10 -24 39 -48 0
-10 -17 -22 28 0
-10 -17 22 -28 0
-10 17 -22 -28 0
-10 17 22 28 0
-10 24 -39 -48 0
-10 24 39 48 0
-9 -22 -31 36 0
-9 -22 31 -36 0
-9 -14 -35 47 0
-9 -14 35 -47 0
-9 14 -35 -47 0
-9 14 35 47 0
-9 22 -31 -36 0
-9 22 31 36 0
-8 -13 -26 39 0
-8 -13 26 -39 0
-8 13 -26 -39 0
-8 13 26 39 0
-7 -13 -29 41 0
-7 -13 29 -41 0
-7 13 -29 -41 0
-7 13 29 41 0
-6 -20 -37 38 0
-6 -20 37 -38 0
-6 20 -37 -38 0
-6 20 37 38 0
-5 -32 -33 44 0
-5 -32 33 -44 0
-5 -6 -45 46 0
-5 -6 45 -46 0
-5 6 -45 -46 0
-5 6 45 46 0
-5 32 -33 -44 0
-5 32 33 44 0
-4 -12 -19 20 0
-4 -12 19 -20 0
-4 -11 -43 46 0
-4 -11 43 -46 0
-4 11 -43 -46 0
-4 11 43 46 0
-4 12 -19 -20 0
-4 12 19 20 0
-3 -18 -30 35 0
-3 -18 30 -35 0
-3 -16 -23 37 0
-3 -16 23 -37 0
-3 16 -23 -37 0
-3 16 23 37 0
-3 18 -30 -35 0
-3 18 30 35 0
-2 -8 -17 25 0
-2 -8 17 -25 0
-2 -7 -18 36 0
-2 -7 18 -36 0
-2 7 -18 -36 0
-2 7 18 36 0
-2 8 -17 -25 0
-2 8 17 25 0
-1 -16 -45 47 0
-1 -16 45 -47 0
-1 -15 -42 43 0
-1 -15 42 -43 0
-1 15 -42 -43 0
-1 15 42 43 0
-1 16 -45 -47 0
-1 16 45 47 0
1 -16 -45 -47 0
1 -16 45 47 0
1 -15 -42 -43 0
1 -15 42 43 0
1 15 -42 43 0
1 15 42 -43 0
1 16 -45 47 0
1 16 45 -47 0
2 -8 -17 -25 0
2 -8 17 25 0
2 -7 -18 -36 0
2 -7 18 36 0
2 7 -18 36 0
2 7 18 -36 0
2 8 -17 25 0
2 8 17 -25 0
3 -18 -30 -35 0
3 -18 30 35 0
3 -16 -23 -37 0
3 -16 23 37 0
3 16 -23 37 0
3 16 23 -37 0
3 18 -30 35 0
3 18 30 -35 0
4 -12 -19 -20 0
4 -12 19 20 0
4 -11 -43 -46 0
4 -11 43 46 0
4 11 -43 46 0
4 11 43 -46 0
4 12 -19 20 0
4 12 19 -20 0
5 -32 -33 -44 0
5 -32 33 44 0
5 -6 -45 -46 0
5 -6 45 46 0
5 6 -45 46 0
5 6 45 -46 0
5 32 -33 44 0
5 32 33 -44 0
6 -20 -37 -38 0
6 -20 37 38 0
6 20 -37 38 0
6 20 37 -38 0
7 -13 -29 -41 0
7 -13 29 41 0
7 13 -29 41 0
7 13 29 -41 0
8 -13 -26 -39 0
8 -13 26 39 0
8 13 -26 39 0
8 13 26 -39 0
9 -22 -31 -36 0
9 -22 31 36 0
9 -14 -35 -47 0
9 -14 35 47 0
9 14 -35 47 0
9 14 35 -47 0
9 22 -31 36 0
9 22 31 -36 0
10 -24 -39 -48 0
10 -24 39 48 0
10 -17 -22 -28 0
10 -17 22 28 0
10 17 -22 28 0
10 17 22 -28 0
10 24 -39 48 0
10 24 39 -48 0
11 -27 -33 -48 0
11 -27 33 48 0
11 27 -33 48 0
11 27 33 -48 0
12 -21 -23 -42 0
12 -21 23 42 0
12 21 -23 42 0
12 21 23 -42 0
14 -15 -28 -49 0
14 -15 28 49 0
14 15 -28 49 0
14 15 28 -49 0
19 -26 -27 -40 0
19 -26 27 40 0
19 26 -27 40 0
19 26 27 -40 0
21 -25 -30 -49 0
21 -25 30 49 0
21 25 -30 49 0
21 25 30 -49 0
24 -31 -41 -44 0
24 -31 41 44 0
24 31 -41 44 0
24 31 41 -44 0
29 -32 -34 -40 0
29 -32 34 40 0
29 32 -34 40 0
29 32 34 -40 0
