p cnf 41 162
-16 27 0
16 -27 0
-27 -28 -29 35 0
-27 -28 29 -35 0
-27 28 -29 -35 0
-27 28 29 35 0
-16 -19 -24 38 0
-16 -19 24 -38 0
-16 19 -24 -38 0
-16 19 24 38 0
-14 -20 -28 40 0
-14 -20 28 -40 0
-14 20 -28 -40 0
-14 20 28 40 0
-12 -25 -26 35 0
-12 -25 26 -35 0
-12 25 -26 -35 0
-12 25 26 35 0
-11 -22 -30 36 0
-11 -22 30 -36 0
-11 -12 -21 40 0
-11 -12 21 -40 0
-11 12 -21 -40 0
-11 12 21 40 0
-11 22 -30 -36 0
-11 22 30 36 0
-10 -25 -30 37 0
-10 -25 30 -37 0
-10 -15 -29 32 0
-10 -15 29 -32 0
-10 15 -29 -32 0
-10 15 29 32 0
-10 25 -30 -37 0
-10 25 30 37 0
-9 -17 -19 41 0
-9 -17 19 -41 0
-9 17 -19 -41 0
-9 17 19 41 0
-8 -24 -26 33 0
-8 -24 26 -33 0
-8 -23 -37 39 0
-8 -23 37 -39 0
-8 23 -37 -39 0
-8 23 37 39 0
-8 24 -26 -33 0
-8 24 26 33 0
-7 -13 -33 41 0
-7 -13 33 -41 0
-7 13 -33 -41 0
-7 13 33 41 0
-6 -14 -17 18 0
-6 -14 17 -18 0
-6 14 -17 -18 0
-6 14 17 18 0
-5 -22 -31 34 0
-5 -22 31 -34 0
-5 -6 -13 21 0
-5 -6 13 -21 0
-5 6 -13 -21 0
-5 6 13 21 0
-5 22 -31 -34 0
-5 22 31 34 0
-4 -7 -34 39 0
-4 -7 34 -39 0
-4 7 -34 -39 0
-4 7 34 39 0
-3 -15 -20 36 0
-3 -15 20 -36 0
-3 15 -20 -36 0
-3 15 20 36 0
-2 -23 -32 38 0
-2 -23 32 -38 0
-2 23 -32 -38 0
-2 23 32 38 0
-1 -3 -18 31 0
-1 -3 18 -31 0
-1 -2 -4 9 0
-1 -2 4 -9 0
-1 2 -4 -9 0
-1 2 4 9 0
-1 3 -18 -31 0
-1 3 18 31 0
1 -3 -18 -31 0
1 -3 18 31 0
1 -2 -4 -9 0
1 -2 4 9 0
1 2 -4 9 0
1 2 4 -9 0
1 3 -18 31 0
1 3 18 -31 0
2 -23 -32 -38 0
2 -23 32 38 0
2 23 -32 38 0
2 23 32 -38 0
3 -15 -20 -36 0
3 -15 20 36 0
3 15 -20 36 0
3 15 20 -36 0
4 -7 -34 -39 0
4 -7 34 39 0
4 7 -34 39 0
4 7 34 -39 0
5 -22 -31 -34 0
5 -22 31 34 0
5 -6 -13 -21 0
5 -6 13 21 0
5 6 -13 21 0
5 6 13 -21 0
5 22 -31 34 0
5 22 31 -34 0
6 -14 -17 -18 0
6 -14 17 18 0
6 14 -17 18 0
6 14 17 -18 0
7 -13 -33 -41 0
7 -13 33 41 0
7 13 -33 41 0
7 13 33 -41 0
8 -24 -26 -33 0
8 -24 26 33 0
8 -23 -37 -39 0
8 -23 37 39 0
8 23 -37 39 0
8 23 37 -39 0
8 24 -26 33 0
8 24 26 -33 0
9 -17 -19 -41 0
9 -17 19 41 0
9 17 -19 41 0
9 17 19 -41 0
10 -25 -30 -37 0
10 -25 30 37 0
10 -15 -29 -32 0
10 -15 29 32 0
10 15 -29 32 0
10 15 29 -32 0
10 25 -30 37 0
10 25 30 -37 0
11 -22 -30 -36 0
11 -22 30 36 0
11 -12 -21 -40 0
11 -12 21 40 0
11 12 -21 40 0
11 12 21 -40 0
11 22 -30 36 0
11 22 30 -36 0
12 -25 -26 -35 0
12 -25 26 35 0
12 25 -26 35 0
12 25 26 -35 0
14 -20 -28 -40 0
14 -20 28 40 0
14 20 -28 40 0
14 20 28 -40 0
16 -19 -24 -38 0
16 -19 24 38 0
16 19 -24 38 0
16 19 24 -38 0
27 -28 -29 -35 0
27 -28 29 35 0
27 28 -29 35 0
27 28 29 -35 0
