p cnf 61 242
-23 59 0
23 -59 0
-34 -51 -53 55 0
-34 -51 53 -55 0
-34 51 -53 -55 0
-34 51 53 55 0
-31 -42 -44 46 0
-31 -42 44 -46 0
-31 42 -44 -46 0
-31 42 44 46 0
-30 -45 -59 61 0
-30 -45 59 -61 0
-30 45 -59 -61 0
-30 45 59 61 0
-27 -31 -33 48 0
-27 -31 33 -48 0
-27 31 -33 -48 0
-27 31 33 48 0
-22 -23 -33 39 0
-22 -23 33 -39 0
-22 23 -33 -39 0
-22 23 33 39 0
-18 -37 -41 56 0
-18 -37 41 -56 0
-18 -24 -49 54 0
-18 -24 49 -54 0
-18 24 -49 -54 0
-18 24 49 54 0
-18 37 -41 -56 0
-18 37 41 56 0
-16 -52 -55 61 0
-16 -52 55 -61 0
-16 52 -55 -61 0
-16 52 55 61 0
-14 -29 -36 60 0
-14 -29 36 -60 0
-14 -19 -42 58 0
-14 -19 42 -58 0
-14 19 -42 -58 0
-14 19 42 58 0
-14 29 -36 -60 0
-14 29 36 60 0
-13 -19 -35 48 0
-13 -19 35 -48 0
-13 -17 -28 51 0
-13 -17 28 -51 0
-13 17 -28 -51 0
-13 17 28 51 0
-13 19 -35 -48 0
-13 19 35 48 0
-12 -40 -43 45 0
-12 -40 43 -45 0
-12 -15 -38 50 0
-12 -15 38 -50 0
-12 15 -38 -50 0
-12 15 38 50 0
-12 40 -43 -45 0
-12 40 43 45 0
-11 -15 -56 57 0
-11 -15 56 -57 0
-11 15 -56 -57 0
-11 15 56 57 0
-10 -24 -25 29 0
-10 -24 25 -29 0
-10 24 -25 -29 0
-10 24 25 29 0
-9 -32 -43 52 0
-9 -32 43 -52 0
-9 32 -43 -52 0
-9 32 43 52 0
-8 -17 -27 30 0
-8 -17 27 -30 0
-8 -11 -20 40 0
-8 -11 20 -40 0
-8 11 -20 -40 0
-8 11 20 40 0
-8 17 -27 -30 0
-8 17 27 30 0
-6 -21 -22 46 0
-6 -21 22 -46 0
-6 -7 -36 47 0
-6 -7 36 -47 0
-6 7 -36 -47 0
-6 7 36 47 0
-6 21 -22 -46 0
-6 21 22 46 0
-5 -35 -53 60 0
-5 -35 53 -60 0
-5 -16 -39 47 0
-5 -16 39 -47 0
-5 16 -39 -47 0
-5 16 39 47 0
-5 35 -53 -60 0
-5 35 53 60 0
-4 -26 -44 57 0
-4 -26 44 -57 0
-4 -10 -37 58 0
-4 -10 37 -58 0
-4 10 -37 -58 0
-4 10 37 58 0
-4 26 -44 -57 0
-4 26 44 57 0
-3 -32 -34 54 0
-3 -32 34 -54 0
-3 -20 -28 41 0
-3 -20 28 -41 0
-3 20 -28 -41 0
-3 20 28 41 0
-3 32 -34 -54 0
-3 32 34 54 0
-2 -21 -26 38 0
-2 -21 26 -38 0
-2 21 -26 -38 0
-2 21 26 38 0
-1 -9 -49 50 0
-1 -9 49 -50 0
-1 -2 -7 25 0
-1 -2 7 -25 0
-1 2 -7 -25 0
-1 2 7 25 0
-1 9 -49 -50 0
-1 9 49 50 0
1 -9 -49 -50 0
1 -9 49 50 0
1 -2 -7 -25 0
1 -2 7 25 0
1 2 -7 25 0
1 2 7 -25 0
1 9 -49 50 0
1 9 49 -50 0
2 -21 -26 -38 0
2 -21 26 38 0
2 21 -26 38 0
2 21 26 -38 0
3 -32 -34 -54 0
3 -32 34 54 0
3 -20 -28 -41 0
3 -20 28 41 0
3 20 -28 41 0
3 20 28 -41 0
3 32 -34 54 0
3 32 34 -54 0
4 -26 -44 -57 0
4 -26 44 57 0
4 -10 -37 -58 0
4 -10 37 58 0
4 10 -37 58 0
4 10 37 -58 0
4 26 -44 57 0
4 26 44 -57 0
5 -35 -53 -60 0
5 -35 53 60 0
5 -16 -39 -47 0
5 -16 39 47 0
5 16 -39 47 0
5 16 39 -47 0
5 35 -53 60 0
5 35 53 -60 0
6 -21 -22 -46 0
6 -21 22 46 0
6 -7 -36 -47 0
6 -7 36 47 0
6 7 -36 47 0
6 7 36 -47 0
6 21 -22 46 0
6 21 22 -46 0
8 -17 -27 -30 0
8 -17 27 30 0
8 -11 -20 -40 0
8 -11 20 40 0
8 11 -20 40 0
8 11 20 -40 0
8 17 -27 30 0
8 17 27 -30 0
9 -32 -43 -52 0
9 -32 43 52 0
9 32 -43 52 0
9 32 43 -52 0
10 -24 -25 -29 0
10 -24 25 29 0
10 24 -25 29 0
10 24 25 -29 0
11 -15 -56 -57 0
11 -15 56 57 0
11 15 -56 57 0
11 15 56 -57 0
12 -40 -43 -45 0
12 -40 43 45 0
12 -15 -38 -50 0
12 -15 38 50 0
12 15 -38 50 0
12 15 38 -50 0
12 40 -43 45 0
12 40 43 -45 0
13 -19 -35 -48 0
13 -19 35 48 0
13 -17 -28 -51 0
13 -17 28 51 0
13 17 -28 51 0
13 17 28 -51 0
13 19 -35 48 0
13 19 35 -48 0
14 -29 -36 -60 0
14 -29 36 60 0
14 -19 -42 -58 0
14 -19 42 58 0
14 19 -42 58 0
14 19 42 -58 0
14 29 -36 60 0
14 29 36 -60 0
16 -52 -55 -61 0
16 -52 55 61 0
16 52 -55 61 0
16 52 55 -61 0
18 -37 -41 -56 0
18 -37 41 56 0
18 -24 -49 -54 0
18 -24 49 54 0
18 24 -49 54 0
18 24 49 -54 0
18 37 -41 56 0
18 37 41 -56 0
22 -23 -33 -39 0
22 -23 33 39 0
22 23 -33 39 0
22 23 33 -39 0
27 -31 -33 -48 0
27 -31 33 48 0
27 31 -33 48 0
27 31 33 -48 0
30 -45 -59 -61 0
30 -45 59 61 0
30 45 -59 61 0
30 45 59 -61 0
31 -42 -44 -46 0
31 -42 44 46 0
31 42 -44 46 0
31 42 44 -46 0
34 -51 -53 -55 0
34 -51 53 55 0
34 51 -53 55 0
34 51 53 -55 0
