p cnf 49 194
-3 18 0
3 -18 0
-25 -30 -33 41 0
-25 -30 33 -41 0
-25 30 -33 -41 0
-25 30 33 41 0
-23 -29 -45 48 0
-23 -29 45 -48 0
-23 29 -45 -48 0
-23 29 45 48 0
-22 -26 -42 46 0
-22 -26 42 -46 0
-22 26 -42 -46 0
-22 26 42 46 0
-21 -34 -38 44 0
-21 -34 38 -44 0
-21 34 -38 -44 0
-21 34 38 44 0
-20 -28 -30 46 0
-20 -28 30 -46 0
-20 28 -30 -46 0
-20 28 30 46 0
-18 -19 -42 49 0
-18 -19 42 -49 0
-18 19 -42 -49 0
-18 19 42 49 0
-15 -27 -40 45 0
-15 -27 40 -45 0
-15 27 -40 -45 0
-15 27 40 45 0
-14 -17 -21 33 0
-14 -17 21 -33 0
-14 17 -21 -33 0
-14 17 21 33 0
-12 -36 -44 48 0
-12 -36 44 -48 0
-12 -14 -37 40 0
-12 -14 37 -40 0
-12 14 -37 -40 0
-12 14 37 40 0
-12 36 -44 -48 0
-12 36 44 48 0
-11 -16 -20 43 0
-11 -16 20 -43 0
-11 16 -20 -43 0
-11 16 20 43 0
-10 -32 -39 49 0
-10 -32 39 -49 0
-10 32 -39 -49 0
-10 32 39 49 0
-9 -13 -37 47 0
-9 -13 37 -47 0
-9 13 -37 -47 0
-9 13 37 47 0
-8 -22 -32 43 0
-8 -22 32 -43 0
-8 22 -32 -43 0
-8 22 32 43 0
-6 -10 -29 31 0
-6 -10 29 -31 0
-6 10 -29 -31 0
-6 10 29 31 0
-5 -23 -35 39 0
-5 -23 35 -39 0
-5 -7 -36 47 0
-5 -7 36 -47 0
-5 7 -36 -47 0
-5 7 36 47 0
-5 23 -35 -39 0
-5 23 35 39 0
-4 -24 -26 41 0
-4 -24 26 -41 0
-4 -6 -15 19 0
-4 -6 15 -19 0
-4 6 -15 -19 0
-4 6 15 19 0
-4 24 -26 -41 0
-4 24 26 41 0
-3 -9 -27 35 0
-3 -9 27 -35 0
-3 9 -27 -35 0
-3 9 27 35 0
-2 -16 -25 38 0
-2 -16 25 -38 0
-2 -8 -24 31 0
-2 -8 24 -31 0
-2 8 -24 -31 0
-2 8 24 31 0
-2 16 -25 -38 0
-2 16 25 38 0
-1 -13 -17 28 0
-1 -13 17 -28 0
-1 -7 -11 34 0
-1 -7 11 -34 0
-1 7 -11 -34 0
-1 7 11 34 0
-1 13 -17 -28 0
-1 13 17 28 0
1 -13 -17 -28 0
1 -13 17 28 0
1 -7 -11 -34 0
1 -7 11 34 0
1 7 -11 34 0
1 7 11 -34 0
1 13 -17 28 0
1 13 17 -28 0
2 -16 -25 -38 0
2 -16 25 38 0
2 -8 -24 -31 0
2 -8 24 31 0
2 8 -24 31 0
2 8 24 -31 0
2 16 -25 38 0
2 16 25 -38 0
3 -9 -27 -35 0
3 -9 27 35 0
3 9 -27 35 0
3 9 27 -35 0
4 -24 -26 -41 0
4 -24 26 41 0
4 -6 -15 -19 0
4 -6 15 19 0
4 6 -15 19 0
4 6 15 -19 0
4 24 -26 41 0
4 24 26 -41 0
5 -23 -35 -39 0
5 -23 35 39 0
5 -7 -36 -47 0
5 -7 36 47 0
5 7 -36 47 0
5 7 36 -47 0
5 23 -35 39 0
5 23 35 -39 0
6 -10 -29 -31 0
6 -10 29 31 0
6 10 -29 31 0
6 10 29 -31 0
8 -22 -32 -43 0
8 -22 32 43 0
8 22 -32 43 0
8 22 32 -43 0
9 -13 -37 -47 0
9 -13 37 47 0
9 13 -37 47 0
9 13 37 -47 0
10 -32 -39 -49 0
10 -32 39 49 0
10 32 -39 49 0
10 32 39 -49 0
11 -16 -20 -43 0
11 -16 20 43 0
11 16 -20 43 0
11 16 20 -43 0
12 -36 -44 -48 0
12 -36 44 48 0
12 -14 -37 -40 0
12 -14 37 40 0
12 14 -37 40 0
12 14 37 -40 0
12 36 -44 48 0
12 36 44 -48 0
14 -17 -21 -33 0
14 -17 21 33 0
14 17 -21 33 0
14 17 21 -33 0
15 -27 -40 -45 0
15 -27 40 45 0
15 27 -40 45 0
15 27 40 -45 0
18 -19 -42 -49 0
18 -19 42 49 0
18 19 -42 49 0
18 19 42 -49 0
20 -28 -30 -46 0
20 -28 30 46 0
20 28 -30 46 0
20 28 30 -46 0
21 -34 -38 -44 0
21 -34 38 44 0
21 34 -38 44 0
21 34 38 -44 0
22 -26 -42 -46 0
22 -26 42 46 0
22 26 -42 46 0
22 26 42 -46 0
23 -29 -45 -48 0
23 -29 45 48 0
23 29 -45 48 0
23 29 45 -48 0
25 -30 -33 -41 0
25 -30 33 41 0
25 30 -33 41 0
25 30 33 -41 0
