p cnf 57 124
-34 -40 -42 0
-33 -48 -56 0
-30 -40 -42 0
-30 -34 -42 0
-30 -34 -40 0
-29 -44 -57 0
-28 -46 -50 0
-26 -41 -53 0
-25 -43 -49 0
-24 -39 -51 0
-23 -39 -51 0
-23 -24 -51 0
-23 -24 -39 0
-22 -37 -52 0
-20 -43 -49 0
-20 -25 -49 0
-20 -25 -43 0
-19 -27 -38 0
-18 -21 -31 0
-17 -37 -52 0
-17 -22 -52 0
-17 -22 -37 0
-16 -41 -53 0
-16 -26 -53 0
-16 -26 -41 0
-15 -35 -47 0
-14 -48 -56 0
-14 -33 -56 0
-14 -33 -48 0
-13 -35 -47 0
-13 -15 -47 0
-13 -15 -35 0
-12 -32 -45 0
-11 -46 -50 0
-11 -28 -50 0
-11 -28 -46 0
-10 -27 -38 0
-10 -19 -38 0
-10 -19 -27 0
-8 -21 -31 0
-8 -18 -31 0
-8 -18 -21 0
-7 -36 -54 0
-6 -41 -53 0
-6 -26 -53 0
-6 -26 -41 0
-6 -16 -53 0
-6 -16 -41 0
-6 -16 -26 0
-5 -36 -54 0
-5 -7 -54 0
-5 -7 -36 0
-4 -44 -57 0
-4 -29 -57 0
-4 -29 -44 0
-3 -9 -55 0
-2 -9 -55 0
-2 -3 -55 0
-2 -3 -9 0
-1 -32 -45 0
-1 -12 -45 0
-1 -12 -32 0
1 4 14 0
1 4 42 0
1 14 42 0
2 11 36 0
2 11 51 0
2 36 51 0
3 15 37 0
3 15 50 0
3 37 50 0
4 14 42 0
5 22 23 0
5 22 25 0
5 22 53 0
5 23 25 0
5 23 53 0
5 25 53 0
6 21 32 0
6 21 33 0
6 32 33 0
7 28 47 0
7 28 55 0
7 47 55 0
8 12 44 0
8 12 48 0
8 44 48 0
9 17 35 0
9 17 49 0
9 35 49 0
10 16 18 0
10 16 30 0
10 18 30 0
11 36 51 0
12 44 48 0
13 39 43 0
13 39 52 0
13 43 52 0
15 37 50 0
16 18 30 0
17 35 49 0
19 29 40 0
19 29 45 0
19 40 45 0
20 24 46 0
20 24 54 0
20 46 54 0
21 32 33 0
22 23 25 0
22 23 53 0
22 25 53 0
23 25 53 0
24 46 54 0
26 34 38 0
26 34 57 0
26 38 57 0
27 31 41 0
27 31 56 0
27 41 56 0
28 47 55 0
29 40 45 0
31 41 56 0
34 38 57 0
39 43 52 0
