p cnf 57 124
-39 -41 -54 0
-38 -46 -57 0
-35 -49 -52 0
-32 -49 -52 0
-32 -35 -52 0
-32 -35 -49 0
-31 -33 -42 0
-30 -44 -50 0
-29 -55 -56 0
-28 -36 -45 0
-27 -37 -53 0
-25 -26 -34 0
-21 -26 -34 0
-21 -25 -34 0
-21 -25 -26 0
-20 -33 -42 0
-20 -31 -42 0
-20 -31 -33 0
-18 -23 -51 0
-16 -44 -50 0
-16 -30 -50 0
-16 -30 -44 0
-15 -22 -40 0
-14 -36 -45 0
-14 -28 -45 0
-14 -28 -36 0
-13 -19 -47 0
-12 -37 -53 0
-12 -27 -53 0
-12 -27 -37 0
-11 -24 -48 0
-10 -17 -43 0
-9 -55 -56 0
-9 -29 -56 0
-9 -29 -55 0
-8 -41 -54 0
-8 -39 -54 0
-8 -39 -41 0
-7 -44 -50 0
-7 -30 -50 0
-7 -30 -44 0
-7 -16 -50 0
-7 -16 -44 0
-7 -16 -30 0
-6 -46 -57 0
-6 -38 -57 0
-6 -38 -46 0
-5 -19 -47 0
-5 -13 -47 0
-5 -13 -19 0
-4 -22 -40 0
-4 -15 -40 0
-4 -15 -22 0
-3 -23 -51 0
-3 -18 -51 0
-3 -18 -23 0
-2 -17 -43 0
-2 -10 -43 0
-2 -10 -17 0
-1 -24 -48 0
-1 -11 -48 0
-1 -11 -24 0
1 29 36 0
1 29 38 0
1 36 38 0
2 5 41 0
2 5 50 0
2 41 50 0
3 48 55 0
3 48 57 0
3 55 57 0
4 14 34 0
4 14 44 0
4 14 46 0
4 34 44 0
4 34 46 0
4 44 46 0
5 41 50 0
6 25 28 0
6 25 56 0
6 28 56 0
7 12 33 0
7 12 52 0
7 33 52 0
8 16 20 0
8 16 35 0
8 20 35 0
9 11 15 0
9 11 18 0
9 15 18 0
10 30 31 0
10 30 39 0
10 31 39 0
11 15 18 0
12 33 52 0
13 17 53 0
13 17 54 0
13 53 54 0
14 34 44 0
14 34 46 0
14 44 46 0
16 20 35 0
17 53 54 0
19 27 32 0
19 27 43 0
19 32 43 0
21 23 24 0
21 23 40 0
21 24 40 0
22 26 45 0
22 26 51 0
22 45 51 0
23 24 40 0
25 28 56 0
26 45 51 0
27 32 43 0
29 36 38 0
30 31 39 0
34 44 46 0
37 42 47 0
37 42 49 0
37 47 49 0
42 47 49 0
48 55 57 0
