p cnf 73 156
-51 -56 -71 0
-45 -64 -73 0
-44 -49 -50 0
-43 -49 -50 0
-43 -44 -50 0
-43 -44 -49 0
-41 -60 -62 0
-39 -52 -65 0
-38 -47 -66 0
-35 -36 -59 0
-33 -54 -57 0
-32 -56 -71 0
-32 -51 -71 0
-32 -51 -56 0
-31 -37 -46 0
-30 -48 -67 0
-27 -36 -59 0
-27 -35 -59 0
-27 -35 -36 0
-26 -28 -42 0
-25 -34 -61 0
-24 -53 -72 0
-23 -60 -62 0
-23 -41 -62 0
-23 -41 -60 0
-22 -28 -42 0
-22 -26 -42 0
-22 -26 -28 0
-21 -55 -58 0
-20 -48 -67 0
-20 -30 -67 0
-20 -30 -48 0
-19 -47 -66 0
-19 -38 -66 0
-19 -38 -47 0
-18 -64 -73 0
-18 -45 -73 0
-18 -45 -64 0
-17 -55 -58 0
-17 -21 -58 0
-17 -21 -55 0
-16 -68 -70 0
-14 -54 -57 0
-14 -33 -57 0
-14 -33 -54 0
-13 -37 -46 0
-13 -31 -46 0
-13 -31 -37 0
-11 -52 -65 0
-11 -39 -65 0
-11 -39 -52 0
-10 -29 -69 0
-9 -12 -63 0
-8 -34 -61 0
-8 -25 -61 0
-8 -25 -34 0
-7 -15 -40 0
-6 -15 -40 0
-6 -7 -40 0
-6 -7 -15 0
-5 -55 -58 0
-5 -21 -58 0
-5 -21 -55 0
-5 -17 -58 0
-5 -17 -55 0
-5 -17 -21 0
-4 -53 -72 0
-4 -24 -72 0
-4 -24 -53 0
-3 -12 -63 0
-3 -9 -63 0
-3 -9 -12 0
-2 -29 -69 0
-2 -10 -69 0
-2 -10 -29 0
-1 -68 -70 0
-1 -16 -70 0
-1 -16 -68 0
1 36 47 0
1 36 64 0
1 47 64 0
2 24 35 0
2 24 68 0
2 35 68 0
3 37 50 0
3 37 62 0
3 50 62 0
4 20 29 0
4 20 71 0
4 29 71 0
5 40 41 0
5 40 61 0
5 41 61 0
6 8 21 0
6 8 57 0
6 21 57 0
7 23 55 0
7 23 63 0
7 55 63 0
8 21 57 0
9 13 28 0
9 13 49 0
9 28 49 0
10 11 30 0
10 11 56 0
10 30 56 0
11 30 56 0
12 15 43 0
12 15 60 0
12 43 60 0
13 28 49 0
14 22 34 0
14 22 46 0
14 34 46 0
15 43 60 0
16 19 45 0
16 19 65 0
16 45 65 0
17 25 26 0
17 25 33 0
17 26 33 0
18 59 70 0
18 59 72 0
18 70 72 0
19 45 65 0
20 29 71 0
22 34 46 0
23 55 63 0
24 35 68 0
25 26 33 0
27 51 53 0
27 51 69 0
27 53 69 0
31 42 44 0
31 42 54 0
31 44 54 0
32 38 39 0
32 38 48 0
32 39 48 0
36 47 64 0
37 50 62 0
38 39 48 0
40 41 61 0
42 44 54 0
51 53 69 0
52 58 66 0
52 58 67 0
52 58 73 0
52 66 67 0
52 66 73 0
52 67 73 0
58 66 67 0
58 66 73 0
58 67 73 0
59 70 72 0
66 67 73 0
