p cnf 65 140
-53 -58 -65 0
-51 -58 -65 0
-51 -53 -65 0
-51 -53 -58 0
-46 -49 -57 0
-43 -52 -54 0
-42 -63 -64 0
-38 -56 -59 0
-34 -63 -64 0
-34 -42 -64 0
-34 -42 -63 0
-32 -36 -50 0
-27 -49 -57 0
-27 -46 -57 0
-27 -46 -49 0
-25 -40 -47 0
-24 -37 -48 0
-23 -26 -45 0
-22 -37 -48 0
-22 -24 -48 0
-22 -24 -37 0
-21 -60 -61 0
-20 -35 -39 0
-19 -28 -30 0
-18 -35 -39 0
-18 -20 -39 0
-18 -20 -35 0
-17 -44 -55 0
-16 -56 -59 0
-16 -38 -59 0
-16 -38 -56 0
-15 -35 -39 0
-15 -20 -39 0
-15 -20 -35 0
-15 -18 -39 0
-15 -18 -35 0
-15 -18 -20 0
-14 -36 -50 0
-14 -32 -50 0
-14 -32 -36 0
-13 -33 -41 0
-12 -52 -54 0
-12 -43 -54 0
-12 -43 -52 0
-11 -28 -30 0
-11 -19 -30 0
-11 -19 -28 0
-10 -26 -45 0
-10 -23 -45 0
-10 -23 -26 0
-8 -44 -55 0
-8 -17 -55 0
-8 -17 -44 0
-7 -31 -62 0
-6 -9 -29 0
-5 -31 -62 0
-5 -7 -62 0
-5 -7 -31 0
-4 -33 -41 0
-4 -13 -41 0
-4 -13 -33 0
-3 -9 -29 0
-3 -6 -29 0
-3 -6 -9 0
-2 -40 -47 0
-2 -25 -47 0
-2 -25 -40 0
-1 -60 -61 0
-1 -21 -61 0
-1 -21 -60 0
1 2 30 0
1 2 59 0
1 30 59 0
2 30 59 0
3 4 18 0
3 4 57 0
3 18 57 0
4 18 57 0
5 6 39 0
5 6 55 0
5 39 55 0
6 39 55 0
7 23 36 0
7 23 41 0
7 36 41 0
8 9 20 0
8 9 46 0
8 20 46 0
9 20 46 0
10 15 27 0
10 15 33 0
10 27 33 0
11 48 52 0
11 48 56 0
11 52 56 0
12 37 51 0
12 37 64 0
12 51 64 0
13 26 32 0
13 26 49 0
13 32 49 0
14 31 44 0
14 31 45 0
14 44 45 0
15 27 33 0
16 24 34 0
16 24 35 0
16 24 54 0
16 34 35 0
16 34 54 0
16 35 54 0
17 29 50 0
17 29 62 0
17 50 62 0
19 21 40 0
19 21 58 0
19 40 58 0
21 40 58 0
22 25 63 0
22 25 65 0
22 63 65 0
23 36 41 0
24 34 35 0
24 34 54 0
24 35 54 0
25 63 65 0
26 32 49 0
28 38 43 0
28 38 60 0
28 43 60 0
29 50 62 0
31 44 45 0
34 35 54 0
37 51 64 0
38 43 60 0
42 47 53 0
42 47 61 0
42 53 61 0
47 53 61 0
48 52 56 0
