p cnf 65 140
-45 -51 -57 0
-44 -49 -54 0
-40 -58 -65 0
-39 -58 -65 0
-39 -40 -65 0
-39 -40 -58 0
-37 -51 -57 0
-37 -45 -57 0
-37 -45 -51 0
-35 -55 -59 0
-33 -49 -54 0
-33 -44 -54 0
-33 -44 -49 0
-32 -41 -53 0
-31 -36 -38 0
-30 -46 -61 0
-29 -34 -42 0
-28 -55 -59 0
-28 -35 -59 0
-28 -35 -55 0
-25 -60 -63 0
-23 -34 -42 0
-23 -29 -42 0
-23 -29 -34 0
-21 -60 -63 0
-21 -25 -63 0
-21 -25 -60 0
-20 -48 -64 0
-18 -36 -38 0
-18 -31 -38 0
-18 -31 -36 0
-17 -27 -47 0
-16 -52 -62 0
-14 -58 -65 0
-14 -40 -65 0
-14 -40 -58 0
-14 -39 -65 0
-14 -39 -58 0
-14 -39 -40 0
-13 -52 -62 0
-13 -16 -62 0
-13 -16 -52 0
-12 -48 -64 0
-12 -20 -64 0
-12 -20 -48 0
-11 -15 -56 0
-10 -19 -22 0
-9 -24 -43 0
-8 -27 -47 0
-8 -17 -47 0
-8 -17 -27 0
-7 -19 -22 0
-7 -10 -22 0
-7 -10 -19 0
-6 -41 -53 0
-6 -32 -53 0
-6 -32 -41 0
-5 -24 -43 0
-5 -9 -43 0
-5 -9 -24 0
-4 -26 -50 0
-3 -46 -61 0
-3 -30 -61 0
-3 -30 -46 0
-2 -15 -56 0
-2 -11 -56 0
-2 -11 -15 0
-1 -26 -50 0
-1 -4 -50 0
-1 -4 -26 0
1 5 23 0
1 5 31 0
1 23 31 0
2 48 49 0
2 48 58 0
2 49 58 0
3 13 24 0
3 13 37 0
3 24 37 0
4 21 29 0
4 21 38 0
4 29 38 0
5 23 31 0
6 7 8 0
6 7 35 0
6 8 35 0
7 8 35 0
9 26 34 0
9 26 57 0
9 34 57 0
10 12 15 0
10 12 54 0
10 15 54 0
11 19 41 0
11 19 59 0
11 41 59 0
12 15 54 0
13 24 37 0
14 18 30 0
14 18 50 0
14 18 60 0
14 30 50 0
14 30 60 0
14 50 60 0
16 36 61 0
16 36 63 0
16 61 63 0
17 40 53 0
17 40 55 0
17 53 55 0
18 30 50 0
18 30 60 0
18 50 60 0
19 41 59 0
20 39 44 0
20 39 47 0
20 44 47 0
21 29 38 0
22 32 33 0
22 32 56 0
22 33 56 0
25 46 51 0
25 46 52 0
25 51 52 0
26 34 57 0
27 28 64 0
27 28 65 0
27 64 65 0
28 64 65 0
30 50 60 0
32 33 56 0
36 61 63 0
39 44 47 0
40 53 55 0
42 43 45 0
42 43 62 0
42 45 62 0
43 45 62 0
46 51 52 0
48 49 58 0
