p cnf 41 92
-32 -39 -41 0
-29 -39 -41 0
-29 -32 -41 0
-29 -32 -39 0
-28 -37 -38 0
-27 -30 -40 0
-25 -33 -34 0
-23 -26 -31 0
-22 -24 -35 0
-19 -30 -40 0
-19 -27 -40 0
-19 -27 -30 0
-17 -18 -20 0
-15 -26 -31 0
-15 -23 -31 0
-15 -23 -26 0
-14 -18 -20 0
-14 -17 -20 0
-14 -17 -18 0
-13 -18 -20 0
-13 -17 -20 0
-13 -17 -18 0
-13 -14 -20 0
-13 -14 -18 0
-13 -14 -17 0
-11 -12 -21 0
-9 -10 -36 0
-8 -37 -38 0
-8 -28 -38 0
-8 -28 -37 0
-7 -10 -36 0
-7 -9 -36 0
-7 -9 -10 0
-5 -12 -21 0
-5 -11 -21 0
-5 -11 -12 0
-4 -33 -34 0
-4 -25 -34 0
-4 -25 -33 0
-3 -24 -35 0
-3 -22 -35 0
-3 -22 -24 0
-2 -6 -16 0
-1 -6 -16 0
-1 -2 -16 0
-1 -2 -6 0
1 13 15 0
1 13 29 0
1 15 29 0
2 17 23 0
2 17 35 0
2 23 35 0
3 18 26 0
3 18 39 0
3 26 39 0
4 7 12 0
4 7 19 0
4 12 19 0
5 33 38 0
5 33 40 0
5 38 40 0
6 22 31 0
6 22 32 0
6 31 32 0
7 12 19 0
8 9 11 0
8 9 14 0
8 9 34 0
8 11 14 0
8 11 34 0
8 14 34 0
9 11 14 0
9 11 34 0
9 14 34 0
10 21 30 0
10 21 37 0
10 30 37 0
11 14 34 0
13 15 29 0
16 20 24 0
16 20 41 0
16 24 41 0
17 23 35 0
18 26 39 0
20 24 41 0
21 30 37 0
22 31 32 0
25 27 28 0
25 27 36 0
25 28 36 0
27 28 36 0
33 38 40 0
