p cnf 49 108
-35 -36 -41 0
-33 -47 -49 0
-32 -37 -48 0
-30 -38 -43 0
-28 -36 -41 0
-28 -35 -41 0
-28 -35 -36 0
-24 -45 -46 0
-22 -38 -43 0
-22 -30 -43 0
-22 -30 -38 0
-21 -37 -48 0
-21 -32 -48 0
-21 -32 -37 0
-20 -34 -42 0
-18 -23 -44 0
-16 -45 -46 0
-16 -24 -46 0
-16 -24 -45 0
-14 -15 -25 0
-13 -47 -49 0
-13 -33 -49 0
-13 -33 -47 0
-12 -17 -39 0
-11 -26 -31 0
-10 -15 -25 0
-10 -14 -25 0
-10 -14 -15 0
-9 -19 -40 0
-8 -27 -29 0
-7 -26 -31 0
-7 -11 -31 0
-7 -11 -26 0
-6 -34 -42 0
-6 -20 -42 0
-6 -20 -34 0
-5 -17 -39 0
-5 -12 -39 0
-5 -12 -17 0
-4 -19 -40 0
-4 -9 -40 0
-4 -9 -19 0
-3 -38 -43 0
-3 -30 -43 0
-3 -30 -38 0
-3 -22 -43 0
-3 -22 -38 0
-3 -22 -30 0
-2 -23 -44 0
-2 -18 -44 0
-2 -18 -23 0
-1 -27 -29 0
-1 -8 -29 0
-1 -8 -27 0
1 17 25 0
1 17 44 0
1 25 44 0
2 15 22 0
2 15 41 0
2 15 49 0
2 22 41 0
2 22 49 0
2 41 49 0
3 20 21 0
3 20 31 0
3 21 31 0
4 6 11 0
4 6 38 0
4 11 38 0
5 14 28 0
5 14 47 0
5 28 47 0
6 11 38 0
7 37 40 0
7 37 45 0
7 40 45 0
8 10 23 0
8 10 33 0
8 23 33 0
9 26 43 0
9 26 46 0
9 43 46 0
10 23 33 0
12 13 29 0
12 13 36 0
12 29 36 0
13 29 36 0
14 28 47 0
15 22 41 0
15 22 49 0
15 41 49 0
16 19 34 0
16 19 48 0
16 34 48 0
17 25 44 0
18 27 35 0
18 27 39 0
18 35 39 0
19 34 48 0
20 21 31 0
22 41 49 0
24 30 32 0
24 30 42 0
24 32 42 0
26 43 46 0
27 35 39 0
30 32 42 0
37 40 45 0
