p cnf 65 140
-42 -64 -65 0
-41 -45 -63 0
-40 -45 -63 0
-40 -41 -63 0
-40 -41 -45 0
-39 -46 -54 0
-38 -46 -54 0
-38 -39 -54 0
-38 -39 -46 0
-37 -48 -60 0
-36 -44 -57 0
-31 -50 -59 0
-27 -51 -53 0
-25 -26 -62 0
-24 -44 -57 0
-24 -36 -57 0
-24 -36 -44 0
-23 -43 -47 0
-22 -32 -35 0
-21 -32 -35 0
-21 -22 -35 0
-21 -22 -32 0
-20 -56 -61 0
-19 -28 -34 0
-18 -49 -52 0
-17 -49 -52 0
-17 -18 -52 0
-17 -18 -49 0
-16 -43 -47 0
-16 -23 -47 0
-16 -23 -43 0
-15 -29 -58 0
-14 -29 -58 0
-14 -15 -58 0
-14 -15 -29 0
-13 -50 -59 0
-13 -31 -59 0
-13 -31 -50 0
-11 -56 -61 0
-11 -20 -61 0
-11 -20 -56 0
-10 -12 -55 0
-9 -28 -34 0
-9 -19 -34 0
-9 -19 -28 0
-8 -26 -62 0
-8 -25 -62 0
-8 -25 -26 0
-7 -64 -65 0
-7 -42 -65 0
-7 -42 -64 0
-6 -30 -33 0
-5 -30 -33 0
-5 -6 -33 0
-5 -6 -30 0
-4 -43 -47 0
-4 -23 -47 0
-4 -23 -43 0
-4 -16 -47 0
-4 -16 -43 0
-4 -16 -23 0
-3 -12 -55 0
-3 -10 -55 0
-3 -10 -12 0
-2 -51 -53 0
-2 -27 -53 0
-2 -27 -51 0
-1 -48 -60 0
-1 -37 -60 0
-1 -37 -48 0
1 6 7 0
1 6 20 0
1 7 20 0
2 18 24 0
2 18 40 0
2 24 40 0
3 35 50 0
3 35 63 0
3 50 63 0
4 27 52 0
4 27 57 0
4 52 57 0
5 14 38 0
5 14 42 0
5 38 42 0
6 7 20 0
8 15 28 0
8 15 56 0
8 28 56 0
9 60 61 0
9 60 64 0
9 61 64 0
10 17 43 0
10 17 51 0
10 43 51 0
11 25 34 0
11 25 48 0
11 34 48 0
12 16 21 0
12 16 49 0
12 21 49 0
13 23 32 0
13 23 55 0
13 32 55 0
14 38 42 0
15 28 56 0
16 21 49 0
17 43 51 0
18 24 40 0
19 26 39 0
19 26 58 0
19 39 58 0
22 41 44 0
22 41 59 0
22 44 59 0
23 32 55 0
25 34 48 0
26 39 58 0
27 52 57 0
29 33 47 0
29 33 54 0
29 33 62 0
29 47 54 0
29 47 62 0
29 54 62 0
30 37 46 0
30 37 65 0
30 46 65 0
31 36 45 0
31 36 53 0
31 45 53 0
33 47 54 0
33 47 62 0
33 54 62 0
35 50 63 0
36 45 53 0
37 46 65 0
41 44 59 0
47 54 62 0
60 61 64 0
