p cnf 73 156
-57 -59 -69 0
-47 -56 -70 0
-45 -52 -73 0
-44 -49 -72 0
-43 -56 -70 0
-43 -47 -70 0
-43 -47 -56 0
-40 -41 -66 0
-39 -55 -67 0
-37 -52 -73 0
-37 -45 -73 0
-37 -45 -52 0
-36 -53 -58 0
-35 -41 -66 0
-35 -40 -66 0
-35 -40 -41 0
-34 -48 -68 0
-30 -63 -64 0
-28 -51 -61 0
-26 -32 -71 0
-25 -54 -62 0
-24 -55 -67 0
-24 -39 -67 0
-24 -39 -55 0
-23 -51 -61 0
-23 -28 -61 0
-23 -28 -51 0
-22 -29 -31 0
-21 -42 -50 0
-18 -32 -71 0
-18 -26 -71 0
-18 -26 -32 0
-17 -38 -65 0
-16 -19 -27 0
-15 -42 -50 0
-15 -21 -50 0
-15 -21 -42 0
-14 -33 -60 0
-13 -20 -46 0
-12 -48 -68 0
-12 -34 -68 0
-12 -34 -48 0
-11 -54 -62 0
-11 -25 -62 0
-11 -25 -54 0
-10 -20 -46 0
-10 -13 -46 0
-10 -13 -20 0
-9 -29 -31 0
-9 -22 -31 0
-9 -22 -29 0
-8 -38 -65 0
-8 -17 -65 0
-8 -17 -38 0
-7 -49 -72 0
-7 -44 -72 0
-7 -44 -49 0
-6 -53 -58 0
-6 -36 -58 0
-6 -36 -53 0
-5 -19 -27 0
-5 -16 -27 0
-5 -16 -19 0
-4 -63 -64 0
-4 -30 -64 0
-4 -30 -63 0
-3 -55 -67 0
-3 -39 -67 0
-3 -39 -55 0
-3 -24 -67 0
-3 -24 -55 0
-3 -24 -39 0
-2 -33 -60 0
-2 -14 -60 0
-2 -14 -33 0
-1 -59 -69 0
-1 -57 -69 0
-1 -57 -59 0
1 5 8 0
1 5 26 0
1 8 26 0
2 15 20 0
2 15 44 0
2 20 44 0
3 23 25 0
3 23 35 0
3 25 35 0
4 47 48 0
4 47 53 0
4 48 53 0
5 8 26 0
6 22 56 0
6 22 63 0
6 56 63 0
7 18 27 0
7 18 57 0
7 27 57 0
9 28 54 0
9 28 55 0
9 54 55 0
10 16 21 0
10 16 49 0
10 21 49 0
11 31 43 0
11 31 58 0
11 43 58 0
12 24 41 0
12 24 61 0
12 41 61 0
13 60 65 0
13 60 73 0
13 65 73 0
14 42 45 0
14 42 46 0
14 42 67 0
14 45 46 0
14 45 67 0
14 46 67 0
15 20 44 0
16 21 49 0
17 37 59 0
17 37 71 0
17 59 71 0
18 27 57 0
19 50 69 0
19 50 72 0
19 69 72 0
22 56 63 0
23 25 35 0
24 41 61 0
28 54 55 0
29 36 51 0
29 36 62 0
29 51 62 0
30 40 68 0
30 40 70 0
30 68 70 0
31 43 58 0
32 33 38 0
32 33 52 0
32 38 52 0
33 38 52 0
34 39 64 0
34 39 66 0
34 64 66 0
36 51 62 0
37 59 71 0
39 64 66 0
40 68 70 0
42 45 46 0
42 45 67 0
42 46 67 0
45 46 67 0
47 48 53 0
50 69 72 0
60 65 73 0
