p cnf 33 76
-18 -23 -26 0
-17 -25 -31 0
-16 -20 -32 0
-15 -19 -29 0
-14 -27 -28 0
-12 -25 -31 0
-12 -17 -31 0
-12 -17 -25 0
-11 -13 -33 0
-10 -21 -30 0
-9 -27 -28 0
-9 -14 -28 0
-9 -14 -27 0
-8 -22 -24 0
-7 -13 -33 0
-7 -11 -33 0
-7 -11 -13 0
-6 -20 -32 0
-6 -16 -32 0
-6 -16 -20 0
-5 -19 -29 0
-5 -15 -29 0
-5 -15 -19 0
-4 -23 -26 0
-4 -18 -26 0
-4 -18 -23 0
-3 -22 -24 0
-3 -8 -24 0
-3 -8 -22 0
-2 -25 -31 0
-2 -17 -31 0
-2 -17 -25 0
-2 -12 -31 0
-2 -12 -25 0
-2 -12 -17 0
-1 -21 -30 0
-1 -10 -30 0
-1 -10 -21 0
1 14 25 0
1 14 26 0
1 25 26 0
2 23 27 0
2 23 30 0
2 27 30 0
3 5 7 0
3 5 16 0
3 7 16 0
4 17 21 0
4 17 28 0
4 21 28 0
5 7 16 0
6 13 24 0
6 13 29 0
6 24 29 0
8 11 19 0
8 11 20 0
8 11 31 0
8 19 20 0
8 19 31 0
8 20 31 0
9 10 12 0
9 10 18 0
9 12 18 0
10 12 18 0
11 19 20 0
11 19 31 0
11 20 31 0
13 24 29 0
14 25 26 0
15 22 32 0
15 22 33 0
15 32 33 0
17 21 28 0
19 20 31 0
22 32 33 0
23 27 30 0
