p cnf 65 140
-55 -60 -65 0
-52 -59 -63 0
-49 -50 -61 0
-45 -46 -58 0
-41 -47 -48 0
-40 -43 -62 0
-35 -43 -62 0
-35 -40 -62 0
-35 -40 -43 0
-34 -50 -61 0
-34 -49 -61 0
-34 -49 -50 0
-33 -53 -57 0
-30 -38 -42 0
-29 -38 -42 0
-29 -30 -42 0
-29 -30 -38 0
-25 -31 -39 0
-24 -28 -51 0
-23 -46 -58 0
-23 -45 -58 0
-23 -45 -46 0
-22 -60 -65 0
-22 -55 -65 0
-22 -55 -60 0
-20 -59 -63 0
-20 -52 -63 0
-20 -52 -59 0
-19 -26 -64 0
-18 -53 -57 0
-18 -33 -57 0
-18 -33 -53 0
-17 -36 -37 0
-15 -54 -56 0
-14 -36 -37 0
-14 -17 -37 0
-14 -17 -36 0
-13 -26 -64 0
-13 -19 -64 0
-13 -19 -26 0
-12 -31 -39 0
-12 -25 -39 0
-12 -25 -31 0
-11 -16 -44 0
-10 -27 -32 0
-9 -31 -39 0
-9 -25 -39 0
-9 -25 -31 0
-9 -12 -39 0
-9 -12 -31 0
-9 -12 -25 0
-8 -27 -32 0
-8 -10 -32 0
-8 -10 -27 0
-7 -16 -44 0
-7 -11 -44 0
-7 -11 -16 0
-6 -47 -48 0
-6 -41 -48 0
-6 -41 -47 0
-4 -28 -51 0
-4 -24 -51 0
-4 -24 -28 0
-3 -5 -21 0
-2 -5 -21 0
-2 -3 -21 0
-2 -3 -5 0
-1 -54 -56 0
-1 -15 -56 0
-1 -15 -54 0
1 4 14 0
1 4 45 0
1 14 45 0
2 11 34 0
2 11 42 0
2 34 42 0
3 40 48 0
3 40 49 0
3 48 49 0
4 14 45 0
5 7 47 0
5 7 61 0
5 47 61 0
6 9 21 0
6 9 62 0
6 21 62 0
7 47 61 0
8 24 36 0
8 24 54 0
8 36 54 0
9 21 62 0
10 13 52 0
10 13 57 0
10 52 57 0
11 34 42 0
12 16 22 0
12 16 38 0
12 22 38 0
13 52 57 0
15 32 33 0
15 32 37 0
15 33 37 0
16 22 38 0
17 18 27 0
17 18 64 0
17 27 64 0
18 27 64 0
19 28 58 0
19 28 63 0
19 58 63 0
20 23 25 0
20 23 26 0
20 23 53 0
20 25 26 0
20 25 53 0
20 26 53 0
23 25 26 0
23 25 53 0
23 26 53 0
24 36 54 0
25 26 53 0
28 58 63 0
29 44 50 0
29 44 60 0
29 50 60 0
30 31 35 0
30 31 55 0
30 35 55 0
31 35 55 0
32 33 37 0
39 41 43 0
39 41 65 0
39 43 65 0
40 48 49 0
41 43 65 0
44 50 60 0
46 51 56 0
46 51 59 0
46 56 59 0
51 56 59 0
