p cnf 49 108
-32 -38 -42 0
-31 -36 -45 0
-30 -44 -48 0
-26 -39 -49 0
-24 -25 -28 0
-23 -36 -45 0
-23 -31 -45 0
-23 -31 -36 0
-22 -33 -47 0
-21 -38 -42 0
-21 -32 -42 0
-21 -32 -38 0
-18 -19 -35 0
-16 -39 -49 0
-16 -26 -49 0
-16 -26 -39 0
-15 -20 -41 0
-14 -20 -41 0
-14 -15 -41 0
-14 -15 -20 0
-13 -44 -48 0
-13 -30 -48 0
-13 -30 -44 0
-12 -17 -40 0
-11 -34 -46 0
-10 -25 -28 0
-10 -24 -28 0
-10 -24 -25 0
-9 -33 -47 0
-9 -22 -47 0
-9 -22 -33 0
-8 -33 -47 0
-8 -22 -47 0
-8 -22 -33 0
-8 -9 -47 0
-8 -9 -33 0
-8 -9 -22 0
-7 -34 -46 0
-7 -11 -46 0
-7 -11 -34 0
-6 -29 -43 0
-5 -27 -37 0
-4 -29 -43 0
-4 -6 -43 0
-4 -6 -29 0
-3 -27 -37 0
-3 -5 -37 0
-3 -5 -27 0
-2 -19 -35 0
-2 -18 -35 0
-2 -18 -19 0
-1 -17 -40 0
-1 -12 -40 0
-1 -12 -17 0
1 22 25 0
1 22 30 0
1 22 32 0
1 25 30 0
1 25 32 0
1 30 32 0
2 11 20 0
2 11 37 0
2 20 37 0
3 15 18 0
3 15 39 0
3 18 39 0
4 12 38 0
4 12 44 0
4 38 44 0
5 8 14 0
5 8 34 0
5 14 34 0
6 17 28 0
6 17 36 0
6 28 36 0
7 19 33 0
7 19 49 0
7 33 49 0
8 14 34 0
9 26 27 0
9 26 35 0
9 27 35 0
10 23 42 0
10 23 48 0
10 42 48 0
11 20 37 0
12 38 44 0
13 40 43 0
13 40 45 0
13 43 45 0
15 18 39 0
16 41 46 0
16 41 47 0
16 46 47 0
17 28 36 0
19 33 49 0
21 24 29 0
21 24 31 0
21 29 31 0
22 25 30 0
22 25 32 0
22 30 32 0
23 42 48 0
24 29 31 0
25 30 32 0
26 27 35 0
40 43 45 0
41 46 47 0
