p cnf 65 140
-54 -55 -64 0
-47 -53 -57 0
-44 -55 -64 0
-44 -54 -64 0
-44 -54 -55 0
-36 -48 -65 0
-31 -39 -43 0
-30 -50 -52 0
-29 -40 -58 0
-28 -50 -52 0
-28 -30 -52 0
-28 -30 -50 0
-27 -48 -65 0
-27 -36 -65 0
-27 -36 -48 0
-26 -37 -59 0
-25 -38 -49 0
-24 -53 -57 0
-24 -47 -57 0
-24 -47 -53 0
-22 -32 -60 0
-21 -32 -60 0
-21 -22 -60 0
-21 -22 -32 0
-19 -33 -34 0
-18 -51 -61 0
-17 -40 -58 0
-17 -29 -58 0
-17 -29 -40 0
-16 -23 -62 0
-15 -39 -43 0
-15 -31 -43 0
-15 -31 -39 0
-14 -23 -62 0
-14 -16 -62 0
-14 -16 -23 0
-13 -45 -56 0
-12 -38 -49 0
-12 -25 -49 0
-12 -25 -38 0
-11 -35 -46 0
-10 -20 -63 0
-9 -37 -59 0
-9 -26 -59 0
-9 -26 -37 0
-8 -45 -56 0
-8 -13 -56 0
-8 -13 -45 0
-7 -51 -61 0
-7 -18 -61 0
-7 -18 -51 0
-6 -33 -34 0
-6 -19 -34 0
-6 -19 -33 0
-5 -53 -57 0
-5 -47 -57 0
-5 -47 -53 0
-5 -24 -57 0
-5 -24 -53 0
-5 -24 -47 0
-4 -41 -42 0
-3 -35 -46 0
-3 -11 -46 0
-3 -11 -35 0
-2 -41 -42 0
-2 -4 -42 0
-2 -4 -41 0
-1 -20 -63 0
-1 -10 -63 0
-1 -10 -20 0
1 21 37 0
1 21 50 0
1 37 50 0
2 34 49 0
2 34 53 0
2 49 53 0
3 16 40 0
3 16 44 0
3 40 44 0
4 8 38 0
4 8 43 0
4 38 43 0
5 7 33 0
5 7 42 0
5 33 42 0
6 25 39 0
6 25 41 0
6 39 41 0
7 33 42 0
8 38 43 0
9 52 54 0
9 52 63 0
9 54 63 0
10 14 32 0
10 14 58 0
10 32 58 0
11 17 22 0
11 17 57 0
11 17 62 0
11 22 57 0
11 22 62 0
11 57 62 0
12 31 56 0
12 31 65 0
12 56 65 0
13 47 48 0
13 47 61 0
13 48 61 0
14 32 58 0
15 27 45 0
15 27 51 0
15 45 51 0
16 40 44 0
17 22 57 0
17 22 62 0
17 57 62 0
18 19 24 0
18 19 36 0
18 24 36 0
19 24 36 0
20 23 30 0
20 23 60 0
20 30 60 0
21 37 50 0
22 57 62 0
23 30 60 0
25 39 41 0
26 28 46 0
26 28 64 0
26 46 64 0
27 45 51 0
28 46 64 0
29 35 55 0
29 35 59 0
29 55 59 0
31 56 65 0
34 49 53 0
35 55 59 0
47 48 61 0
52 54 63 0
