p cnf 33 76
-20 -25 -27 0
-19 -25 -27 0
-19 -20 -27 0
-19 -20 -25 0
-18 -29 -33 0
-17 -28 -30 0
-15 -16 -32 0
-13 -23 -31 0
-12 -29 -33 0
-12 -18 -33 0
-12 -18 -29 0
-10 -14 -24 0
-9 -28 -30 0
-9 -17 -30 0
-9 -17 -28 0
-8 -21 -26 0
-7 -11 -22 0
-6 -11 -22 0
-6 -7 -22 0
-6 -7 -11 0
-5 -23 -31 0
-5 -13 -31 0
-5 -13 -23 0
-4 -16 -32 0
-4 -15 -32 0
-4 -15 -16 0
-3 -28 -30 0
-3 -17 -30 0
-3 -17 -28 0
-3 -9 -30 0
-3 -9 -28 0
-3 -9 -17 0
-2 -14 -24 0
-2 -10 -24 0
-2 -10 -14 0
-1 -21 -26 0
-1 -8 -26 0
-1 -8 -21 0
1 2 32 0
1 2 33 0
1 32 33 0
2 32 33 0
3 11 27 0
3 11 31 0
3 27 31 0
4 10 12 0
4 10 26 0
4 12 26 0
5 6 17 0
5 6 19 0
5 17 19 0
6 17 19 0
7 9 13 0
7 9 25 0
7 13 25 0
8 14 16 0
8 14 18 0
8 14 28 0
8 16 18 0
8 16 28 0
8 18 28 0
9 13 25 0
10 12 26 0
11 27 31 0
14 16 18 0
14 16 28 0
14 18 28 0
15 21 24 0
15 21 29 0
15 24 29 0
16 18 28 0
20 22 23 0
20 22 30 0
20 23 30 0
21 24 29 0
22 23 30 0
