p cnf 49 108
-41 -42 -49 0
-36 -42 -49 0
-36 -41 -49 0
-36 -41 -42 0
-28 -30 -37 0
-26 -33 -44 0
-24 -25 -38 0
-21 -22 -29 0
-20 -25 -38 0
-20 -24 -38 0
-20 -24 -25 0
-19 -40 -47 0
-18 -32 -39 0
-17 -23 -45 0
-16 -27 -48 0
-14 -40 -47 0
-14 -19 -47 0
-14 -19 -40 0
-13 -15 -31 0
-12 -34 -35 0
-11 -33 -44 0
-11 -26 -44 0
-11 -26 -33 0
-10 -27 -48 0
-10 -16 -48 0
-10 -16 -27 0
-9 -23 -45 0
-9 -17 -45 0
-9 -17 -23 0
-8 -15 -31 0
-8 -13 -31 0
-8 -13 -15 0
-7 -30 -37 0
-7 -28 -37 0
-7 -28 -30 0
-6 -22 -29 0
-6 -21 -29 0
-6 -21 -22 0
-5 -27 -48 0
-5 -16 -48 0
-5 -16 -27 0
-5 -10 -48 0
-5 -10 -27 0
-5 -10 -16 0
-4 -34 -35 0
-4 -12 -35 0
-4 -12 -34 0
-3 -43 -46 0
-2 -32 -39 0
-2 -18 -39 0
-2 -18 -32 0
-1 -43 -46 0
-1 -3 -46 0
-1 -3 -43 0
1 12 17 0
1 12 38 0
1 17 38 0
2 21 36 0
2 21 44 0
2 36 44 0
3 13 34 0
3 13 45 0
3 34 45 0
4 25 46 0
4 25 48 0
4 46 48 0
5 9 15 0
5 9 43 0
5 15 43 0
6 33 40 0
6 33 41 0
6 40 41 0
7 14 18 0
7 14 27 0
7 14 29 0
7 18 27 0
7 18 29 0
7 27 29 0
8 16 20 0
8 16 35 0
8 20 35 0
9 15 43 0
10 23 24 0
10 23 31 0
10 24 31 0
11 19 37 0
11 19 49 0
11 37 49 0
12 17 38 0
13 34 45 0
14 18 27 0
14 18 29 0
14 27 29 0
16 20 35 0
18 27 29 0
19 37 49 0
21 36 44 0
22 26 30 0
22 26 39 0
22 30 39 0
23 24 31 0
25 46 48 0
26 30 39 0
28 32 42 0
28 32 47 0
28 42 47 0
32 42 47 0
33 40 41 0
