p cnf 49 108
-39 -40 -48 0
-35 -43 -44 0
-34 -37 -45 0
-27 -29 -42 0
-26 -28 -38 0
-25 -37 -45 0
-25 -34 -45 0
-25 -34 -37 0
-24 -33 -36 0
-23 -33 -36 0
-23 -24 -36 0
-23 -24 -33 0
-22 -32 -47 0
-19 -32 -47 0
-19 -22 -47 0
-19 -22 -32 0
-18 -30 -41 0
-17 -20 -21 0
-16 -30 -41 0
-16 -18 -41 0
-16 -18 -30 0
-15 -43 -44 0
-15 -35 -44 0
-15 -35 -43 0
-13 -37 -45 0
-13 -34 -45 0
-13 -34 -37 0
-13 -25 -45 0
-13 -25 -37 0
-13 -25 -34 0
-12 -28 -38 0
-12 -26 -38 0
-12 -26 -28 0
-11 -31 -49 0
-10 -40 -48 0
-10 -39 -48 0
-10 -39 -40 0
-7 -29 -42 0
-7 -27 -42 0
-7 -27 -29 0
-6 -8 -46 0
-5 -9 -14 0
-4 -31 -49 0
-4 -11 -49 0
-4 -11 -31 0
-3 -8 -46 0
-3 -6 -46 0
-3 -6 -8 0
-2 -20 -21 0
-2 -17 -21 0
-2 -17 -20 0
-1 -9 -14 0
-1 -5 -14 0
-1 -5 -9 0
1 17 32 0
1 17 40 0
1 32 40 0
2 22 24 0
2 22 48 0
2 24 48 0
3 37 38 0
3 37 49 0
3 38 49 0
4 7 26 0
4 7 44 0
4 26 44 0
5 16 39 0
5 16 47 0
5 39 47 0
6 11 25 0
6 11 43 0
6 25 43 0
7 26 44 0
8 15 27 0
8 15 34 0
8 27 34 0
9 21 36 0
9 21 41 0
9 36 41 0
10 14 23 0
10 14 30 0
10 14 45 0
10 23 30 0
10 23 45 0
10 30 45 0
11 25 43 0
12 13 35 0
12 13 42 0
12 35 42 0
13 35 42 0
14 23 30 0
14 23 45 0
14 30 45 0
15 27 34 0
16 39 47 0
17 32 40 0
18 19 20 0
18 19 33 0
18 20 33 0
19 20 33 0
21 36 41 0
22 24 48 0
23 30 45 0
28 29 31 0
28 29 46 0
28 31 46 0
29 31 46 0
37 38 49 0
