p cnf 41 92
-25 -33 -41 0
-24 -32 -40 0
-21 -29 -37 0
-20 -28 -36 0
-17 -32 -40 0
-17 -24 -40 0
-17 -24 -32 0
-16 -23 -31 0
-15 -22 -39 0
-14 -30 -38 0
-13 -28 -36 0
-13 -20 -36 0
-13 -20 -28 0
-12 -19 -27 0
-11 -18 -35 0
-10 -26 -34 0
-9 -33 -41 0
-9 -25 -41 0
-9 -25 -33 0
-8 -23 -31 0
-8 -16 -31 0
-8 -16 -23 0
-7 -22 -39 0
-7 -15 -39 0
-7 -15 -22 0
-6 -30 -38 0
-6 -14 -38 0
-6 -14 -30 0
-5 -33 -41 0
-5 -25 -41 0
-5 -25 -33 0
-5 -9 -41 0
-5 -9 -33 0
-5 -9 -25 0
-4 -29 -37 0
-4 -21 -37 0
-4 -21 -29 0
-3 -19 -27 0
-3 -12 -27 0
-3 -12 -19 0
-2 -18 -35 0
-2 -11 -35 0
-2 -11 -18 0
-1 -26 -34 0
-1 -10 -34 0
-1 -10 -26 0
1 2 3 0
1 2 4 0
1 2 5 0
1 3 4 0
1 3 5 0
1 4 5 0
2 3 4 0
2 3 5 0
2 4 5 0
3 4 5 0
6 7 8 0
6 7 9 0
6 8 9 0
7 8 9 0
10 11 12 0
10 11 13 0
10 12 13 0
11 12 13 0
14 15 16 0
14 15 17 0
14 16 17 0
15 16 17 0
18 19 20 0
18 19 21 0
18 20 21 0
19 20 21 0
22 23 24 0
22 23 25 0
22 24 25 0
23 24 25 0
26 27 28 0
26 27 29 0
26 28 29 0
27 28 29 0
30 31 32 0
30 31 33 0
30 32 33 0
31 32 33 0
34 35 36 0
34 35 37 0
34 36 37 0
35 36 37 0
38 39 40 0
38 39 41 0
38 40 41 0
39 40 41 0
