p cnf 49 108
-43 -46 -49 0
-28 -30 -48 0
-27 -29 -40 0
-26 -38 -42 0
-24 -25 -47 0
-23 -44 -45 0
-21 -31 -34 0
-20 -25 -47 0
-20 -24 -47 0
-20 -24 -25 0
-19 -44 -45 0
-19 -23 -45 0
-19 -23 -44 0
-18 -32 -39 0
-16 -22 -37 0
-15 -33 -36 0
-13 -46 -49 0
-13 -43 -49 0
-13 -43 -46 0
-12 -14 -17 0
-11 -38 -42 0
-11 -26 -42 0
-11 -26 -38 0
-10 -31 -34 0
-10 -21 -34 0
-10 -21 -31 0
-9 -33 -36 0
-9 -15 -36 0
-9 -15 -33 0
-8 -35 -41 0
-7 -30 -48 0
-7 -28 -48 0
-7 -28 -30 0
-6 -35 -41 0
-6 -8 -41 0
-6 -8 -35 0
-5 -14 -17 0
-5 -12 -17 0
-5 -12 -14 0
-4 -32 -39 0
-4 -18 -39 0
-4 -18 -32 0
-3 -29 -40 0
-3 -27 -40 0
-3 -27 -29 0
-2 -30 -48 0
-2 -28 -48 0
-2 -28 -30 0
-2 -7 -48 0
-2 -7 -30 0
-2 -7 -28 0
-1 -22 -37 0
-1 -16 -37 0
-1 -16 -22 0
1 5 21 0
1 5 45 0
1 21 45 0
2 3 33 0
2 3 46 0
2 33 46 0
3 33 46 0
4 8 17 0
4 8 44 0
4 17 44 0
5 21 45 0
6 7 14 0
6 7 19 0
6 7 37 0
6 14 19 0
6 14 37 0
6 19 37 0
7 14 19 0
7 14 37 0
7 19 37 0
8 17 44 0
9 25 38 0
9 25 48 0
9 38 48 0
10 23 39 0
10 23 41 0
10 39 41 0
11 13 27 0
11 13 36 0
11 27 36 0
12 18 22 0
12 18 31 0
12 22 31 0
13 27 36 0
14 19 37 0
15 20 40 0
15 20 42 0
15 40 42 0
16 32 34 0
16 32 35 0
16 34 35 0
18 22 31 0
20 40 42 0
23 39 41 0
24 29 30 0
24 29 49 0
24 30 49 0
25 38 48 0
26 28 43 0
26 28 47 0
26 43 47 0
28 43 47 0
29 30 49 0
32 34 35 0
