p cnf 33 76
-25 -27 -33 0
-18 -20 -21 0
-15 -16 -28 0
-14 -26 -31 0
-13 -27 -33 0
-13 -25 -33 0
-13 -25 -27 0
-12 -17 -32 0
-11 -22 -24 0
-10 -19 -23 0
-9 -20 -21 0
-9 -18 -21 0
-9 -18 -20 0
-8 -29 -30 0
-7 -22 -24 0
-7 -11 -24 0
-7 -11 -22 0
-6 -26 -31 0
-6 -14 -31 0
-6 -14 -26 0
-5 -29 -30 0
-5 -8 -30 0
-5 -8 -29 0
-4 -17 -32 0
-4 -12 -32 0
-4 -12 -17 0
-3 -16 -28 0
-3 -15 -28 0
-3 -15 -16 0
-2 -19 -23 0
-2 -10 -23 0
-2 -10 -19 0
-1 -16 -28 0
-1 -15 -28 0
-1 -15 -16 0
-1 -3 -28 0
-1 -3 -16 0
-1 -3 -15 0
1 17 27 0
1 17 31 0
1 27 31 0
2 9 24 0
2 9 29 0
2 24 29 0
3 10 11 0
3 10 20 0
3 10 30 0
3 11 20 0
3 11 30 0
3 20 30 0
4 13 26 0
4 13 28 0
4 26 28 0
5 21 22 0
5 21 23 0
5 22 23 0
6 16 32 0
6 16 33 0
6 32 33 0
7 8 18 0
7 8 19 0
7 18 19 0
8 18 19 0
9 24 29 0
10 11 20 0
10 11 30 0
10 20 30 0
11 20 30 0
12 14 15 0
12 14 25 0
12 15 25 0
13 26 28 0
14 15 25 0
16 32 33 0
17 27 31 0
21 22 23 0
