p cnf 73 156
-68 -70 -72 0
-61 -70 -72 0
-61 -68 -72 0
-61 -68 -70 0
-59 -66 -71 0
-58 -60 -69 0
-54 -62 -64 0
-53 -66 -71 0
-53 -59 -71 0
-53 -59 -66 0
-49 -50 -67 0
-44 -55 -73 0
-40 -50 -67 0
-40 -49 -67 0
-40 -49 -50 0
-37 -55 -73 0
-37 -44 -73 0
-37 -44 -55 0
-36 -47 -52 0
-32 -38 -46 0
-31 -51 -57 0
-28 -34 -56 0
-27 -55 -73 0
-27 -44 -73 0
-27 -44 -55 0
-27 -37 -73 0
-27 -37 -55 0
-27 -37 -44 0
-26 -38 -46 0
-26 -32 -46 0
-26 -32 -38 0
-23 -51 -57 0
-23 -31 -57 0
-23 -31 -51 0
-22 -41 -63 0
-21 -29 -33 0
-20 -41 -63 0
-20 -22 -63 0
-20 -22 -41 0
-19 -35 -45 0
-17 -47 -52 0
-17 -36 -52 0
-17 -36 -47 0
-15 -24 -48 0
-14 -39 -42 0
-13 -39 -42 0
-13 -14 -42 0
-13 -14 -39 0
-12 -16 -18 0
-11 -24 -48 0
-11 -15 -48 0
-11 -15 -24 0
-10 -60 -69 0
-10 -58 -69 0
-10 -58 -60 0
-9 -35 -45 0
-9 -19 -45 0
-9 -19 -35 0
-8 -30 -43 0
-7 -25 -65 0
-6 -30 -43 0
-6 -8 -43 0
-6 -8 -30 0
-5 -25 -65 0
-5 -7 -65 0
-5 -7 -25 0
-4 -29 -33 0
-4 -21 -33 0
-4 -21 -29 0
-3 -16 -18 0
-3 -12 -18 0
-3 -12 -16 0
-2 -62 -64 0
-2 -54 -64 0
-2 -54 -62 0
-1 -34 -56 0
-1 -28 -56 0
-1 -28 -34 0
1 40 41 0
1 40 66 0
1 41 66 0
2 23 26 0
2 23 37 0
2 26 37 0
3 13 38 0
3 13 68 0
3 38 68 0
4 6 19 0
4 6 59 0
4 19 59 0
5 34 50 0
5 34 63 0
5 50 63 0
6 19 59 0
7 8 33 0
7 8 60 0
7 33 60 0
8 33 60 0
9 20 49 0
9 20 71 0
9 49 71 0
10 29 30 0
10 29 45 0
10 30 45 0
11 12 36 0
11 12 44 0
11 36 44 0
12 36 44 0
13 38 68 0
14 32 61 0
14 32 62 0
14 61 62 0
15 51 52 0
15 51 55 0
15 52 55 0
16 17 39 0
16 17 48 0
16 39 48 0
17 39 48 0
18 42 47 0
18 42 70 0
18 47 70 0
20 49 71 0
21 22 35 0
21 22 53 0
21 35 53 0
22 35 53 0
23 26 37 0
24 57 64 0
24 57 73 0
24 64 73 0
25 28 58 0
25 28 67 0
25 58 67 0
27 43 56 0
27 43 65 0
27 43 69 0
27 56 65 0
27 56 69 0
27 65 69 0
28 58 67 0
29 30 45 0
31 46 54 0
31 46 72 0
31 54 72 0
32 61 62 0
34 50 63 0
40 41 66 0
42 47 70 0
43 56 65 0
43 56 69 0
43 65 69 0
46 54 72 0
51 52 55 0
56 65 69 0
57 64 73 0
