p cnf 57 124
-35 -46 -55 0
-34 -52 -54 0
-32 -47 -49 0
-29 -47 -49 0
-29 -32 -49 0
-29 -32 -47 0
-27 -33 -43 0
-25 -42 -45 0
-24 -48 -57 0
-23 -31 -39 0
-22 -28 -30 0
-21 -33 -43 0
-21 -27 -43 0
-21 -27 -33 0
-20 -52 -54 0
-20 -34 -54 0
-20 -34 -52 0
-19 -51 -53 0
-18 -31 -39 0
-18 -23 -39 0
-18 -23 -31 0
-16 -46 -55 0
-16 -35 -55 0
-16 -35 -46 0
-15 -17 -26 0
-14 -42 -45 0
-14 -25 -45 0
-14 -25 -42 0
-13 -28 -30 0
-13 -22 -30 0
-13 -22 -28 0
-12 -44 -56 0
-11 -36 -37 0
-10 -38 -41 0
-9 -51 -53 0
-9 -19 -53 0
-9 -19 -51 0
-8 -40 -50 0
-7 -40 -50 0
-7 -8 -50 0
-7 -8 -40 0
-6 -17 -26 0
-6 -15 -26 0
-6 -15 -17 0
-5 -44 -56 0
-5 -12 -56 0
-5 -12 -44 0
-4 -36 -37 0
-4 -11 -37 0
-4 -11 -36 0
-3 -48 -57 0
-3 -24 -57 0
-3 -24 -48 0
-2 -31 -39 0
-2 -23 -39 0
-2 -23 -31 0
-2 -18 -39 0
-2 -18 -31 0
-2 -18 -23 0
-1 -38 -41 0
-1 -10 -41 0
-1 -10 -38 0
1 3 21 0
1 3 35 0
1 21 35 0
2 15 19 0
2 15 34 0
2 19 34 0
3 21 35 0
4 14 47 0
4 14 55 0
4 47 55 0
5 7 22 0
5 7 51 0
5 22 51 0
6 50 53 0
6 50 56 0
6 53 56 0
7 22 51 0
8 30 31 0
8 30 54 0
8 31 54 0
9 12 17 0
9 12 20 0
9 17 20 0
10 23 36 0
10 23 45 0
10 23 46 0
10 36 45 0
10 36 46 0
10 45 46 0
11 32 43 0
11 32 48 0
11 43 48 0
12 17 20 0
13 26 39 0
13 26 52 0
13 39 52 0
14 47 55 0
15 19 34 0
16 25 27 0
16 25 38 0
16 27 38 0
18 28 40 0
18 28 44 0
18 40 44 0
23 36 45 0
23 36 46 0
23 45 46 0
24 29 33 0
24 29 41 0
24 33 41 0
25 27 38 0
26 39 52 0
28 40 44 0
29 33 41 0
30 31 54 0
32 43 48 0
36 45 46 0
37 42 49 0
37 42 57 0
37 49 57 0
42 49 57 0
50 53 56 0
