p cnf 41 92
-29 -30 -33 0
-27 -36 -41 0
-25 -36 -41 0
-25 -27 -41 0
-25 -27 -36 0
-23 -24 -37 0
-21 -22 -32 0
-19 -20 -34 0
-17 -24 -37 0
-17 -23 -37 0
-17 -23 -24 0
-15 -18 -39 0
-14 -28 -31 0
-13 -28 -31 0
-13 -14 -31 0
-13 -14 -28 0
-11 -28 -31 0
-11 -14 -31 0
-11 -14 -28 0
-11 -13 -31 0
-11 -13 -28 0
-11 -13 -14 0
-10 -16 -26 0
-9 -12 -35 0
-8 -16 -26 0
-8 -10 -26 0
-8 -10 -16 0
-7 -18 -39 0
-7 -15 -39 0
-7 -15 -18 0
-6 -30 -33 0
-6 -29 -33 0
-6 -29 -30 0
-5 -38 -40 0
-4 -20 -34 0
-4 -19 -34 0
-4 -19 -20 0
-3 -12 -35 0
-3 -9 -35 0
-3 -9 -12 0
-2 -38 -40 0
-2 -5 -40 0
-2 -5 -38 0
-1 -22 -32 0
-1 -21 -32 0
-1 -21 -22 0
1 3 31 0
1 3 36 0
1 31 36 0
2 10 15 0
2 10 23 0
2 15 23 0
3 31 36 0
4 8 37 0
4 8 39 0
4 37 39 0
5 7 26 0
5 7 34 0
5 26 34 0
6 9 32 0
6 9 41 0
6 32 41 0
7 26 34 0
8 37 39 0
9 32 41 0
10 15 23 0
11 22 25 0
11 22 30 0
11 25 30 0
12 13 21 0
12 13 33 0
12 21 33 0
13 21 33 0
14 27 29 0
14 27 35 0
14 29 35 0
16 19 24 0
16 19 28 0
16 19 38 0
16 24 28 0
16 24 38 0
16 28 38 0
17 18 20 0
17 18 40 0
17 20 40 0
18 20 40 0
19 24 28 0
19 24 38 0
19 28 38 0
22 25 30 0
24 28 38 0
27 29 35 0
