p cnf 57 124
-46 -50 -56 0
-39 -41 -42 0
-34 -36 -52 0
-32 -43 -45 0
-28 -33 -47 0
-26 -31 -37 0
-24 -43 -45 0
-24 -32 -45 0
-24 -32 -43 0
-23 -51 -55 0
-22 -33 -47 0
-22 -28 -47 0
-22 -28 -33 0
-21 -25 -54 0
-20 -38 -49 0
-19 -29 -40 0
-18 -51 -55 0
-18 -23 -55 0
-18 -23 -51 0
-17 -27 -48 0
-16 -36 -52 0
-16 -34 -52 0
-16 -34 -36 0
-15 -25 -54 0
-15 -21 -54 0
-15 -21 -25 0
-14 -41 -42 0
-14 -39 -42 0
-14 -39 -41 0
-13 -30 -35 0
-12 -27 -48 0
-12 -17 -48 0
-12 -17 -27 0
-11 -44 -57 0
-10 -30 -35 0
-10 -13 -35 0
-10 -13 -30 0
-8 -9 -53 0
-7 -38 -49 0
-7 -20 -49 0
-7 -20 -38 0
-6 -44 -57 0
-6 -11 -57 0
-6 -11 -44 0
-5 -29 -40 0
-5 -19 -40 0
-5 -19 -29 0
-4 -31 -37 0
-4 -26 -37 0
-4 -26 -31 0
-3 -50 -56 0
-3 -46 -56 0
-3 -46 -50 0
-2 -38 -49 0
-2 -20 -49 0
-2 -20 -38 0
-2 -7 -49 0
-2 -7 -38 0
-2 -7 -20 0
-1 -9 -53 0
-1 -8 -53 0
-1 -8 -9 0
1 27 29 0
1 27 54 0
1 29 54 0
2 13 18 0
2 13 45 0
2 18 45 0
3 31 39 0
3 31 51 0
3 39 51 0
4 24 42 0
4 24 46 0
4 42 46 0
5 11 22 0
5 11 53 0
5 22 53 0
6 8 16 0
6 8 28 0
6 8 49 0
6 16 28 0
6 16 49 0
6 28 49 0
7 30 43 0
7 30 56 0
7 43 56 0
8 16 28 0
8 16 49 0
8 28 49 0
9 15 19 0
9 15 44 0
9 19 44 0
10 20 23 0
10 20 26 0
10 23 26 0
11 22 53 0
12 33 36 0
12 33 57 0
12 36 57 0
13 18 45 0
14 35 37 0
14 35 55 0
14 37 55 0
15 19 44 0
16 28 49 0
17 25 34 0
17 25 40 0
17 34 40 0
20 23 26 0
21 47 48 0
21 47 52 0
21 48 52 0
24 42 46 0
25 34 40 0
27 29 54 0
30 43 56 0
31 39 51 0
32 38 41 0
32 38 50 0
32 41 50 0
33 36 57 0
35 37 55 0
38 41 50 0
47 48 52 0
