p cnf 41 92
-32 -33 -41 0
-29 -33 -41 0
-29 -32 -41 0
-29 -32 -33 0
-25 -28 -31 0
-20 -24 -36 0
-19 -26 -27 0
-18 -22 -38 0
-17 -30 -39 0
-15 -23 -37 0
-13 -23 -37 0
-13 -15 -37 0
-13 -15 -23 0
-12 -34 -35 0
-11 -26 -27 0
-11 -19 -27 0
-11 -19 -26 0
-10 -22 -38 0
-10 -18 -38 0
-10 -18 -22 0
-9 -14 -40 0
-8 -16 -21 0
-7 -16 -21 0
-7 -8 -21 0
-7 -8 -16 0
-6 -30 -39 0
-6 -17 -39 0
-6 -17 -30 0
-5 -16 -21 0
-5 -8 -21 0
-5 -8 -16 0
-5 -7 -21 0
-5 -7 -16 0
-5 -7 -8 0
-4 -14 -40 0
-4 -9 -40 0
-4 -9 -14 0
-3 -34 -35 0
-3 -12 -35 0
-3 -12 -34 0
-2 -28 -31 0
-2 -25 -31 0
-2 -25 -28 0
-1 -24 -36 0
-1 -20 -36 0
-1 -20 -24 0
1 26 31 0
1 26 41 0
1 31 41 0
2 8 11 0
2 8 24 0
2 8 30 0
2 11 24 0
2 11 30 0
2 24 30 0
3 9 15 0
3 9 18 0
3 15 18 0
4 12 16 0
4 12 38 0
4 16 38 0
5 13 34 0
5 13 40 0
5 34 40 0
6 25 27 0
6 25 32 0
6 27 32 0
7 22 23 0
7 22 35 0
7 23 35 0
8 11 24 0
8 11 30 0
8 24 30 0
9 15 18 0
10 14 21 0
10 14 37 0
10 21 37 0
11 24 30 0
12 16 38 0
13 34 40 0
14 21 37 0
17 20 28 0
17 20 29 0
17 28 29 0
19 33 36 0
19 33 39 0
19 36 39 0
20 28 29 0
22 23 35 0
25 27 32 0
26 31 41 0
33 36 39 0
