p cnf 73 156
-61 -66 -68 0
-55 -71 -72 0
-53 -66 -68 0
-53 -61 -68 0
-53 -61 -66 0
-49 -54 -60 0
-48 -54 -60 0
-48 -49 -60 0
-48 -49 -54 0
-45 -47 -57 0
-44 -71 -72 0
-44 -55 -72 0
-44 -55 -71 0
-43 -52 -64 0
-40 -41 -50 0
-38 -51 -73 0
-31 -62 -69 0
-30 -47 -57 0
-30 -45 -57 0
-30 -45 -47 0
-29 -39 -58 0
-28 -34 -56 0
-27 -52 -64 0
-27 -43 -64 0
-27 -43 -52 0
-26 -35 -46 0
-25 -33 -65 0
-24 -37 -67 0
-21 -62 -69 0
-21 -31 -69 0
-21 -31 -62 0
-20 -34 -56 0
-20 -28 -56 0
-20 -28 -34 0
-18 -19 -70 0
-17 -22 -23 0
-16 -36 -63 0
-15 -42 -59 0
-14 -37 -67 0
-14 -24 -67 0
-14 -24 -37 0
-13 -41 -50 0
-13 -40 -50 0
-13 -40 -41 0
-12 -33 -65 0
-12 -25 -65 0
-12 -25 -33 0
-11 -36 -63 0
-11 -16 -63 0
-11 -16 -36 0
-10 -51 -73 0
-10 -38 -73 0
-10 -38 -51 0
-9 -62 -69 0
-9 -31 -69 0
-9 -31 -62 0
-9 -21 -69 0
-9 -21 -62 0
-9 -21 -31 0
-7 -8 -32 0
-6 -19 -70 0
-6 -18 -70 0
-6 -18 -19 0
-5 -22 -23 0
-5 -17 -23 0
-5 -17 -22 0
-4 -39 -58 0
-4 -29 -58 0
-4 -29 -39 0
-3 -35 -46 0
-3 -26 -46 0
-3 -26 -35 0
-2 -42 -59 0
-2 -15 -59 0
-2 -15 -42 0
-1 -8 -32 0
-1 -7 -32 0
-1 -7 -8 0
1 4 45 0
1 4 59 0
1 45 59 0
2 7 58 0
2 7 72 0
2 58 72 0
3 15 17 0
3 15 57 0
3 17 57 0
4 45 59 0
5 30 35 0
5 30 37 0
5 35 37 0
6 27 40 0
6 27 73 0
6 40 73 0
7 58 72 0
8 24 31 0
8 24 71 0
8 31 71 0
9 23 26 0
9 23 67 0
9 26 67 0
10 28 52 0
10 28 70 0
10 52 70 0
11 33 60 0
11 33 61 0
11 60 61 0
12 49 50 0
12 49 68 0
12 50 68 0
13 38 65 0
13 38 66 0
13 65 66 0
14 44 46 0
14 44 69 0
14 46 69 0
15 17 57 0
16 18 56 0
16 18 64 0
16 56 64 0
18 56 64 0
19 25 41 0
19 25 51 0
19 25 62 0
19 41 51 0
19 41 62 0
19 51 62 0
20 43 48 0
20 43 63 0
20 48 63 0
21 32 39 0
21 32 55 0
21 39 55 0
22 29 42 0
22 29 47 0
22 42 47 0
23 26 67 0
24 31 71 0
25 41 51 0
25 41 62 0
25 51 62 0
27 40 73 0
28 52 70 0
29 42 47 0
30 35 37 0
32 39 55 0
33 60 61 0
34 36 53 0
34 36 54 0
34 53 54 0
36 53 54 0
38 65 66 0
41 51 62 0
43 48 63 0
44 46 69 0
49 50 68 0
