p cnf 73 156
-55 -68 -71 0
-54 -60 -67 0
-53 -57 -61 0
-50 -65 -72 0
-49 -52 -73 0
-48 -58 -69 0
-43 -51 -64 0
-41 -44 -59 0
-36 -45 -46 0
-34 -42 -62 0
-33 -52 -73 0
-33 -49 -73 0
-33 -49 -52 0
-31 -44 -59 0
-31 -41 -59 0
-31 -41 -44 0
-29 -58 -69 0
-29 -48 -69 0
-29 -48 -58 0
-28 -60 -67 0
-28 -54 -67 0
-28 -54 -60 0
-27 -57 -61 0
-27 -53 -61 0
-27 -53 -57 0
-25 -26 -37 0
-24 -42 -62 0
-24 -34 -62 0
-24 -34 -42 0
-23 -38 -56 0
-21 -26 -37 0
-21 -25 -37 0
-21 -25 -26 0
-19 -63 -66 0
-17 -51 -64 0
-17 -43 -64 0
-17 -43 -51 0
-16 -45 -46 0
-16 -36 -46 0
-16 -36 -45 0
-15 -18 -20 0
-14 -65 -72 0
-14 -50 -72 0
-14 -50 -65 0
-13 -35 -40 0
-12 -63 -66 0
-12 -19 -66 0
-12 -19 -63 0
-11 -22 -30 0
-10 -26 -37 0
-10 -25 -37 0
-10 -25 -26 0
-10 -21 -37 0
-10 -21 -26 0
-10 -21 -25 0
-9 -22 -30 0
-9 -11 -30 0
-9 -11 -22 0
-8 -18 -20 0
-8 -15 -20 0
-8 -15 -18 0
-7 -38 -56 0
-7 -23 -56 0
-7 -23 -38 0
-6 -68 -71 0
-6 -55 -71 0
-6 -55 -68 0
-5 -32 -39 0
-4 -32 -39 0
-4 -5 -39 0
-4 -5 -32 0
-3 -47 -70 0
-2 -35 -40 0
-2 -13 -40 0
-2 -13 -35 0
-1 -47 -70 0
-1 -3 -70 0
-1 -3 -47 0
1 9 15 0
1 9 55 0
1 15 55 0
2 25 53 0
2 25 56 0
2 25 66 0
2 53 56 0
2 53 66 0
2 56 66 0
3 13 18 0
3 13 27 0
3 18 27 0
4 12 23 0
4 12 57 0
4 23 57 0
5 6 20 0
5 6 30 0
5 20 30 0
6 20 30 0
7 40 61 0
7 40 70 0
7 61 70 0
8 35 47 0
8 35 68 0
8 47 68 0
9 15 55 0
10 14 24 0
10 14 29 0
10 24 29 0
11 39 63 0
11 39 71 0
11 63 71 0
12 23 57 0
13 18 27 0
14 24 29 0
16 21 54 0
16 21 62 0
16 54 62 0
17 42 50 0
17 42 58 0
17 50 58 0
19 22 32 0
19 22 38 0
19 32 38 0
21 54 62 0
22 32 38 0
25 53 56 0
25 53 66 0
25 56 66 0
26 46 60 0
26 46 73 0
26 60 73 0
28 34 37 0
28 34 72 0
28 37 72 0
31 51 65 0
31 51 69 0
31 65 69 0
33 45 59 0
33 45 67 0
33 59 67 0
34 37 72 0
35 47 68 0
36 41 43 0
36 41 49 0
36 43 49 0
39 63 71 0
40 61 70 0
41 43 49 0
42 50 58 0
44 48 52 0
44 48 64 0
44 52 64 0
45 59 67 0
46 60 73 0
48 52 64 0
51 65 69 0
53 56 66 0
