p cnf 49 108
-32 -41 -44 0
-25 -30 -40 0
-24 -38 -45 0
-22 -28 -49 0
-21 -23 -39 0
-20 -38 -45 0
-20 -24 -45 0
-20 -24 -38 0
-19 -26 -47 0
-18 -41 -44 0
-18 -32 -44 0
-18 -32 -41 0
-17 -33 -48 0
-16 -37 -42 0
-15 -33 -48 0
-15 -17 -48 0
-15 -17 -33 0
-14 -29 -34 0
-13 -31 -43 0
-12 -28 -49 0
-12 -22 -49 0
-12 -22 -28 0
-11 -29 -34 0
-11 -14 -34 0
-11 -14 -29 0
-10 -37 -42 0
-10 -16 -42 0
-10 -16 -37 0
-9 -31 -43 0
-9 -13 -43 0
-9 -13 -31 0
-8 -26 -47 0
-8 -19 -47 0
-8 -19 -26 0
-7 -35 -46 0
-6 -35 -46 0
-6 -7 -46 0
-6 -7 -35 0
-5 -27 -36 0
-4 -23 -39 0
-4 -21 -39 0
-4 -21 -23 0
-3 -30 -40 0
-3 -25 -40 0
-3 -25 -30 0
-2 -31 -43 0
-2 -13 -43 0
-2 -13 -31 0
-2 -9 -43 0
-2 -9 -31 0
-2 -9 -13 0
-1 -27 -36 0
-1 -5 -36 0
-1 -5 -27 0
1 20 30 0
1 20 46 0
1 30 46 0
2 34 36 0
2 34 38 0
2 36 38 0
3 13 27 0
3 13 35 0
3 27 35 0
4 15 22 0
4 15 26 0
4 22 26 0
5 7 11 0
5 7 43 0
5 11 43 0
6 14 40 0
6 14 45 0
6 40 45 0
7 11 43 0
8 16 32 0
8 16 39 0
8 32 39 0
9 18 19 0
9 18 42 0
9 18 49 0
9 19 42 0
9 19 49 0
9 42 49 0
10 23 44 0
10 23 48 0
10 44 48 0
12 21 33 0
12 21 41 0
12 33 41 0
13 27 35 0
14 40 45 0
15 22 26 0
16 32 39 0
17 28 37 0
17 28 47 0
17 37 47 0
18 19 42 0
18 19 49 0
18 42 49 0
19 42 49 0
20 30 46 0
21 33 41 0
23 44 48 0
24 25 29 0
24 25 31 0
24 29 31 0
25 29 31 0
28 37 47 0
34 36 38 0
