p cnf 49 108
-42 -43 -44 0
-37 -43 -44 0
-37 -42 -44 0
-37 -42 -43 0
-34 -45 -46 0
-32 -45 -46 0
-32 -34 -46 0
-32 -34 -45 0
-29 -36 -47 0
-26 -31 -38 0
-21 -39 -49 0
-18 -23 -25 0
-17 -27 -40 0
-16 -35 -41 0
-15 -20 -28 0
-14 -20 -28 0
-14 -15 -28 0
-14 -15 -20 0
-13 -22 -33 0
-12 -39 -49 0
-12 -21 -49 0
-12 -21 -39 0
-11 -23 -25 0
-11 -18 -25 0
-11 -18 -23 0
-10 -31 -38 0
-10 -26 -38 0
-10 -26 -31 0
-9 -22 -33 0
-9 -13 -33 0
-9 -13 -22 0
-8 -19 -30 0
-7 -27 -40 0
-7 -17 -40 0
-7 -17 -27 0
-6 -19 -30 0
-6 -8 -30 0
-6 -8 -19 0
-5 -36 -47 0
-5 -29 -47 0
-5 -29 -36 0
-4 -23 -25 0
-4 -18 -25 0
-4 -18 -23 0
-4 -11 -25 0
-4 -11 -23 0
-4 -11 -18 0
-3 -35 -41 0
-3 -16 -41 0
-3 -16 -35 0
-2 -24 -48 0
-1 -24 -48 0
-1 -2 -48 0
-1 -2 -24 0
1 9 14 0
1 9 46 0
1 14 46 0
2 16 22 0
2 16 32 0
2 22 32 0
3 13 17 0
3 13 28 0
3 17 28 0
4 19 37 0
4 19 47 0
4 37 47 0
5 12 18 0
5 12 43 0
5 18 43 0
6 23 38 0
6 23 49 0
6 38 49 0
7 15 24 0
7 15 33 0
7 24 33 0
8 11 31 0
8 11 44 0
8 31 44 0
9 14 46 0
10 29 30 0
10 29 39 0
10 30 39 0
11 31 44 0
12 18 43 0
13 17 28 0
15 24 33 0
16 22 32 0
19 37 47 0
20 27 41 0
20 27 45 0
20 41 45 0
21 26 36 0
21 26 42 0
21 36 42 0
23 38 49 0
25 34 35 0
25 34 40 0
25 34 48 0
25 35 40 0
25 35 48 0
25 40 48 0
26 36 42 0
27 41 45 0
29 30 39 0
34 35 40 0
34 35 48 0
34 40 48 0
35 40 48 0
