p cnf 49 108
-33 -41 -49 0
-32 -40 -48 0
-29 -37 -45 0
-28 -36 -44 0
-25 -40 -48 0
-25 -32 -48 0
-25 -32 -40 0
-24 -31 -39 0
-21 -36 -44 0
-21 -28 -44 0
-21 -28 -36 0
-20 -27 -35 0
-17 -31 -39 0
-17 -24 -39 0
-17 -24 -31 0
-16 -23 -30 0
-15 -22 -47 0
-14 -38 -46 0
-13 -27 -35 0
-13 -20 -35 0
-13 -20 -27 0
-12 -19 -26 0
-11 -18 -43 0
-10 -34 -42 0
-9 -41 -49 0
-9 -33 -49 0
-9 -33 -41 0
-8 -23 -30 0
-8 -16 -30 0
-8 -16 -23 0
-7 -22 -47 0
-7 -15 -47 0
-7 -15 -22 0
-6 -38 -46 0
-6 -14 -46 0
-6 -14 -38 0
-5 -41 -49 0
-5 -33 -49 0
-5 -33 -41 0
-5 -9 -49 0
-5 -9 -41 0
-5 -9 -33 0
-4 -37 -45 0
-4 -29 -45 0
-4 -29 -37 0
-3 -19 -26 0
-3 -12 -26 0
-3 -12 -19 0
-2 -18 -43 0
-2 -11 -43 0
-2 -11 -18 0
-1 -34 -42 0
-1 -10 -42 0
-1 -10 -34 0
1 2 3 0
1 2 4 0
1 2 5 0
1 3 4 0
1 3 5 0
1 4 5 0
2 3 4 0
2 3 5 0
2 4 5 0
3 4 5 0
6 7 8 0
6 7 9 0
6 8 9 0
7 8 9 0
10 11 12 0
10 11 13 0
10 12 13 0
11 12 13 0
14 15 16 0
14 15 17 0
14 16 17 0
15 16 17 0
18 19 20 0
18 19 21 0
18 20 21 0
19 20 21 0
22 23 24 0
22 23 25 0
22 24 25 0
23 24 25 0
26 27 28 0
26 27 29 0
26 28 29 0
27 28 29 0
30 31 32 0
30 31 33 0
30 32 33 0
31 32 33 0
34 35 36 0
34 35 37 0
34 36 37 0
35 36 37 0
38 39 40 0
38 39 41 0
38 40 41 0
39 40 41 0
42 43 44 0
42 43 45 0
42 44 45 0
43 44 45 0
46 47 48 0
46 47 49 0
46 48 49 0
47 48 49 0
