p cnf 57 124
-39 -43 -57 0
-37 -54 -56 0
-35 -36 -50 0
-32 -46 -47 0
-30 -43 -57 0
-30 -39 -57 0
-30 -39 -43 0
-26 -33 -40 0
-25 -31 -45 0
-24 -27 -42 0
-23 -54 -56 0
-23 -37 -56 0
-23 -37 -54 0
-22 -41 -51 0
-20 -43 -57 0
-20 -39 -57 0
-20 -39 -43 0
-20 -30 -57 0
-20 -30 -43 0
-20 -30 -39 0
-19 -34 -38 0
-18 -28 -53 0
-17 -49 -55 0
-16 -49 -55 0
-16 -17 -55 0
-16 -17 -49 0
-15 -41 -51 0
-15 -22 -51 0
-15 -22 -41 0
-13 -46 -47 0
-13 -32 -47 0
-13 -32 -46 0
-12 -31 -45 0
-12 -25 -45 0
-12 -25 -31 0
-11 -14 -48 0
-10 -34 -38 0
-10 -19 -38 0
-10 -19 -34 0
-9 -28 -53 0
-9 -18 -53 0
-9 -18 -28 0
-8 -27 -42 0
-8 -24 -42 0
-8 -24 -27 0
-7 -36 -50 0
-7 -35 -50 0
-7 -35 -36 0
-6 -29 -52 0
-5 -21 -44 0
-4 -21 -44 0
-4 -5 -44 0
-4 -5 -21 0
-3 -33 -40 0
-3 -26 -40 0
-3 -26 -33 0
-2 -14 -48 0
-2 -11 -48 0
-2 -11 -14 0
-1 -29 -52 0
-1 -6 -52 0
-1 -6 -29 0
1 8 15 0
1 8 45 0
1 15 45 0
2 22 25 0
2 22 33 0
2 25 33 0
3 12 27 0
3 12 51 0
3 27 51 0
4 9 32 0
4 9 35 0
4 32 35 0
5 19 28 0
5 19 46 0
5 28 46 0
6 24 31 0
6 24 39 0
6 31 39 0
7 10 43 0
7 10 54 0
7 10 55 0
7 43 54 0
7 43 55 0
7 54 55 0
8 15 45 0
9 32 35 0
10 43 54 0
10 43 55 0
10 54 55 0
11 42 52 0
11 42 57 0
11 52 57 0
12 27 51 0
13 17 34 0
13 17 37 0
13 34 37 0
14 20 29 0
14 20 40 0
14 29 40 0
16 21 23 0
16 21 50 0
16 23 50 0
17 34 37 0
18 36 44 0
18 36 56 0
18 44 56 0
19 28 46 0
20 29 40 0
21 23 50 0
22 25 33 0
24 31 39 0
26 30 41 0
26 30 48 0
26 41 48 0
30 41 48 0
36 44 56 0
38 47 49 0
38 47 53 0
38 49 53 0
42 52 57 0
43 54 55 0
47 49 53 0
