p cnf 41 92
-32 -37 -39 0
-22 -23 -29 0
-20 -27 -41 0
-19 -28 -30 0
-17 -21 -24 0
-16 -21 -24 0
-16 -17 -24 0
-16 -17 -21 0
-15 -37 -39 0
-15 -32 -39 0
-15 -32 -37 0
-14 -18 -36 0
-13 -25 -31 0
-12 -26 -34 0
-11 -35 -38 0
-10 -25 -31 0
-10 -13 -31 0
-10 -13 -25 0
-9 -33 -40 0
-8 -35 -38 0
-8 -11 -38 0
-8 -11 -35 0
-7 -28 -30 0
-7 -19 -30 0
-7 -19 -28 0
-6 -26 -34 0
-6 -12 -34 0
-6 -12 -26 0
-5 -18 -36 0
-5 -14 -36 0
-5 -14 -18 0
-4 -26 -34 0
-4 -12 -34 0
-4 -12 -26 0
-4 -6 -34 0
-4 -6 -26 0
-4 -6 -12 0
-3 -23 -29 0
-3 -22 -29 0
-3 -22 -23 0
-2 -27 -41 0
-2 -20 -41 0
-2 -20 -27 0
-1 -33 -40 0
-1 -9 -40 0
-1 -9 -33 0
1 3 13 0
1 3 16 0
1 13 16 0
2 26 28 0
2 26 35 0
2 28 35 0
3 13 16 0
4 7 32 0
4 7 41 0
4 32 41 0
5 10 17 0
5 10 23 0
5 17 23 0
6 11 30 0
6 11 37 0
6 30 37 0
7 32 41 0
8 15 27 0
8 15 34 0
8 27 34 0
9 21 25 0
9 21 36 0
9 25 36 0
10 17 23 0
11 30 37 0
12 14 29 0
12 14 31 0
12 14 33 0
12 29 31 0
12 29 33 0
12 31 33 0
14 29 31 0
14 29 33 0
14 31 33 0
15 27 34 0
18 22 24 0
18 22 40 0
18 24 40 0
19 20 38 0
19 20 39 0
19 38 39 0
20 38 39 0
21 25 36 0
22 24 40 0
26 28 35 0
29 31 33 0
