p cnf 49 108
-36 -38 -44 0
-35 -40 -42 0
-32 -33 -45 0
-30 -41 -47 0
-29 -34 -49 0
-21 -31 -48 0
-20 -39 -43 0
-19 -38 -44 0
-19 -36 -44 0
-19 -36 -38 0
-17 -27 -37 0
-16 -39 -43 0
-16 -20 -43 0
-16 -20 -39 0
-15 -31 -48 0
-15 -21 -48 0
-15 -21 -31 0
-14 -23 -24 0
-13 -18 -28 0
-12 -23 -24 0
-12 -14 -24 0
-12 -14 -23 0
-11 -22 -26 0
-10 -25 -46 0
-9 -39 -43 0
-9 -20 -43 0
-9 -20 -39 0
-9 -16 -43 0
-9 -16 -39 0
-9 -16 -20 0
-8 -41 -47 0
-8 -30 -47 0
-8 -30 -41 0
-7 -22 -26 0
-7 -11 -26 0
-7 -11 -22 0
-6 -27 -37 0
-6 -17 -37 0
-6 -17 -27 0
-5 -34 -49 0
-5 -29 -49 0
-5 -29 -34 0
-4 -18 -28 0
-4 -13 -28 0
-4 -13 -18 0
-3 -25 -46 0
-3 -10 -46 0
-3 -10 -25 0
-2 -33 -45 0
-2 -32 -45 0
-2 -32 -33 0
-1 -40 -42 0
-1 -35 -42 0
-1 -35 -40 0
1 31 33 0
1 31 41 0
1 33 41 0
2 9 34 0
2 9 35 0
2 34 35 0
3 4 12 0
3 4 37 0
3 12 37 0
4 12 37 0
5 21 30 0
5 21 39 0
5 30 39 0
6 18 22 0
6 18 25 0
6 22 25 0
7 17 23 0
7 17 36 0
7 23 36 0
8 20 45 0
8 20 49 0
8 45 49 0
9 34 35 0
10 11 19 0
10 11 24 0
10 19 24 0
11 19 24 0
13 14 16 0
13 14 27 0
13 14 44 0
13 16 27 0
13 16 44 0
13 27 44 0
14 16 27 0
14 16 44 0
14 27 44 0
15 29 40 0
15 29 47 0
15 40 47 0
16 27 44 0
17 23 36 0
18 22 25 0
20 45 49 0
21 30 39 0
26 28 38 0
26 28 46 0
26 38 46 0
28 38 46 0
29 40 47 0
31 33 41 0
32 42 43 0
32 42 48 0
32 43 48 0
42 43 48 0
