p cnf 57 124
-46 -51 -57 0
-38 -43 -52 0
-37 -41 -47 0
-35 -36 -40 0
-31 -39 -48 0
-30 -33 -55 0
-29 -42 -44 0
-26 -39 -48 0
-26 -31 -48 0
-26 -31 -39 0
-24 -28 -54 0
-23 -33 -55 0
-23 -30 -55 0
-23 -30 -33 0
-22 -51 -57 0
-22 -46 -57 0
-22 -46 -51 0
-20 -27 -34 0
-19 -41 -47 0
-19 -37 -47 0
-19 -37 -41 0
-18 -27 -34 0
-18 -20 -34 0
-18 -20 -27 0
-17 -45 -50 0
-16 -25 -53 0
-15 -43 -52 0
-15 -38 -52 0
-15 -38 -43 0
-13 -28 -54 0
-13 -24 -54 0
-13 -24 -28 0
-12 -36 -40 0
-12 -35 -40 0
-12 -35 -36 0
-10 -11 -56 0
-9 -42 -44 0
-9 -29 -44 0
-9 -29 -42 0
-8 -25 -53 0
-8 -16 -53 0
-8 -16 -25 0
-7 -21 -32 0
-6 -45 -50 0
-6 -17 -50 0
-6 -17 -45 0
-5 -14 -49 0
-4 -14 -49 0
-4 -5 -49 0
-4 -5 -14 0
-3 -27 -34 0
-3 -20 -34 0
-3 -20 -27 0
-3 -18 -34 0
-3 -18 -27 0
-3 -18 -20 0
-2 -21 -32 0
-2 -7 -32 0
-2 -7 -21 0
-1 -11 -56 0
-1 -10 -56 0
-1 -10 -11 0
1 22 42 0
1 22 43 0
1 42 43 0
2 4 12 0
2 4 45 0
2 12 45 0
3 13 37 0
3 13 56 0
3 37 56 0
4 12 45 0
5 32 33 0
5 32 50 0
5 33 50 0
6 7 8 0
6 7 35 0
6 8 35 0
7 8 35 0
9 11 19 0
9 11 52 0
9 19 52 0
10 38 41 0
10 38 54 0
10 41 54 0
11 19 52 0
13 37 56 0
14 21 23 0
14 21 26 0
14 23 26 0
15 29 34 0
15 29 51 0
15 34 51 0
16 36 39 0
16 36 55 0
16 39 55 0
17 25 40 0
17 25 48 0
17 40 48 0
18 30 31 0
18 30 49 0
18 30 53 0
18 31 49 0
18 31 53 0
18 49 53 0
20 24 44 0
20 24 57 0
20 44 57 0
21 23 26 0
22 42 43 0
24 44 57 0
25 40 48 0
27 28 46 0
27 28 47 0
27 46 47 0
28 46 47 0
29 34 51 0
30 31 49 0
30 31 53 0
30 49 53 0
31 49 53 0
32 33 50 0
36 39 55 0
38 41 54 0
