p cnf 65 140
-49 -57 -65 0
-48 -56 -64 0
-45 -53 -61 0
-44 -52 -60 0
-41 -56 -64 0
-41 -48 -64 0
-41 -48 -56 0
-40 -47 -55 0
-37 -52 -60 0
-37 -44 -60 0
-37 -44 -52 0
-36 -43 -51 0
-33 -47 -55 0
-33 -40 -55 0
-33 -40 -47 0
-32 -39 -46 0
-29 -43 -51 0
-29 -36 -51 0
-29 -36 -43 0
-28 -35 -42 0
-25 -39 -46 0
-25 -32 -46 0
-25 -32 -39 0
-24 -31 -38 0
-21 -35 -42 0
-21 -28 -42 0
-21 -28 -35 0
-20 -27 -34 0
-17 -31 -38 0
-17 -24 -38 0
-17 -24 -31 0
-16 -23 -30 0
-15 -22 -63 0
-14 -54 -62 0
-13 -27 -34 0
-13 -20 -34 0
-13 -20 -27 0
-12 -19 -26 0
-11 -18 -59 0
-10 -50 -58 0
-9 -57 -65 0
-9 -49 -65 0
-9 -49 -57 0
-8 -23 -30 0
-8 -16 -30 0
-8 -16 -23 0
-7 -22 -63 0
-7 -15 -63 0
-7 -15 -22 0
-6 -54 -62 0
-6 -14 -62 0
-6 -14 -54 0
-5 -57 -65 0
-5 -49 -65 0
-5 -49 -57 0
-5 -9 -65 0
-5 -9 -57 0
-5 -9 -49 0
-4 -53 -61 0
-4 -45 -61 0
-4 -45 -53 0
-3 -19 -26 0
-3 -12 -26 0
-3 -12 -19 0
-2 -18 -59 0
-2 -11 -59 0
-2 -11 -18 0
-1 -50 -58 0
-1 -10 -58 0
-1 -10 -50 0
1 2 3 0
1 2 4 0
1 2 5 0
1 3 4 0
1 3 5 0
1 4 5 0
2 3 4 0
2 3 5 0
2 4 5 0
3 4 5 0
6 7 8 0
6 7 9 0
6 8 9 0
7 8 9 0
10 11 12 0
10 11 13 0
10 12 13 0
11 12 13 0
14 15 16 0
14 15 17 0
14 16 17 0
15 16 17 0
18 19 20 0
18 19 21 0
18 20 21 0
19 20 21 0
22 23 24 0
22 23 25 0
22 24 25 0
23 24 25 0
26 27 28 0
26 27 29 0
26 28 29 0
27 28 29 0
30 31 32 0
30 31 33 0
30 32 33 0
31 32 33 0
34 35 36 0
34 35 37 0
34 36 37 0
35 36 37 0
38 39 40 0
38 39 41 0
38 40 41 0
39 40 41 0
42 43 44 0
42 43 45 0
42 44 45 0
43 44 45 0
46 47 48 0
46 47 49 0
46 48 49 0
47 48 49 0
50 51 52 0
50 51 53 0
50 52 53 0
51 52 53 0
54 55 56 0
54 55 57 0
54 56 57 0
55 56 57 0
58 59 60 0
58 59 61 0
58 60 61 0
59 60 61 0
62 63 64 0
62 63 65 0
62 64 65 0
63 64 65 0
