p cnf 33 76
-28 -31 -33 0
-23 -25 -26 0
-20 -27 -30 0
-18 -22 -24 0
-16 -27 -30 0
-16 -20 -30 0
-16 -20 -27 0
-15 -17 -21 0
-13 -17 -21 0
-13 -15 -21 0
-13 -15 -17 0
-11 -19 -29 0
-10 -25 -26 0
-10 -23 -26 0
-10 -23 -25 0
-9 -19 -29 0
-9 -11 -29 0
-9 -11 -19 0
-7 -12 -32 0
-6 -31 -33 0
-6 -28 -33 0
-6 -28 -31 0
-5 -8 -14 0
-4 -12 -32 0
-4 -7 -32 0
-4 -7 -12 0
-3 -22 -24 0
-3 -18 -24 0
-3 -18 -22 0
-2 -8 -14 0
-2 -5 -14 0
-2 -5 -8 0
-1 -27 -30 0
-1 -20 -30 0
-1 -20 -27 0
-1 -16 -30 0
-1 -16 -27 0
-1 -16 -20 0
1 17 24 0
1 17 31 0
1 24 31 0
2 11 12 0
2 11 25 0
2 11 27 0
2 12 25 0
2 12 27 0
2 25 27 0
3 6 13 0
3 6 30 0
3 13 30 0
4 8 10 0
4 8 19 0
4 10 19 0
5 7 26 0
5 7 29 0
5 26 29 0
6 13 30 0
7 26 29 0
8 10 19 0
9 14 23 0
9 14 32 0
9 23 32 0
11 12 25 0
11 12 27 0
11 25 27 0
12 25 27 0
14 23 32 0
15 16 18 0
15 16 28 0
15 18 28 0
16 18 28 0
17 24 31 0
20 21 22 0
20 21 33 0
20 22 33 0
21 22 33 0
