p cnf 57 124
-52 -53 -56 0
-47 -53 -56 0
-47 -52 -56 0
-47 -52 -53 0
-39 -43 -57 0
-36 -45 -54 0
-30 -50 -51 0
-29 -45 -54 0
-29 -36 -54 0
-29 -36 -45 0
-28 -50 -51 0
-28 -30 -51 0
-28 -30 -50 0
-27 -43 -57 0
-27 -39 -57 0
-27 -39 -43 0
-25 -53 -56 0
-25 -52 -56 0
-25 -52 -53 0
-25 -47 -56 0
-25 -47 -53 0
-25 -47 -52 0
-24 -32 -38 0
-22 -32 -38 0
-22 -24 -38 0
-22 -24 -32 0
-20 -31 -41 0
-18 -37 -44 0
-17 -35 -49 0
-16 -33 -40 0
-15 -21 -55 0
-14 -19 -46 0
-13 -33 -40 0
-13 -16 -40 0
-13 -16 -33 0
-11 -34 -48 0
-10 -37 -44 0
-10 -18 -44 0
-10 -18 -37 0
-9 -34 -48 0
-9 -11 -48 0
-9 -11 -34 0
-8 -35 -49 0
-8 -17 -49 0
-8 -17 -35 0
-7 -12 -26 0
-6 -19 -46 0
-6 -14 -46 0
-6 -14 -19 0
-5 -21 -55 0
-5 -15 -55 0
-5 -15 -21 0
-4 -23 -42 0
-3 -23 -42 0
-3 -4 -42 0
-3 -4 -23 0
-2 -31 -41 0
-2 -20 -41 0
-2 -20 -31 0
-1 -12 -26 0
-1 -7 -26 0
-1 -7 -12 0
1 25 29 0
1 25 32 0
1 25 49 0
1 29 32 0
1 29 49 0
1 32 49 0
2 30 34 0
2 30 37 0
2 34 37 0
3 15 17 0
3 15 27 0
3 17 27 0
4 12 38 0
4 12 54 0
4 38 54 0
5 8 24 0
5 8 39 0
5 24 39 0
6 10 28 0
6 10 31 0
6 28 31 0
7 42 45 0
7 42 57 0
7 45 57 0
8 24 39 0
9 13 51 0
9 13 53 0
9 51 53 0
10 28 31 0
11 18 40 0
11 18 50 0
11 40 50 0
12 38 54 0
13 51 53 0
14 20 44 0
14 20 56 0
14 44 56 0
15 17 27 0
16 41 46 0
16 41 47 0
16 46 47 0
18 40 50 0
19 33 48 0
19 33 52 0
19 48 52 0
20 44 56 0
21 22 35 0
21 22 36 0
21 35 36 0
22 35 36 0
23 26 43 0
23 26 55 0
23 43 55 0
25 29 32 0
25 29 49 0
25 32 49 0
26 43 55 0
29 32 49 0
30 34 37 0
33 48 52 0
41 46 47 0
42 45 57 0
