p cnf 73 156
-63 -71 -72 0
-49 -54 -69 0
-48 -65 -66 0
-39 -50 -58 0
-38 -46 -60 0
-37 -59 -67 0
-35 -42 -47 0
-34 -55 -62 0
-32 -55 -62 0
-32 -34 -62 0
-32 -34 -55 0
-31 -36 -70 0
-30 -65 -66 0
-30 -48 -66 0
-30 -48 -65 0
-28 -29 -45 0
-27 -64 -68 0
-25 -71 -72 0
-25 -63 -72 0
-25 -63 -71 0
-24 -33 -44 0
-23 -26 -43 0
-22 -52 -61 0
-20 -36 -70 0
-20 -31 -70 0
-20 -31 -36 0
-19 -41 -53 0
-18 -57 -73 0
-17 -51 -56 0
-16 -46 -60 0
-16 -38 -60 0
-16 -38 -46 0
-15 -33 -44 0
-15 -24 -44 0
-15 -24 -33 0
-14 -51 -56 0
-14 -17 -56 0
-14 -17 -51 0
-13 -29 -45 0
-13 -28 -45 0
-13 -28 -29 0
-12 -50 -58 0
-12 -39 -58 0
-12 -39 -50 0
-11 -26 -43 0
-11 -23 -43 0
-11 -23 -26 0
-10 -21 -40 0
-9 -52 -61 0
-9 -22 -61 0
-9 -22 -52 0
-8 -59 -67 0
-8 -37 -67 0
-8 -37 -59 0
-7 -64 -68 0
-7 -27 -68 0
-7 -27 -64 0
-6 -54 -69 0
-6 -49 -69 0
-6 -49 -54 0
-5 -55 -62 0
-5 -34 -62 0
-5 -34 -55 0
-5 -32 -62 0
-5 -32 -55 0
-5 -32 -34 0
-4 -21 -40 0
-4 -10 -40 0
-4 -10 -21 0
-3 -42 -47 0
-3 -35 -47 0
-3 -35 -42 0
-2 -41 -53 0
-2 -19 -53 0
-2 -19 -41 0
-1 -57 -73 0
-1 -18 -73 0
-1 -18 -57 0
1 33 47 0
1 33 68 0
1 47 68 0
2 26 61 0
2 26 70 0
2 61 70 0
3 44 57 0
3 44 60 0
3 57 60 0
4 25 34 0
4 25 49 0
4 34 49 0
5 15 18 0
5 15 38 0
5 18 38 0
6 10 27 0
6 10 63 0
6 27 63 0
7 35 54 0
7 35 72 0
7 54 72 0
8 13 41 0
8 13 50 0
8 41 50 0
9 11 17 0
9 11 20 0
9 17 20 0
10 27 63 0
11 17 20 0
12 14 28 0
12 14 66 0
12 28 66 0
13 41 50 0
14 28 66 0
15 18 38 0
16 32 40 0
16 32 69 0
16 40 69 0
19 43 52 0
19 43 59 0
19 52 59 0
21 24 46 0
21 24 62 0
21 46 62 0
22 31 56 0
22 31 65 0
22 56 65 0
23 37 45 0
23 37 53 0
23 37 55 0
23 45 53 0
23 45 55 0
23 53 55 0
24 46 62 0
25 34 49 0
26 61 70 0
29 39 48 0
29 39 67 0
29 48 67 0
30 36 51 0
30 36 58 0
30 51 58 0
31 56 65 0
32 40 69 0
33 47 68 0
35 54 72 0
36 51 58 0
37 45 53 0
37 45 55 0
37 53 55 0
39 48 67 0
42 64 71 0
42 64 73 0
42 71 73 0
43 52 59 0
44 57 60 0
45 53 55 0
64 71 73 0
