p cnf 41 92
-36 -39 -40 0
-33 -39 -40 0
-33 -36 -40 0
-33 -36 -39 0
-25 -32 -34 0
-23 -32 -34 0
-23 -25 -34 0
-23 -25 -32 0
-21 -26 -35 0
-20 -22 -41 0
-18 -19 -27 0
-16 -17 -29 0
-15 -24 -30 0
-14 -22 -41 0
-14 -20 -41 0
-14 -20 -22 0
-13 -31 -37 0
-10 -24 -30 0
-10 -15 -30 0
-10 -15 -24 0
-9 -11 -28 0
-8 -12 -38 0
-7 -17 -29 0
-7 -16 -29 0
-7 -16 -17 0
-6 -26 -35 0
-6 -21 -35 0
-6 -21 -26 0
-5 -11 -28 0
-5 -9 -28 0
-5 -9 -11 0
-4 -31 -37 0
-4 -13 -37 0
-4 -13 -31 0
-3 -11 -28 0
-3 -9 -28 0
-3 -9 -11 0
-3 -5 -28 0
-3 -5 -11 0
-3 -5 -9 0
-2 -19 -27 0
-2 -18 -27 0
-2 -18 -19 0
-1 -12 -38 0
-1 -8 -38 0
-1 -8 -12 0
1 18 24 0
1 18 32 0
1 24 32 0
2 5 30 0
2 5 34 0
2 5 36 0
2 30 34 0
2 30 36 0
2 34 36 0
3 20 21 0
3 20 31 0
3 21 31 0
4 11 29 0
4 11 41 0
4 29 41 0
5 30 34 0
5 30 36 0
5 34 36 0
6 7 22 0
6 7 37 0
6 22 37 0
7 22 37 0
8 10 23 0
8 10 33 0
8 23 33 0
9 13 17 0
9 13 26 0
9 17 26 0
10 23 33 0
11 29 41 0
12 15 19 0
12 15 39 0
12 19 39 0
13 17 26 0
14 16 28 0
14 16 35 0
14 28 35 0
15 19 39 0
16 28 35 0
18 24 32 0
20 21 31 0
25 27 38 0
25 27 40 0
25 38 40 0
27 38 40 0
30 34 36 0
