p cnf 41 92
-35 -37 -38 0
-34 -36 -39 0
-29 -36 -39 0
-29 -34 -39 0
-29 -34 -36 0
-25 -30 -40 0
-21 -22 -23 0
-19 -24 -28 0
-17 -26 -31 0
-14 -27 -32 0
-13 -15 -41 0
-12 -26 -31 0
-12 -17 -31 0
-12 -17 -26 0
-11 -24 -28 0
-11 -19 -28 0
-11 -19 -24 0
-10 -30 -40 0
-10 -25 -40 0
-10 -25 -30 0
-9 -22 -23 0
-9 -21 -23 0
-9 -21 -22 0
-8 -15 -41 0
-8 -13 -41 0
-8 -13 -15 0
-7 -18 -20 0
-6 -18 -20 0
-6 -7 -20 0
-6 -7 -18 0
-5 -24 -28 0
-5 -19 -28 0
-5 -19 -24 0
-5 -11 -28 0
-5 -11 -24 0
-5 -11 -19 0
-4 -16 -33 0
-3 -16 -33 0
-3 -4 -33 0
-3 -4 -16 0
-2 -37 -38 0
-2 -35 -38 0
-2 -35 -37 0
-1 -27 -32 0
-1 -14 -32 0
-1 -14 -27 0
1 13 26 0
1 13 36 0
1 26 36 0
2 7 9 0
2 7 30 0
2 9 30 0
3 10 21 0
3 10 37 0
3 21 37 0
4 20 38 0
4 20 40 0
4 38 40 0
5 12 15 0
5 12 29 0
5 15 29 0
6 16 23 0
6 16 24 0
6 16 25 0
6 23 24 0
6 23 25 0
6 24 25 0
7 9 30 0
8 11 27 0
8 11 31 0
8 27 31 0
10 21 37 0
11 27 31 0
12 15 29 0
13 26 36 0
14 17 19 0
14 17 34 0
14 19 34 0
16 23 24 0
16 23 25 0
16 24 25 0
17 19 34 0
18 22 33 0
18 22 35 0
18 33 35 0
20 38 40 0
22 33 35 0
23 24 25 0
28 32 39 0
28 32 41 0
28 39 41 0
32 39 41 0
