p cnf 41 92
-32 -34 -38 0
-27 -30 -37 0
-24 -30 -37 0
-24 -27 -37 0
-24 -27 -30 0
-21 -26 -29 0
-20 -33 -36 0
-19 -23 -28 0
-16 -18 -31 0
-15 -35 -39 0
-14 -25 -40 0
-13 -22 -41 0
-12 -25 -40 0
-12 -14 -40 0
-12 -14 -25 0
-11 -33 -36 0
-11 -20 -36 0
-11 -20 -33 0
-9 -35 -39 0
-9 -15 -39 0
-9 -15 -35 0
-8 -23 -28 0
-8 -19 -28 0
-8 -19 -23 0
-7 -10 -17 0
-6 -22 -41 0
-6 -13 -41 0
-6 -13 -22 0
-5 -26 -29 0
-5 -21 -29 0
-5 -21 -26 0
-4 -34 -38 0
-4 -32 -38 0
-4 -32 -34 0
-3 -18 -31 0
-3 -16 -31 0
-3 -16 -18 0
-2 -18 -31 0
-2 -16 -31 0
-2 -16 -18 0
-2 -3 -31 0
-2 -3 -18 0
-2 -3 -16 0
-1 -10 -17 0
-1 -7 -17 0
-1 -7 -10 0
1 13 29 0
1 13 38 0
1 29 38 0
2 4 7 0
2 4 27 0
2 4 41 0
2 7 27 0
2 7 41 0
2 27 41 0
3 9 19 0
3 9 40 0
3 19 40 0
4 7 27 0
4 7 41 0
4 27 41 0
5 6 34 0
5 6 37 0
5 34 37 0
6 34 37 0
7 27 41 0
8 16 20 0
8 16 35 0
8 20 35 0
9 19 40 0
10 22 26 0
10 22 30 0
10 26 30 0
11 12 23 0
11 12 31 0
11 23 31 0
12 23 31 0
13 29 38 0
14 18 33 0
14 18 39 0
14 33 39 0
15 25 28 0
15 25 36 0
15 28 36 0
16 20 35 0
17 21 24 0
17 21 32 0
17 24 32 0
18 33 39 0
21 24 32 0
22 26 30 0
25 28 36 0
