p cnf 49 108
-36 -43 -46 0
-29 -43 -46 0
-29 -36 -46 0
-29 -36 -43 0
-28 -47 -49 0
-25 -34 -41 0
-24 -35 -38 0
-22 -32 -37 0
-21 -23 -48 0
-20 -35 -38 0
-20 -24 -38 0
-20 -24 -35 0
-19 -26 -42 0
-17 -26 -42 0
-17 -19 -42 0
-17 -19 -26 0
-15 -16 -44 0
-14 -34 -41 0
-14 -25 -41 0
-14 -25 -34 0
-13 -31 -33 0
-12 -16 -44 0
-12 -15 -44 0
-12 -15 -16 0
-11 -31 -33 0
-11 -13 -33 0
-11 -13 -31 0
-10 -18 -40 0
-9 -30 -45 0
-8 -32 -37 0
-8 -22 -37 0
-8 -22 -32 0
-7 -30 -45 0
-7 -9 -45 0
-7 -9 -30 0
-6 -27 -39 0
-5 -27 -39 0
-5 -6 -39 0
-5 -6 -27 0
-4 -47 -49 0
-4 -28 -49 0
-4 -28 -47 0
-3 -31 -33 0
-3 -13 -33 0
-3 -13 -31 0
-3 -11 -33 0
-3 -11 -31 0
-3 -11 -13 0
-2 -23 -48 0
-2 -21 -48 0
-2 -21 -23 0
-1 -18 -40 0
-1 -10 -40 0
-1 -10 -18 0
1 17 27 0
1 17 44 0
1 27 44 0
2 15 19 0
2 15 34 0
2 19 34 0
3 28 35 0
3 28 45 0
3 35 45 0
4 8 30 0
4 8 31 0
4 30 31 0
5 18 21 0
5 18 33 0
5 18 42 0
5 21 33 0
5 21 42 0
5 33 42 0
6 12 25 0
6 12 40 0
6 25 40 0
7 24 46 0
7 24 47 0
7 46 47 0
8 30 31 0
9 20 22 0
9 20 29 0
9 22 29 0
10 16 23 0
10 16 41 0
10 23 41 0
11 32 36 0
11 32 38 0
11 36 38 0
12 25 40 0
13 37 43 0
13 37 49 0
13 43 49 0
14 26 39 0
14 26 48 0
14 39 48 0
15 19 34 0
16 23 41 0
17 27 44 0
18 21 33 0
18 21 42 0
18 33 42 0
20 22 29 0
21 33 42 0
24 46 47 0
26 39 48 0
28 35 45 0
32 36 38 0
37 43 49 0
