p cnf 33 76
-28 -29 -32 0
-22 -27 -33 0
-18 -23 -24 0
-17 -19 -30 0
-15 -21 -31 0
-14 -19 -30 0
-14 -17 -30 0
-14 -17 -19 0
-13 -27 -33 0
-13 -22 -33 0
-13 -22 -27 0
-12 -16 -26 0
-9 -23 -24 0
-9 -18 -24 0
-9 -18 -23 0
-8 -29 -32 0
-8 -28 -32 0
-8 -28 -29 0
-7 -21 -31 0
-7 -15 -31 0
-7 -15 -21 0
-6 -10 -11 0
-5 -20 -25 0
-4 -16 -26 0
-4 -12 -26 0
-4 -12 -16 0
-3 -10 -11 0
-3 -6 -11 0
-3 -6 -10 0
-2 -27 -33 0
-2 -22 -33 0
-2 -22 -27 0
-2 -13 -33 0
-2 -13 -27 0
-2 -13 -22 0
-1 -20 -25 0
-1 -5 -25 0
-1 -5 -20 0
1 4 6 0
1 4 17 0
1 6 17 0
2 7 18 0
2 7 32 0
2 18 32 0
3 5 13 0
3 5 26 0
3 5 30 0
3 13 26 0
3 13 30 0
3 26 30 0
4 6 17 0
5 13 26 0
5 13 30 0
5 26 30 0
7 18 32 0
8 9 27 0
8 9 31 0
8 27 31 0
9 27 31 0
10 12 14 0
10 12 20 0
10 14 20 0
11 16 19 0
11 16 25 0
11 19 25 0
12 14 20 0
13 26 30 0
15 22 23 0
15 22 29 0
15 23 29 0
16 19 25 0
21 24 28 0
21 24 33 0
21 28 33 0
22 23 29 0
24 28 33 0
