p cnf 73 156
-64 -65 -67 0
-63 -68 -72 0
-56 -65 -67 0
-56 -64 -67 0
-56 -64 -65 0
-47 -52 -71 0
-41 -44 -57 0
-40 -42 -50 0
-38 -43 -46 0
-36 -51 -53 0
-35 -54 -69 0
-31 -42 -50 0
-31 -40 -50 0
-31 -40 -42 0
-27 -59 -66 0
-26 -59 -66 0
-26 -27 -66 0
-26 -27 -59 0
-25 -39 -48 0
-24 -28 -49 0
-23 -37 -70 0
-22 -65 -67 0
-22 -64 -67 0
-22 -64 -65 0
-22 -56 -67 0
-22 -56 -65 0
-22 -56 -64 0
-21 -37 -70 0
-21 -23 -70 0
-21 -23 -37 0
-20 -44 -57 0
-20 -41 -57 0
-20 -41 -44 0
-19 -34 -73 0
-18 -52 -71 0
-18 -47 -71 0
-18 -47 -52 0
-17 -55 -58 0
-16 -68 -72 0
-16 -63 -72 0
-16 -63 -68 0
-15 -55 -58 0
-15 -17 -58 0
-15 -17 -55 0
-14 -51 -53 0
-14 -36 -53 0
-14 -36 -51 0
-13 -28 -49 0
-13 -24 -49 0
-13 -24 -28 0
-12 -32 -61 0
-11 -60 -62 0
-10 -30 -45 0
-9 -32 -61 0
-9 -12 -61 0
-9 -12 -32 0
-8 -54 -69 0
-8 -35 -69 0
-8 -35 -54 0
-7 -30 -45 0
-7 -10 -45 0
-7 -10 -30 0
-6 -43 -46 0
-6 -38 -46 0
-6 -38 -43 0
-5 -39 -48 0
-5 -25 -48 0
-5 -25 -39 0
-4 -34 -73 0
-4 -19 -73 0
-4 -19 -34 0
-3 -29 -33 0
-2 -29 -33 0
-2 -3 -33 0
-2 -3 -29 0
-1 -60 -62 0
-1 -11 -62 0
-1 -11 -60 0
1 5 13 0
1 5 40 0
1 13 40 0
2 8 15 0
2 8 27 0
2 15 27 0
3 35 63 0
3 35 64 0
3 63 64 0
4 43 47 0
4 43 57 0
4 47 57 0
5 13 40 0
6 12 34 0
6 12 52 0
6 34 52 0
7 14 21 0
7 14 59 0
7 21 59 0
8 15 27 0
9 25 38 0
9 25 50 0
9 38 50 0
10 36 37 0
10 36 56 0
10 37 56 0
11 18 41 0
11 18 49 0
11 41 49 0
12 34 52 0
14 21 59 0
16 30 53 0
16 30 67 0
16 53 67 0
17 51 66 0
17 51 70 0
17 66 70 0
18 41 49 0
19 20 60 0
19 20 71 0
19 60 71 0
20 60 71 0
22 33 45 0
22 33 68 0
22 45 68 0
23 26 58 0
23 26 69 0
23 58 69 0
24 32 39 0
24 32 42 0
24 39 42 0
25 38 50 0
26 58 69 0
28 44 48 0
28 44 62 0
28 44 65 0
28 48 62 0
28 48 65 0
28 62 65 0
29 54 55 0
29 54 72 0
29 55 72 0
30 53 67 0
31 46 61 0
31 46 73 0
31 61 73 0
32 39 42 0
33 45 68 0
35 63 64 0
36 37 56 0
43 47 57 0
44 48 62 0
44 48 65 0
44 62 65 0
46 61 73 0
48 62 65 0
51 66 70 0
54 55 72 0
