p cnf 65 140
-57 -60 -64 0
-56 -61 -62 0
-48 -53 -58 0
-45 -59 -65 0
-41 -50 -52 0
-36 -59 -65 0
-36 -45 -65 0
-36 -45 -59 0
-33 -40 -47 0
-32 -34 -38 0
-29 -43 -55 0
-28 -60 -64 0
-28 -57 -64 0
-28 -57 -60 0
-27 -37 -63 0
-26 -37 -63 0
-26 -27 -63 0
-26 -27 -37 0
-24 -34 -38 0
-24 -32 -38 0
-24 -32 -34 0
-22 -46 -51 0
-20 -40 -47 0
-20 -33 -47 0
-20 -33 -40 0
-19 -43 -55 0
-19 -29 -55 0
-19 -29 -43 0
-18 -50 -52 0
-18 -41 -52 0
-18 -41 -50 0
-17 -61 -62 0
-17 -56 -62 0
-17 -56 -61 0
-15 -44 -54 0
-14 -25 -35 0
-13 -31 -49 0
-12 -46 -51 0
-12 -22 -51 0
-12 -22 -46 0
-11 -25 -35 0
-11 -14 -35 0
-11 -14 -25 0
-10 -40 -47 0
-10 -33 -47 0
-10 -33 -40 0
-10 -20 -47 0
-10 -20 -40 0
-10 -20 -33 0
-9 -21 -30 0
-8 -31 -49 0
-8 -13 -49 0
-8 -13 -31 0
-7 -39 -42 0
-6 -53 -58 0
-6 -48 -58 0
-6 -48 -53 0
-5 -39 -42 0
-5 -7 -42 0
-5 -7 -39 0
-4 -16 -23 0
-3 -44 -54 0
-3 -15 -54 0
-3 -15 -44 0
-2 -21 -30 0
-2 -9 -30 0
-2 -9 -21 0
-1 -16 -23 0
-1 -4 -23 0
-1 -4 -16 0
1 5 28 0
1 5 53 0
1 28 53 0
2 26 41 0
2 26 44 0
2 41 44 0
3 21 43 0
3 21 50 0
3 43 50 0
4 7 12 0
4 7 58 0
4 12 58 0
5 28 53 0
6 39 47 0
6 39 64 0
6 47 64 0
7 12 58 0
8 15 18 0
8 15 29 0
8 18 29 0
9 27 52 0
9 27 56 0
9 52 56 0
10 30 32 0
10 30 62 0
10 30 63 0
10 32 62 0
10 32 63 0
10 62 63 0
11 20 42 0
11 20 60 0
11 42 60 0
13 17 34 0
13 17 37 0
13 34 37 0
14 40 57 0
14 40 65 0
14 57 65 0
15 18 29 0
16 22 25 0
16 22 45 0
16 25 45 0
17 34 37 0
19 24 31 0
19 24 54 0
19 31 54 0
20 42 60 0
21 43 50 0
22 25 45 0
23 48 51 0
23 48 59 0
23 51 59 0
24 31 54 0
26 41 44 0
27 52 56 0
30 32 62 0
30 32 63 0
30 62 63 0
32 62 63 0
33 35 36 0
33 35 46 0
33 36 46 0
35 36 46 0
38 49 55 0
38 49 61 0
38 55 61 0
39 47 64 0
40 57 65 0
48 51 59 0
49 55 61 0
