p cnf 65 140
-50 -52 -62 0
-38 -48 -51 0
-37 -46 -47 0
-36 -57 -61 0
-35 -43 -65 0
-34 -41 -45 0
-32 -56 -58 0
-30 -56 -58 0
-30 -32 -58 0
-30 -32 -56 0
-28 -44 -55 0
-27 -41 -45 0
-27 -34 -45 0
-27 -34 -41 0
-25 -42 -64 0
-24 -59 -60 0
-23 -48 -51 0
-23 -38 -51 0
-23 -38 -48 0
-22 -33 -40 0
-20 -29 -31 0
-18 -19 -63 0
-17 -44 -55 0
-17 -28 -55 0
-17 -28 -44 0
-16 -39 -49 0
-15 -59 -60 0
-15 -24 -60 0
-15 -24 -59 0
-14 -42 -64 0
-14 -25 -64 0
-14 -25 -42 0
-13 -21 -26 0
-12 -29 -31 0
-12 -20 -31 0
-12 -20 -29 0
-11 -39 -49 0
-11 -16 -49 0
-11 -16 -39 0
-10 -53 -54 0
-9 -53 -54 0
-9 -10 -54 0
-9 -10 -53 0
-8 -56 -58 0
-8 -32 -58 0
-8 -32 -56 0
-8 -30 -58 0
-8 -30 -56 0
-8 -30 -32 0
-7 -43 -65 0
-7 -35 -65 0
-7 -35 -43 0
-6 -57 -61 0
-6 -36 -61 0
-6 -36 -57 0
-5 -33 -40 0
-5 -22 -40 0
-5 -22 -33 0
-4 -21 -26 0
-4 -13 -26 0
-4 -13 -21 0
-3 -19 -63 0
-3 -18 -63 0
-3 -18 -19 0
-2 -52 -62 0
-2 -50 -62 0
-2 -50 -52 0
-1 -46 -47 0
-1 -37 -47 0
-1 -37 -46 0
1 44 50 0
1 44 54 0
1 50 54 0
2 49 53 0
2 49 58 0
2 53 58 0
3 48 59 0
3 48 61 0
3 59 61 0
4 6 14 0
4 6 27 0
4 14 27 0
5 15 18 0
5 15 38 0
5 18 38 0
6 14 27 0
7 28 29 0
7 28 47 0
7 29 47 0
8 12 46 0
8 12 65 0
8 46 65 0
9 11 17 0
9 11 62 0
9 17 62 0
10 30 31 0
10 30 39 0
10 31 39 0
11 17 62 0
12 46 65 0
13 25 33 0
13 25 34 0
13 25 56 0
13 33 34 0
13 33 56 0
13 34 56 0
15 18 38 0
16 20 32 0
16 20 35 0
16 32 35 0
19 41 57 0
19 41 64 0
19 57 64 0
20 32 35 0
21 23 24 0
21 23 40 0
21 24 40 0
22 26 45 0
22 26 51 0
22 45 51 0
23 24 40 0
25 33 34 0
25 33 56 0
25 34 56 0
26 45 51 0
28 29 47 0
30 31 39 0
33 34 56 0
36 42 60 0
36 42 63 0
36 60 63 0
37 43 52 0
37 43 55 0
37 52 55 0
41 57 64 0
42 60 63 0
43 52 55 0
44 50 54 0
48 59 61 0
49 53 58 0
