p cnf 73 156
-49 -51 -56 0
-47 -52 -60 0
-44 -46 -64 0
-43 -51 -56 0
-43 -49 -56 0
-43 -49 -51 0
-38 -58 -63 0
-37 -65 -71 0
-36 -40 -61 0
-35 -50 -54 0
-33 -42 -57 0
-32 -55 -72 0
-31 -66 -68 0
-30 -39 -41 0
-26 -69 -73 0
-25 -58 -63 0
-25 -38 -63 0
-25 -38 -58 0
-24 -53 -59 0
-23 -62 -70 0
-22 -50 -54 0
-22 -35 -54 0
-22 -35 -50 0
-21 -39 -41 0
-21 -30 -41 0
-21 -30 -39 0
-20 -27 -48 0
-19 -28 -29 0
-17 -62 -70 0
-17 -23 -70 0
-17 -23 -62 0
-16 -27 -48 0
-16 -20 -48 0
-16 -20 -27 0
-15 -27 -48 0
-15 -20 -48 0
-15 -20 -27 0
-15 -16 -48 0
-15 -16 -27 0
-15 -16 -20 0
-14 -52 -60 0
-14 -47 -60 0
-14 -47 -52 0
-13 -18 -67 0
-12 -34 -45 0
-11 -65 -71 0
-11 -37 -71 0
-11 -37 -65 0
-10 -28 -29 0
-10 -19 -29 0
-10 -19 -28 0
-9 -18 -67 0
-9 -13 -67 0
-9 -13 -18 0
-8 -46 -64 0
-8 -44 -64 0
-8 -44 -46 0
-7 -34 -45 0
-7 -12 -45 0
-7 -12 -34 0
-6 -42 -57 0
-6 -33 -57 0
-6 -33 -42 0
-5 -66 -68 0
-5 -31 -68 0
-5 -31 -66 0
-4 -53 -59 0
-4 -24 -59 0
-4 -24 -53 0
-3 -40 -61 0
-3 -36 -61 0
-3 -36 -40 0
-2 -69 -73 0
-2 -26 -73 0
-2 -26 -69 0
-1 -55 -72 0
-1 -32 -72 0
-1 -32 -55 0
1 5 33 0
1 5 62 0
1 33 62 0
2 18 51 0
2 18 63 0
2 51 63 0
3 10 45 0
3 10 54 0
3 45 54 0
4 28 60 0
4 28 65 0
4 60 65 0
5 33 62 0
6 20 55 0
6 20 70 0
6 55 70 0
7 21 35 0
7 21 61 0
7 35 61 0
8 39 50 0
8 39 59 0
8 50 59 0
9 26 38 0
9 26 66 0
9 38 66 0
10 45 54 0
11 47 53 0
11 47 64 0
11 53 64 0
12 14 29 0
12 14 36 0
12 14 48 0
12 29 36 0
12 29 48 0
12 36 48 0
13 68 69 0
13 68 72 0
13 69 72 0
14 29 36 0
14 29 48 0
14 36 48 0
15 17 56 0
15 17 58 0
15 56 58 0
16 23 42 0
16 23 49 0
16 42 49 0
17 56 58 0
18 51 63 0
19 34 37 0
19 34 52 0
19 37 52 0
20 55 70 0
21 35 61 0
22 30 40 0
22 30 44 0
22 40 44 0
23 42 49 0
24 41 46 0
24 41 71 0
24 46 71 0
25 27 43 0
25 27 67 0
25 43 67 0
26 38 66 0
27 43 67 0
28 60 65 0
29 36 48 0
30 40 44 0
31 32 57 0
31 32 73 0
31 57 73 0
32 57 73 0
34 37 52 0
39 50 59 0
41 46 71 0
47 53 64 0
68 69 72 0
