p cnf 41 92
-31 -33 -41 0
-30 -34 -39 0
-25 -38 -40 0
-22 -23 -29 0
-20 -33 -41 0
-20 -31 -41 0
-20 -31 -33 0
-18 -21 -37 0
-17 -24 -32 0
-16 -33 -41 0
-16 -31 -41 0
-16 -31 -33 0
-16 -20 -41 0
-16 -20 -33 0
-16 -20 -31 0
-15 -26 -28 0
-14 -23 -29 0
-14 -22 -29 0
-14 -22 -23 0
-13 -19 -36 0
-10 -38 -40 0
-10 -25 -40 0
-10 -25 -38 0
-9 -11 -27 0
-8 -12 -35 0
-7 -26 -28 0
-7 -15 -28 0
-7 -15 -26 0
-6 -11 -27 0
-6 -9 -27 0
-6 -9 -11 0
-5 -19 -36 0
-5 -13 -36 0
-5 -13 -19 0
-4 -21 -37 0
-4 -18 -37 0
-4 -18 -21 0
-3 -34 -39 0
-3 -30 -39 0
-3 -30 -34 0
-2 -12 -35 0
-2 -8 -35 0
-2 -8 -12 0
-1 -24 -32 0
-1 -17 -32 0
-1 -17 -24 0
1 18 20 0
1 18 39 0
1 20 39 0
2 17 37 0
2 17 41 0
2 37 41 0
3 12 21 0
3 12 32 0
3 21 32 0
4 8 30 0
4 8 31 0
4 30 31 0
5 11 15 0
5 11 33 0
5 11 38 0
5 15 33 0
5 15 38 0
5 33 38 0
6 10 19 0
6 10 23 0
6 19 23 0
7 22 27 0
7 22 36 0
7 27 36 0
8 30 31 0
9 25 28 0
9 25 29 0
9 28 29 0
10 19 23 0
11 15 33 0
11 15 38 0
11 33 38 0
12 21 32 0
13 14 26 0
13 14 40 0
13 26 40 0
14 26 40 0
15 33 38 0
16 24 34 0
16 24 35 0
16 34 35 0
17 37 41 0
18 20 39 0
22 27 36 0
24 34 35 0
25 28 29 0
