p cnf 65 140
-47 -58 -62 0
-46 -50 -52 0
-45 -53 -63 0
-44 -53 -63 0
-44 -45 -63 0
-44 -45 -53 0
-37 -39 -40 0
-35 -39 -40 0
-35 -37 -40 0
-35 -37 -39 0
-33 -54 -61 0
-32 -54 -61 0
-32 -33 -61 0
-32 -33 -54 0
-31 -50 -52 0
-31 -46 -52 0
-31 -46 -50 0
-27 -42 -43 0
-24 -29 -59 0
-23 -26 -48 0
-22 -56 -57 0
-21 -49 -51 0
-20 -41 -64 0
-19 -38 -65 0
-18 -28 -36 0
-17 -30 -34 0
-16 -54 -61 0
-16 -33 -61 0
-16 -33 -54 0
-16 -32 -61 0
-16 -32 -54 0
-16 -32 -33 0
-14 -55 -60 0
-13 -15 -25 0
-12 -38 -65 0
-12 -19 -65 0
-12 -19 -38 0
-11 -49 -51 0
-11 -21 -51 0
-11 -21 -49 0
-10 -26 -48 0
-10 -23 -48 0
-10 -23 -26 0
-9 -58 -62 0
-9 -47 -62 0
-9 -47 -58 0
-8 -30 -34 0
-8 -17 -34 0
-8 -17 -30 0
-7 -55 -60 0
-7 -14 -60 0
-7 -14 -55 0
-6 -28 -36 0
-6 -18 -36 0
-6 -18 -28 0
-5 -15 -25 0
-5 -13 -25 0
-5 -13 -15 0
-4 -41 -64 0
-4 -20 -64 0
-4 -20 -41 0
-3 -42 -43 0
-3 -27 -43 0
-3 -27 -42 0
-2 -29 -59 0
-2 -24 -59 0
-2 -24 -29 0
-1 -56 -57 0
-1 -22 -57 0
-1 -22 -56 0
1 12 24 0
1 12 64 0
1 24 64 0
2 10 22 0
2 10 38 0
2 22 38 0
3 18 35 0
3 18 49 0
3 35 49 0
4 29 63 0
4 29 65 0
4 63 65 0
5 23 32 0
5 23 57 0
5 32 57 0
6 11 42 0
6 11 58 0
6 42 58 0
7 28 47 0
7 28 52 0
7 28 61 0
7 47 52 0
7 47 61 0
7 52 61 0
8 14 27 0
8 14 40 0
8 27 40 0
9 21 36 0
9 21 46 0
9 36 46 0
10 22 38 0
11 42 58 0
12 24 64 0
13 26 56 0
13 26 59 0
13 56 59 0
14 27 40 0
15 16 48 0
15 16 53 0
15 48 53 0
16 48 53 0
17 31 60 0
17 31 62 0
17 60 62 0
18 35 49 0
19 20 33 0
19 20 45 0
19 33 45 0
20 33 45 0
21 36 46 0
23 32 57 0
25 41 44 0
25 41 54 0
25 44 54 0
26 56 59 0
28 47 52 0
28 47 61 0
28 52 61 0
29 63 65 0
30 39 50 0
30 39 55 0
30 50 55 0
31 60 62 0
34 37 43 0
34 37 51 0
34 43 51 0
37 43 51 0
39 50 55 0
41 44 54 0
47 52 61 0
