p cnf 49 108
-45 -46 -47 0
-38 -39 -48 0
-36 -41 -42 0
-34 -39 -48 0
-34 -38 -48 0
-34 -38 -39 0
-27 -41 -42 0
-27 -36 -42 0
-27 -36 -41 0
-26 -46 -47 0
-26 -45 -47 0
-26 -45 -46 0
-24 -35 -43 0
-23 -25 -49 0
-21 -30 -44 0
-18 -20 -22 0
-17 -31 -32 0
-16 -31 -32 0
-16 -17 -32 0
-16 -17 -31 0
-15 -25 -49 0
-15 -23 -49 0
-15 -23 -25 0
-14 -46 -47 0
-14 -45 -47 0
-14 -45 -46 0
-14 -26 -47 0
-14 -26 -46 0
-14 -26 -45 0
-11 -20 -22 0
-11 -18 -22 0
-11 -18 -20 0
-10 -28 -29 0
-9 -13 -37 0
-8 -13 -37 0
-8 -9 -37 0
-8 -9 -13 0
-7 -28 -29 0
-7 -10 -29 0
-7 -10 -28 0
-6 -35 -43 0
-6 -24 -43 0
-6 -24 -35 0
-5 -12 -19 0
-4 -33 -40 0
-3 -33 -40 0
-3 -4 -40 0
-3 -4 -33 0
-2 -12 -19 0
-2 -5 -19 0
-2 -5 -12 0
-1 -30 -44 0
-1 -21 -44 0
-1 -21 -30 0
1 11 27 0
1 11 48 0
1 27 48 0
2 35 40 0
2 35 47 0
2 40 47 0
3 13 19 0
3 13 24 0
3 19 24 0
4 9 28 0
4 9 43 0
4 28 43 0
5 7 14 0
5 7 33 0
5 14 33 0
6 8 29 0
6 8 45 0
6 29 45 0
7 14 33 0
8 29 45 0
9 28 43 0
10 12 37 0
10 12 46 0
10 37 46 0
11 27 48 0
12 37 46 0
13 19 24 0
15 16 26 0
15 16 34 0
15 16 41 0
15 26 34 0
15 26 41 0
15 34 41 0
16 26 34 0
16 26 41 0
16 34 41 0
17 21 25 0
17 21 38 0
17 25 38 0
18 32 36 0
18 32 49 0
18 36 49 0
20 23 30 0
20 23 42 0
20 30 42 0
21 25 38 0
22 31 39 0
22 31 44 0
22 39 44 0
23 30 42 0
26 34 41 0
31 39 44 0
32 36 49 0
35 40 47 0
