p cnf 49 108
-37 -42 -46 0
-34 -41 -47 0
-31 -40 -43 0
-30 -40 -43 0
-30 -31 -43 0
-30 -31 -40 0
-27 -44 -48 0
-23 -26 -35 0
-22 -36 -38 0
-20 -21 -49 0
-18 -24 -25 0
-17 -36 -38 0
-17 -22 -38 0
-17 -22 -36 0
-16 -28 -29 0
-14 -19 -39 0
-13 -41 -47 0
-13 -34 -47 0
-13 -34 -41 0
-12 -44 -48 0
-12 -27 -48 0
-12 -27 -44 0
-11 -21 -49 0
-11 -20 -49 0
-11 -20 -21 0
-10 -15 -33 0
-9 -15 -33 0
-9 -10 -33 0
-9 -10 -15 0
-8 -42 -46 0
-8 -37 -46 0
-8 -37 -42 0
-7 -28 -29 0
-7 -16 -29 0
-7 -16 -28 0
-6 -41 -47 0
-6 -34 -47 0
-6 -34 -41 0
-6 -13 -47 0
-6 -13 -41 0
-6 -13 -34 0
-5 -19 -39 0
-5 -14 -39 0
-5 -14 -19 0
-4 -24 -25 0
-4 -18 -25 0
-4 -18 -24 0
-3 -32 -45 0
-2 -26 -35 0
-2 -23 -35 0
-2 -23 -26 0
-1 -32 -45 0
-1 -3 -45 0
-1 -3 -32 0
1 8 14 0
1 8 23 0
1 14 23 0
2 3 25 0
2 3 37 0
2 25 37 0
3 25 37 0
4 19 29 0
4 19 45 0
4 29 45 0
5 7 26 0
5 7 42 0
5 26 42 0
6 20 38 0
6 20 43 0
6 38 43 0
7 26 42 0
8 14 23 0
9 31 36 0
9 31 48 0
9 36 48 0
10 30 44 0
10 30 47 0
10 44 47 0
11 15 22 0
11 15 34 0
11 22 34 0
12 13 21 0
12 13 33 0
12 21 33 0
13 21 33 0
15 22 34 0
16 18 35 0
16 18 39 0
16 18 41 0
16 35 39 0
16 35 41 0
16 39 41 0
17 27 40 0
17 27 49 0
17 40 49 0
18 35 39 0
18 35 41 0
18 39 41 0
19 29 45 0
20 38 43 0
24 28 32 0
24 28 46 0
24 32 46 0
27 40 49 0
28 32 46 0
30 44 47 0
31 36 48 0
35 39 41 0
