p cnf 73 156
-58 -66 -72 0
-54 -56 -65 0
-47 -69 -71 0
-45 -66 -72 0
-45 -58 -72 0
-45 -58 -66 0
-39 -57 -68 0
-35 -53 -61 0
-34 -50 -51 0
-33 -40 -64 0
-32 -37 -46 0
-31 -40 -64 0
-31 -33 -64 0
-31 -33 -40 0
-29 -62 -70 0
-27 -36 -67 0
-26 -44 -63 0
-25 -59 -73 0
-24 -56 -65 0
-24 -54 -65 0
-24 -54 -56 0
-23 -38 -42 0
-22 -28 -41 0
-21 -30 -43 0
-19 -57 -68 0
-19 -39 -68 0
-19 -39 -57 0
-18 -53 -61 0
-18 -35 -61 0
-18 -35 -53 0
-17 -50 -51 0
-17 -34 -51 0
-17 -34 -50 0
-16 -36 -67 0
-16 -27 -67 0
-16 -27 -36 0
-15 -49 -52 0
-14 -28 -41 0
-14 -22 -41 0
-14 -22 -28 0
-13 -20 -60 0
-12 -48 -55 0
-11 -49 -52 0
-11 -15 -52 0
-11 -15 -49 0
-10 -20 -60 0
-10 -13 -60 0
-10 -13 -20 0
-9 -37 -46 0
-9 -32 -46 0
-9 -32 -37 0
-8 -48 -55 0
-8 -12 -55 0
-8 -12 -48 0
-7 -57 -68 0
-7 -39 -68 0
-7 -39 -57 0
-7 -19 -68 0
-7 -19 -57 0
-7 -19 -39 0
-6 -69 -71 0
-6 -47 -71 0
-6 -47 -69 0
-5 -62 -70 0
-5 -29 -70 0
-5 -29 -62 0
-4 -59 -73 0
-4 -25 -73 0
-4 -25 -59 0
-3 -38 -42 0
-3 -23 -42 0
-3 -23 -38 0
-2 -30 -43 0
-2 -21 -43 0
-2 -21 -30 0
-1 -44 -63 0
-1 -26 -63 0
-1 -26 -44 0
1 2 10 0
1 2 42 0
1 10 42 0
2 10 42 0
3 7 20 0
3 7 71 0
3 20 71 0
4 19 22 0
4 19 46 0
4 22 46 0
5 12 16 0
5 12 18 0
5 16 18 0
6 13 37 0
6 13 68 0
6 37 68 0
7 20 71 0
8 24 35 0
8 24 64 0
8 35 64 0
9 25 26 0
9 25 28 0
9 26 28 0
11 40 51 0
11 40 56 0
11 40 57 0
11 51 56 0
11 51 57 0
11 56 57 0
12 16 18 0
13 37 68 0
14 30 44 0
14 30 59 0
14 44 59 0
15 17 31 0
15 17 72 0
15 31 72 0
17 31 72 0
19 22 46 0
21 38 60 0
21 38 69 0
21 60 69 0
23 41 43 0
23 41 63 0
23 43 63 0
24 35 64 0
25 26 28 0
27 45 49 0
27 45 62 0
27 49 62 0
29 36 53 0
29 36 66 0
29 53 66 0
30 44 59 0
32 39 47 0
32 39 73 0
32 47 73 0
33 50 54 0
33 50 55 0
33 54 55 0
34 52 58 0
34 52 70 0
34 58 70 0
36 53 66 0
38 60 69 0
39 47 73 0
40 51 56 0
40 51 57 0
40 56 57 0
41 43 63 0
45 49 62 0
48 61 65 0
48 61 67 0
48 65 67 0
50 54 55 0
51 56 57 0
52 58 70 0
61 65 67 0
