p cnf 49 108
-39 -43 -47 0
-34 -45 -46 0
-31 -42 -49 0
-29 -32 -44 0
-28 -43 -47 0
-28 -39 -47 0
-28 -39 -43 0
-26 -42 -49 0
-26 -31 -49 0
-26 -31 -42 0
-24 -27 -33 0
-22 -36 -37 0
-21 -36 -37 0
-21 -22 -37 0
-21 -22 -36 0
-20 -42 -49 0
-20 -31 -49 0
-20 -31 -42 0
-20 -26 -49 0
-20 -26 -42 0
-20 -26 -31 0
-19 -32 -44 0
-19 -29 -44 0
-19 -29 -32 0
-17 -27 -33 0
-17 -24 -33 0
-17 -24 -27 0
-14 -16 -38 0
-13 -23 -41 0
-12 -35 -48 0
-11 -25 -30 0
-10 -15 -40 0
-8 -23 -41 0
-8 -13 -41 0
-8 -13 -23 0
-7 -15 -40 0
-7 -10 -40 0
-7 -10 -15 0
-6 -9 -18 0
-5 -45 -46 0
-5 -34 -46 0
-5 -34 -45 0
-4 -35 -48 0
-4 -12 -48 0
-4 -12 -35 0
-3 -9 -18 0
-3 -6 -18 0
-3 -6 -9 0
-2 -16 -38 0
-2 -14 -38 0
-2 -14 -16 0
-1 -25 -30 0
-1 -11 -30 0
-1 -11 -25 0
1 4 15 0
1 4 32 0
1 15 32 0
2 10 12 0
2 10 25 0
2 12 25 0
3 23 43 0
3 23 46 0
3 43 46 0
4 15 32 0
5 21 26 0
5 21 27 0
5 21 47 0
5 26 27 0
5 26 47 0
5 27 47 0
6 24 41 0
6 24 45 0
6 41 45 0
7 16 42 0
7 16 48 0
7 42 48 0
8 9 28 0
8 9 36 0
8 28 36 0
9 28 36 0
10 12 25 0
11 38 44 0
11 38 49 0
11 44 49 0
13 17 34 0
13 17 37 0
13 34 37 0
14 20 29 0
14 20 40 0
14 29 40 0
16 42 48 0
17 34 37 0
18 22 33 0
18 22 39 0
18 33 39 0
19 30 31 0
19 30 35 0
19 31 35 0
20 29 40 0
21 26 27 0
21 26 47 0
21 27 47 0
22 33 39 0
23 43 46 0
24 41 45 0
26 27 47 0
30 31 35 0
38 44 49 0
