p cnf 65 140
-57 -58 -65 0
-46 -53 -60 0
-39 -41 -56 0
-38 -48 -64 0
-36 -41 -56 0
-36 -39 -56 0
-36 -39 -41 0
-30 -40 -52 0
-29 -37 -62 0
-28 -40 -52 0
-28 -30 -52 0
-28 -30 -40 0
-27 -31 -32 0
-25 -44 -59 0
-24 -43 -45 0
-23 -49 -50 0
-21 -40 -52 0
-21 -30 -52 0
-21 -30 -40 0
-21 -28 -52 0
-21 -28 -40 0
-21 -28 -30 0
-20 -53 -60 0
-20 -46 -60 0
-20 -46 -53 0
-19 -43 -45 0
-19 -24 -45 0
-19 -24 -43 0
-18 -55 -63 0
-17 -34 -54 0
-16 -55 -63 0
-16 -18 -63 0
-16 -18 -55 0
-15 -35 -42 0
-14 -49 -50 0
-14 -23 -50 0
-14 -23 -49 0
-13 -37 -62 0
-13 -29 -62 0
-13 -29 -37 0
-12 -26 -33 0
-11 -47 -51 0
-10 -48 -64 0
-10 -38 -64 0
-10 -38 -48 0
-9 -47 -51 0
-9 -11 -51 0
-9 -11 -47 0
-8 -26 -33 0
-8 -12 -33 0
-8 -12 -26 0
-7 -58 -65 0
-7 -57 -65 0
-7 -57 -58 0
-6 -22 -61 0
-5 -44 -59 0
-5 -25 -59 0
-5 -25 -44 0
-4 -34 -54 0
-4 -17 -54 0
-4 -17 -34 0
-3 -35 -42 0
-3 -15 -42 0
-3 -15 -35 0
-2 -31 -32 0
-2 -27 -32 0
-2 -27 -31 0
-1 -22 -61 0
-1 -6 -61 0
-1 -6 -22 0
1 38 45 0
1 38 50 0
1 45 50 0
2 9 12 0
2 9 30 0
2 12 30 0
3 13 18 0
3 13 28 0
3 18 28 0
4 20 41 0
4 20 64 0
4 41 64 0
5 15 51 0
5 15 55 0
5 51 55 0
6 7 54 0
6 7 56 0
6 54 56 0
7 54 56 0
8 21 27 0
8 21 62 0
8 27 62 0
9 12 30 0
10 14 24 0
10 14 60 0
10 24 60 0
11 25 26 0
11 25 32 0
11 26 32 0
13 18 28 0
14 24 60 0
15 51 55 0
16 33 44 0
16 33 47 0
16 44 47 0
17 19 48 0
17 19 53 0
17 48 53 0
19 48 53 0
20 41 64 0
21 27 62 0
22 23 36 0
22 23 65 0
22 36 65 0
23 36 65 0
25 26 32 0
29 35 59 0
29 35 63 0
29 59 63 0
31 37 42 0
31 37 52 0
31 42 52 0
33 44 47 0
34 39 40 0
34 39 46 0
34 39 57 0
34 40 46 0
34 40 57 0
34 46 57 0
35 59 63 0
37 42 52 0
38 45 50 0
39 40 46 0
39 40 57 0
39 46 57 0
40 46 57 0
43 49 58 0
43 49 61 0
43 58 61 0
49 58 61 0
