p cnf 57 124
-38 -50 -55 0
-35 -40 -53 0
-33 -34 -48 0
-31 -39 -54 0
-28 -40 -53 0
-28 -35 -53 0
-28 -35 -40 0
-26 -30 -51 0
-25 -27 -43 0
-23 -29 -56 0
-22 -46 -47 0
-21 -32 -49 0
-20 -32 -49 0
-20 -21 -49 0
-20 -21 -32 0
-19 -34 -48 0
-19 -33 -48 0
-19 -33 -34 0
-18 -46 -47 0
-18 -22 -47 0
-18 -22 -46 0
-17 -24 -52 0
-16 -36 -57 0
-15 -37 -41 0
-14 -39 -54 0
-14 -31 -54 0
-14 -31 -39 0
-13 -24 -52 0
-13 -17 -52 0
-13 -17 -24 0
-12 -44 -45 0
-11 -46 -47 0
-11 -22 -47 0
-11 -22 -46 0
-11 -18 -47 0
-11 -18 -46 0
-11 -18 -22 0
-10 -27 -43 0
-10 -25 -43 0
-10 -25 -27 0
-9 -50 -55 0
-9 -38 -55 0
-9 -38 -50 0
-8 -29 -56 0
-8 -23 -56 0
-8 -23 -29 0
-7 -36 -57 0
-7 -16 -57 0
-7 -16 -36 0
-6 -44 -45 0
-6 -12 -45 0
-6 -12 -44 0
-5 -37 -41 0
-5 -15 -41 0
-5 -15 -37 0
-3 -4 -42 0
-2 -4 -42 0
-2 -3 -42 0
-2 -3 -4 0
-1 -30 -51 0
-1 -26 -51 0
-1 -26 -30 0
1 21 29 0
1 21 55 0
1 29 55 0
2 34 41 0
2 34 53 0
2 41 53 0
3 13 19 0
3 13 28 0
3 19 28 0
4 17 25 0
4 17 35 0
4 25 35 0
5 7 33 0
5 7 42 0
5 33 42 0
6 8 38 0
6 8 39 0
6 38 39 0
7 33 42 0
8 38 39 0
9 22 31 0
9 22 44 0
9 31 44 0
10 36 37 0
10 36 48 0
10 37 48 0
11 15 27 0
11 15 52 0
11 15 57 0
11 27 52 0
11 27 57 0
11 52 57 0
12 46 49 0
12 46 54 0
12 49 54 0
13 19 28 0
14 18 32 0
14 18 51 0
14 32 51 0
15 27 52 0
15 27 57 0
15 52 57 0
16 24 40 0
16 24 43 0
16 40 43 0
17 25 35 0
18 32 51 0
20 23 30 0
20 23 47 0
20 30 47 0
21 29 55 0
22 31 44 0
23 30 47 0
24 40 43 0
26 45 50 0
26 45 56 0
26 50 56 0
27 52 57 0
34 41 53 0
36 37 48 0
45 50 56 0
46 49 54 0
