p cnf 49 108
-36 -39 -48 0
-33 -34 -35 0
-27 -28 -31 0
-26 -32 -37 0
-25 -30 -45 0
-24 -34 -35 0
-24 -33 -35 0
-24 -33 -34 0
-20 -39 -48 0
-20 -36 -48 0
-20 -36 -39 0
-19 -44 -46 0
-18 -38 -40 0
-17 -41 -47 0
-16 -44 -46 0
-16 -19 -46 0
-16 -19 -44 0
-15 -42 -43 0
-14 -23 -29 0
-13 -21 -22 0
-12 -32 -37 0
-12 -26 -37 0
-12 -26 -32 0
-10 -21 -22 0
-10 -13 -22 0
-10 -13 -21 0
-9 -11 -49 0
-8 -28 -31 0
-8 -27 -31 0
-8 -27 -28 0
-7 -41 -47 0
-7 -17 -47 0
-7 -17 -41 0
-6 -11 -49 0
-6 -9 -49 0
-6 -9 -11 0
-5 -42 -43 0
-5 -15 -43 0
-5 -15 -42 0
-4 -30 -45 0
-4 -25 -45 0
-4 -25 -30 0
-3 -38 -40 0
-3 -18 -40 0
-3 -18 -38 0
-2 -41 -47 0
-2 -17 -47 0
-2 -17 -41 0
-2 -7 -47 0
-2 -7 -41 0
-2 -7 -17 0
-1 -23 -29 0
-1 -14 -29 0
-1 -14 -23 0
1 3 4 0
1 3 46 0
1 4 46 0
2 13 18 0
2 13 45 0
2 18 45 0
3 4 46 0
5 11 31 0
5 11 35 0
5 31 35 0
6 8 24 0
6 8 41 0
6 8 48 0
6 24 41 0
6 24 48 0
6 41 48 0
7 21 30 0
7 21 44 0
7 30 44 0
8 24 41 0
8 24 48 0
8 41 48 0
9 26 27 0
9 26 43 0
9 27 43 0
10 23 38 0
10 23 47 0
10 38 47 0
11 31 35 0
12 33 36 0
12 33 49 0
12 36 49 0
13 18 45 0
14 19 22 0
14 19 40 0
14 22 40 0
15 20 28 0
15 20 37 0
15 28 37 0
16 17 25 0
16 17 29 0
16 25 29 0
17 25 29 0
19 22 40 0
20 28 37 0
21 30 44 0
23 38 47 0
24 41 48 0
26 27 43 0
32 34 39 0
32 34 42 0
32 39 42 0
33 36 49 0
34 39 42 0
