p cnf 33 76
-24 -29 -30 0
-22 -23 -27 0
-19 -26 -28 0
-16 -18 -32 0
-15 -20 -33 0
-13 -14 -25 0
-12 -18 -32 0
-12 -16 -32 0
-12 -16 -18 0
-11 -26 -28 0
-11 -19 -28 0
-11 -19 -26 0
-10 -14 -25 0
-10 -13 -25 0
-10 -13 -14 0
-9 -17 -31 0
-8 -20 -33 0
-8 -15 -33 0
-8 -15 -20 0
-6 -23 -27 0
-6 -22 -27 0
-6 -22 -23 0
-5 -17 -31 0
-5 -9 -31 0
-5 -9 -17 0
-4 -14 -25 0
-4 -13 -25 0
-4 -13 -14 0
-4 -10 -25 0
-4 -10 -14 0
-4 -10 -13 0
-3 -7 -21 0
-2 -29 -30 0
-2 -24 -30 0
-2 -24 -29 0
-1 -7 -21 0
-1 -3 -21 0
-1 -3 -7 0
1 2 22 0
1 2 25 0
1 22 25 0
2 22 25 0
3 4 23 0
3 4 30 0
3 23 30 0
4 23 30 0
5 15 16 0
5 15 19 0
5 16 19 0
6 13 21 0
6 13 29 0
6 21 29 0
7 14 24 0
7 14 27 0
7 24 27 0
8 11 12 0
8 11 31 0
8 12 31 0
9 10 18 0
9 10 20 0
9 10 28 0
9 18 20 0
9 18 28 0
9 20 28 0
10 18 20 0
10 18 28 0
10 20 28 0
11 12 31 0
13 21 29 0
14 24 27 0
15 16 19 0
17 26 32 0
17 26 33 0
17 32 33 0
18 20 28 0
26 32 33 0
