p cnf 41 92
-30 -32 -34 0
-27 -28 -39 0
-22 -37 -38 0
-20 -26 -36 0
-17 -18 -25 0
-16 -37 -38 0
-16 -22 -38 0
-16 -22 -37 0
-15 -31 -41 0
-14 -33 -40 0
-13 -19 -23 0
-12 -21 -24 0
-11 -26 -36 0
-11 -20 -36 0
-11 -20 -26 0
-10 -26 -36 0
-10 -20 -36 0
-10 -20 -26 0
-10 -11 -36 0
-10 -11 -26 0
-10 -11 -20 0
-9 -28 -39 0
-9 -27 -39 0
-9 -27 -28 0
-8 -29 -35 0
-7 -31 -41 0
-7 -15 -41 0
-7 -15 -31 0
-6 -29 -35 0
-6 -8 -35 0
-6 -8 -29 0
-5 -32 -34 0
-5 -30 -34 0
-5 -30 -32 0
-4 -21 -24 0
-4 -12 -24 0
-4 -12 -21 0
-3 -19 -23 0
-3 -13 -23 0
-3 -13 -19 0
-2 -33 -40 0
-2 -14 -40 0
-2 -14 -33 0
-1 -18 -25 0
-1 -17 -25 0
-1 -17 -18 0
1 4 15 0
1 4 19 0
1 15 19 0
2 5 8 0
2 5 9 0
2 8 9 0
3 12 16 0
3 12 25 0
3 16 25 0
4 15 19 0
5 8 9 0
6 10 39 0
6 10 40 0
6 39 40 0
7 21 22 0
7 21 23 0
7 21 36 0
7 22 23 0
7 22 36 0
7 23 36 0
10 39 40 0
11 28 32 0
11 28 35 0
11 32 35 0
12 16 25 0
13 17 37 0
13 17 41 0
13 37 41 0
14 20 29 0
14 20 34 0
14 29 34 0
17 37 41 0
18 24 31 0
18 24 38 0
18 31 38 0
20 29 34 0
21 22 23 0
21 22 36 0
21 23 36 0
22 23 36 0
24 31 38 0
26 27 30 0
26 27 33 0
26 30 33 0
27 30 33 0
28 32 35 0
