p cnf 57 124
-52 -53 -56 0
-39 -45 -55 0
-35 -42 -51 0
-33 -36 -41 0
-30 -45 -55 0
-30 -39 -55 0
-30 -39 -45 0
-29 -43 -48 0
-28 -34 -46 0
-27 -34 -46 0
-27 -28 -46 0
-27 -28 -34 0
-26 -43 -48 0
-26 -29 -48 0
-26 -29 -43 0
-25 -31 -38 0
-24 -32 -54 0
-23 -42 -51 0
-23 -35 -51 0
-23 -35 -42 0
-19 -21 -40 0
-18 -20 -47 0
-17 -49 -57 0
-16 -37 -44 0
-14 -31 -38 0
-14 -25 -38 0
-14 -25 -31 0
-13 -53 -56 0
-13 -52 -56 0
-13 -52 -53 0
-12 -22 -50 0
-11 -22 -50 0
-11 -12 -50 0
-11 -12 -22 0
-10 -49 -57 0
-10 -17 -57 0
-10 -17 -49 0
-8 -9 -15 0
-7 -32 -54 0
-7 -24 -54 0
-7 -24 -32 0
-6 -20 -47 0
-6 -18 -47 0
-6 -18 -20 0
-5 -9 -15 0
-5 -8 -15 0
-5 -8 -9 0
-4 -21 -40 0
-4 -19 -40 0
-4 -19 -21 0
-3 -49 -57 0
-3 -17 -57 0
-3 -17 -49 0
-3 -10 -57 0
-3 -10 -49 0
-3 -10 -17 0
-2 -36 -41 0
-2 -33 -41 0
-2 -33 -36 0
-1 -37 -44 0
-1 -16 -44 0
-1 -16 -37 0
1 6 36 0
1 6 51 0
1 36 51 0
2 5 46 0
2 5 55 0
2 46 55 0
3 21 31 0
3 21 54 0
3 31 54 0
4 10 11 0
4 10 38 0
4 11 38 0
5 46 55 0
6 36 51 0
7 19 29 0
7 19 53 0
7 29 53 0
8 20 23 0
8 20 33 0
8 23 33 0
9 16 28 0
9 16 39 0
9 28 39 0
10 11 38 0
12 13 24 0
12 13 43 0
12 24 43 0
13 24 43 0
14 22 48 0
14 22 52 0
14 48 52 0
15 41 45 0
15 41 47 0
15 41 57 0
15 45 47 0
15 45 57 0
15 47 57 0
16 28 39 0
17 25 26 0
17 25 50 0
17 26 50 0
18 34 42 0
18 34 44 0
18 42 44 0
19 29 53 0
20 23 33 0
21 31 54 0
22 48 52 0
25 26 50 0
27 30 35 0
27 30 37 0
27 35 37 0
30 35 37 0
32 40 49 0
32 40 56 0
32 49 56 0
34 42 44 0
40 49 56 0
41 45 47 0
41 45 57 0
41 47 57 0
45 47 57 0
