p cnf 41 92
-32 -40 -41 0
-26 -33 -38 0
-24 -35 -36 0
-21 -35 -36 0
-21 -24 -36 0
-21 -24 -35 0
-20 -30 -39 0
-19 -40 -41 0
-19 -32 -41 0
-19 -32 -40 0
-16 -18 -28 0
-15 -18 -28 0
-15 -16 -28 0
-15 -16 -18 0
-14 -17 -22 0
-13 -27 -37 0
-12 -29 -34 0
-11 -33 -38 0
-11 -26 -38 0
-11 -26 -33 0
-9 -10 -25 0
-8 -23 -31 0
-7 -27 -37 0
-7 -13 -37 0
-7 -13 -27 0
-6 -10 -25 0
-6 -9 -25 0
-6 -9 -10 0
-5 -29 -34 0
-5 -12 -34 0
-5 -12 -29 0
-4 -17 -22 0
-4 -14 -22 0
-4 -14 -17 0
-3 -23 -31 0
-3 -8 -31 0
-3 -8 -23 0
-2 -30 -39 0
-2 -20 -39 0
-2 -20 -30 0
-1 -29 -34 0
-1 -12 -34 0
-1 -12 -29 0
-1 -5 -34 0
-1 -5 -29 0
-1 -5 -12 0
1 11 25 0
1 11 27 0
1 25 27 0
2 22 23 0
2 22 40 0
2 23 40 0
3 19 20 0
3 19 28 0
3 20 28 0
4 8 16 0
4 8 30 0
4 8 34 0
4 16 30 0
4 16 34 0
4 30 34 0
5 7 33 0
5 7 35 0
5 33 35 0
6 21 29 0
6 21 38 0
6 29 38 0
7 33 35 0
8 16 30 0
8 16 34 0
8 30 34 0
9 13 24 0
9 13 26 0
9 24 26 0
10 12 36 0
10 12 37 0
10 36 37 0
11 25 27 0
12 36 37 0
13 24 26 0
14 18 32 0
14 18 39 0
14 32 39 0
15 17 31 0
15 17 41 0
15 31 41 0
16 30 34 0
17 31 41 0
18 32 39 0
19 20 28 0
21 29 38 0
22 23 40 0
