p cnf 41 92
-32 -40 -41 0
-29 -31 -39 0
-26 -40 -41 0
-26 -32 -41 0
-26 -32 -40 0
-23 -28 -37 0
-19 -24 -35 0
-17 -22 -25 0
-16 -21 -27 0
-15 -34 -36 0
-14 -18 -20 0
-13 -31 -39 0
-13 -29 -39 0
-13 -29 -31 0
-12 -22 -25 0
-12 -17 -25 0
-12 -17 -22 0
-11 -18 -20 0
-11 -14 -20 0
-11 -14 -18 0
-10 -30 -33 0
-9 -40 -41 0
-9 -32 -41 0
-9 -32 -40 0
-9 -26 -41 0
-9 -26 -40 0
-9 -26 -32 0
-8 -34 -36 0
-8 -15 -36 0
-8 -15 -34 0
-6 -7 -38 0
-5 -24 -35 0
-5 -19 -35 0
-5 -19 -24 0
-4 -21 -27 0
-4 -16 -27 0
-4 -16 -21 0
-3 -30 -33 0
-3 -10 -33 0
-3 -10 -30 0
-2 -7 -38 0
-2 -6 -38 0
-2 -6 -7 0
-1 -28 -37 0
-1 -23 -37 0
-1 -23 -28 0
1 7 19 0
1 7 26 0
1 19 26 0
2 9 34 0
2 9 35 0
2 34 35 0
3 4 12 0
3 4 20 0
3 12 20 0
4 12 20 0
5 6 15 0
5 6 28 0
5 15 28 0
6 15 28 0
7 19 26 0
8 23 38 0
8 23 41 0
8 38 41 0
9 34 35 0
10 14 17 0
10 14 29 0
10 17 29 0
11 13 27 0
11 13 33 0
11 27 33 0
13 27 33 0
14 17 29 0
16 18 22 0
16 18 32 0
16 18 39 0
16 22 32 0
16 22 39 0
16 32 39 0
18 22 32 0
18 22 39 0
18 32 39 0
21 25 30 0
21 25 31 0
21 30 31 0
22 32 39 0
23 38 41 0
24 36 37 0
24 36 40 0
24 37 40 0
25 30 31 0
36 37 40 0
