p cnf 33 76
-29 -31 -32 0
-23 -31 -32 0
-23 -29 -32 0
-23 -29 -31 0
-21 -24 -26 0
-17 -20 -22 0
-16 -18 -30 0
-12 -15 -27 0
-11 -20 -22 0
-11 -17 -22 0
-11 -17 -20 0
-10 -13 -33 0
-9 -15 -27 0
-9 -12 -27 0
-9 -12 -15 0
-8 -13 -33 0
-8 -10 -33 0
-8 -10 -13 0
-7 -25 -28 0
-6 -24 -26 0
-6 -21 -26 0
-6 -21 -24 0
-5 -31 -32 0
-5 -29 -32 0
-5 -29 -31 0
-5 -23 -32 0
-5 -23 -31 0
-5 -23 -29 0
-4 -18 -30 0
-4 -16 -30 0
-4 -16 -18 0
-3 -14 -19 0
-2 -14 -19 0
-2 -3 -19 0
-2 -3 -14 0
-1 -25 -28 0
-1 -7 -28 0
-1 -7 -25 0
1 16 17 0
1 16 26 0
1 17 26 0
2 8 15 0
2 8 31 0
2 15 31 0
3 10 12 0
3 10 32 0
3 12 32 0
4 7 20 0
4 7 24 0
4 20 24 0
5 6 22 0
5 6 28 0
5 6 30 0
5 22 28 0
5 22 30 0
5 28 30 0
6 22 28 0
6 22 30 0
6 28 30 0
7 20 24 0
8 15 31 0
9 14 23 0
9 14 33 0
9 23 33 0
10 12 32 0
11 18 21 0
11 18 25 0
11 21 25 0
13 19 27 0
13 19 29 0
13 27 29 0
14 23 33 0
16 17 26 0
18 21 25 0
19 27 29 0
22 28 30 0
