p cnf 57 124
-41 -46 -57 0
-38 -47 -53 0
-35 -37 -44 0
-34 -42 -51 0
-33 -42 -51 0
-33 -34 -51 0
-33 -34 -42 0
-32 -49 -54 0
-31 -45 -48 0
-28 -29 -52 0
-25 -49 -54 0
-25 -32 -54 0
-25 -32 -49 0
-24 -27 -43 0
-23 -47 -53 0
-23 -38 -53 0
-23 -38 -47 0
-19 -27 -43 0
-19 -24 -43 0
-19 -24 -27 0
-18 -37 -44 0
-18 -35 -44 0
-18 -35 -37 0
-17 -20 -30 0
-16 -22 -26 0
-15 -21 -39 0
-14 -20 -30 0
-14 -17 -30 0
-14 -17 -20 0
-13 -46 -57 0
-13 -41 -57 0
-13 -41 -46 0
-12 -55 -56 0
-10 -36 -50 0
-9 -29 -52 0
-9 -28 -52 0
-9 -28 -29 0
-8 -55 -56 0
-8 -12 -56 0
-8 -12 -55 0
-7 -36 -50 0
-7 -10 -50 0
-7 -10 -36 0
-6 -11 -40 0
-5 -21 -39 0
-5 -15 -39 0
-5 -15 -21 0
-4 -11 -40 0
-4 -6 -40 0
-4 -6 -11 0
-3 -11 -40 0
-3 -6 -40 0
-3 -6 -11 0
-3 -4 -40 0
-3 -4 -11 0
-3 -4 -6 0
-2 -45 -48 0
-2 -31 -48 0
-2 -31 -45 0
-1 -22 -26 0
-1 -16 -26 0
-1 -16 -22 0
1 9 25 0
1 9 30 0
1 25 30 0
2 12 15 0
2 12 50 0
2 15 50 0
3 10 18 0
3 10 51 0
3 18 51 0
4 37 42 0
4 37 55 0
4 42 55 0
5 7 34 0
5 7 45 0
5 34 45 0
6 21 48 0
6 21 56 0
6 48 56 0
7 34 45 0
8 11 31 0
8 11 44 0
8 31 44 0
9 25 30 0
10 18 51 0
11 31 44 0
12 15 50 0
13 17 19 0
13 17 28 0
13 19 28 0
14 24 29 0
14 24 54 0
14 29 54 0
16 38 49 0
16 38 52 0
16 49 52 0
17 19 28 0
20 27 41 0
20 27 53 0
20 41 53 0
21 48 56 0
22 32 47 0
22 32 57 0
22 47 57 0
23 26 40 0
23 26 43 0
23 26 46 0
23 40 43 0
23 40 46 0
23 43 46 0
24 29 54 0
26 40 43 0
26 40 46 0
26 43 46 0
27 41 53 0
32 47 57 0
33 35 36 0
33 35 39 0
33 36 39 0
35 36 39 0
37 42 55 0
38 49 52 0
40 43 46 0
