p cnf 41 92
-27 -32 -35 0
-26 -38 -41 0
-23 -38 -41 0
-23 -26 -41 0
-23 -26 -38 0
-22 -32 -35 0
-22 -27 -35 0
-22 -27 -32 0
-20 -28 -37 0
-18 -28 -37 0
-18 -20 -37 0
-18 -20 -28 0
-16 -24 -40 0
-15 -33 -39 0
-14 -17 -30 0
-12 -21 -31 0
-11 -29 -36 0
-10 -19 -34 0
-9 -19 -34 0
-9 -10 -34 0
-9 -10 -19 0
-8 -13 -25 0
-7 -24 -40 0
-7 -16 -40 0
-7 -16 -24 0
-6 -21 -31 0
-6 -12 -31 0
-6 -12 -21 0
-5 -29 -36 0
-5 -11 -36 0
-5 -11 -29 0
-4 -13 -25 0
-4 -8 -25 0
-4 -8 -13 0
-3 -17 -30 0
-3 -14 -30 0
-3 -14 -17 0
-2 -17 -30 0
-2 -14 -30 0
-2 -14 -17 0
-2 -3 -30 0
-2 -3 -17 0
-2 -3 -14 0
-1 -33 -39 0
-1 -15 -39 0
-1 -15 -33 0
1 34 38 0
1 34 40 0
1 38 40 0
2 13 18 0
2 13 36 0
2 18 36 0
3 10 15 0
3 10 24 0
3 10 31 0
3 15 24 0
3 15 31 0
3 24 31 0
4 5 14 0
4 5 35 0
4 14 35 0
5 14 35 0
6 16 19 0
6 16 26 0
6 19 26 0
7 12 33 0
7 12 41 0
7 33 41 0
8 28 29 0
8 28 32 0
8 29 32 0
9 21 23 0
9 21 39 0
9 23 39 0
10 15 24 0
10 15 31 0
10 24 31 0
11 22 30 0
11 22 37 0
11 30 37 0
12 33 41 0
13 18 36 0
15 24 31 0
16 19 26 0
17 20 25 0
17 20 27 0
17 25 27 0
20 25 27 0
21 23 39 0
22 30 37 0
28 29 32 0
34 38 40 0
