p cnf 49 108
-36 -44 -49 0
-34 -41 -45 0
-29 -37 -38 0
-28 -35 -42 0
-24 -31 -33 0
-23 -31 -33 0
-23 -24 -33 0
-23 -24 -31 0
-21 -41 -45 0
-21 -34 -45 0
-21 -34 -41 0
-19 -37 -38 0
-19 -29 -38 0
-19 -29 -37 0
-18 -32 -48 0
-16 -31 -33 0
-16 -24 -33 0
-16 -24 -31 0
-16 -23 -33 0
-16 -23 -31 0
-16 -23 -24 0
-15 -43 -46 0
-14 -25 -30 0
-13 -35 -42 0
-13 -28 -42 0
-13 -28 -35 0
-12 -43 -46 0
-12 -15 -46 0
-12 -15 -43 0
-11 -17 -22 0
-10 -17 -22 0
-10 -11 -22 0
-10 -11 -17 0
-9 -39 -47 0
-8 -39 -47 0
-8 -9 -47 0
-8 -9 -39 0
-7 -20 -40 0
-6 -20 -40 0
-6 -7 -40 0
-6 -7 -20 0
-5 -26 -27 0
-4 -25 -30 0
-4 -14 -30 0
-4 -14 -25 0
-3 -26 -27 0
-3 -5 -27 0
-3 -5 -26 0
-2 -32 -48 0
-2 -18 -48 0
-2 -18 -32 0
-1 -44 -49 0
-1 -36 -49 0
-1 -36 -44 0
1 7 15 0
1 7 34 0
1 15 34 0
2 4 5 0
2 4 29 0
2 5 29 0
3 22 25 0
3 22 38 0
3 25 38 0
4 5 29 0
6 9 21 0
6 9 35 0
6 21 35 0
7 15 34 0
8 20 42 0
8 20 44 0
8 42 44 0
9 21 35 0
10 16 18 0
10 16 30 0
10 18 30 0
11 14 23 0
11 14 37 0
11 23 37 0
12 40 47 0
12 40 49 0
12 47 49 0
13 39 41 0
13 39 43 0
13 41 43 0
14 23 37 0
16 18 30 0
17 27 31 0
17 27 48 0
17 31 48 0
19 26 32 0
19 26 33 0
19 32 33 0
20 42 44 0
22 25 38 0
24 28 36 0
24 28 45 0
24 28 46 0
24 36 45 0
24 36 46 0
24 45 46 0
26 32 33 0
27 31 48 0
28 36 45 0
28 36 46 0
28 45 46 0
36 45 46 0
39 41 43 0
40 47 49 0
