p cnf 73 156
-63 -66 -70 0
-52 -58 -60 0
-51 -58 -60 0
-51 -52 -60 0
-51 -52 -58 0
-49 -54 -64 0
-45 -61 -62 0
-37 -56 -71 0
-34 -59 -73 0
-33 -48 -50 0
-32 -36 -55 0
-30 -59 -73 0
-30 -34 -73 0
-30 -34 -59 0
-29 -56 -71 0
-29 -37 -71 0
-29 -37 -56 0
-28 -66 -70 0
-28 -63 -70 0
-28 -63 -66 0
-27 -39 -68 0
-25 -31 -69 0
-24 -38 -47 0
-23 -35 -53 0
-21 -43 -46 0
-20 -65 -72 0
-19 -22 -40 0
-18 -36 -55 0
-18 -32 -55 0
-18 -32 -36 0
-17 -38 -47 0
-17 -24 -47 0
-17 -24 -38 0
-16 -39 -68 0
-16 -27 -68 0
-16 -27 -39 0
-15 -61 -62 0
-15 -45 -62 0
-15 -45 -61 0
-14 -65 -72 0
-14 -20 -72 0
-14 -20 -65 0
-13 -43 -46 0
-13 -21 -46 0
-13 -21 -43 0
-12 -41 -44 0
-11 -57 -67 0
-10 -22 -40 0
-10 -19 -40 0
-10 -19 -22 0
-9 -22 -40 0
-9 -19 -40 0
-9 -19 -22 0
-9 -10 -40 0
-9 -10 -22 0
-9 -10 -19 0
-8 -57 -67 0
-8 -11 -67 0
-8 -11 -57 0
-7 -48 -50 0
-7 -33 -50 0
-7 -33 -48 0
-6 -26 -42 0
-5 -26 -42 0
-5 -6 -42 0
-5 -6 -26 0
-4 -41 -44 0
-4 -12 -44 0
-4 -12 -41 0
-3 -31 -69 0
-3 -25 -69 0
-3 -25 -31 0
-2 -35 -53 0
-2 -23 -53 0
-2 -23 -35 0
-1 -54 -64 0
-1 -49 -64 0
-1 -49 -54 0
1 5 38 0
1 5 48 0
1 38 48 0
2 44 58 0
2 44 64 0
2 58 64 0
3 12 34 0
3 12 52 0
3 34 52 0
4 47 53 0
4 47 54 0
4 53 54 0
5 38 48 0
6 24 31 0
6 24 50 0
6 31 50 0
7 17 23 0
7 17 49 0
7 23 49 0
8 15 18 0
8 15 29 0
8 18 29 0
9 30 42 0
9 30 51 0
9 30 69 0
9 42 51 0
9 42 69 0
9 51 69 0
10 14 27 0
10 14 70 0
10 27 70 0
11 19 45 0
11 19 71 0
11 45 71 0
12 34 52 0
13 20 55 0
13 20 63 0
13 55 63 0
14 27 70 0
15 18 29 0
16 46 66 0
16 46 72 0
16 66 72 0
17 23 49 0
19 45 71 0
20 55 63 0
21 36 37 0
21 36 61 0
21 37 61 0
22 39 56 0
22 39 67 0
22 56 67 0
24 31 50 0
25 26 33 0
25 26 73 0
25 33 73 0
26 33 73 0
28 40 57 0
28 40 68 0
28 57 68 0
30 42 51 0
30 42 69 0
30 51 69 0
32 43 62 0
32 43 65 0
32 62 65 0
35 41 59 0
35 41 60 0
35 59 60 0
36 37 61 0
39 56 67 0
40 57 68 0
41 59 60 0
42 51 69 0
43 62 65 0
44 58 64 0
46 66 72 0
47 53 54 0
