p cnf 33 76
-23 -26 -33 0
-18 -20 -28 0
-17 -27 -31 0
-16 -19 -22 0
-14 -21 -30 0
-13 -20 -28 0
-13 -18 -28 0
-13 -18 -20 0
-12 -26 -33 0
-12 -23 -33 0
-12 -23 -26 0
-11 -15 -32 0
-9 -24 -25 0
-8 -10 -29 0
-7 -21 -30 0
-7 -14 -30 0
-7 -14 -21 0
-6 -10 -29 0
-6 -8 -29 0
-6 -8 -10 0
-5 -15 -32 0
-5 -11 -32 0
-5 -11 -15 0
-4 -24 -25 0
-4 -9 -25 0
-4 -9 -24 0
-3 -27 -31 0
-3 -17 -31 0
-3 -17 -27 0
-2 -19 -22 0
-2 -16 -22 0
-2 -16 -19 0
-1 -15 -32 0
-1 -11 -32 0
-1 -11 -15 0
-1 -5 -32 0
-1 -5 -15 0
-1 -5 -11 0
1 17 19 0
1 17 21 0
1 19 21 0
2 14 31 0
2 14 32 0
2 31 32 0
3 7 11 0
3 7 16 0
3 11 16 0
4 8 20 0
4 8 26 0
4 20 26 0
5 22 27 0
5 22 30 0
5 27 30 0
6 12 18 0
6 12 24 0
6 18 24 0
7 11 16 0
8 20 26 0
9 10 15 0
9 10 23 0
9 10 28 0
9 15 23 0
9 15 28 0
9 23 28 0
10 15 23 0
10 15 28 0
10 23 28 0
12 18 24 0
13 25 29 0
13 25 33 0
13 29 33 0
14 31 32 0
15 23 28 0
17 19 21 0
22 27 30 0
25 29 33 0
