p cnf 49 108
-36 -38 -45 0
-32 -39 -41 0
-26 -31 -34 0
-25 -47 -49 0
-24 -28 -46 0
-23 -39 -41 0
-23 -32 -41 0
-23 -32 -39 0
-22 -38 -45 0
-22 -36 -45 0
-22 -36 -38 0
-20 -21 -33 0
-17 -27 -29 0
-16 -27 -29 0
-16 -17 -29 0
-16 -17 -27 0
-15 -31 -34 0
-15 -26 -34 0
-15 -26 -31 0
-14 -19 -44 0
-13 -18 -40 0
-12 -30 -42 0
-11 -47 -49 0
-11 -25 -49 0
-11 -25 -47 0
-10 -37 -48 0
-9 -35 -43 0
-8 -37 -48 0
-8 -10 -48 0
-8 -10 -37 0
-7 -21 -33 0
-7 -20 -33 0
-7 -20 -21 0
-6 -30 -42 0
-6 -12 -42 0
-6 -12 -30 0
-5 -35 -43 0
-5 -9 -43 0
-5 -9 -35 0
-4 -19 -44 0
-4 -14 -44 0
-4 -14 -19 0
-3 -37 -48 0
-3 -10 -48 0
-3 -10 -37 0
-3 -8 -48 0
-3 -8 -37 0
-3 -8 -10 0
-2 -28 -46 0
-2 -24 -46 0
-2 -24 -28 0
-1 -18 -40 0
-1 -13 -40 0
-1 -13 -18 0
1 9 14 0
1 9 31 0
1 14 31 0
2 7 30 0
2 7 36 0
2 30 36 0
3 6 20 0
3 6 38 0
3 20 38 0
4 15 27 0
4 15 43 0
4 27 43 0
5 13 41 0
5 13 44 0
5 41 44 0
6 20 38 0
7 30 36 0
8 12 21 0
8 12 25 0
8 21 25 0
9 14 31 0
10 28 42 0
10 28 49 0
10 42 49 0
11 22 24 0
11 22 48 0
11 24 48 0
12 21 25 0
13 41 44 0
15 27 43 0
16 18 23 0
16 18 35 0
16 23 35 0
17 19 26 0
17 19 39 0
17 26 39 0
18 23 35 0
19 26 39 0
22 24 48 0
28 42 49 0
29 32 34 0
29 32 37 0
29 32 40 0
29 34 37 0
29 34 40 0
29 37 40 0
32 34 37 0
32 34 40 0
32 37 40 0
33 45 46 0
33 45 47 0
33 46 47 0
34 37 40 0
45 46 47 0
