p cnf 49 108
-41 -42 -49 0
-34 -39 -45 0
-33 -35 -48 0
-32 -39 -45 0
-32 -34 -45 0
-32 -34 -39 0
-29 -37 -46 0
-24 -25 -40 0
-23 -42 -49 0
-23 -41 -49 0
-23 -41 -42 0
-22 -27 -38 0
-20 -28 -43 0
-18 -28 -43 0
-18 -20 -43 0
-18 -20 -28 0
-17 -37 -46 0
-17 -29 -46 0
-17 -29 -37 0
-15 -19 -44 0
-14 -19 -44 0
-14 -15 -44 0
-14 -15 -19 0
-13 -30 -36 0
-12 -26 -47 0
-11 -30 -36 0
-11 -13 -36 0
-11 -13 -30 0
-9 -26 -47 0
-9 -12 -47 0
-9 -12 -26 0
-8 -27 -38 0
-8 -22 -38 0
-8 -22 -27 0
-7 -25 -40 0
-7 -24 -40 0
-7 -24 -25 0
-6 -28 -43 0
-6 -20 -43 0
-6 -20 -28 0
-6 -18 -43 0
-6 -18 -28 0
-6 -18 -20 0
-5 -10 -31 0
-4 -10 -31 0
-4 -5 -31 0
-4 -5 -10 0
-3 -16 -21 0
-2 -16 -21 0
-2 -3 -21 0
-2 -3 -16 0
-1 -35 -48 0
-1 -33 -48 0
-1 -33 -35 0
1 22 45 0
1 22 47 0
1 45 47 0
2 12 30 0
2 12 35 0
2 30 35 0
3 8 13 0
3 8 48 0
3 13 48 0
4 19 29 0
4 19 40 0
4 29 40 0
5 14 37 0
5 14 42 0
5 37 42 0
6 7 10 0
6 7 46 0
6 10 46 0
7 10 46 0
8 13 48 0
9 11 33 0
9 11 34 0
9 33 34 0
11 33 34 0
12 30 35 0
14 37 42 0
15 18 23 0
15 18 31 0
15 23 31 0
16 27 36 0
16 27 39 0
16 36 39 0
17 25 28 0
17 25 41 0
17 28 41 0
18 23 31 0
19 29 40 0
20 24 44 0
20 24 49 0
20 44 49 0
21 26 32 0
21 26 38 0
21 26 43 0
21 32 38 0
21 32 43 0
21 38 43 0
22 45 47 0
24 44 49 0
25 28 41 0
26 32 38 0
26 32 43 0
26 38 43 0
27 36 39 0
32 38 43 0
