p cnf 41 92
-29 -35 -40 0
-27 -38 -41 0
-24 -30 -36 0
-23 -30 -36 0
-23 -24 -36 0
-23 -24 -30 0
-22 -35 -40 0
-22 -29 -40 0
-22 -29 -35 0
-20 -21 -34 0
-17 -19 -39 0
-16 -19 -39 0
-16 -17 -39 0
-16 -17 -19 0
-13 -25 -28 0
-12 -21 -34 0
-12 -20 -34 0
-12 -20 -21 0
-11 -15 -31 0
-10 -14 -32 0
-9 -18 -26 0
-8 -18 -26 0
-8 -9 -26 0
-8 -9 -18 0
-7 -38 -41 0
-7 -27 -41 0
-7 -27 -38 0
-6 -33 -37 0
-5 -15 -31 0
-5 -11 -31 0
-5 -11 -15 0
-4 -33 -37 0
-4 -6 -37 0
-4 -6 -33 0
-3 -14 -32 0
-3 -10 -32 0
-3 -10 -14 0
-2 -25 -28 0
-2 -13 -28 0
-2 -13 -25 0
-1 -19 -39 0
-1 -17 -39 0
-1 -17 -19 0
-1 -16 -39 0
-1 -16 -19 0
-1 -16 -17 0
1 14 24 0
1 14 34 0
1 24 34 0
2 4 5 0
2 4 35 0
2 5 35 0
3 9 17 0
3 9 21 0
3 17 21 0
4 5 35 0
6 22 28 0
6 22 38 0
6 22 39 0
6 28 38 0
6 28 39 0
6 38 39 0
7 15 29 0
7 15 37 0
7 29 37 0
8 19 20 0
8 19 23 0
8 20 23 0
9 17 21 0
10 16 18 0
10 16 30 0
10 18 30 0
11 25 33 0
11 25 41 0
11 33 41 0
12 26 32 0
12 26 36 0
12 32 36 0
13 27 31 0
13 27 40 0
13 31 40 0
14 24 34 0
15 29 37 0
16 18 30 0
19 20 23 0
22 28 38 0
22 28 39 0
22 38 39 0
25 33 41 0
26 32 36 0
27 31 40 0
28 38 39 0
