p cnf 65 140
-56 -57 -60 0
-45 -53 -55 0
-40 -41 -64 0
-39 -49 -59 0
-34 -42 -61 0
-32 -44 -48 0
-31 -37 -52 0
-30 -37 -52 0
-30 -31 -52 0
-30 -31 -37 0
-28 -42 -61 0
-28 -34 -61 0
-28 -34 -42 0
-27 -57 -60 0
-27 -56 -60 0
-27 -56 -57 0
-26 -46 -54 0
-23 -44 -48 0
-23 -32 -48 0
-23 -32 -44 0
-21 -24 -63 0
-20 -22 -33 0
-19 -47 -51 0
-18 -53 -55 0
-18 -45 -55 0
-18 -45 -53 0
-17 -25 -62 0
-16 -41 -64 0
-16 -40 -64 0
-16 -40 -41 0
-15 -38 -50 0
-14 -49 -59 0
-14 -39 -59 0
-14 -39 -49 0
-13 -43 -58 0
-12 -53 -55 0
-12 -45 -55 0
-12 -45 -53 0
-12 -18 -55 0
-12 -18 -53 0
-12 -18 -45 0
-11 -46 -54 0
-11 -26 -54 0
-11 -26 -46 0
-10 -47 -51 0
-10 -19 -51 0
-10 -19 -47 0
-9 -38 -50 0
-9 -15 -50 0
-9 -15 -38 0
-8 -29 -36 0
-7 -35 -65 0
-6 -35 -65 0
-6 -7 -65 0
-6 -7 -35 0
-5 -43 -58 0
-5 -13 -58 0
-5 -13 -43 0
-4 -24 -63 0
-4 -21 -63 0
-4 -21 -24 0
-3 -22 -33 0
-3 -20 -33 0
-3 -20 -22 0
-2 -29 -36 0
-2 -8 -36 0
-2 -8 -29 0
-1 -25 -62 0
-1 -17 -62 0
-1 -17 -25 0
1 3 13 0
1 3 14 0
1 13 14 0
2 6 58 0
2 6 63 0
2 58 63 0
3 13 14 0
4 8 17 0
4 8 60 0
4 17 60 0
5 7 33 0
5 7 49 0
5 33 49 0
6 58 63 0
7 33 49 0
8 17 60 0
9 34 54 0
9 34 64 0
9 54 64 0
10 23 37 0
10 23 45 0
10 37 45 0
11 18 38 0
11 18 42 0
11 38 42 0
12 25 27 0
12 25 36 0
12 25 59 0
12 27 36 0
12 27 59 0
12 36 59 0
15 32 40 0
15 32 52 0
15 40 52 0
16 46 48 0
16 46 50 0
16 48 50 0
18 38 42 0
19 31 41 0
19 31 44 0
19 41 44 0
20 39 56 0
20 39 62 0
20 56 62 0
21 22 35 0
21 22 43 0
21 35 43 0
22 35 43 0
23 37 45 0
24 29 57 0
24 29 65 0
24 57 65 0
25 27 36 0
25 27 59 0
25 36 59 0
26 51 55 0
26 51 61 0
26 55 61 0
27 36 59 0
28 30 47 0
28 30 53 0
28 47 53 0
29 57 65 0
30 47 53 0
31 41 44 0
32 40 52 0
34 54 64 0
39 56 62 0
46 48 50 0
51 55 61 0
