p cnf 57 124
-44 -49 -52 0
-40 -45 -50 0
-32 -38 -39 0
-31 -49 -52 0
-31 -44 -52 0
-31 -44 -49 0
-28 -42 -56 0
-27 -43 -57 0
-26 -47 -53 0
-25 -30 -46 0
-23 -42 -56 0
-23 -28 -56 0
-23 -28 -42 0
-22 -29 -51 0
-21 -43 -57 0
-21 -27 -57 0
-21 -27 -43 0
-20 -33 -36 0
-19 -45 -50 0
-19 -40 -50 0
-19 -40 -45 0
-18 -35 -37 0
-16 -17 -41 0
-15 -38 -39 0
-15 -32 -39 0
-15 -32 -38 0
-14 -30 -46 0
-14 -25 -46 0
-14 -25 -30 0
-13 -24 -54 0
-11 -33 -36 0
-11 -20 -36 0
-11 -20 -33 0
-10 -12 -34 0
-9 -47 -53 0
-9 -26 -53 0
-9 -26 -47 0
-8 -24 -54 0
-8 -13 -54 0
-8 -13 -24 0
-7 -24 -54 0
-7 -13 -54 0
-7 -13 -24 0
-7 -8 -54 0
-7 -8 -24 0
-7 -8 -13 0
-6 -17 -41 0
-6 -16 -41 0
-6 -16 -17 0
-5 -48 -55 0
-4 -35 -37 0
-4 -18 -37 0
-4 -18 -35 0
-3 -29 -51 0
-3 -22 -51 0
-3 -22 -29 0
-2 -12 -34 0
-2 -10 -34 0
-2 -10 -12 0
-1 -48 -55 0
-1 -5 -55 0
-1 -5 -48 0
1 6 8 0
1 6 14 0
1 8 14 0
2 27 40 0
2 27 54 0
2 40 54 0
3 31 37 0
3 31 38 0
3 37 38 0
4 20 29 0
4 20 39 0
4 29 39 0
5 7 34 0
5 7 46 0
5 34 46 0
6 8 14 0
7 34 46 0
9 35 52 0
9 35 56 0
9 52 56 0
10 16 50 0
10 16 57 0
10 50 57 0
11 15 22 0
11 15 23 0
11 22 23 0
12 13 21 0
12 13 55 0
12 21 55 0
13 21 55 0
15 22 23 0
16 50 57 0
17 25 45 0
17 25 48 0
17 45 48 0
18 32 47 0
18 32 49 0
18 47 49 0
19 30 41 0
19 30 43 0
19 41 43 0
20 29 39 0
24 28 36 0
24 28 44 0
24 28 53 0
24 36 44 0
24 36 53 0
24 44 53 0
25 45 48 0
26 33 42 0
26 33 51 0
26 42 51 0
27 40 54 0
28 36 44 0
28 36 53 0
28 44 53 0
30 41 43 0
31 37 38 0
32 47 49 0
33 42 51 0
35 52 56 0
36 44 53 0
