p cnf 65 140
-46 -47 -64 0
-45 -53 -58 0
-43 -55 -63 0
-36 -55 -63 0
-36 -43 -63 0
-36 -43 -55 0
-35 -53 -58 0
-35 -45 -58 0
-35 -45 -53 0
-34 -41 -48 0
-33 -39 -62 0
-32 -42 -61 0
-31 -39 -62 0
-31 -33 -62 0
-31 -33 -39 0
-30 -50 -51 0
-29 -54 -60 0
-27 -28 -52 0
-24 -26 -38 0
-23 -50 -51 0
-23 -30 -51 0
-23 -30 -50 0
-22 -25 -59 0
-20 -40 -57 0
-19 -37 -49 0
-17 -54 -60 0
-17 -29 -60 0
-17 -29 -54 0
-15 -42 -61 0
-15 -32 -61 0
-15 -32 -42 0
-14 -44 -56 0
-13 -47 -64 0
-13 -46 -64 0
-13 -46 -47 0
-12 -16 -18 0
-11 -40 -57 0
-11 -20 -57 0
-11 -20 -40 0
-10 -21 -65 0
-9 -39 -62 0
-9 -33 -62 0
-9 -33 -39 0
-9 -31 -62 0
-9 -31 -39 0
-9 -31 -33 0
-8 -37 -49 0
-8 -19 -49 0
-8 -19 -37 0
-7 -44 -56 0
-7 -14 -56 0
-7 -14 -44 0
-6 -25 -59 0
-6 -22 -59 0
-6 -22 -25 0
-5 -16 -18 0
-5 -12 -18 0
-5 -12 -16 0
-4 -28 -52 0
-4 -27 -52 0
-4 -27 -28 0
-3 -41 -48 0
-3 -34 -48 0
-3 -34 -41 0
-2 -26 -38 0
-2 -24 -38 0
-2 -24 -26 0
-1 -21 -65 0
-1 -10 -65 0
-1 -10 -21 0
1 25 41 0
1 25 50 0
1 41 50 0
2 31 34 0
2 31 42 0
2 34 42 0
3 6 24 0
3 6 65 0
3 24 65 0
4 15 30 0
4 15 62 0
4 30 62 0
5 36 53 0
5 36 60 0
5 53 60 0
6 24 65 0
7 16 35 0
7 16 43 0
7 35 43 0
8 14 47 0
8 14 55 0
8 47 55 0
9 44 45 0
9 44 46 0
9 44 63 0
9 45 46 0
9 45 63 0
9 46 63 0
10 22 27 0
10 22 51 0
10 27 51 0
11 19 54 0
11 19 64 0
11 54 64 0
12 29 40 0
12 29 58 0
12 40 58 0
13 37 56 0
13 37 57 0
13 56 57 0
14 47 55 0
15 30 62 0
16 35 43 0
17 18 20 0
17 18 49 0
17 20 49 0
18 20 49 0
19 54 64 0
21 23 28 0
21 23 33 0
21 28 33 0
22 27 51 0
23 28 33 0
25 41 50 0
26 39 52 0
26 39 61 0
26 52 61 0
29 40 58 0
31 34 42 0
32 38 48 0
32 38 59 0
32 48 59 0
36 53 60 0
37 56 57 0
38 48 59 0
39 52 61 0
44 45 46 0
44 45 63 0
44 46 63 0
45 46 63 0
