p cnf 57 124
-51 -52 -54 0
-50 -53 -57 0
-41 -48 -49 0
-33 -52 -54 0
-33 -51 -54 0
-33 -51 -52 0
-31 -37 -47 0
-29 -53 -57 0
-29 -50 -57 0
-29 -50 -53 0
-28 -37 -47 0
-28 -31 -47 0
-28 -31 -37 0
-27 -39 -46 0
-25 -35 -43 0
-23 -30 -40 0
-22 -34 -44 0
-21 -26 -56 0
-17 -45 -55 0
-16 -35 -43 0
-16 -25 -43 0
-16 -25 -35 0
-15 -48 -49 0
-15 -41 -49 0
-15 -41 -48 0
-14 -26 -56 0
-14 -21 -56 0
-14 -21 -26 0
-13 -36 -38 0
-12 -34 -44 0
-12 -22 -44 0
-12 -22 -34 0
-11 -19 -20 0
-10 -52 -54 0
-10 -51 -54 0
-10 -51 -52 0
-10 -33 -54 0
-10 -33 -52 0
-10 -33 -51 0
-9 -18 -42 0
-8 -24 -32 0
-7 -19 -20 0
-7 -11 -20 0
-7 -11 -19 0
-6 -24 -32 0
-6 -8 -32 0
-6 -8 -24 0
-5 -18 -42 0
-5 -9 -42 0
-5 -9 -18 0
-4 -36 -38 0
-4 -13 -38 0
-4 -13 -36 0
-3 -30 -40 0
-3 -23 -40 0
-3 -23 -30 0
-2 -39 -46 0
-2 -27 -46 0
-2 -27 -39 0
-1 -45 -55 0
-1 -17 -55 0
-1 -17 -45 0
1 13 20 0
1 13 42 0
1 20 42 0
2 10 23 0
2 10 37 0
2 23 37 0
3 12 16 0
3 12 27 0
3 16 27 0
4 8 17 0
4 8 57 0
4 17 57 0
5 7 15 0
5 7 38 0
5 15 38 0
6 19 49 0
6 19 53 0
6 49 53 0
7 15 38 0
8 17 57 0
9 33 36 0
9 33 50 0
9 33 55 0
9 36 50 0
9 36 55 0
9 50 55 0
10 23 37 0
11 18 32 0
11 18 41 0
11 32 41 0
12 16 27 0
13 20 42 0
14 25 34 0
14 25 52 0
14 34 52 0
18 32 41 0
19 49 53 0
21 22 35 0
21 22 46 0
21 35 46 0
22 35 46 0
24 29 45 0
24 29 48 0
24 45 48 0
25 34 52 0
26 28 43 0
26 28 54 0
26 43 54 0
28 43 54 0
29 45 48 0
30 47 51 0
30 47 56 0
30 51 56 0
31 39 40 0
31 39 44 0
31 40 44 0
33 36 50 0
33 36 55 0
33 50 55 0
36 50 55 0
39 40 44 0
47 51 56 0
