p cnf 65 140
-51 -55 -60 0
-41 -54 -65 0
-38 -47 -48 0
-36 -40 -61 0
-33 -53 -62 0
-31 -35 -63 0
-30 -32 -46 0
-29 -54 -65 0
-29 -41 -65 0
-29 -41 -54 0
-28 -34 -49 0
-27 -43 -50 0
-24 -56 -58 0
-22 -26 -42 0
-21 -55 -60 0
-21 -51 -60 0
-21 -51 -55 0
-20 -25 -44 0
-19 -52 -59 0
-18 -37 -45 0
-17 -43 -50 0
-17 -27 -50 0
-17 -27 -43 0
-16 -37 -45 0
-16 -18 -45 0
-16 -18 -37 0
-15 -39 -64 0
-14 -23 -57 0
-13 -39 -64 0
-13 -15 -64 0
-13 -15 -39 0
-12 -52 -59 0
-12 -19 -59 0
-12 -19 -52 0
-11 -25 -44 0
-11 -20 -44 0
-11 -20 -25 0
-10 -40 -61 0
-10 -36 -61 0
-10 -36 -40 0
-9 -56 -58 0
-9 -24 -58 0
-9 -24 -56 0
-8 -32 -46 0
-8 -30 -46 0
-8 -30 -32 0
-7 -35 -63 0
-7 -31 -63 0
-7 -31 -35 0
-6 -26 -42 0
-6 -22 -42 0
-6 -22 -26 0
-5 -53 -62 0
-5 -33 -62 0
-5 -33 -53 0
-4 -23 -57 0
-4 -14 -57 0
-4 -14 -23 0
-3 -34 -49 0
-3 -28 -49 0
-3 -28 -34 0
-2 -47 -48 0
-2 -38 -48 0
-2 -38 -47 0
-1 -53 -62 0
-1 -33 -62 0
-1 -33 -53 0
-1 -5 -62 0
-1 -5 -53 0
-1 -5 -33 0
1 17 36 0
1 17 47 0
1 36 47 0
2 35 43 0
2 35 49 0
2 43 49 0
3 55 63 0
3 55 65 0
3 63 65 0
4 6 11 0
4 6 59 0
4 11 59 0
5 21 54 0
5 21 61 0
5 54 61 0
6 11 59 0
7 27 28 0
7 27 29 0
7 28 29 0
8 20 23 0
8 20 52 0
8 23 52 0
9 37 39 0
9 37 42 0
9 39 42 0
10 33 38 0
10 33 51 0
10 38 51 0
12 13 44 0
12 13 46 0
12 13 62 0
12 44 46 0
12 44 62 0
12 46 62 0
13 44 46 0
13 44 62 0
13 46 62 0
14 16 22 0
14 16 24 0
14 22 24 0
15 19 30 0
15 19 56 0
15 30 56 0
16 22 24 0
17 36 47 0
18 25 26 0
18 25 57 0
18 26 57 0
19 30 56 0
20 23 52 0
21 54 61 0
25 26 57 0
27 28 29 0
31 41 53 0
31 41 60 0
31 53 60 0
32 45 58 0
32 45 64 0
32 58 64 0
33 38 51 0
34 40 48 0
34 40 50 0
34 48 50 0
35 43 49 0
37 39 42 0
40 48 50 0
41 53 60 0
44 46 62 0
45 58 64 0
55 63 65 0
