p cnf 73 156
-66 -68 -70 0
-46 -56 -72 0
-45 -49 -67 0
-44 -49 -67 0
-44 -45 -67 0
-44 -45 -49 0
-43 -56 -72 0
-43 -46 -72 0
-43 -46 -56 0
-42 -53 -63 0
-41 -50 -61 0
-35 -36 -69 0
-32 -51 -54 0
-31 -38 -57 0
-29 -37 -55 0
-28 -40 -71 0
-27 -47 -52 0
-26 -50 -61 0
-26 -41 -61 0
-26 -41 -50 0
-25 -33 -39 0
-24 -40 -71 0
-24 -28 -71 0
-24 -28 -40 0
-23 -60 -64 0
-22 -58 -73 0
-20 -51 -54 0
-20 -32 -54 0
-20 -32 -51 0
-19 -62 -65 0
-18 -58 -73 0
-18 -22 -73 0
-18 -22 -58 0
-17 -62 -65 0
-17 -19 -65 0
-17 -19 -62 0
-16 -33 -39 0
-16 -25 -39 0
-16 -25 -33 0
-15 -68 -70 0
-15 -66 -70 0
-15 -66 -68 0
-14 -60 -64 0
-14 -23 -64 0
-14 -23 -60 0
-13 -58 -73 0
-13 -22 -73 0
-13 -22 -58 0
-13 -18 -73 0
-13 -18 -58 0
-13 -18 -22 0
-12 -38 -57 0
-12 -31 -57 0
-12 -31 -38 0
-11 -36 -69 0
-11 -35 -69 0
-11 -35 -36 0
-10 -47 -52 0
-10 -27 -52 0
-10 -27 -47 0
-8 -37 -55 0
-8 -29 -55 0
-8 -29 -37 0
-7 -48 -59 0
-6 -53 -63 0
-6 -42 -63 0
-6 -42 -53 0
-5 -48 -59 0
-5 -7 -59 0
-5 -7 -48 0
-4 -9 -30 0
-3 -9 -30 0
-3 -4 -30 0
-3 -4 -9 0
-2 -21 -34 0
-1 -21 -34 0
-1 -2 -34 0
-1 -2 -21 0
1 47 49 0
1 47 55 0
1 49 55 0
2 27 35 0
2 27 67 0
2 35 67 0
3 18 68 0
3 18 69 0
3 68 69 0
4 15 46 0
4 15 73 0
4 46 73 0
5 42 54 0
5 42 62 0
5 54 62 0
6 7 23 0
6 7 39 0
6 23 39 0
7 23 39 0
8 22 66 0
8 22 72 0
8 66 72 0
9 11 34 0
9 11 52 0
9 34 52 0
10 13 30 0
10 13 36 0
10 30 36 0
11 34 52 0
12 32 41 0
12 32 71 0
12 41 71 0
13 30 36 0
14 24 38 0
14 24 50 0
14 38 50 0
15 46 73 0
16 48 58 0
16 48 60 0
16 48 61 0
16 58 60 0
16 58 61 0
16 60 61 0
17 20 57 0
17 20 63 0
17 57 63 0
18 68 69 0
19 28 31 0
19 28 51 0
19 31 51 0
20 57 63 0
21 37 44 0
21 37 56 0
21 44 56 0
22 66 72 0
24 38 50 0
25 53 59 0
25 53 65 0
25 59 65 0
26 33 40 0
26 33 64 0
26 40 64 0
27 35 67 0
28 31 51 0
29 43 45 0
29 43 70 0
29 45 70 0
32 41 71 0
33 40 64 0
37 44 56 0
42 54 62 0
43 45 70 0
47 49 55 0
48 58 60 0
48 58 61 0
48 60 61 0
53 59 65 0
58 60 61 0
