p cnf 73 156
-61 -67 -70 0
-50 -60 -69 0
-43 -53 -62 0
-42 -64 -66 0
-41 -64 -66 0
-41 -42 -66 0
-41 -42 -64 0
-39 -44 -56 0
-38 -44 -56 0
-38 -39 -56 0
-38 -39 -44 0
-35 -40 -58 0
-34 -37 -45 0
-32 -46 -49 0
-30 -63 -73 0
-29 -40 -58 0
-29 -35 -58 0
-29 -35 -40 0
-28 -67 -70 0
-28 -61 -70 0
-28 -61 -67 0
-27 -47 -48 0
-26 -53 -62 0
-26 -43 -62 0
-26 -43 -53 0
-25 -54 -59 0
-24 -31 -57 0
-23 -33 -72 0
-22 -63 -73 0
-22 -30 -73 0
-22 -30 -63 0
-21 -47 -48 0
-21 -27 -48 0
-21 -27 -47 0
-20 -54 -59 0
-20 -25 -59 0
-20 -25 -54 0
-19 -60 -69 0
-19 -50 -69 0
-19 -50 -60 0
-17 -18 -71 0
-16 -18 -71 0
-16 -17 -71 0
-16 -17 -18 0
-14 -31 -57 0
-14 -24 -57 0
-14 -24 -31 0
-13 -55 -65 0
-11 -36 -68 0
-10 -46 -49 0
-10 -32 -49 0
-10 -32 -46 0
-9 -37 -45 0
-9 -34 -45 0
-9 -34 -37 0
-8 -12 -51 0
-7 -15 -52 0
-6 -15 -52 0
-6 -7 -52 0
-6 -7 -15 0
-5 -36 -68 0
-5 -11 -68 0
-5 -11 -36 0
-4 -12 -51 0
-4 -8 -51 0
-4 -8 -12 0
-3 -55 -65 0
-3 -13 -65 0
-3 -13 -55 0
-2 -31 -57 0
-2 -24 -57 0
-2 -24 -31 0
-2 -14 -57 0
-2 -14 -31 0
-2 -14 -24 0
-1 -33 -72 0
-1 -23 -72 0
-1 -23 -33 0
1 6 37 0
1 6 61 0
1 37 61 0
2 21 54 0
2 21 60 0
2 54 60 0
3 31 33 0
3 31 49 0
3 31 64 0
3 33 49 0
3 33 64 0
3 49 64 0
4 7 9 0
4 7 70 0
4 9 70 0
5 18 39 0
5 18 53 0
5 39 53 0
6 37 61 0
7 9 70 0
8 35 45 0
8 35 52 0
8 45 52 0
10 28 65 0
10 28 72 0
10 65 72 0
11 22 26 0
11 22 44 0
11 26 44 0
12 29 42 0
12 29 46 0
12 42 46 0
13 32 41 0
13 32 58 0
13 41 58 0
14 20 30 0
14 20 69 0
14 30 69 0
15 40 51 0
15 40 66 0
15 51 66 0
16 38 47 0
16 38 59 0
16 47 59 0
17 27 56 0
17 27 62 0
17 56 62 0
18 39 53 0
19 24 36 0
19 24 63 0
19 36 63 0
20 30 69 0
21 54 60 0
22 26 44 0
23 34 55 0
23 34 67 0
23 55 67 0
24 36 63 0
25 48 50 0
25 48 71 0
25 50 71 0
27 56 62 0
28 65 72 0
29 42 46 0
31 33 49 0
31 33 64 0
31 49 64 0
32 41 58 0
33 49 64 0
34 55 67 0
35 45 52 0
38 47 59 0
40 51 66 0
43 57 68 0
43 57 73 0
43 68 73 0
48 50 71 0
57 68 73 0
