p cnf 57 124
-43 -46 -55 0
-36 -38 -39 0
-34 -50 -57 0
-33 -37 -45 0
-30 -37 -45 0
-30 -33 -45 0
-30 -33 -37 0
-29 -38 -39 0
-29 -36 -39 0
-29 -36 -38 0
-26 -42 -49 0
-25 -35 -56 0
-24 -40 -54 0
-22 -23 -28 0
-21 -44 -53 0
-20 -51 -52 0
-18 -19 -48 0
-17 -27 -47 0
-16 -51 -52 0
-16 -20 -52 0
-16 -20 -51 0
-15 -19 -48 0
-15 -18 -48 0
-15 -18 -19 0
-14 -42 -49 0
-14 -26 -49 0
-14 -26 -42 0
-13 -31 -32 0
-12 -23 -28 0
-12 -22 -28 0
-12 -22 -23 0
-11 -31 -32 0
-11 -13 -32 0
-11 -13 -31 0
-10 -35 -56 0
-10 -25 -56 0
-10 -25 -35 0
-9 -50 -57 0
-9 -34 -57 0
-9 -34 -50 0
-8 -27 -47 0
-8 -17 -47 0
-8 -17 -27 0
-6 -40 -54 0
-6 -24 -54 0
-6 -24 -40 0
-5 -46 -55 0
-5 -43 -55 0
-5 -43 -46 0
-4 -7 -41 0
-3 -27 -47 0
-3 -17 -47 0
-3 -17 -27 0
-3 -8 -47 0
-3 -8 -27 0
-3 -8 -17 0
-2 -7 -41 0
-2 -4 -41 0
-2 -4 -7 0
-1 -44 -53 0
-1 -21 -53 0
-1 -21 -44 0
1 20 31 0
1 20 50 0
1 31 50 0
2 18 24 0
2 18 42 0
2 24 42 0
3 14 29 0
3 14 45 0
3 14 55 0
3 29 45 0
3 29 55 0
3 45 55 0
4 15 46 0
4 15 49 0
4 46 49 0
5 30 38 0
5 30 54 0
5 38 54 0
6 7 36 0
6 7 37 0
6 36 37 0
7 36 37 0
8 12 21 0
8 12 25 0
8 21 25 0
9 13 35 0
9 13 51 0
9 35 51 0
10 17 28 0
10 17 57 0
10 28 57 0
11 27 34 0
11 27 56 0
11 34 56 0
12 21 25 0
13 35 51 0
14 29 45 0
14 29 55 0
14 45 55 0
15 46 49 0
16 23 32 0
16 23 53 0
16 32 53 0
17 28 57 0
18 24 42 0
19 26 39 0
19 26 43 0
19 39 43 0
20 31 50 0
22 44 47 0
22 44 52 0
22 47 52 0
23 32 53 0
26 39 43 0
27 34 56 0
29 45 55 0
30 38 54 0
33 40 41 0
33 40 48 0
33 41 48 0
40 41 48 0
44 47 52 0
