p cnf 33 76
-29 -30 -32 0
-22 -30 -32 0
-22 -29 -32 0
-22 -29 -30 0
-21 -27 -28 0
-20 -25 -26 0
-17 -23 -31 0
-14 -23 -31 0
-14 -17 -31 0
-14 -17 -23 0
-13 -16 -24 0
-12 -16 -24 0
-12 -13 -24 0
-12 -13 -16 0
-11 -25 -26 0
-11 -20 -26 0
-11 -20 -25 0
-9 -27 -28 0
-9 -21 -28 0
-9 -21 -27 0
-8 -30 -32 0
-8 -29 -32 0
-8 -29 -30 0
-8 -22 -32 0
-8 -22 -30 0
-8 -22 -29 0
-6 -15 -18 0
-5 -10 -19 0
-4 -10 -19 0
-4 -5 -19 0
-4 -5 -10 0
-3 -7 -33 0
-2 -15 -18 0
-2 -6 -18 0
-2 -6 -15 0
-1 -7 -33 0
-1 -3 -33 0
-1 -3 -7 0
1 9 16 0
1 9 29 0
1 16 29 0
2 19 25 0
2 19 31 0
2 19 32 0
2 25 31 0
2 25 32 0
2 31 32 0
3 13 21 0
3 13 22 0
3 21 22 0
4 14 15 0
4 14 20 0
4 15 20 0
5 11 18 0
5 11 23 0
5 18 23 0
6 10 17 0
6 10 26 0
6 17 26 0
7 12 28 0
7 12 30 0
7 28 30 0
8 24 27 0
8 24 33 0
8 27 33 0
9 16 29 0
10 17 26 0
11 18 23 0
12 28 30 0
13 21 22 0
14 15 20 0
19 25 31 0
19 25 32 0
19 31 32 0
24 27 33 0
25 31 32 0
