p cnf 41 92
-27 -28 -41 0
-26 -29 -34 0
-25 -32 -35 0
-24 -37 -39 0
-22 -29 -34 0
-22 -26 -34 0
-22 -26 -29 0
-19 -28 -41 0
-19 -27 -41 0
-19 -27 -28 0
-18 -28 -41 0
-18 -27 -41 0
-18 -27 -28 0
-18 -19 -41 0
-18 -19 -28 0
-18 -19 -27 0
-17 -20 -31 0
-16 -37 -39 0
-16 -24 -39 0
-16 -24 -37 0
-14 -30 -38 0
-13 -36 -40 0
-10 -23 -33 0
-9 -11 -12 0
-8 -11 -12 0
-8 -9 -12 0
-8 -9 -11 0
-7 -23 -33 0
-7 -10 -33 0
-7 -10 -23 0
-6 -36 -40 0
-6 -13 -40 0
-6 -13 -36 0
-5 -30 -38 0
-5 -14 -38 0
-5 -14 -30 0
-4 -15 -21 0
-3 -15 -21 0
-3 -4 -21 0
-3 -4 -15 0
-2 -20 -31 0
-2 -17 -31 0
-2 -17 -20 0
-1 -32 -35 0
-1 -25 -35 0
-1 -25 -32 0
1 13 19 0
1 13 34 0
1 19 34 0
2 3 10 0
2 3 16 0
2 10 16 0
3 10 16 0
4 17 30 0
4 17 37 0
4 30 37 0
5 15 23 0
5 15 31 0
5 23 31 0
6 9 22 0
6 9 25 0
6 22 25 0
7 14 21 0
7 14 27 0
7 14 39 0
7 21 27 0
7 21 39 0
7 27 39 0
8 26 28 0
8 26 40 0
8 28 40 0
9 22 25 0
11 18 35 0
11 18 36 0
11 35 36 0
12 29 32 0
12 29 41 0
12 32 41 0
13 19 34 0
14 21 27 0
14 21 39 0
14 27 39 0
15 23 31 0
17 30 37 0
18 35 36 0
20 24 33 0
20 24 38 0
20 33 38 0
21 27 39 0
24 33 38 0
26 28 40 0
29 32 41 0
