p cnf 65 140
-41 -42 -61 0
-40 -49 -63 0
-38 -42 -61 0
-38 -41 -61 0
-38 -41 -42 0
-36 -51 -53 0
-35 -46 -57 0
-34 -56 -62 0
-33 -60 -65 0
-31 -44 -58 0
-29 -32 -37 0
-28 -51 -53 0
-28 -36 -53 0
-28 -36 -51 0
-27 -32 -37 0
-27 -29 -37 0
-27 -29 -32 0
-26 -46 -57 0
-26 -35 -57 0
-26 -35 -46 0
-25 -52 -59 0
-23 -55 -64 0
-22 -30 -54 0
-21 -60 -65 0
-21 -33 -65 0
-21 -33 -60 0
-20 -39 -45 0
-19 -24 -48 0
-17 -44 -58 0
-17 -31 -58 0
-17 -31 -44 0
-16 -18 -50 0
-15 -49 -63 0
-15 -40 -63 0
-15 -40 -49 0
-14 -56 -62 0
-14 -34 -62 0
-14 -34 -56 0
-13 -43 -47 0
-12 -24 -48 0
-12 -19 -48 0
-12 -19 -24 0
-10 -30 -54 0
-10 -22 -54 0
-10 -22 -30 0
-8 -9 -11 0
-7 -43 -47 0
-7 -13 -47 0
-7 -13 -43 0
-6 -39 -45 0
-6 -20 -45 0
-6 -20 -39 0
-5 -55 -64 0
-5 -23 -64 0
-5 -23 -55 0
-4 -52 -59 0
-4 -25 -59 0
-4 -25 -52 0
-3 -9 -11 0
-3 -8 -11 0
-3 -8 -9 0
-2 -44 -58 0
-2 -31 -58 0
-2 -31 -44 0
-2 -17 -58 0
-2 -17 -44 0
-2 -17 -31 0
-1 -18 -50 0
-1 -16 -50 0
-1 -16 -18 0
1 2 40 0
1 2 59 0
1 40 59 0
2 40 59 0
3 27 43 0
3 27 50 0
3 43 50 0
4 24 31 0
4 24 63 0
4 31 63 0
5 30 35 0
5 30 53 0
5 35 53 0
6 14 17 0
6 14 41 0
6 14 65 0
6 17 41 0
6 17 65 0
6 41 65 0
7 19 52 0
7 19 58 0
7 52 58 0
8 15 18 0
8 15 29 0
8 18 29 0
9 12 13 0
9 12 44 0
9 13 44 0
10 28 34 0
10 28 39 0
10 34 39 0
11 37 47 0
11 37 48 0
11 47 48 0
12 13 44 0
14 17 41 0
14 17 65 0
14 41 65 0
15 18 29 0
16 25 32 0
16 25 49 0
16 32 49 0
17 41 65 0
19 52 58 0
20 22 36 0
20 22 64 0
20 36 64 0
21 45 51 0
21 45 56 0
21 51 56 0
22 36 64 0
23 26 54 0
23 26 61 0
23 54 61 0
24 31 63 0
25 32 49 0
26 54 61 0
27 43 50 0
28 34 39 0
30 35 53 0
33 38 46 0
33 38 62 0
33 46 62 0
37 47 48 0
38 46 62 0
42 55 57 0
42 55 60 0
42 57 60 0
45 51 56 0
55 57 60 0
