p cnf 65 140
-42 -46 -50 0
-40 -51 -63 0
-38 -43 -62 0
-36 -52 -54 0
-34 -55 -57 0
-33 -64 -65 0
-32 -35 -45 0
-29 -53 -58 0
-28 -47 -56 0
-27 -52 -54 0
-27 -36 -54 0
-27 -36 -52 0
-25 -30 -59 0
-24 -47 -56 0
-24 -28 -56 0
-24 -28 -47 0
-23 -41 -60 0
-22 -64 -65 0
-22 -33 -65 0
-22 -33 -64 0
-21 -41 -60 0
-21 -23 -60 0
-21 -23 -41 0
-20 -39 -48 0
-19 -26 -44 0
-17 -35 -45 0
-17 -32 -45 0
-17 -32 -35 0
-16 -26 -44 0
-16 -19 -44 0
-16 -19 -26 0
-14 -46 -50 0
-14 -42 -50 0
-14 -42 -46 0
-13 -18 -31 0
-12 -49 -61 0
-11 -43 -62 0
-11 -38 -62 0
-11 -38 -43 0
-10 -49 -61 0
-10 -12 -61 0
-10 -12 -49 0
-9 -51 -63 0
-9 -40 -63 0
-9 -40 -51 0
-8 -15 -37 0
-7 -53 -58 0
-7 -29 -58 0
-7 -29 -53 0
-6 -15 -37 0
-6 -8 -37 0
-6 -8 -15 0
-5 -39 -48 0
-5 -20 -48 0
-5 -20 -39 0
-4 -18 -31 0
-4 -13 -31 0
-4 -13 -18 0
-3 -43 -62 0
-3 -38 -62 0
-3 -38 -43 0
-3 -11 -62 0
-3 -11 -43 0
-3 -11 -38 0
-2 -55 -57 0
-2 -34 -57 0
-2 -34 -55 0
-1 -30 -59 0
-1 -25 -59 0
-1 -25 -30 0
1 5 50 0
1 5 56 0
1 50 56 0
2 7 12 0
2 7 33 0
2 12 33 0
3 13 35 0
3 13 36 0
3 35 36 0
4 14 20 0
4 14 28 0
4 20 28 0
5 50 56 0
6 44 51 0
6 44 65 0
6 51 65 0
7 12 33 0
8 23 26 0
8 23 55 0
8 26 55 0
9 15 19 0
9 15 60 0
9 19 60 0
10 22 40 0
10 22 58 0
10 22 62 0
10 40 58 0
10 40 62 0
10 58 62 0
11 31 46 0
11 31 52 0
11 46 52 0
13 35 36 0
14 20 28 0
15 19 60 0
16 29 63 0
16 29 64 0
16 63 64 0
17 24 25 0
17 24 48 0
17 25 48 0
18 27 42 0
18 27 47 0
18 42 47 0
21 53 57 0
21 53 61 0
21 57 61 0
22 40 58 0
22 40 62 0
22 58 62 0
23 26 55 0
24 25 48 0
27 42 47 0
29 63 64 0
30 43 45 0
30 43 54 0
30 45 54 0
31 46 52 0
32 38 39 0
32 38 59 0
32 39 59 0
34 37 41 0
34 37 49 0
34 41 49 0
37 41 49 0
38 39 59 0
40 58 62 0
43 45 54 0
44 51 65 0
53 57 61 0
