p cnf 72 549
-70 -72 0
-68 -69 0
-67 -69 0
-66 -71 0
-65 -68 0
-65 -67 0
-64 -72 0
-63 -67 0
-63 -65 0
-62 -71 0
-62 -69 0
-62 -67 0
-62 -66 0
-61 -67 0
-61 -65 0
-61 -64 0
-61 -63 0
-60 -67 0
-60 -66 0
-60 -65 0
-60 -63 0
-60 -61 0
-59 -72 0
-59 -64 0
-58 -71 0
-57 -63 0
-57 -58 0
-56 -70 0
-56 -64 0
-56 -61 0
-55 -70 0
-55 -66 0
-55 -60 0
-55 -56 0
-54 -66 0
-54 -60 0
-54 -55 0
-53 -72 0
-53 -71 0
-53 -64 0
-53 -59 0
-53 -58 0
-52 -64 0
-52 -61 0
-52 -58 0
-52 -57 0
-52 -56 0
-51 -72 0
-51 -70 0
-50 -59 0
-50 -54 0
-49 -71 0
-49 -58 0
-49 -53 0
-48 -72 0
-48 -71 0
-48 -70 0
-48 -66 0
-48 -62 0
-48 -51 0
-47 -59 0
-47 -58 0
-47 -57 0
-47 -52 0
-47 -50 0
-46 -72 0
-46 -69 0
-46 -67 0
-46 -64 0
-46 -62 0
-46 -59 0
-46 -53 0
-45 -70 0
-45 -63 0
-45 -57 0
-45 -56 0
-45 -55 0
-44 -68 0
-44 -65 0
-44 -54 0
-44 -50 0
-43 -70 0
-43 -68 0
-43 -65 0
-43 -56 0
-43 -55 0
-43 -45 0
-43 -44 0
-42 -71 0
-42 -67 0
-42 -65 0
-42 -63 0
-42 -61 0
-42 -60 0
-42 -58 0
-42 -53 0
-42 -49 0
-41 -71 0
-41 -66 0
-41 -64 0
-41 -62 0
-41 -61 0
-41 -56 0
-41 -52 0
-41 -48 0
-40 -63 0
-40 -57 0
-40 -51 0
-40 -45 0
-39 -69 0
-39 -68 0
-39 -66 0
-39 -60 0
-39 -55 0
-39 -54 0
-38 -63 0
-38 -57 0
-38 -49 0
-38 -45 0
-38 -40 0
-37 -72 0
-37 -70 0
-37 -54 0
-37 -51 0
-37 -50 0
-37 -48 0
-37 -44 0
-36 -68 0
-36 -65 0
-36 -58 0
-36 -57 0
-36 -52 0
-36 -47 0
-36 -44 0
-36 -43 0
-35 -69 0
-35 -67 0
-35 -62 0
-35 -49 0
-35 -46 0
-35 -38 0
-34 -66 0
-34 -60 0
-34 -55 0
-34 -54 0
-34 -49 0
-34 -39 0
-34 -38 0
-34 -35 0
-33 -64 0
-33 -61 0
-33 -56 0
-33 -52 0
-33 -51 0
-33 -41 0
-33 -40 0
-32 -71 0
-32 -66 0
-32 -63 0
-32 -62 0
-32 -57 0
-32 -48 0
-32 -45 0
-32 -41 0
-32 -40 0
-32 -38 0
-31 -71 0
-31 -58 0
-31 -54 0
-31 -53 0
-31 -50 0
-31 -49 0
-31 -44 0
-31 -42 0
-31 -37 0
-30 -69 0
-30 -67 0
-30 -62 0
-30 -58 0
-30 -57 0
-30 -52 0
-30 -47 0
-30 -46 0
-30 -36 0
-30 -35 0
-29 -70 0
-29 -69 0
-29 -67 0
-29 -62 0
-29 -56 0
-29 -55 0
-29 -46 0
-29 -45 0
-29 -43 0
-29 -35 0
-29 -30 0
-28 -64 0
-28 -61 0
-28 -56 0
-28 -54 0
-28 -52 0
-28 -50 0
-28 -44 0
-28 -41 0
-28 -37 0
-28 -33 0
-28 -31 0
-27 -68 0
-27 -65 0
-27 -49 0
-27 -44 0
-27 -43 0
-27 -38 0
-27 -36 0
-27 -35 0
-27 -34 0
-26 -59 0
-26 -51 0
-26 -50 0
-26 -47 0
-26 -40 0
-26 -33 0
-25 -72 0
-25 -66 0
-25 -64 0
-25 -60 0
-25 -59 0
-25 -55 0
-25 -54 0
-25 -53 0
-25 -46 0
-25 -39 0
-25 -34 0
-24 -59 0
-24 -50 0
-24 -49 0
-24 -47 0
-24 -38 0
-24 -35 0
-24 -34 0
-24 -27 0
-24 -26 0
-23 -69 0
-23 -68 0
-23 -64 0
-23 -61 0
-23 -56 0
-23 -52 0
-23 -41 0
-23 -39 0
-23 -33 0
-23 -28 0
-22 -72 0
-22 -70 0
-22 -67 0
-22 -65 0
-22 -63 0
-22 -61 0
-22 -60 0
-22 -51 0
-22 -48 0
-22 -42 0
-22 -37 0
-21 -69 0
-21 -67 0
-21 -62 0
-21 -54 0
-21 -50 0
-21 -46 0
-21 -44 0
-21 -37 0
-21 -35 0
-21 -31 0
-21 -30 0
-21 -29 0
-21 -28 0
-20 -71 0
-20 -70 0
-20 -58 0
-20 -56 0
-20 -55 0
-20 -53 0
-20 -49 0
-20 -45 0
-20 -43 0
-20 -42 0
-20 -31 0
-20 -29 0
-19 -63 0
-19 -57 0
-19 -54 0
-19 -50 0
-19 -45 0
-19 -44 0
-19 -40 0
-19 -38 0
-19 -37 0
-19 -32 0
-19 -31 0
-19 -28 0
-19 -21 0
-18 -72 0
-18 -70 0
-18 -69 0
-18 -68 0
-18 -51 0
-18 -48 0
-18 -39 0
-18 -37 0
-18 -23 0
-18 -22 0
-17 -70 0
-17 -59 0
-17 -56 0
-17 -55 0
-17 -50 0
-17 -47 0
-17 -45 0
-17 -43 0
-17 -29 0
-17 -26 0
-17 -24 0
-17 -20 0
-16 -66 0
-16 -60 0
-16 -58 0
-16 -57 0
-16 -55 0
-16 -54 0
-16 -52 0
-16 -47 0
-16 -39 0
-16 -36 0
-16 -34 0
-16 -30 0
-16 -25 0
-15 -71 0
-15 -58 0
-15 -53 0
-15 -51 0
-15 -49 0
-15 -42 0
-15 -40 0
-15 -33 0
-15 -31 0
-15 -26 0
-15 -20 0
-14 -64 0
-14 -61 0
-14 -56 0
-14 -52 0
-14 -49 0
-14 -41 0
-14 -38 0
-14 -35 0
-14 -34 0
-14 -33 0
-14 -28 0
-14 -27 0
-14 -24 0
-14 -23 0
-13 -66 0
-13 -60 0
-13 -55 0
-13 -54 0
-13 -51 0
-13 -40 0
-13 -39 0
-13 -34 0
-13 -33 0
-13 -26 0
-13 -25 0
-13 -16 0
-13 -15 0
-12 -71 0
-12 -66 0
-12 -62 0
-12 -59 0
-12 -50 0
-12 -48 0
-12 -47 0
-12 -41 0
-12 -32 0
-12 -26 0
-12 -24 0
-12 -17 0
-11 -68 0
-11 -65 0
-11 -51 0
-11 -44 0
-11 -43 0
-11 -40 0
-11 -36 0
-11 -33 0
-11 -27 0
-11 -26 0
-11 -15 0
-11 -13 0
-10 -72 0
-10 -70 0
-10 -58 0
-10 -57 0
-10 -52 0
-10 -51 0
-10 -48 0
-10 -47 0
-10 -37 0
-10 -36 0
-10 -30 0
-10 -22 0
-10 -18 0
-10 -16 0
-9 -69 0
-9 -67 0
-9 -62 0
-9 -51 0
-9 -46 0
-9 -40 0
-9 -35 0
-9 -33 0
-9 -30 0
-9 -29 0
-9 -26 0
-9 -21 0
-9 -15 0
-9 -13 0
-9 -11 0
-8 -72 0
-8 -68 0
-8 -65 0
-8 -64 0
-8 -59 0
-8 -53 0
-8 -46 0
-8 -44 0
-8 -43 0
-8 -36 0
-8 -27 0
-8 -25 0
-8 -11 0
-7 -69 0
-7 -68 0
-7 -59 0
-7 -50 0
-7 -47 0
-7 -39 0
-7 -26 0
-7 -24 0
-7 -23 0
-7 -18 0
-7 -17 0
-7 -12 0
-6 -71 0
-6 -69 0
-6 -68 0
-6 -58 0
-6 -53 0
-6 -49 0
-6 -42 0
-6 -39 0
-6 -31 0
-6 -23 0
-6 -20 0
-6 -18 0
-6 -15 0
-6 -7 0
-5 -67 0
-5 -65 0
-5 -63 0
-5 -61 0
-5 -60 0
-5 -59 0
-5 -50 0
-5 -47 0
-5 -42 0
-5 -26 0
-5 -24 0
-5 -22 0
-5 -17 0
-5 -12 0
-5 -7 0
-4 -72 0
-4 -64 0
-4 -63 0
-4 -59 0
-4 -57 0
-4 -53 0
-4 -46 0
-4 -45 0
-4 -40 0
-4 -38 0
-4 -32 0
-4 -25 0
-4 -19 0
-4 -8 0
-3 -69 0
-3 -68 0
-3 -63 0
-3 -57 0
-3 -45 0
-3 -40 0
-3 -39 0
-3 -38 0
-3 -32 0
-3 -23 0
-3 -19 0
-3 -18 0
-3 -7 0
-3 -6 0
-3 -4 0
-2 -72 0
-2 -70 0
-2 -51 0
-2 -49 0
-2 -48 0
-2 -38 0
-2 -37 0
-2 -35 0
-2 -34 0
-2 -27 0
-2 -24 0
-2 -22 0
-2 -18 0
-2 -14 0
-2 -10 0
-1 -71 0
-1 -68 0
-1 -66 0
-1 -65 0
-1 -62 0
-1 -48 0
-1 -44 0
-1 -43 0
-1 -41 0
-1 -36 0
-1 -32 0
-1 -27 0
-1 -12 0
-1 -11 0
-1 -8 0
1 12 32 41 48 62 66 71 0
2 14 24 27 34 35 38 49 0
3 6 7 18 23 39 68 69 0
4 8 25 46 53 59 64 72 0
5 22 42 60 61 63 65 67 0
9 11 13 15 26 33 40 51 0
10 16 30 36 47 52 57 58 0
17 20 29 43 45 55 56 70 0
19 21 28 31 37 44 50 54 0
