p cnf 90 775
-89 -90 0
-87 -88 0
-86 -90 0
-86 -89 0
-84 -87 0
-83 -89 0
-82 -88 0
-82 -87 0
-81 -85 0
-81 -84 0
-79 -90 0
-79 -85 0
-79 -81 0
-78 -80 0
-77 -80 0
-76 -86 0
-75 -88 0
-74 -90 0
-74 -79 0
-74 -77 0
-73 -77 0
-73 -75 0
-73 -74 0
-72 -83 0
-71 -83 0
-71 -75 0
-71 -73 0
-71 -72 0
-70 -85 0
-70 -81 0
-70 -80 0
-70 -79 0
-70 -77 0
-69 -87 0
-69 -86 0
-69 -84 0
-69 -76 0
-68 -87 0
-68 -84 0
-68 -80 0
-68 -77 0
-68 -70 0
-68 -69 0
-67 -89 0
-67 -83 0
-67 -82 0
-66 -82 0
-66 -80 0
-66 -77 0
-66 -70 0
-66 -68 0
-66 -67 0
-65 -88 0
-65 -87 0
-65 -83 0
-65 -82 0
-65 -72 0
-65 -71 0
-64 -85 0
-64 -82 0
-64 -67 0
-64 -66 0
-63 -80 0
-63 -78 0
-63 -72 0
-62 -80 0
-62 -78 0
-62 -75 0
-62 -73 0
-62 -71 0
-62 -63 0
-61 -90 0
-61 -89 0
-61 -86 0
-61 -84 0
-61 -81 0
-60 -88 0
-60 -87 0
-60 -85 0
-60 -82 0
-60 -81 0
-60 -79 0
-60 -70 0
-60 -65 0
-59 -88 0
-59 -87 0
-59 -82 0
-59 -76 0
-59 -65 0
-59 -60 0
-58 -90 0
-58 -89 0
-58 -86 0
-58 -85 0
-58 -64 0
-58 -61 0
-57 -90 0
-57 -89 0
-57 -86 0
-57 -75 0
-57 -73 0
-57 -71 0
-57 -62 0
-57 -61 0
-57 -58 0
-56 -89 0
-56 -83 0
-56 -76 0
-56 -67 0
-56 -59 0
-55 -89 0
-55 -87 0
-55 -84 0
-55 -83 0
-55 -69 0
-55 -68 0
-55 -67 0
-55 -56 0
-54 -82 0
-54 -72 0
-54 -67 0
-54 -66 0
-54 -64 0
-54 -63 0
-53 -89 0
-53 -83 0
-53 -80 0
-53 -78 0
-53 -67 0
-53 -63 0
-53 -62 0
-53 -56 0
-53 -55 0
-52 -85 0
-52 -81 0
-52 -79 0
-52 -78 0
-52 -70 0
-52 -60 0
-51 -76 0
-51 -72 0
-51 -63 0
-51 -59 0
-51 -56 0
-51 -54 0
-50 -76 0
-50 -75 0
-50 -73 0
-50 -71 0
-50 -62 0
-50 -59 0
-50 -57 0
-50 -56 0
-50 -51 0
-49 -78 0
-49 -76 0
-49 -59 0
-49 -56 0
-49 -52 0
-49 -51 0
-49 -50 0
-48 -86 0
-48 -85 0
-48 -81 0
-48 -79 0
-48 -76 0
-48 -70 0
-48 -69 0
-48 -60 0
-48 -52 0
-47 -85 0
-47 -83 0
-47 -72 0
-47 -71 0
-47 -65 0
-47 -64 0
-47 -58 0
-46 -85 0
-46 -81 0
-46 -79 0
-46 -72 0
-46 -70 0
-46 -63 0
-46 -60 0
-46 -54 0
-46 -52 0
-46 -51 0
-46 -48 0
-45 -85 0
-45 -77 0
-45 -74 0
-45 -73 0
-45 -64 0
-45 -58 0
-45 -47 0
-44 -90 0
-44 -89 0
-44 -86 0
-44 -80 0
-44 -77 0
-44 -70 0
-44 -68 0
-44 -66 0
-44 -61 0
-44 -58 0
-44 -57 0
-43 -90 0
-43 -82 0
-43 -79 0
-43 -74 0
-43 -67 0
-43 -66 0
-43 -64 0
-43 -54 0
-42 -83 0
-42 -78 0
-42 -72 0
-42 -71 0
-42 -65 0
-42 -52 0
-42 -49 0
-42 -47 0
-41 -77 0
-41 -74 0
-41 -73 0
-41 -72 0
-41 -63 0
-41 -54 0
-41 -51 0
-41 -46 0
-41 -45 0
-40 -82 0
-40 -75 0
-40 -73 0
-40 -71 0
-40 -67 0
-40 -66 0
-40 -64 0
-40 -62 0
-40 -57 0
-40 -54 0
-40 -50 0
-40 -43 0
-39 -90 0
-39 -80 0
-39 -79 0
-39 -78 0
-39 -74 0
-39 -63 0
-39 -62 0
-39 -53 0
-39 -43 0
-38 -86 0
-38 -82 0
-38 -76 0
-38 -69 0
-38 -67 0
-38 -66 0
-38 -64 0
-38 -54 0
-38 -48 0
-38 -43 0
-38 -40 0
-37 -87 0
-37 -84 0
-37 -78 0
-37 -69 0
-37 -68 0
-37 -55 0
-37 -52 0
-37 -49 0
-37 -42 0
-36 -86 0
-36 -83 0
-36 -76 0
-36 -72 0
-36 -71 0
-36 -69 0
-36 -65 0
-36 -48 0
-36 -47 0
-36 -42 0
-36 -38 0
-35 -84 0
-35 -81 0
-35 -80 0
-35 -78 0
-35 -63 0
-35 -62 0
-35 -61 0
-35 -53 0
-35 -39 0
-34 -90 0
-34 -89 0
-34 -86 0
-34 -78 0
-34 -61 0
-34 -58 0
-34 -57 0
-34 -52 0
-34 -49 0
-34 -44 0
-34 -42 0
-34 -37 0
-33 -90 0
-33 -89 0
-33 -88 0
-33 -87 0
-33 -86 0
-33 -82 0
-33 -65 0
-33 -61 0
-33 -60 0
-33 -59 0
-33 -58 0
-33 -57 0
-33 -44 0
-33 -34 0
-32 -88 0
-32 -75 0
-32 -72 0
-32 -63 0
-32 -54 0
-32 -51 0
-32 -46 0
-32 -41 0
-31 -84 0
-31 -81 0
-31 -76 0
-31 -61 0
-31 -59 0
-31 -56 0
-31 -51 0
-31 -50 0
-31 -49 0
-31 -35 0
-30 -87 0
-30 -84 0
-30 -72 0
-30 -69 0
-30 -68 0
-30 -63 0
-30 -55 0
-30 -54 0
-30 -51 0
-30 -46 0
-30 -41 0
-30 -37 0
-30 -32 0
-29 -89 0
-29 -83 0
-29 -77 0
-29 -74 0
-29 -73 0
-29 -67 0
-29 -56 0
-29 -55 0
-29 -53 0
-29 -45 0
-29 -41 0
-28 -88 0
-28 -85 0
-28 -75 0
-28 -64 0
-28 -58 0
-28 -47 0
-28 -45 0
-28 -32 0
-27 -90 0
-27 -87 0
-27 -84 0
-27 -79 0
-27 -74 0
-27 -69 0
-27 -68 0
-27 -55 0
-27 -43 0
-27 -39 0
-27 -37 0
-27 -30 0
-26 -87 0
-26 -84 0
-26 -75 0
-26 -73 0
-26 -71 0
-26 -69 0
-26 -68 0
-26 -62 0
-26 -57 0
-26 -55 0
-26 -50 0
-26 -40 0
-26 -37 0
-26 -30 0
-26 -27 0
-25 -90 0
-25 -83 0
-25 -79 0
-25 -74 0
-25 -72 0
-25 -71 0
-25 -65 0
-25 -47 0
-25 -43 0
-25 -42 0
-25 -39 0
-25 -36 0
-25 -27 0
-24 -85 0
-24 -80 0
-24 -78 0
-24 -64 0
-24 -63 0
-24 -62 0
-24 -58 0
-24 -53 0
-24 -47 0
-24 -45 0
-24 -39 0
-24 -35 0
-24 -28 0
-23 -78 0
-23 -77 0
-23 -74 0
-23 -73 0
-23 -52 0
-23 -49 0
-23 -45 0
-23 -42 0
-23 -41 0
-23 -37 0
-23 -34 0
-23 -29 0
-22 -84 0
-22 -81 0
-22 -77 0
-22 -74 0
-22 -73 0
-22 -61 0
-22 -45 0
-22 -41 0
-22 -35 0
-22 -31 0
-22 -29 0
-22 -23 0
-21 -88 0
-21 -86 0
-21 -76 0
-21 -75 0
-21 -69 0
-21 -48 0
-21 -38 0
-21 -36 0
-21 -32 0
-21 -28 0
-20 -85 0
-20 -76 0
-20 -64 0
-20 -59 0
-20 -58 0
-20 -56 0
-20 -51 0
-20 -50 0
-20 -49 0
-20 -47 0
-20 -45 0
-20 -31 0
-20 -28 0
-20 -24 0
-19 -82 0
-19 -78 0
-19 -67 0
-19 -66 0
-19 -64 0
-19 -54 0
-19 -52 0
-19 -49 0
-19 -43 0
-19 -42 0
-19 -40 0
-19 -38 0
-19 -37 0
-19 -34 0
-19 -23 0
-18 -84 0
-18 -83 0
-18 -81 0
-18 -72 0
-18 -71 0
-18 -65 0
-18 -61 0
-18 -47 0
-18 -42 0
-18 -36 0
-18 -35 0
-18 -31 0
-18 -25 0
-18 -22 0
-17 -86 0
-17 -80 0
-17 -78 0
-17 -76 0
-17 -69 0
-17 -63 0
-17 -62 0
-17 -53 0
-17 -48 0
-17 -39 0
-17 -38 0
-17 -36 0
-17 -35 0
-17 -24 0
-17 -21 0
-16 -88 0
-16 -78 0
-16 -75 0
-16 -52 0
-16 -49 0
-16 -42 0
-16 -37 0
-16 -34 0
-16 -32 0
-16 -28 0
-16 -23 0
-16 -21 0
-16 -19 0
-15 -89 0
-15 -88 0
-15 -83 0
-15 -75 0
-15 -67 0
-15 -56 0
-15 -55 0
-15 -53 0
-15 -32 0
-15 -29 0
-15 -28 0
-15 -21 0
-15 -16 0
-14 -88 0
-14 -84 0
-14 -81 0
-14 -75 0
-14 -61 0
-14 -35 0
-14 -32 0
-14 -31 0
-14 -28 0
-14 -22 0
-14 -21 0
-14 -18 0
-14 -16 0
-14 -15 0
-13 -80 0
-13 -77 0
-13 -76 0
-13 -70 0
-13 -68 0
-13 -66 0
-13 -59 0
-13 -56 0
-13 -51 0
-13 -50 0
-13 -49 0
-13 -44 0
-13 -31 0
-13 -20 0
-12 -90 0
-12 -79 0
-12 -76 0
-12 -74 0
-12 -59 0
-12 -56 0
-12 -51 0
-12 -50 0
-12 -49 0
-12 -43 0
-12 -39 0
-12 -31 0
-12 -27 0
-12 -25 0
-12 -20 0
-12 -13 0
-11 -83 0
-11 -80 0
-11 -77 0
-11 -72 0
-11 -71 0
-11 -70 0
-11 -68 0
-11 -66 0
-11 -65 0
-11 -47 0
-11 -44 0
-11 -42 0
-11 -36 0
-11 -25 0
-11 -18 0
-11 -13 0
-10 -87 0
-10 -85 0
-10 -84 0
-10 -69 0
-10 -68 0
-10 -64 0
-10 -58 0
-10 -55 0
-10 -47 0
-10 -45 0
-10 -37 0
-10 -30 0
-10 -28 0
-10 -27 0
-10 -26 0
-10 -24 0
-10 -20 0
-9 -90 0
-9 -89 0
-9 -86 0
-9 -72 0
-9 -63 0
-9 -61 0
-9 -58 0
-9 -57 0
-9 -54 0
-9 -51 0
-9 -46 0
-9 -44 0
-9 -41 0
-9 -34 0
-9 -33 0
-9 -32 0
-9 -30 0
-8 -85 0
-8 -81 0
-8 -79 0
-8 -75 0
-8 -73 0
-8 -71 0
-8 -70 0
-8 -62 0
-8 -60 0
-8 -57 0
-8 -52 0
-8 -50 0
-8 -48 0
-8 -46 0
-8 -40 0
-8 -26 0
-7 -89 0
-7 -85 0
-7 -83 0
-7 -81 0
-7 -79 0
-7 -70 0
-7 -67 0
-7 -60 0
-7 -56 0
-7 -55 0
-7 -53 0
-7 -52 0
-7 -48 0
-7 -46 0
-7 -29 0
-7 -15 0
-7 -8 0
-6 -88 0
-6 -87 0
-6 -82 0
-6 -80 0
-6 -78 0
-6 -65 0
-6 -63 0
-6 -62 0
-6 -60 0
-6 -59 0
-6 -53 0
-6 -39 0
-6 -35 0
-6 -33 0
-6 -24 0
-6 -17 0
-5 -88 0
-5 -87 0
-5 -82 0
-5 -77 0
-5 -74 0
-5 -73 0
-5 -65 0
-5 -60 0
-5 -59 0
-5 -45 0
-5 -41 0
-5 -33 0
-5 -29 0
-5 -23 0
-5 -22 0
-5 -6 0
-4 -86 0
-4 -77 0
-4 -76 0
-4 -74 0
-4 -73 0
-4 -69 0
-4 -48 0
-4 -45 0
-4 -41 0
-4 -38 0
-4 -36 0
-4 -29 0
-4 -23 0
-4 -22 0
-4 -21 0
-4 -17 0
-4 -5 0
-3 -84 0
-3 -82 0
-3 -81 0
-3 -67 0
-3 -66 0
-3 -64 0
-3 -61 0
-3 -54 0
-3 -43 0
-3 -40 0
-3 -38 0
-3 -35 0
-3 -31 0
-3 -22 0
-3 -19 0
-3 -18 0
-3 -14 0
-2 -88 0
-2 -80 0
-2 -77 0
-2 -75 0
-2 -70 0
-2 -68 0
-2 -66 0
-2 -44 0
-2 -32 0
-2 -28 0
-2 -21 0
-2 -16 0
-2 -15 0
-2 -14 0
-2 -13 0
-2 -11 0
-1 -90 0
-1 -88 0
-1 -79 0
-1 -75 0
-1 -74 0
-1 -43 0
-1 -39 0
-1 -32 0
-1 -28 0
-1 -27 0
-1 -25 0
-1 -21 0
-1 -16 0
-1 -15 0
-1 -14 0
-1 -12 0
-1 -2 0
1 12 25 27 39 43 74 79 90 0
2 11 13 44 66 68 70 77 80 0
3 14 18 22 31 35 61 81 84 0
4 17 21 36 38 48 69 76 86 0
5 6 33 59 60 65 82 87 88 0
7 15 29 53 55 56 67 83 89 0
8 26 40 50 57 62 71 73 75 0
9 30 32 41 46 51 54 63 72 0
10 20 24 28 45 47 58 64 85 0
16 19 23 34 37 42 49 52 78 0
