p cnf 30 141
-27 -29 0
-26 -30 0
-24 -27 0
-24 -25 0
-23 -27 0
-23 -24 0
-22 -29 0
-22 -25 0
-22 -24 0
-21 -28 0
-21 -25 0
-20 -30 0
-20 -28 0
-20 -26 0
-19 -30 0
-19 -27 0
-19 -26 0
-19 -24 0
-19 -23 0
-19 -20 0
-18 -30 0
-18 -23 0
-17 -29 0
-17 -28 0
-17 -27 0
-17 -20 0
-16 -29 0
-16 -28 0
-16 -22 0
-16 -21 0
-15 -30 0
-15 -29 0
-15 -27 0
-15 -18 0
-15 -17 0
-14 -30 0
-14 -26 0
-14 -25 0
-14 -21 0
-14 -20 0
-14 -19 0
-13 -30 0
-13 -28 0
-13 -21 0
-13 -18 0
-13 -16 0
-13 -15 0
-12 -28 0
-12 -23 0
-12 -20 0
-12 -18 0
-12 -17 0
-11 -28 0
-11 -25 0
-11 -24 0
-11 -22 0
-11 -20 0
-11 -17 0
-11 -12 0
-10 -29 0
-10 -27 0
-10 -25 0
-10 -21 0
-10 -17 0
-10 -15 0
-10 -14 0
-9 -28 0
-9 -27 0
-9 -24 0
-9 -23 0
-9 -21 0
-9 -19 0
-9 -16 0
-9 -13 0
-8 -30 0
-8 -25 0
-8 -24 0
-8 -22 0
-8 -18 0
-8 -15 0
-8 -13 0
-8 -11 0
-7 -28 0
-7 -26 0
-7 -21 0
-7 -16 0
-7 -13 0
-7 -9 0
-6 -30 0
-6 -29 0
-6 -26 0
-6 -22 0
-6 -20 0
-6 -19 0
-6 -16 0
-6 -14 0
-5 -26 0
-5 -25 0
-5 -24 0
-5 -22 0
-5 -11 0
-5 -8 0
-5 -7 0
-4 -29 0
-4 -23 0
-4 -22 0
-4 -18 0
-4 -16 0
-4 -12 0
-4 -6 0
-3 -26 0
-3 -23 0
-3 -18 0
-3 -12 0
-3 -7 0
-3 -5 0
-3 -4 0
-2 -25 0
-2 -23 0
-2 -21 0
-2 -18 0
-2 -14 0
-2 -12 0
-2 -10 0
-2 -4 0
-2 -3 0
-1 -29 0
-1 -27 0
-1 -26 0
-1 -17 0
-1 -15 0
-1 -10 0
-1 -7 0
-1 -5 0
-1 -3 0
1 3 5 7 26 0
2 10 14 21 25 0
4 6 16 22 29 0
8 13 15 18 30 0
9 19 23 24 27 0
11 12 17 20 28 0
