p cnf 110 1056
-108 -109 0
-105 -108 0
-104 -107 0
-104 -105 0
-102 -108 0
-102 -105 0
-101 -107 0
-101 -104 0
-100 -107 0
-100 -104 0
-100 -102 0
-100 -101 0
-99 -107 0
-98 -106 0
-98 -103 0
-97 -109 0
-97 -108 0
-97 -107 0
-97 -104 0
-97 -101 0
-97 -100 0
-96 -107 0
-96 -99 0
-95 -108 0
-95 -105 0
-95 -102 0
-94 -102 0
-94 -100 0
-93 -105 0
-93 -104 0
-92 -106 0
-92 -95 0
-91 -105 0
-91 -104 0
-91 -96 0
-91 -93 0
-90 -103 0
-90 -101 0
-90 -98 0
-89 -110 0
-89 -102 0
-89 -100 0
-89 -94 0
-88 -107 0
-88 -99 0
-88 -96 0
-87 -109 0
-87 -108 0
-87 -97 0
-87 -96 0
-87 -91 0
-86 -110 0
-86 -107 0
-86 -99 0
-86 -96 0
-86 -89 0
-86 -88 0
-85 -109 0
-85 -108 0
-85 -103 0
-85 -98 0
-85 -97 0
-85 -90 0
-85 -87 0
-84 -110 0
-84 -106 0
-84 -92 0
-83 -93 0
-82 -96 0
-82 -91 0
-82 -87 0
-82 -83 0
-81 -99 0
-81 -95 0
-81 -92 0
-80 -102 0
-80 -100 0
-80 -96 0
-80 -94 0
-80 -91 0
-80 -89 0
-80 -87 0
-80 -82 0
-79 -99 0
-79 -83 0
-79 -82 0
-79 -81 0
-78 -107 0
-78 -103 0
-78 -99 0
-78 -98 0
-78 -96 0
-78 -90 0
-78 -88 0
-78 -86 0
-78 -85 0
-77 -110 0
-77 -108 0
-77 -105 0
-77 -102 0
-77 -95 0
-77 -84 0
-76 -101 0
-76 -99 0
-76 -90 0
-76 -81 0
-76 -79 0
-75 -110 0
-75 -103 0
-75 -98 0
-75 -90 0
-75 -85 0
-75 -84 0
-75 -78 0
-75 -77 0
-74 -106 0
-74 -105 0
-74 -104 0
-74 -93 0
-74 -92 0
-74 -91 0
-74 -84 0
-73 -109 0
-73 -108 0
-73 -99 0
-73 -97 0
-73 -87 0
-73 -85 0
-73 -81 0
-73 -79 0
-73 -76 0
-72 -106 0
-72 -101 0
-72 -92 0
-72 -90 0
-72 -84 0
-72 -76 0
-72 -74 0
-71 -110 0
-71 -105 0
-71 -104 0
-71 -93 0
-71 -91 0
-71 -89 0
-71 -86 0
-71 -74 0
-70 -109 0
-70 -108 0
-70 -97 0
-70 -94 0
-70 -87 0
-70 -85 0
-70 -73 0
-69 -107 0
-69 -104 0
-69 -101 0
-69 -100 0
-69 -97 0
-69 -83 0
-69 -82 0
-69 -79 0
-68 -102 0
-68 -100 0
-68 -99 0
-68 -94 0
-68 -89 0
-68 -81 0
-68 -80 0
-68 -79 0
-68 -76 0
-68 -73 0
-67 -103 0
-67 -94 0
-67 -70 0
-66 -108 0
-66 -105 0
-66 -102 0
-66 -95 0
-66 -83 0
-66 -82 0
-66 -79 0
-66 -77 0
-66 -69 0
-65 -110 0
-65 -89 0
-65 -86 0
-65 -83 0
-65 -82 0
-65 -79 0
-65 -71 0
-65 -69 0
-65 -66 0
-64 -103 0
-64 -98 0
-64 -90 0
-64 -85 0
-64 -83 0
-64 -82 0
-64 -79 0
-64 -78 0
-64 -75 0
-64 -69 0
-64 -66 0
-64 -65 0
-63 -110 0
-63 -99 0
-63 -84 0
-63 -81 0
-63 -79 0
-63 -77 0
-63 -76 0
-63 -75 0
-63 -73 0
-63 -68 0
-62 -109 0
-62 -105 0
-62 -104 0
-62 -93 0
-62 -91 0
-62 -74 0
-62 -71 0
-61 -109 0
-61 -83 0
-61 -82 0
-61 -79 0
-61 -69 0
-61 -66 0
-61 -65 0
-61 -64 0
-61 -62 0
-60 -103 0
-60 -102 0
-60 -100 0
-60 -98 0
-60 -94 0
-60 -90 0
-60 -89 0
-60 -85 0
-60 -80 0
-60 -78 0
-60 -75 0
-60 -68 0
-60 -64 0
-59 -88 0
-59 -83 0
-59 -82 0
-59 -79 0
-59 -69 0
-59 -66 0
-59 -65 0
-59 -64 0
-59 -61 0
-58 -96 0
-58 -95 0
-58 -92 0
-58 -91 0
-58 -87 0
-58 -82 0
-58 -81 0
-58 -80 0
-57 -106 0
-57 -103 0
-57 -92 0
-57 -84 0
-57 -74 0
-57 -72 0
-57 -67 0
-56 -109 0
-56 -102 0
-56 -100 0
-56 -94 0
-56 -89 0
-56 -80 0
-56 -68 0
-56 -62 0
-56 -61 0
-56 -60 0
-55 -101 0
-55 -96 0
-55 -91 0
-55 -90 0
-55 -87 0
-55 -82 0
-55 -80 0
-55 -76 0
-55 -72 0
-55 -58 0
-54 -105 0
-54 -104 0
-54 -94 0
-54 -93 0
-54 -91 0
-54 -74 0
-54 -71 0
-54 -70 0
-54 -67 0
-54 -62 0
-53 -108 0
-53 -105 0
-53 -102 0
-53 -101 0
-53 -95 0
-53 -90 0
-53 -77 0
-53 -76 0
-53 -72 0
-53 -66 0
-53 -55 0
-52 -107 0
-52 -106 0
-52 -104 0
-52 -101 0
-52 -100 0
-52 -98 0
-52 -97 0
-52 -69 0
-51 -95 0
-51 -92 0
-51 -88 0
-51 -81 0
-51 -59 0
-51 -58 0
-50 -95 0
-50 -94 0
-50 -92 0
-50 -81 0
-50 -70 0
-50 -67 0
-50 -58 0
-50 -54 0
-50 -51 0
-49 -106 0
-49 -99 0
-49 -98 0
-49 -81 0
-49 -79 0
-49 -76 0
-49 -73 0
-49 -68 0
-49 -63 0
-49 -52 0
-48 -103 0
-48 -99 0
-48 -81 0
-48 -79 0
-48 -76 0
-48 -73 0
-48 -68 0
-48 -67 0
-48 -63 0
-48 -57 0
-48 -49 0
-47 -106 0
-47 -98 0
-47 -88 0
-47 -59 0
-47 -52 0
-47 -51 0
-47 -49 0
-46 -109 0
-46 -108 0
-46 -106 0
-46 -97 0
-46 -92 0
-46 -87 0
-46 -85 0
-46 -84 0
-46 -74 0
-46 -73 0
-46 -72 0
-46 -70 0
-46 -57 0
-45 -101 0
-45 -90 0
-45 -88 0
-45 -76 0
-45 -72 0
-45 -59 0
-45 -55 0
-45 -53 0
-45 -51 0
-45 -47 0
-44 -110 0
-44 -93 0
-44 -84 0
-44 -83 0
-44 -77 0
-44 -75 0
-44 -63 0
-43 -109 0
-43 -108 0
-43 -97 0
-43 -93 0
-43 -87 0
-43 -85 0
-43 -83 0
-43 -73 0
-43 -70 0
-43 -46 0
-43 -44 0
-42 -110 0
-42 -107 0
-42 -104 0
-42 -101 0
-42 -100 0
-42 -97 0
-42 -84 0
-42 -77 0
-42 -75 0
-42 -69 0
-42 -63 0
-42 -52 0
-42 -44 0
-41 -105 0
-41 -104 0
-41 -103 0
-41 -98 0
-41 -93 0
-41 -91 0
-41 -90 0
-41 -85 0
-41 -78 0
-41 -75 0
-41 -74 0
-41 -71 0
-41 -64 0
-41 -62 0
-41 -60 0
-41 -54 0
-40 -106 0
-40 -98 0
-40 -93 0
-40 -83 0
-40 -52 0
-40 -49 0
-40 -47 0
-40 -44 0
-40 -43 0
-39 -110 0
-39 -109 0
-39 -84 0
-39 -77 0
-39 -75 0
-39 -63 0
-39 -62 0
-39 -61 0
-39 -56 0
-39 -44 0
-39 -42 0
-38 -106 0
-38 -92 0
-38 -84 0
-38 -83 0
-38 -82 0
-38 -79 0
-38 -74 0
-38 -72 0
-38 -69 0
-38 -66 0
-38 -65 0
-38 -64 0
-38 -61 0
-38 -59 0
-38 -57 0
-38 -46 0
-37 -109 0
-37 -101 0
-37 -90 0
-37 -76 0
-37 -72 0
-37 -62 0
-37 -61 0
-37 -56 0
-37 -55 0
-37 -53 0
-37 -45 0
-37 -39 0
-36 -103 0
-36 -88 0
-36 -67 0
-36 -59 0
-36 -57 0
-36 -51 0
-36 -48 0
-36 -47 0
-36 -45 0
-35 -110 0
-35 -95 0
-35 -92 0
-35 -89 0
-35 -86 0
-35 -81 0
-35 -71 0
-35 -65 0
-35 -58 0
-35 -51 0
-35 -50 0
-34 -110 0
-34 -94 0
-34 -84 0
-34 -77 0
-34 -75 0
-34 -70 0
-34 -67 0
-34 -63 0
-34 -54 0
-34 -50 0
-34 -44 0
-34 -42 0
-34 -39 0
-33 -105 0
-33 -104 0
-33 -99 0
-33 -93 0
-33 -91 0
-33 -81 0
-33 -79 0
-33 -76 0
-33 -74 0
-33 -73 0
-33 -71 0
-33 -68 0
-33 -63 0
-33 -62 0
-33 -54 0
-33 -49 0
-33 -48 0
-33 -41 0
-32 -106 0
-32 -98 0
-32 -96 0
-32 -91 0
-32 -87 0
-32 -82 0
-32 -80 0
-32 -58 0
-32 -55 0
-32 -52 0
-32 -49 0
-32 -47 0
-32 -40 0
-31 -103 0
-31 -96 0
-31 -91 0
-31 -87 0
-31 -82 0
-31 -80 0
-31 -67 0
-31 -58 0
-31 -57 0
-31 -55 0
-31 -48 0
-31 -36 0
-31 -32 0
-30 -109 0
-30 -106 0
-30 -98 0
-30 -62 0
-30 -61 0
-30 -56 0
-30 -52 0
-30 -49 0
-30 -47 0
-30 -40 0
-30 -39 0
-30 -37 0
-30 -32 0
-29 -109 0
-29 -95 0
-29 -92 0
-29 -81 0
-29 -62 0
-29 -61 0
-29 -58 0
-29 -56 0
-29 -51 0
-29 -50 0
-29 -39 0
-29 -37 0
-29 -35 0
-29 -30 0
-28 -107 0
-28 -99 0
-28 -96 0
-28 -93 0
-28 -88 0
-28 -86 0
-28 -83 0
-28 -78 0
-28 -44 0
-28 -43 0
-28 -40 0
-27 -106 0
-27 -98 0
-27 -94 0
-27 -70 0
-27 -67 0
-27 -54 0
-27 -52 0
-27 -50 0
-27 -49 0
-27 -47 0
-27 -40 0
-27 -34 0
-27 -32 0
-27 -30 0
-26 -109 0
-26 -107 0
-26 -99 0
-26 -96 0
-26 -88 0
-26 -86 0
-26 -78 0
-26 -62 0
-26 -61 0
-26 -56 0
-26 -39 0
-26 -37 0
-26 -30 0
-26 -29 0
-26 -28 0
-25 -110 0
-25 -109 0
-25 -108 0
-25 -97 0
-25 -89 0
-25 -87 0
-25 -86 0
-25 -85 0
-25 -73 0
-25 -71 0
-25 -70 0
-25 -65 0
-25 -46 0
-25 -43 0
-25 -35 0
-24 -103 0
-24 -98 0
-24 -95 0
-24 -92 0
-24 -90 0
-24 -85 0
-24 -81 0
-24 -78 0
-24 -75 0
-24 -64 0
-24 -60 0
-24 -58 0
-24 -51 0
-24 -50 0
-24 -41 0
-24 -35 0
-24 -29 0
-23 -110 0
-23 -106 0
-23 -98 0
-23 -89 0
-23 -86 0
-23 -71 0
-23 -65 0
-23 -52 0
-23 -49 0
-23 -47 0
-23 -40 0
-23 -35 0
-23 -32 0
-23 -30 0
-23 -27 0
-23 -25 0
-22 -102 0
-22 -100 0
-22 -94 0
-22 -93 0
-22 -89 0
-22 -83 0
-22 -80 0
-22 -68 0
-22 -60 0
-22 -56 0
-22 -44 0
-22 -43 0
-22 -40 0
-22 -28 0
-21 -108 0
-21 -107 0
-21 -105 0
-21 -102 0
-21 -99 0
-21 -96 0
-21 -95 0
-21 -88 0
-21 -86 0
-21 -78 0
-21 -77 0
-21 -66 0
-21 -53 0
-21 -28 0
-21 -26 0
-20 -101 0
-20 -93 0
-20 -90 0
-20 -83 0
-20 -76 0
-20 -72 0
-20 -55 0
-20 -53 0
-20 -45 0
-20 -44 0
-20 -43 0
-20 -40 0
-20 -37 0
-20 -28 0
-20 -22 0
-19 -107 0
-19 -99 0
-19 -96 0
-19 -94 0
-19 -88 0
-19 -86 0
-19 -78 0
-19 -70 0
-19 -67 0
-19 -54 0
-19 -50 0
-19 -34 0
-19 -28 0
-19 -27 0
-19 -26 0
-19 -21 0
-18 -94 0
-18 -83 0
-18 -82 0
-18 -79 0
-18 -70 0
-18 -69 0
-18 -67 0
-18 -66 0
-18 -65 0
-18 -64 0
-18 -61 0
-18 -59 0
-18 -54 0
-18 -50 0
-18 -38 0
-18 -34 0
-18 -27 0
-18 -19 0
-17 -107 0
-17 -104 0
-17 -101 0
-17 -100 0
-17 -97 0
-17 -95 0
-17 -92 0
-17 -81 0
-17 -69 0
-17 -58 0
-17 -52 0
-17 -51 0
-17 -50 0
-17 -42 0
-17 -35 0
-17 -29 0
-17 -24 0
-16 -101 0
-16 -94 0
-16 -90 0
-16 -76 0
-16 -72 0
-16 -70 0
-16 -67 0
-16 -55 0
-16 -54 0
-16 -53 0
-16 -50 0
-16 -45 0
-16 -37 0
-16 -34 0
-16 -27 0
-16 -20 0
-16 -19 0
-16 -18 0
-15 -102 0
-15 -100 0
-15 -94 0
-15 -89 0
-15 -88 0
-15 -80 0
-15 -68 0
-15 -60 0
-15 -59 0
-15 -56 0
-15 -51 0
-15 -47 0
-15 -45 0
-15 -36 0
-15 -22 0
-14 -107 0
-14 -104 0
-14 -103 0
-14 -101 0
-14 -100 0
-14 -97 0
-14 -69 0
-14 -67 0
-14 -57 0
-14 -52 0
-14 -48 0
-14 -42 0
-14 -36 0
-14 -31 0
-14 -17 0
-13 -110 0
-13 -103 0
-13 -89 0
-13 -86 0
-13 -71 0
-13 -67 0
-13 -65 0
-13 -57 0
-13 -48 0
-13 -36 0
-13 -35 0
-13 -31 0
-13 -25 0
-13 -23 0
-13 -14 0
-12 -108 0
-12 -105 0
-12 -103 0
-12 -102 0
-12 -95 0
-12 -77 0
-12 -67 0
-12 -66 0
-12 -57 0
-12 -53 0
-12 -48 0
-12 -36 0
-12 -31 0
-12 -21 0
-12 -14 0
-12 -13 0
-11 -109 0
-11 -103 0
-11 -67 0
-11 -62 0
-11 -61 0
-11 -57 0
-11 -56 0
-11 -48 0
-11 -39 0
-11 -37 0
-11 -36 0
-11 -31 0
-11 -30 0
-11 -29 0
-11 -26 0
-11 -14 0
-11 -13 0
-11 -12 0
-10 -105 0
-10 -104 0
-10 -93 0
-10 -91 0
-10 -88 0
-10 -74 0
-10 -71 0
-10 -62 0
-10 -59 0
-10 -54 0
-10 -51 0
-10 -47 0
-10 -45 0
-10 -41 0
-10 -36 0
-10 -33 0
-10 -15 0
-9 -108 0
-9 -106 0
-9 -105 0
-9 -102 0
-9 -98 0
-9 -95 0
-9 -77 0
-9 -66 0
-9 -53 0
-9 -52 0
-9 -49 0
-9 -47 0
-9 -40 0
-9 -32 0
-9 -30 0
-9 -27 0
-9 -23 0
-9 -21 0
-9 -12 0
-8 -110 0
-8 -88 0
-8 -84 0
-8 -77 0
-8 -75 0
-8 -63 0
-8 -59 0
-8 -51 0
-8 -47 0
-8 -45 0
-8 -44 0
-8 -42 0
-8 -39 0
-8 -36 0
-8 -34 0
-8 -15 0
-8 -10 0
-7 -110 0
-7 -96 0
-7 -91 0
-7 -87 0
-7 -84 0
-7 -82 0
-7 -80 0
-7 -77 0
-7 -75 0
-7 -63 0
-7 -58 0
-7 -55 0
-7 -44 0
-7 -42 0
-7 -39 0
-7 -34 0
-7 -32 0
-7 -31 0
-7 -8 0
-6 -103 0
-6 -93 0
-6 -83 0
-6 -67 0
-6 -57 0
-6 -48 0
-6 -44 0
-6 -43 0
-6 -40 0
-6 -36 0
-6 -31 0
-6 -28 0
-6 -22 0
-6 -20 0
-6 -14 0
-6 -13 0
-6 -12 0
-6 -11 0
-5 -95 0
-5 -93 0
-5 -92 0
-5 -83 0
-5 -81 0
-5 -58 0
-5 -51 0
-5 -50 0
-5 -44 0
-5 -43 0
-5 -40 0
-5 -35 0
-5 -29 0
-5 -28 0
-5 -24 0
-5 -22 0
-5 -20 0
-5 -17 0
-5 -6 0
-4 -107 0
-4 -106 0
-4 -99 0
-4 -96 0
-4 -92 0
-4 -88 0
-4 -86 0
-4 -84 0
-4 -78 0
-4 -74 0
-4 -72 0
-4 -57 0
-4 -46 0
-4 -38 0
-4 -28 0
-4 -26 0
-4 -21 0
-4 -19 0
-3 -110 0
-3 -101 0
-3 -90 0
-3 -89 0
-3 -86 0
-3 -76 0
-3 -72 0
-3 -71 0
-3 -65 0
-3 -55 0
-3 -53 0
-3 -45 0
-3 -37 0
-3 -35 0
-3 -25 0
-3 -23 0
-3 -20 0
-3 -16 0
-3 -13 0
-2 -106 0
-2 -102 0
-2 -100 0
-2 -94 0
-2 -92 0
-2 -89 0
-2 -84 0
-2 -80 0
-2 -74 0
-2 -72 0
-2 -68 0
-2 -60 0
-2 -57 0
-2 -56 0
-2 -46 0
-2 -38 0
-2 -22 0
-2 -15 0
-2 -4 0
-1 -109 0
-1 -108 0
-1 -97 0
-1 -88 0
-1 -87 0
-1 -85 0
-1 -73 0
-1 -70 0
-1 -59 0
-1 -51 0
-1 -47 0
-1 -46 0
-1 -45 0
-1 -43 0
-1 -36 0
-1 -25 0
-1 -15 0
-1 -10 0
-1 -8 0
1 8 10 15 36 45 47 51 59 88 0
2 4 38 46 57 72 74 84 92 106 0
3 13 23 25 35 65 71 86 89 110 0
5 6 20 22 28 40 43 44 83 93 0
7 31 32 55 58 80 82 87 91 96 0
9 12 21 53 66 77 95 102 105 108 0
11 26 29 30 37 39 56 61 62 109 0
14 17 42 52 69 97 100 101 104 107 0
16 18 19 27 34 50 54 67 70 94 0
24 41 60 64 75 78 85 90 98 103 0
33 48 49 63 68 73 76 79 81 99 0
