p cnf 42 238
-37 -40 0
-36 -42 0
-36 -41 0
-35 -41 0
-35 -40 0
-35 -37 0
-34 -39 0
-34 -37 0
-32 -41 0
-32 -36 0
-32 -33 0
-31 -37 0
-31 -34 0
-31 -33 0
-30 -42 0
-30 -37 0
-30 -34 0
-30 -31 0
-29 -41 0
-29 -40 0
-29 -36 0
-29 -32 0
-28 -40 0
-28 -38 0
-28 -37 0
-28 -35 0
-27 -42 0
-27 -36 0
-27 -33 0
-27 -31 0
-26 -38 0
-26 -37 0
-26 -34 0
-26 -31 0
-26 -30 0
-25 -39 0
-25 -38 0
-25 -34 0
-25 -28 0
-24 -42 0
-24 -39 0
-24 -36 0
-24 -34 0
-24 -27 0
-24 -25 0
-23 -40 0
-23 -38 0
-23 -29 0
-23 -26 0
-22 -40 0
-22 -33 0
-22 -31 0
-22 -29 0
-22 -27 0
-22 -23 0
-21 -41 0
-21 -37 0
-21 -36 0
-21 -34 0
-21 -32 0
-21 -31 0
-21 -30 0
-21 -29 0
-21 -26 0
-20 -42 0
-20 -40 0
-20 -37 0
-20 -36 0
-20 -35 0
-20 -28 0
-20 -27 0
-20 -24 0
-19 -40 0
-19 -37 0
-19 -35 0
-19 -33 0
-19 -32 0
-19 -28 0
-19 -20 0
-18 -38 0
-18 -33 0
-18 -32 0
-18 -26 0
-18 -23 0
-18 -19 0
-17 -42 0
-17 -38 0
-17 -30 0
-17 -28 0
-17 -25 0
-16 -42 0
-16 -38 0
-16 -36 0
-16 -27 0
-16 -26 0
-16 -24 0
-16 -23 0
-16 -20 0
-16 -18 0
-15 -39 0
-15 -33 0
-15 -31 0
-15 -27 0
-15 -22 0
-14 -39 0
-14 -38 0
-14 -26 0
-14 -23 0
-14 -18 0
-14 -16 0
-14 -15 0
-13 -41 0
-13 -35 0
-13 -33 0
-13 -31 0
-13 -27 0
-13 -22 0
-13 -15 0
-12 -39 0
-12 -34 0
-12 -33 0
-12 -32 0
-12 -25 0
-12 -24 0
-12 -19 0
-12 -18 0
-11 -41 0
-11 -39 0
-11 -35 0
-11 -34 0
-11 -25 0
-11 -24 0
-11 -13 0
-11 -12 0
-10 -40 0
-10 -39 0
-10 -34 0
-10 -29 0
-10 -25 0
-10 -24 0
-10 -23 0
-10 -22 0
-10 -12 0
-10 -11 0
-9 -42 0
-9 -39 0
-9 -30 0
-9 -17 0
-9 -15 0
-9 -14 0
-8 -41 0
-8 -39 0
-8 -36 0
-8 -32 0
-8 -29 0
-8 -21 0
-8 -15 0
-8 -14 0
-8 -9 0
-7 -38 0
-7 -33 0
-7 -31 0
-7 -28 0
-7 -27 0
-7 -25 0
-7 -22 0
-7 -17 0
-7 -15 0
-7 -13 0
-6 -42 0
-6 -41 0
-6 -35 0
-6 -30 0
-6 -17 0
-6 -13 0
-6 -11 0
-6 -9 0
-5 -41 0
-5 -38 0
-5 -35 0
-5 -26 0
-5 -23 0
-5 -18 0
-5 -16 0
-5 -14 0
-5 -13 0
-5 -11 0
-5 -6 0
-4 -42 0
-4 -33 0
-4 -32 0
-4 -30 0
-4 -19 0
-4 -18 0
-4 -17 0
-4 -12 0
-4 -9 0
-4 -6 0
-3 -41 0
-3 -38 0
-3 -36 0
-3 -32 0
-3 -29 0
-3 -28 0
-3 -25 0
-3 -21 0
-3 -17 0
-3 -8 0
-3 -7 0
-2 -42 0
-2 -40 0
-2 -30 0
-2 -29 0
-2 -23 0
-2 -22 0
-2 -17 0
-2 -10 0
-2 -9 0
-2 -6 0
-2 -4 0
-1 -40 0
-1 -39 0
-1 -37 0
-1 -35 0
-1 -28 0
-1 -20 0
-1 -19 0
-1 -15 0
-1 -14 0
-1 -9 0
-1 -8 0
1 8 9 14 15 39 0
2 10 22 23 29 40 0
3 7 17 25 28 38 0
4 12 18 19 32 33 0
5 6 11 13 35 41 0
16 20 24 27 36 42 0
21 26 30 31 34 37 0
