p cnf 30 141
-29 -30 0
-28 -30 0
-28 -29 0
-26 -28 0
-25 -30 0
-24 -30 0
-24 -26 0
-24 -25 0
-23 -29 0
-22 -28 0
-22 -26 0
-22 -25 0
-21 -30 0
-21 -29 0
-21 -28 0
-21 -27 0
-20 -28 0
-20 -26 0
-20 -23 0
-20 -22 0
-19 -26 0
-19 -24 0
-18 -19 0
-17 -27 0
-17 -25 0
-17 -22 0
-17 -21 0
-16 -29 0
-16 -26 0
-16 -24 0
-16 -23 0
-16 -19 0
-15 -23 0
-15 -20 0
-15 -19 0
-15 -18 0
-14 -30 0
-14 -27 0
-14 -25 0
-14 -24 0
-13 -27 0
-13 -23 0
-13 -21 0
-13 -20 0
-13 -17 0
-13 -15 0
-12 -27 0
-12 -26 0
-12 -24 0
-12 -21 0
-12 -19 0
-12 -17 0
-12 -16 0
-12 -13 0
-11 -30 0
-11 -25 0
-11 -24 0
-11 -18 0
-11 -14 0
-10 -28 0
-10 -26 0
-10 -22 0
-10 -20 0
-10 -18 0
-10 -11 0
-9 -25 0
-9 -22 0
-9 -19 0
-9 -18 0
-9 -17 0
-9 -15 0
-8 -29 0
-8 -23 0
-8 -18 0
-8 -16 0
-8 -11 0
-8 -10 0
-7 -29 0
-7 -27 0
-7 -23 0
-7 -16 0
-7 -14 0
-7 -8 0
-6 -29 0
-6 -25 0
-6 -23 0
-6 -22 0
-6 -17 0
-6 -16 0
-6 -9 0
-6 -8 0
-6 -7 0
-5 -30 0
-5 -25 0
-5 -24 0
-5 -23 0
-5 -20 0
-5 -15 0
-5 -14 0
-5 -13 0
-5 -11 0
-4 -27 0
-4 -21 0
-4 -18 0
-4 -17 0
-4 -13 0
-4 -12 0
-4 -11 0
-4 -10 0
-4 -8 0
-3 -30 0
-3 -29 0
-3 -28 0
-3 -21 0
-3 -19 0
-3 -18 0
-3 -15 0
-3 -9 0
-2 -28 0
-2 -27 0
-2 -26 0
-2 -22 0
-2 -20 0
-2 -14 0
-2 -10 0
-2 -7 0
-1 -27 0
-1 -19 0
-1 -18 0
-1 -15 0
-1 -14 0
-1 -9 0
-1 -7 0
-1 -3 0
-1 -2 0
1 2 7 14 27 0
3 21 28 29 30 0
4 8 10 11 18 0
5 13 15 20 23 0
6 9 17 22 25 0
12 16 19 24 26 0
