p cnf 110 1056
-108 -110 0
-106 -107 0
-105 -109 0
-104 -107 0
-104 -106 0
-103 -107 0
-102 -107 0
-102 -103 0
-101 -103 0
-100 -110 0
-99 -110 0
-99 -108 0
-98 -107 0
-98 -103 0
-98 -102 0
-98 -99 0
-97 -106 0
-97 -102 0
-96 -107 0
-96 -106 0
-96 -104 0
-96 -101 0
-95 -106 0
-95 -97 0
-94 -107 0
-94 -103 0
-94 -102 0
-94 -98 0
-94 -95 0
-93 -105 0
-92 -105 0
-92 -93 0
-91 -110 0
-91 -108 0
-91 -105 0
-91 -99 0
-91 -93 0
-91 -92 0
-90 -110 0
-90 -109 0
-90 -105 0
-90 -100 0
-89 -100 0
-88 -109 0
-88 -92 0
-87 -103 0
-87 -101 0
-87 -92 0
-87 -88 0
-86 -102 0
-86 -100 0
-86 -97 0
-86 -89 0
-85 -109 0
-85 -105 0
-85 -90 0
-85 -89 0
-84 -110 0
-84 -108 0
-84 -103 0
-84 -101 0
-84 -99 0
-84 -91 0
-84 -87 0
-83 -107 0
-83 -103 0
-83 -102 0
-83 -98 0
-83 -94 0
-82 -101 0
-82 -99 0
-82 -98 0
-82 -96 0
-81 -105 0
-81 -100 0
-81 -93 0
-81 -92 0
-81 -91 0
-81 -89 0
-81 -86 0
-80 -100 0
-80 -95 0
-80 -94 0
-80 -89 0
-80 -86 0
-80 -81 0
-79 -108 0
-79 -104 0
-78 -110 0
-78 -108 0
-78 -99 0
-78 -91 0
-78 -84 0
-78 -83 0
-77 -104 0
-77 -95 0
-77 -94 0
-77 -80 0
-77 -79 0
-76 -109 0
-76 -107 0
-76 -103 0
-76 -102 0
-76 -98 0
-76 -94 0
-76 -88 0
-76 -83 0
-75 -107 0
-75 -105 0
-75 -103 0
-75 -102 0
-75 -98 0
-75 -94 0
-75 -93 0
-75 -92 0
-75 -91 0
-75 -83 0
-75 -81 0
-75 -76 0
-74 -109 0
-74 -107 0
-74 -106 0
-74 -105 0
-74 -104 0
-74 -96 0
-74 -90 0
-74 -85 0
-73 -109 0
-73 -100 0
-73 -89 0
-73 -88 0
-73 -86 0
-73 -81 0
-73 -80 0
-73 -76 0
-72 -110 0
-72 -101 0
-72 -100 0
-72 -96 0
-72 -90 0
-72 -82 0
-71 -109 0
-71 -108 0
-71 -105 0
-71 -90 0
-71 -85 0
-71 -79 0
-71 -74 0
-70 -107 0
-70 -106 0
-70 -104 0
-70 -96 0
-70 -74 0
-69 -108 0
-69 -93 0
-69 -79 0
-69 -71 0
-68 -110 0
-68 -106 0
-68 -100 0
-68 -97 0
-68 -95 0
-68 -90 0
-68 -72 0
-67 -101 0
-67 -96 0
-67 -95 0
-67 -94 0
-67 -82 0
-67 -80 0
-67 -77 0
-67 -72 0
-66 -103 0
-66 -101 0
-66 -93 0
-66 -87 0
-66 -84 0
-66 -69 0
-65 -105 0
-65 -93 0
-65 -92 0
-65 -91 0
-65 -81 0
-65 -75 0
-65 -70 0
-64 -95 0
-64 -94 0
-64 -93 0
-64 -80 0
-64 -77 0
-64 -69 0
-64 -67 0
-64 -66 0
-63 -104 0
-63 -83 0
-63 -79 0
-63 -78 0
-63 -77 0
-62 -99 0
-62 -98 0
-62 -82 0
-62 -70 0
-62 -65 0
-61 -108 0
-61 -107 0
-61 -103 0
-61 -102 0
-61 -98 0
-61 -94 0
-61 -83 0
-61 -79 0
-61 -76 0
-61 -75 0
-61 -71 0
-61 -69 0
-60 -110 0
-60 -108 0
-60 -102 0
-60 -99 0
-60 -97 0
-60 -91 0
-60 -86 0
-60 -84 0
-60 -78 0
-59 -110 0
-59 -104 0
-59 -100 0
-59 -90 0
-59 -79 0
-59 -77 0
-59 -72 0
-59 -68 0
-59 -63 0
-58 -108 0
-58 -92 0
-58 -88 0
-58 -87 0
-58 -79 0
-58 -71 0
-58 -69 0
-58 -61 0
-57 -106 0
-57 -97 0
-57 -95 0
-57 -89 0
-57 -85 0
-57 -68 0
-56 -109 0
-56 -93 0
-56 -88 0
-56 -76 0
-56 -73 0
-56 -69 0
-56 -66 0
-56 -64 0
-55 -102 0
-55 -101 0
-55 -97 0
-55 -96 0
-55 -86 0
-55 -82 0
-55 -72 0
-55 -67 0
-55 -60 0
-54 -100 0
-54 -99 0
-54 -98 0
-54 -89 0
-54 -86 0
-54 -82 0
-54 -81 0
-54 -80 0
-54 -73 0
-54 -62 0
-53 -110 0
-53 -108 0
-53 -99 0
-53 -91 0
-53 -89 0
-53 -85 0
-53 -84 0
-53 -78 0
-53 -60 0
-53 -57 0
-52 -107 0
-52 -106 0
-52 -104 0
-52 -100 0
-52 -96 0
-52 -89 0
-52 -86 0
-52 -81 0
-52 -80 0
-52 -74 0
-52 -73 0
-52 -70 0
-52 -54 0
-51 -95 0
-51 -94 0
-51 -80 0
-51 -77 0
-51 -70 0
-51 -67 0
-51 -65 0
-51 -64 0
-51 -62 0
-50 -109 0
-50 -105 0
-50 -99 0
-50 -98 0
-50 -90 0
-50 -85 0
-50 -82 0
-50 -74 0
-50 -71 0
-50 -62 0
-50 -54 0
-49 -109 0
-49 -105 0
-49 -102 0
-49 -97 0
-49 -90 0
-49 -86 0
-49 -85 0
-49 -74 0
-49 -71 0
-49 -60 0
-49 -55 0
-49 -50 0
-48 -102 0
-48 -97 0
-48 -93 0
-48 -86 0
-48 -69 0
-48 -66 0
-48 -64 0
-48 -60 0
-48 -56 0
-48 -55 0
-48 -49 0
-47 -102 0
-47 -97 0
-47 -86 0
-47 -70 0
-47 -65 0
-47 -62 0
-47 -60 0
-47 -55 0
-47 -51 0
-47 -49 0
-47 -48 0
-46 -109 0
-46 -104 0
-46 -88 0
-46 -79 0
-46 -77 0
-46 -76 0
-46 -73 0
-46 -63 0
-46 -59 0
-46 -56 0
-45 -110 0
-45 -108 0
-45 -107 0
-45 -106 0
-45 -104 0
-45 -99 0
-45 -96 0
-45 -91 0
-45 -84 0
-45 -78 0
-45 -74 0
-45 -70 0
-45 -60 0
-45 -53 0
-45 -52 0
-44 -108 0
-44 -101 0
-44 -96 0
-44 -82 0
-44 -79 0
-44 -72 0
-44 -71 0
-44 -69 0
-44 -67 0
-44 -61 0
-44 -58 0
-44 -55 0
-43 -104 0
-43 -89 0
-43 -85 0
-43 -79 0
-43 -77 0
-43 -63 0
-43 -59 0
-43 -57 0
-43 -53 0
-43 -46 0
-42 -92 0
-42 -88 0
-42 -87 0
-42 -83 0
-42 -78 0
-42 -63 0
-42 -58 0
-41 -99 0
-41 -98 0
-41 -93 0
-41 -82 0
-41 -69 0
-41 -66 0
-41 -64 0
-41 -62 0
-41 -56 0
-41 -54 0
-41 -50 0
-41 -48 0
-40 -108 0
-40 -100 0
-40 -89 0
-40 -86 0
-40 -81 0
-40 -80 0
-40 -79 0
-40 -73 0
-40 -71 0
-40 -69 0
-40 -61 0
-40 -58 0
-40 -54 0
-40 -52 0
-40 -44 0
-39 -83 0
-39 -78 0
-39 -70 0
-39 -65 0
-39 -63 0
-39 -62 0
-39 -51 0
-39 -47 0
-39 -42 0
-38 -104 0
-38 -103 0
-38 -101 0
-38 -87 0
-38 -84 0
-38 -79 0
-38 -77 0
-38 -66 0
-38 -63 0
-38 -59 0
-38 -46 0
-38 -43 0
-37 -110 0
-37 -109 0
-37 -108 0
-37 -99 0
-37 -91 0
-37 -88 0
-37 -84 0
-37 -78 0
-37 -76 0
-37 -73 0
-37 -60 0
-37 -56 0
-37 -53 0
-37 -46 0
-37 -45 0
-36 -93 0
-36 -89 0
-36 -85 0
-36 -69 0
-36 -66 0
-36 -64 0
-36 -57 0
-36 -56 0
-36 -53 0
-36 -48 0
-36 -43 0
-36 -41 0
-35 -99 0
-35 -98 0
-35 -92 0
-35 -88 0
-35 -87 0
-35 -82 0
-35 -62 0
-35 -58 0
-35 -54 0
-35 -50 0
-35 -42 0
-35 -41 0
-34 -102 0
-34 -97 0
-34 -92 0
-34 -88 0
-34 -87 0
-34 -86 0
-34 -60 0
-34 -58 0
-34 -55 0
-34 -49 0
-34 -48 0
-34 -47 0
-34 -42 0
-34 -35 0
-33 -110 0
-33 -100 0
-33 -92 0
-33 -90 0
-33 -88 0
-33 -87 0
-33 -72 0
-33 -68 0
-33 -59 0
-33 -58 0
-33 -42 0
-33 -35 0
-33 -34 0
-32 -95 0
-32 -94 0
-32 -92 0
-32 -88 0
-32 -87 0
-32 -80 0
-32 -77 0
-32 -67 0
-32 -64 0
-32 -58 0
-32 -51 0
-32 -42 0
-32 -35 0
-32 -34 0
-32 -33 0
-31 -105 0
-31 -104 0
-31 -93 0
-31 -92 0
-31 -91 0
-31 -81 0
-31 -79 0
-31 -77 0
-31 -75 0
-31 -65 0
-31 -63 0
-31 -59 0
-31 -46 0
-31 -43 0
-31 -38 0
-30 -110 0
-30 -100 0
-30 -90 0
-30 -72 0
-30 -70 0
-30 -68 0
-30 -65 0
-30 -62 0
-30 -59 0
-30 -51 0
-30 -47 0
-30 -39 0
-30 -33 0
-29 -92 0
-29 -89 0
-29 -88 0
-29 -87 0
-29 -85 0
-29 -58 0
-29 -57 0
-29 -53 0
-29 -43 0
-29 -42 0
-29 -36 0
-29 -35 0
-29 -34 0
-29 -33 0
-29 -32 0
-28 -108 0
-28 -79 0
-28 -71 0
-28 -70 0
-28 -69 0
-28 -65 0
-28 -62 0
-28 -61 0
-28 -58 0
-28 -51 0
-28 -47 0
-28 -44 0
-28 -40 0
-28 -39 0
-28 -30 0
-27 -110 0
-27 -108 0
-27 -99 0
-27 -95 0
-27 -94 0
-27 -91 0
-27 -84 0
-27 -80 0
-27 -78 0
-27 -77 0
-27 -67 0
-27 -64 0
-27 -60 0
-27 -53 0
-27 -51 0
-27 -45 0
-27 -37 0
-27 -32 0
-26 -106 0
-26 -97 0
-26 -95 0
-26 -83 0
-26 -78 0
-26 -68 0
-26 -63 0
-26 -57 0
-26 -42 0
-26 -39 0
-25 -103 0
-25 -101 0
-25 -87 0
-25 -84 0
-25 -70 0
-25 -66 0
-25 -65 0
-25 -62 0
-25 -51 0
-25 -47 0
-25 -39 0
-25 -38 0
-25 -30 0
-25 -28 0
-24 -105 0
-24 -101 0
-24 -96 0
-24 -93 0
-24 -92 0
-24 -91 0
-24 -82 0
-24 -81 0
-24 -75 0
-24 -72 0
-24 -67 0
-24 -65 0
-24 -55 0
-24 -44 0
-24 -31 0
-23 -109 0
-23 -105 0
-23 -103 0
-23 -101 0
-23 -90 0
-23 -87 0
-23 -85 0
-23 -84 0
-23 -74 0
-23 -71 0
-23 -66 0
-23 -50 0
-23 -49 0
-23 -38 0
-23 -25 0
-22 -107 0
-22 -106 0
-22 -104 0
-22 -96 0
-22 -92 0
-22 -88 0
-22 -87 0
-22 -74 0
-22 -70 0
-22 -58 0
-22 -52 0
-22 -45 0
-22 -42 0
-22 -35 0
-22 -34 0
-22 -33 0
-22 -32 0
-22 -29 0
-21 -101 0
-21 -96 0
-21 -83 0
-21 -82 0
-21 -78 0
-21 -72 0
-21 -67 0
-21 -63 0
-21 -55 0
-21 -44 0
-21 -42 0
-21 -39 0
-21 -26 0
-21 -24 0
-20 -104 0
-20 -102 0
-20 -97 0
-20 -86 0
-20 -79 0
-20 -77 0
-20 -63 0
-20 -60 0
-20 -59 0
-20 -55 0
-20 -49 0
-20 -48 0
-20 -47 0
-20 -46 0
-20 -43 0
-20 -38 0
-20 -34 0
-20 -31 0
-19 -93 0
-19 -83 0
-19 -78 0
-19 -69 0
-19 -66 0
-19 -64 0
-19 -63 0
-19 -56 0
-19 -48 0
-19 -42 0
-19 -41 0
-19 -39 0
-19 -36 0
-19 -26 0
-19 -21 0
-18 -104 0
-18 -99 0
-18 -98 0
-18 -82 0
-18 -79 0
-18 -77 0
-18 -63 0
-18 -62 0
-18 -59 0
-18 -54 0
-18 -50 0
-18 -46 0
-18 -43 0
-18 -41 0
-18 -38 0
-18 -35 0
-18 -31 0
-18 -20 0
-17 -107 0
-17 -106 0
-17 -104 0
-17 -96 0
-17 -93 0
-17 -74 0
-17 -70 0
-17 -69 0
-17 -66 0
-17 -64 0
-17 -56 0
-17 -52 0
-17 -48 0
-17 -45 0
-17 -41 0
-17 -36 0
-17 -22 0
-17 -19 0
-16 -109 0
-16 -101 0
-16 -96 0
-16 -88 0
-16 -82 0
-16 -76 0
-16 -73 0
-16 -72 0
-16 -67 0
-16 -56 0
-16 -55 0
-16 -46 0
-16 -44 0
-16 -37 0
-16 -24 0
-16 -21 0
-15 -89 0
-15 -85 0
-15 -70 0
-15 -65 0
-15 -62 0
-15 -57 0
-15 -53 0
-15 -51 0
-15 -47 0
-15 -43 0
-15 -39 0
-15 -36 0
-15 -30 0
-15 -29 0
-15 -28 0
-15 -25 0
-14 -106 0
-14 -103 0
-14 -101 0
-14 -97 0
-14 -95 0
-14 -87 0
-14 -84 0
-14 -68 0
-14 -66 0
-14 -57 0
-14 -38 0
-14 -26 0
-14 -25 0
-14 -23 0
-13 -103 0
-13 -101 0
-13 -100 0
-13 -89 0
-13 -87 0
-13 -86 0
-13 -84 0
-13 -81 0
-13 -80 0
-13 -73 0
-13 -66 0
-13 -54 0
-13 -52 0
-13 -40 0
-13 -38 0
-13 -25 0
-13 -23 0
-13 -14 0
-12 -106 0
-12 -99 0
-12 -98 0
-12 -97 0
-12 -95 0
-12 -82 0
-12 -68 0
-12 -62 0
-12 -57 0
-12 -54 0
-12 -50 0
-12 -41 0
-12 -35 0
-12 -26 0
-12 -18 0
-12 -14 0
-11 -109 0
-11 -88 0
-11 -76 0
-11 -73 0
-11 -70 0
-11 -65 0
-11 -62 0
-11 -56 0
-11 -51 0
-11 -47 0
-11 -46 0
-11 -39 0
-11 -37 0
-11 -30 0
-11 -28 0
-11 -25 0
-11 -16 0
-11 -15 0
-10 -108 0
-10 -106 0
-10 -97 0
-10 -95 0
-10 -79 0
-10 -71 0
-10 -69 0
-10 -68 0
-10 -61 0
-10 -58 0
-10 -57 0
-10 -44 0
-10 -40 0
-10 -28 0
-10 -26 0
-10 -14 0
-10 -12 0
-9 -110 0
-9 -100 0
-9 -93 0
-9 -90 0
-9 -72 0
-9 -69 0
-9 -68 0
-9 -66 0
-9 -64 0
-9 -59 0
-9 -56 0
-9 -48 0
-9 -41 0
-9 -36 0
-9 -33 0
-9 -30 0
-9 -19 0
-9 -17 0
-8 -106 0
-8 -105 0
-8 -97 0
-8 -95 0
-8 -93 0
-8 -92 0
-8 -91 0
-8 -81 0
-8 -75 0
-8 -68 0
-8 -65 0
-8 -57 0
-8 -31 0
-8 -26 0
-8 -24 0
-8 -14 0
-8 -12 0
-8 -10 0
-7 -101 0
-7 -96 0
-7 -89 0
-7 -85 0
-7 -82 0
-7 -72 0
-7 -67 0
-7 -57 0
-7 -55 0
-7 -53 0
-7 -44 0
-7 -43 0
-7 -36 0
-7 -29 0
-7 -24 0
-7 -21 0
-7 -16 0
-7 -15 0
-6 -110 0
-6 -107 0
-6 -103 0
-6 -102 0
-6 -100 0
-6 -98 0
-6 -94 0
-6 -90 0
-6 -83 0
-6 -76 0
-6 -75 0
-6 -72 0
-6 -68 0
-6 -61 0
-6 -59 0
-6 -33 0
-6 -30 0
-6 -9 0
-5 -109 0
-5 -105 0
-5 -90 0
-5 -85 0
-5 -83 0
-5 -78 0
-5 -74 0
-5 -71 0
-5 -63 0
-5 -50 0
-5 -49 0
-5 -42 0
-5 -39 0
-5 -26 0
-5 -23 0
-5 -21 0
-5 -19 0
-4 -100 0
-4 -89 0
-4 -86 0
-4 -83 0
-4 -81 0
-4 -80 0
-4 -78 0
-4 -73 0
-4 -63 0
-4 -54 0
-4 -52 0
-4 -42 0
-4 -40 0
-4 -39 0
-4 -26 0
-4 -21 0
-4 -19 0
-4 -13 0
-4 -5 0
-3 -109 0
-3 -105 0
-3 -95 0
-3 -94 0
-3 -90 0
-3 -85 0
-3 -80 0
-3 -77 0
-3 -74 0
-3 -71 0
-3 -67 0
-3 -64 0
-3 -51 0
-3 -50 0
-3 -49 0
-3 -32 0
-3 -27 0
-3 -23 0
-3 -5 0
-2 -109 0
-2 -106 0
-2 -97 0
-2 -95 0
-2 -88 0
-2 -76 0
-2 -73 0
-2 -68 0
-2 -57 0
-2 -56 0
-2 -46 0
-2 -37 0
-2 -26 0
-2 -16 0
-2 -14 0
-2 -12 0
-2 -11 0
-2 -10 0
-2 -8 0
-1 -107 0
-1 -103 0
-1 -102 0
-1 -98 0
-1 -94 0
-1 -89 0
-1 -85 0
-1 -83 0
-1 -76 0
-1 -75 0
-1 -61 0
-1 -57 0
-1 -53 0
-1 -43 0
-1 -36 0
-1 -29 0
-1 -15 0
-1 -7 0
-1 -6 0
1 7 15 29 36 43 53 57 85 89 0
2 11 16 37 46 56 73 76 88 109 0
3 27 32 51 64 67 77 80 94 95 0
4 5 19 21 26 39 42 63 78 83 0
6 9 30 33 59 68 72 90 100 110 0
8 24 31 65 75 81 91 92 93 105 0
10 28 40 44 58 61 69 71 79 108 0
12 18 35 41 50 54 62 82 98 99 0
13 14 23 25 38 66 84 87 101 103 0
17 22 45 52 70 74 96 104 106 107 0
20 34 47 48 49 55 60 86 97 102 0
