p cnf 90 775
-89 -90 0
-88 -90 0
-85 -86 0
-84 -87 0
-83 -90 0
-83 -88 0
-82 -88 0
-82 -87 0
-80 -86 0
-80 -83 0
-79 -90 0
-79 -88 0
-79 -83 0
-78 -85 0
-77 -87 0
-77 -82 0
-76 -89 0
-76 -86 0
-76 -85 0
-75 -83 0
-75 -81 0
-75 -80 0
-74 -88 0
-74 -82 0
-74 -81 0
-74 -75 0
-73 -83 0
-73 -80 0
-73 -75 0
-72 -73 0
-71 -90 0
-71 -89 0
-71 -81 0
-71 -75 0
-71 -74 0
-70 -77 0
-69 -85 0
-69 -78 0
-69 -72 0
-68 -83 0
-68 -80 0
-68 -75 0
-68 -73 0
-68 -70 0
-67 -87 0
-67 -85 0
-67 -84 0
-67 -78 0
-67 -69 0
-66 -86 0
-66 -80 0
-66 -72 0
-66 -69 0
-65 -90 0
-65 -89 0
-65 -71 0
-65 -70 0
-65 -68 0
-64 -87 0
-64 -83 0
-64 -82 0
-64 -80 0
-64 -77 0
-64 -75 0
-64 -73 0
-64 -68 0
-63 -85 0
-63 -81 0
-63 -78 0
-63 -69 0
-63 -67 0
-62 -89 0
-62 -76 0
-62 -72 0
-62 -69 0
-62 -66 0
-61 -87 0
-61 -84 0
-61 -81 0
-61 -75 0
-61 -74 0
-61 -71 0
-61 -67 0
-60 -84 0
-60 -83 0
-60 -80 0
-60 -75 0
-60 -73 0
-60 -68 0
-60 -64 0
-59 -78 0
-59 -73 0
-59 -72 0
-58 -77 0
-58 -73 0
-58 -72 0
-58 -70 0
-58 -59 0
-57 -81 0
-57 -77 0
-57 -75 0
-57 -74 0
-57 -71 0
-57 -70 0
-57 -61 0
-57 -58 0
-56 -87 0
-56 -86 0
-56 -84 0
-56 -80 0
-56 -67 0
-56 -66 0
-56 -61 0
-55 -89 0
-55 -88 0
-55 -82 0
-55 -76 0
-55 -74 0
-55 -62 0
-54 -88 0
-54 -85 0
-54 -82 0
-54 -78 0
-54 -74 0
-54 -69 0
-54 -67 0
-54 -63 0
-54 -55 0
-53 -84 0
-53 -77 0
-53 -70 0
-53 -60 0
-53 -58 0
-53 -57 0
-52 -90 0
-52 -88 0
-52 -86 0
-52 -85 0
-52 -83 0
-52 -79 0
-52 -76 0
-51 -81 0
-51 -70 0
-51 -68 0
-51 -65 0
-51 -63 0
-50 -89 0
-50 -87 0
-50 -84 0
-50 -76 0
-50 -67 0
-50 -62 0
-50 -61 0
-50 -56 0
-50 -55 0
-49 -89 0
-49 -81 0
-49 -76 0
-49 -63 0
-49 -62 0
-49 -55 0
-49 -51 0
-49 -50 0
-48 -86 0
-48 -81 0
-48 -80 0
-48 -66 0
-48 -63 0
-48 -56 0
-48 -51 0
-48 -49 0
-47 -89 0
-47 -78 0
-47 -76 0
-47 -62 0
-47 -59 0
-47 -55 0
-47 -50 0
-47 -49 0
-46 -88 0
-46 -84 0
-46 -82 0
-46 -74 0
-46 -60 0
-46 -55 0
-46 -54 0
-46 -53 0
-45 -87 0
-45 -82 0
-45 -81 0
-45 -77 0
-45 -64 0
-45 -63 0
-45 -51 0
-45 -49 0
-45 -48 0
-44 -90 0
-44 -88 0
-44 -83 0
-44 -79 0
-44 -77 0
-44 -70 0
-44 -58 0
-44 -57 0
-44 -53 0
-44 -52 0
-43 -87 0
-43 -84 0
-43 -73 0
-43 -72 0
-43 -67 0
-43 -61 0
-43 -59 0
-43 -58 0
-43 -56 0
-43 -50 0
-42 -84 0
-42 -79 0
-42 -60 0
-42 -53 0
-42 -46 0
-41 -85 0
-41 -83 0
-41 -80 0
-41 -78 0
-41 -75 0
-41 -73 0
-41 -69 0
-41 -68 0
-41 -67 0
-41 -64 0
-41 -63 0
-41 -60 0
-41 -54 0
-40 -89 0
-40 -79 0
-40 -76 0
-40 -62 0
-40 -55 0
-40 -50 0
-40 -49 0
-40 -47 0
-40 -42 0
-39 -78 0
-39 -70 0
-39 -68 0
-39 -65 0
-39 -59 0
-39 -51 0
-39 -47 0
-38 -72 0
-38 -70 0
-38 -69 0
-38 -68 0
-38 -66 0
-38 -65 0
-38 -62 0
-38 -51 0
-38 -39 0
-37 -87 0
-37 -82 0
-37 -78 0
-37 -77 0
-37 -64 0
-37 -59 0
-37 -47 0
-37 -45 0
-37 -39 0
-36 -86 0
-36 -85 0
-36 -84 0
-36 -76 0
-36 -60 0
-36 -53 0
-36 -52 0
-36 -46 0
-36 -42 0
-35 -90 0
-35 -89 0
-35 -85 0
-35 -78 0
-35 -71 0
-35 -69 0
-35 -67 0
-35 -65 0
-35 -63 0
-35 -54 0
-35 -41 0
-34 -88 0
-34 -82 0
-34 -74 0
-34 -70 0
-34 -68 0
-34 -65 0
-34 -55 0
-34 -54 0
-34 -51 0
-34 -46 0
-34 -39 0
-34 -38 0
-33 -84 0
-33 -81 0
-33 -63 0
-33 -60 0
-33 -53 0
-33 -51 0
-33 -49 0
-33 -48 0
-33 -46 0
-33 -45 0
-33 -42 0
-33 -36 0
-32 -87 0
-32 -86 0
-32 -85 0
-32 -82 0
-32 -77 0
-32 -76 0
-32 -64 0
-32 -52 0
-32 -45 0
-32 -37 0
-32 -36 0
-31 -86 0
-31 -85 0
-31 -76 0
-31 -70 0
-31 -68 0
-31 -65 0
-31 -52 0
-31 -51 0
-31 -39 0
-31 -38 0
-31 -36 0
-31 -34 0
-31 -32 0
-30 -81 0
-30 -78 0
-30 -75 0
-30 -74 0
-30 -71 0
-30 -61 0
-30 -59 0
-30 -57 0
-30 -47 0
-30 -39 0
-30 -37 0
-29 -86 0
-29 -80 0
-29 -79 0
-29 -66 0
-29 -56 0
-29 -48 0
-29 -42 0
-29 -40 0
-28 -85 0
-28 -79 0
-28 -78 0
-28 -69 0
-28 -67 0
-28 -63 0
-28 -54 0
-28 -42 0
-28 -41 0
-28 -40 0
-28 -35 0
-28 -29 0
-27 -89 0
-27 -77 0
-27 -76 0
-27 -70 0
-27 -62 0
-27 -58 0
-27 -57 0
-27 -55 0
-27 -53 0
-27 -50 0
-27 -49 0
-27 -47 0
-27 -44 0
-27 -40 0
-26 -87 0
-26 -82 0
-26 -79 0
-26 -77 0
-26 -64 0
-26 -45 0
-26 -42 0
-26 -40 0
-26 -37 0
-26 -32 0
-26 -29 0
-26 -28 0
-25 -90 0
-25 -89 0
-25 -86 0
-25 -80 0
-25 -71 0
-25 -66 0
-25 -65 0
-25 -56 0
-25 -48 0
-25 -35 0
-25 -29 0
-24 -89 0
-24 -83 0
-24 -80 0
-24 -76 0
-24 -75 0
-24 -73 0
-24 -68 0
-24 -64 0
-24 -62 0
-24 -60 0
-24 -55 0
-24 -50 0
-24 -49 0
-24 -47 0
-24 -41 0
-24 -40 0
-24 -27 0
-23 -90 0
-23 -89 0
-23 -87 0
-23 -82 0
-23 -77 0
-23 -71 0
-23 -65 0
-23 -64 0
-23 -45 0
-23 -37 0
-23 -35 0
-23 -32 0
-23 -26 0
-23 -25 0
-22 -84 0
-22 -72 0
-22 -69 0
-22 -66 0
-22 -62 0
-22 -60 0
-22 -53 0
-22 -46 0
-22 -42 0
-22 -38 0
-22 -36 0
-22 -33 0
-21 -86 0
-21 -85 0
-21 -81 0
-21 -76 0
-21 -75 0
-21 -74 0
-21 -71 0
-21 -61 0
-21 -57 0
-21 -52 0
-21 -36 0
-21 -32 0
-21 -31 0
-21 -30 0
-20 -86 0
-20 -85 0
-20 -76 0
-20 -73 0
-20 -72 0
-20 -59 0
-20 -58 0
-20 -52 0
-20 -43 0
-20 -36 0
-20 -32 0
-20 -31 0
-20 -21 0
-19 -90 0
-19 -88 0
-19 -83 0
-19 -79 0
-19 -72 0
-19 -69 0
-19 -66 0
-19 -62 0
-19 -52 0
-19 -44 0
-19 -38 0
-19 -22 0
-18 -90 0
-18 -88 0
-18 -83 0
-18 -79 0
-18 -78 0
-18 -59 0
-18 -52 0
-18 -47 0
-18 -44 0
-18 -39 0
-18 -37 0
-18 -30 0
-18 -19 0
-17 -79 0
-17 -73 0
-17 -72 0
-17 -59 0
-17 -58 0
-17 -43 0
-17 -42 0
-17 -40 0
-17 -29 0
-17 -28 0
-17 -26 0
-17 -20 0
-16 -88 0
-16 -82 0
-16 -74 0
-16 -73 0
-16 -72 0
-16 -59 0
-16 -58 0
-16 -55 0
-16 -54 0
-16 -46 0
-16 -43 0
-16 -34 0
-16 -20 0
-16 -17 0
-15 -90 0
-15 -88 0
-15 -83 0
-15 -81 0
-15 -79 0
-15 -63 0
-15 -52 0
-15 -51 0
-15 -49 0
-15 -48 0
-15 -45 0
-15 -44 0
-15 -33 0
-15 -19 0
-15 -18 0
-14 -87 0
-14 -82 0
-14 -77 0
-14 -72 0
-14 -69 0
-14 -66 0
-14 -64 0
-14 -62 0
-14 -45 0
-14 -38 0
-14 -37 0
-14 -32 0
-14 -26 0
-14 -23 0
-14 -22 0
-14 -19 0
-13 -90 0
-13 -89 0
-13 -73 0
-13 -72 0
-13 -71 0
-13 -65 0
-13 -59 0
-13 -58 0
-13 -43 0
-13 -35 0
-13 -25 0
-13 -23 0
-13 -20 0
-13 -17 0
-13 -16 0
-12 -86 0
-12 -80 0
-12 -77 0
-12 -70 0
-12 -66 0
-12 -58 0
-12 -57 0
-12 -56 0
-12 -53 0
-12 -48 0
-12 -44 0
-12 -29 0
-12 -27 0
-12 -25 0
-11 -81 0
-11 -79 0
-11 -75 0
-11 -74 0
-11 -71 0
-11 -61 0
-11 -57 0
-11 -42 0
-11 -40 0
-11 -30 0
-11 -29 0
-11 -28 0
-11 -26 0
-11 -21 0
-11 -17 0
-10 -79 0
-10 -70 0
-10 -68 0
-10 -65 0
-10 -51 0
-10 -42 0
-10 -40 0
-10 -39 0
-10 -38 0
-10 -34 0
-10 -31 0
-10 -29 0
-10 -28 0
-10 -26 0
-10 -17 0
-10 -11 0
-9 -88 0
-9 -86 0
-9 -82 0
-9 -80 0
-9 -74 0
-9 -66 0
-9 -56 0
-9 -55 0
-9 -54 0
-9 -48 0
-9 -46 0
-9 -34 0
-9 -29 0
-9 -25 0
-9 -16 0
-9 -12 0
-8 -87 0
-8 -84 0
-8 -70 0
-8 -68 0
-8 -67 0
-8 -65 0
-8 -61 0
-8 -56 0
-8 -51 0
-8 -50 0
-8 -43 0
-8 -39 0
-8 -38 0
-8 -34 0
-8 -31 0
-8 -10 0
-7 -85 0
-7 -78 0
-7 -77 0
-7 -70 0
-7 -69 0
-7 -67 0
-7 -63 0
-7 -58 0
-7 -57 0
-7 -54 0
-7 -53 0
-7 -44 0
-7 -41 0
-7 -35 0
-7 -28 0
-7 -27 0
-7 -12 0
-6 -81 0
-6 -75 0
-6 -74 0
-6 -72 0
-6 -71 0
-6 -69 0
-6 -66 0
-6 -62 0
-6 -61 0
-6 -57 0
-6 -38 0
-6 -30 0
-6 -22 0
-6 -21 0
-6 -19 0
-6 -14 0
-6 -11 0
-5 -84 0
-5 -78 0
-5 -60 0
-5 -59 0
-5 -53 0
-5 -47 0
-5 -46 0
-5 -42 0
-5 -39 0
-5 -37 0
-5 -36 0
-5 -33 0
-5 -30 0
-5 -22 0
-5 -18 0
-4 -86 0
-4 -80 0
-4 -78 0
-4 -66 0
-4 -59 0
-4 -56 0
-4 -48 0
-4 -47 0
-4 -39 0
-4 -37 0
-4 -30 0
-4 -29 0
-4 -25 0
-4 -18 0
-4 -12 0
-4 -9 0
-4 -5 0
-3 -90 0
-3 -89 0
-3 -84 0
-3 -71 0
-3 -65 0
-3 -60 0
-3 -53 0
-3 -46 0
-3 -42 0
-3 -36 0
-3 -35 0
-3 -33 0
-3 -25 0
-3 -23 0
-3 -22 0
-3 -13 0
-3 -5 0
-2 -90 0
-2 -88 0
-2 -87 0
-2 -84 0
-2 -83 0
-2 -79 0
-2 -67 0
-2 -61 0
-2 -56 0
-2 -52 0
-2 -50 0
-2 -44 0
-2 -43 0
-2 -19 0
-2 -18 0
-2 -15 0
-2 -8 0
-1 -81 0
-1 -73 0
-1 -72 0
-1 -63 0
-1 -59 0
-1 -58 0
-1 -51 0
-1 -49 0
-1 -48 0
-1 -45 0
-1 -43 0
-1 -33 0
-1 -20 0
-1 -17 0
-1 -16 0
-1 -15 0
-1 -13 0
1 15 33 45 48 49 51 63 81 0
2 8 43 50 56 61 67 84 87 0
3 13 23 25 35 65 71 89 90 0
4 5 18 30 37 39 47 59 78 0
6 14 19 22 38 62 66 69 72 0
7 12 27 44 53 57 58 70 77 0
9 16 34 46 54 55 74 82 88 0
10 11 17 26 28 29 40 42 79 0
20 21 31 32 36 52 76 85 86 0
24 41 60 64 68 73 75 80 83 0
