p cnf 110 1056
-108 -110 0
-106 -109 0
-105 -110 0
-105 -109 0
-105 -106 0
-103 -108 0
-102 -108 0
-102 -103 0
-100 -107 0
-100 -106 0
-99 -104 0
-98 -109 0
-98 -102 0
-97 -108 0
-97 -103 0
-97 -102 0
-97 -101 0
-96 -103 0
-96 -101 0
-95 -102 0
-95 -101 0
-95 -98 0
-95 -96 0
-94 -110 0
-94 -105 0
-94 -101 0
-94 -97 0
-93 -107 0
-93 -104 0
-93 -100 0
-93 -99 0
-92 -109 0
-92 -106 0
-92 -105 0
-92 -101 0
-92 -96 0
-92 -95 0
-91 -107 0
-91 -99 0
-89 -90 0
-88 -99 0
-88 -91 0
-87 -109 0
-87 -98 0
-87 -90 0
-86 -110 0
-86 -108 0
-85 -107 0
-85 -104 0
-85 -91 0
-84 -104 0
-84 -103 0
-84 -99 0
-84 -96 0
-84 -93 0
-83 -110 0
-83 -105 0
-83 -99 0
-83 -94 0
-83 -91 0
-83 -88 0
-82 -104 0
-82 -90 0
-82 -89 0
-82 -85 0
-81 -110 0
-81 -105 0
-81 -94 0
-81 -83 0
-80 -90 0
-80 -88 0
-80 -87 0
-79 -108 0
-79 -103 0
-79 -102 0
-79 -97 0
-79 -90 0
-79 -87 0
-79 -80 0
-78 -103 0
-78 -96 0
-78 -86 0
-78 -84 0
-77 -109 0
-77 -104 0
-77 -98 0
-77 -87 0
-77 -85 0
-77 -82 0
-76 -89 0
-76 -88 0
-76 -80 0
-75 -99 0
-75 -91 0
-75 -90 0
-75 -89 0
-75 -88 0
-75 -83 0
-75 -82 0
-74 -102 0
-74 -98 0
-74 -95 0
-74 -88 0
-74 -80 0
-74 -76 0
-73 -101 0
-73 -96 0
-73 -95 0
-73 -92 0
-73 -90 0
-73 -87 0
-73 -80 0
-73 -79 0
-72 -109 0
-72 -106 0
-72 -105 0
-72 -92 0
-72 -86 0
-72 -78 0
-71 -106 0
-71 -100 0
-71 -90 0
-71 -87 0
-71 -80 0
-71 -79 0
-71 -73 0
-70 -108 0
-70 -103 0
-70 -102 0
-70 -97 0
-70 -81 0
-70 -79 0
-69 -110 0
-69 -108 0
-69 -107 0
-69 -91 0
-69 -86 0
-69 -85 0
-68 -110 0
-68 -105 0
-68 -94 0
-68 -89 0
-68 -83 0
-68 -81 0
-68 -76 0
-67 -109 0
-67 -107 0
-67 -100 0
-67 -98 0
-67 -93 0
-67 -87 0
-67 -77 0
-66 -90 0
-66 -89 0
-66 -82 0
-66 -81 0
-66 -75 0
-66 -70 0
-65 -108 0
-65 -103 0
-65 -102 0
-65 -97 0
-65 -89 0
-65 -79 0
-65 -76 0
-65 -70 0
-65 -68 0
-64 -106 0
-64 -100 0
-64 -81 0
-64 -71 0
-64 -70 0
-64 -66 0
-63 -109 0
-63 -106 0
-63 -105 0
-63 -92 0
-63 -88 0
-63 -80 0
-63 -76 0
-63 -74 0
-63 -72 0
-62 -104 0
-62 -99 0
-62 -93 0
-62 -89 0
-62 -84 0
-62 -76 0
-62 -68 0
-62 -65 0
-61 -106 0
-61 -104 0
-61 -100 0
-61 -85 0
-61 -82 0
-61 -77 0
-61 -71 0
-61 -64 0
-60 -107 0
-60 -103 0
-60 -96 0
-60 -91 0
-60 -85 0
-60 -84 0
-60 -78 0
-60 -69 0
-59 -104 0
-59 -88 0
-59 -85 0
-59 -82 0
-59 -80 0
-59 -77 0
-59 -76 0
-59 -74 0
-59 -63 0
-59 -61 0
-58 -107 0
-58 -100 0
-58 -93 0
-58 -90 0
-58 -89 0
-58 -82 0
-58 -75 0
-58 -67 0
-58 -66 0
-57 -109 0
-57 -107 0
-57 -106 0
-57 -105 0
-57 -92 0
-57 -91 0
-57 -85 0
-57 -72 0
-57 -69 0
-57 -63 0
-57 -60 0
-56 -101 0
-56 -96 0
-56 -95 0
-56 -92 0
-56 -89 0
-56 -76 0
-56 -73 0
-56 -68 0
-56 -65 0
-56 -62 0
-55 -107 0
-55 -101 0
-55 -97 0
-55 -94 0
-55 -91 0
-55 -85 0
-55 -69 0
-55 -60 0
-55 -57 0
-54 -110 0
-54 -108 0
-54 -106 0
-54 -100 0
-54 -86 0
-54 -71 0
-54 -69 0
-54 -64 0
-54 -61 0
-53 -86 0
-53 -81 0
-53 -78 0
-53 -72 0
-53 -70 0
-53 -66 0
-53 -64 0
-52 -102 0
-52 -98 0
-52 -95 0
-52 -86 0
-52 -78 0
-52 -74 0
-52 -72 0
-52 -53 0
-51 -109 0
-51 -103 0
-51 -98 0
-51 -96 0
-51 -87 0
-51 -84 0
-51 -78 0
-51 -77 0
-51 -67 0
-51 -60 0
-50 -108 0
-50 -103 0
-50 -102 0
-50 -99 0
-50 -97 0
-50 -91 0
-50 -88 0
-50 -83 0
-50 -79 0
-50 -75 0
-50 -70 0
-50 -65 0
-49 -109 0
-49 -98 0
-49 -89 0
-49 -87 0
-49 -77 0
-49 -76 0
-49 -68 0
-49 -67 0
-49 -65 0
-49 -62 0
-49 -56 0
-49 -51 0
-48 -109 0
-48 -99 0
-48 -98 0
-48 -91 0
-48 -88 0
-48 -87 0
-48 -83 0
-48 -77 0
-48 -75 0
-48 -67 0
-48 -51 0
-48 -50 0
-48 -49 0
-47 -101 0
-47 -97 0
-47 -94 0
-47 -86 0
-47 -78 0
-47 -72 0
-47 -55 0
-47 -53 0
-47 -52 0
-46 -89 0
-46 -86 0
-46 -78 0
-46 -76 0
-46 -72 0
-46 -68 0
-46 -65 0
-46 -62 0
-46 -56 0
-46 -53 0
-46 -52 0
-46 -49 0
-46 -47 0
-45 -109 0
-45 -106 0
-45 -105 0
-45 -92 0
-45 -90 0
-45 -89 0
-45 -82 0
-45 -75 0
-45 -72 0
-45 -66 0
-45 -63 0
-45 -58 0
-45 -57 0
-44 -106 0
-44 -100 0
-44 -89 0
-44 -76 0
-44 -71 0
-44 -68 0
-44 -65 0
-44 -64 0
-44 -62 0
-44 -61 0
-44 -56 0
-44 -54 0
-44 -49 0
-44 -46 0
-43 -110 0
-43 -108 0
-43 -88 0
-43 -86 0
-43 -80 0
-43 -76 0
-43 -74 0
-43 -69 0
-43 -63 0
-43 -59 0
-43 -54 0
-42 -107 0
-42 -91 0
-42 -85 0
-42 -81 0
-42 -70 0
-42 -69 0
-42 -66 0
-42 -64 0
-42 -60 0
-42 -57 0
-42 -55 0
-42 -53 0
-41 -103 0
-41 -96 0
-41 -90 0
-41 -89 0
-41 -84 0
-41 -82 0
-41 -78 0
-41 -75 0
-41 -66 0
-41 -60 0
-41 -58 0
-41 -51 0
-41 -45 0
-40 -110 0
-40 -105 0
-40 -102 0
-40 -98 0
-40 -95 0
-40 -94 0
-40 -83 0
-40 -81 0
-40 -74 0
-40 -68 0
-40 -52 0
-39 -107 0
-39 -101 0
-39 -100 0
-39 -96 0
-39 -95 0
-39 -93 0
-39 -92 0
-39 -73 0
-39 -67 0
-39 -58 0
-39 -56 0
-38 -106 0
-38 -100 0
-38 -99 0
-38 -91 0
-38 -88 0
-38 -83 0
-38 -75 0
-38 -71 0
-38 -64 0
-38 -61 0
-38 -54 0
-38 -50 0
-38 -48 0
-38 -44 0
-37 -99 0
-37 -91 0
-37 -88 0
-37 -86 0
-37 -83 0
-37 -78 0
-37 -75 0
-37 -72 0
-37 -53 0
-37 -52 0
-37 -50 0
-37 -48 0
-37 -47 0
-37 -46 0
-37 -38 0
-36 -101 0
-36 -96 0
-36 -95 0
-36 -92 0
-36 -81 0
-36 -73 0
-36 -70 0
-36 -66 0
-36 -64 0
-36 -56 0
-36 -53 0
-36 -42 0
-36 -39 0
-35 -104 0
-35 -86 0
-35 -85 0
-35 -82 0
-35 -78 0
-35 -77 0
-35 -72 0
-35 -61 0
-35 -59 0
-35 -53 0
-35 -52 0
-35 -47 0
-35 -46 0
-35 -37 0
-34 -88 0
-34 -81 0
-34 -80 0
-34 -76 0
-34 -74 0
-34 -70 0
-34 -66 0
-34 -64 0
-34 -63 0
-34 -59 0
-34 -53 0
-34 -43 0
-34 -42 0
-34 -36 0
-33 -109 0
-33 -108 0
-33 -106 0
-33 -105 0
-33 -103 0
-33 -102 0
-33 -97 0
-33 -92 0
-33 -79 0
-33 -72 0
-33 -70 0
-33 -65 0
-33 -63 0
-33 -57 0
-33 -50 0
-33 -45 0
-32 -110 0
-32 -108 0
-32 -104 0
-32 -99 0
-32 -93 0
-32 -86 0
-32 -84 0
-32 -69 0
-32 -62 0
-32 -54 0
-32 -43 0
-31 -104 0
-31 -101 0
-31 -96 0
-31 -95 0
-31 -92 0
-31 -85 0
-31 -82 0
-31 -77 0
-31 -73 0
-31 -61 0
-31 -59 0
-31 -56 0
-31 -39 0
-31 -36 0
-31 -35 0
-30 -110 0
-30 -107 0
-30 -105 0
-30 -100 0
-30 -94 0
-30 -93 0
-30 -83 0
-30 -81 0
-30 -68 0
-30 -67 0
-30 -58 0
-30 -40 0
-30 -39 0
-29 -90 0
-29 -87 0
-29 -86 0
-29 -80 0
-29 -79 0
-29 -78 0
-29 -73 0
-29 -72 0
-29 -71 0
-29 -53 0
-29 -52 0
-29 -47 0
-29 -46 0
-29 -37 0
-29 -35 0
-28 -106 0
-28 -103 0
-28 -100 0
-28 -96 0
-28 -84 0
-28 -78 0
-28 -71 0
-28 -64 0
-28 -61 0
-28 -60 0
-28 -54 0
-28 -51 0
-28 -44 0
-28 -41 0
-28 -38 0
-27 -109 0
-27 -101 0
-27 -98 0
-27 -97 0
-27 -94 0
-27 -87 0
-27 -77 0
-27 -67 0
-27 -55 0
-27 -51 0
-27 -49 0
-27 -48 0
-27 -47 0
-26 -108 0
-26 -107 0
-26 -103 0
-26 -102 0
-26 -100 0
-26 -97 0
-26 -93 0
-26 -79 0
-26 -70 0
-26 -67 0
-26 -65 0
-26 -58 0
-26 -50 0
-26 -39 0
-26 -33 0
-26 -30 0
-25 -110 0
-25 -105 0
-25 -104 0
-25 -94 0
-25 -85 0
-25 -83 0
-25 -82 0
-25 -81 0
-25 -77 0
-25 -68 0
-25 -61 0
-25 -59 0
-25 -40 0
-25 -35 0
-25 -31 0
-25 -30 0
-24 -101 0
-24 -99 0
-24 -96 0
-24 -95 0
-24 -92 0
-24 -91 0
-24 -88 0
-24 -83 0
-24 -75 0
-24 -73 0
-24 -56 0
-24 -50 0
-24 -48 0
-24 -39 0
-24 -38 0
-24 -37 0
-24 -36 0
-24 -31 0
-23 -104 0
-23 -102 0
-23 -99 0
-23 -98 0
-23 -95 0
-23 -93 0
-23 -84 0
-23 -74 0
-23 -62 0
-23 -52 0
-23 -40 0
-23 -32 0
-22 -110 0
-22 -108 0
-22 -101 0
-22 -96 0
-22 -95 0
-22 -92 0
-22 -86 0
-22 -73 0
-22 -69 0
-22 -56 0
-22 -54 0
-22 -43 0
-22 -39 0
-22 -36 0
-22 -32 0
-22 -31 0
-22 -24 0
-21 -103 0
-21 -96 0
-21 -88 0
-21 -84 0
-21 -80 0
-21 -78 0
-21 -76 0
-21 -74 0
-21 -63 0
-21 -60 0
-21 -59 0
-21 -51 0
-21 -43 0
-21 -41 0
-21 -34 0
-21 -28 0
-20 -108 0
-20 -104 0
-20 -103 0
-20 -102 0
-20 -97 0
-20 -85 0
-20 -82 0
-20 -79 0
-20 -77 0
-20 -70 0
-20 -65 0
-20 -61 0
-20 -59 0
-20 -50 0
-20 -35 0
-20 -33 0
-20 -31 0
-20 -26 0
-20 -25 0
-19 -110 0
-19 -105 0
-19 -103 0
-19 -96 0
-19 -94 0
-19 -84 0
-19 -83 0
-19 -81 0
-19 -78 0
-19 -68 0
-19 -60 0
-19 -51 0
-19 -41 0
-19 -40 0
-19 -30 0
-19 -28 0
-19 -25 0
-19 -21 0
-18 -104 0
-18 -99 0
-18 -93 0
-18 -84 0
-18 -81 0
-18 -70 0
-18 -66 0
-18 -64 0
-18 -62 0
-18 -53 0
-18 -42 0
-18 -36 0
-18 -34 0
-18 -32 0
-18 -23 0
-17 -110 0
-17 -105 0
-17 -94 0
-17 -90 0
-17 -87 0
-17 -83 0
-17 -81 0
-17 -80 0
-17 -79 0
-17 -73 0
-17 -71 0
-17 -68 0
-17 -40 0
-17 -30 0
-17 -29 0
-17 -25 0
-17 -19 0
-16 -107 0
-16 -91 0
-16 -90 0
-16 -87 0
-16 -85 0
-16 -80 0
-16 -79 0
-16 -73 0
-16 -71 0
-16 -69 0
-16 -60 0
-16 -57 0
-16 -55 0
-16 -42 0
-16 -29 0
-16 -17 0
-15 -110 0
-15 -109 0
-15 -108 0
-15 -98 0
-15 -87 0
-15 -86 0
-15 -77 0
-15 -69 0
-15 -67 0
-15 -54 0
-15 -51 0
-15 -49 0
-15 -48 0
-15 -43 0
-15 -32 0
-15 -27 0
-15 -22 0
-14 -109 0
-14 -106 0
-14 -105 0
-14 -104 0
-14 -99 0
-14 -93 0
-14 -92 0
-14 -84 0
-14 -72 0
-14 -63 0
-14 -62 0
-14 -57 0
-14 -45 0
-14 -33 0
-14 -32 0
-14 -23 0
-14 -18 0
-13 -106 0
-13 -101 0
-13 -100 0
-13 -97 0
-13 -94 0
-13 -71 0
-13 -64 0
-13 -61 0
-13 -55 0
-13 -54 0
-13 -47 0
-13 -44 0
-13 -38 0
-13 -28 0
-13 -27 0
-12 -101 0
-12 -97 0
-12 -94 0
-12 -88 0
-12 -80 0
-12 -76 0
-12 -74 0
-12 -63 0
-12 -59 0
-12 -55 0
-12 -47 0
-12 -43 0
-12 -34 0
-12 -27 0
-12 -21 0
-12 -13 0
-11 -109 0
-11 -98 0
-11 -87 0
-11 -81 0
-11 -77 0
-11 -70 0
-11 -67 0
-11 -66 0
-11 -64 0
-11 -53 0
-11 -51 0
-11 -49 0
-11 -48 0
-11 -42 0
-11 -36 0
-11 -34 0
-11 -27 0
-11 -18 0
-11 -15 0
-10 -104 0
-10 -101 0
-10 -99 0
-10 -97 0
-10 -94 0
-10 -93 0
-10 -84 0
-10 -62 0
-10 -55 0
-10 -47 0
-10 -32 0
-10 -27 0
-10 -23 0
-10 -18 0
-10 -14 0
-10 -13 0
-10 -12 0
-9 -110 0
-9 -108 0
-9 -90 0
-9 -89 0
-9 -86 0
-9 -82 0
-9 -75 0
-9 -69 0
-9 -66 0
-9 -58 0
-9 -54 0
-9 -45 0
-9 -43 0
-9 -41 0
-9 -32 0
-9 -22 0
-9 -15 0
-8 -107 0
-8 -102 0
-8 -98 0
-8 -95 0
-8 -91 0
-8 -85 0
-8 -74 0
-8 -69 0
-8 -60 0
-8 -57 0
-8 -55 0
-8 -52 0
-8 -42 0
-8 -40 0
-8 -23 0
-8 -16 0
-7 -102 0
-7 -98 0
-7 -95 0
-7 -90 0
-7 -89 0
-7 -82 0
-7 -75 0
-7 -74 0
-7 -66 0
-7 -58 0
-7 -52 0
-7 -45 0
-7 -41 0
-7 -40 0
-7 -23 0
-7 -9 0
-7 -8 0
-6 -104 0
-6 -99 0
-6 -93 0
-6 -90 0
-6 -87 0
-6 -84 0
-6 -80 0
-6 -79 0
-6 -73 0
-6 -71 0
-6 -62 0
-6 -32 0
-6 -29 0
-6 -23 0
-6 -18 0
-6 -17 0
-6 -16 0
-6 -14 0
-6 -10 0
-5 -107 0
-5 -91 0
-5 -89 0
-5 -85 0
-5 -76 0
-5 -69 0
-5 -68 0
-5 -65 0
-5 -62 0
-5 -60 0
-5 -57 0
-5 -56 0
-5 -55 0
-5 -49 0
-5 -46 0
-5 -44 0
-5 -42 0
-5 -16 0
-5 -8 0
-4 -101 0
-4 -97 0
-4 -94 0
-4 -90 0
-4 -89 0
-4 -82 0
-4 -75 0
-4 -66 0
-4 -58 0
-4 -55 0
-4 -47 0
-4 -45 0
-4 -41 0
-4 -27 0
-4 -13 0
-4 -12 0
-4 -10 0
-4 -9 0
-4 -7 0
-3 -107 0
-3 -100 0
-3 -93 0
-3 -88 0
-3 -80 0
-3 -76 0
-3 -74 0
-3 -67 0
-3 -63 0
-3 -59 0
-3 -58 0
-3 -43 0
-3 -39 0
-3 -34 0
-3 -30 0
-3 -26 0
-3 -21 0
-3 -12 0
-2 -107 0
-2 -100 0
-2 -93 0
-2 -86 0
-2 -78 0
-2 -72 0
-2 -67 0
-2 -58 0
-2 -53 0
-2 -52 0
-2 -47 0
-2 -46 0
-2 -39 0
-2 -37 0
-2 -35 0
-2 -30 0
-2 -29 0
-2 -26 0
-2 -3 0
-1 -106 0
-1 -102 0
-1 -100 0
-1 -98 0
-1 -95 0
-1 -74 0
-1 -71 0
-1 -64 0
-1 -61 0
-1 -54 0
-1 -52 0
-1 -44 0
-1 -40 0
-1 -38 0
-1 -28 0
-1 -23 0
-1 -13 0
-1 -8 0
-1 -7 0
1 7 8 23 40 52 74 95 98 102 0
2 3 26 30 39 58 67 93 100 107 0
4 10 12 13 27 47 55 94 97 101 0
5 44 46 49 56 62 65 68 76 89 0
6 16 17 29 71 73 79 80 87 90 0
9 15 22 32 43 54 69 86 108 110 0
11 18 34 36 42 53 64 66 70 81 0
14 33 45 57 63 72 92 105 106 109 0
19 21 28 41 51 60 78 84 96 103 0
20 25 31 35 59 61 77 82 85 104 0
24 37 38 48 50 75 83 88 91 99 0
