p cnf 132 1398
-131 -132 0
-128 -129 0
-126 -128 0
-125 -127 0
-124 -125 0
-123 -130 0
-122 -129 0
-122 -128 0
-121 -123 0
-121 -122 0
-120 -128 0
-120 -127 0
-120 -126 0
-120 -125 0
-119 -130 0
-119 -129 0
-119 -128 0
-119 -123 0
-119 -122 0
-118 -128 0
-118 -126 0
-118 -124 0
-118 -120 0
-117 -125 0
-117 -124 0
-116 -132 0
-116 -129 0
-116 -128 0
-116 -122 0
-116 -119 0
-114 -131 0
-114 -123 0
-114 -121 0
-113 -122 0
-113 -121 0
-112 -132 0
-112 -126 0
-112 -116 0
-111 -115 0
-110 -129 0
-110 -126 0
-110 -112 0
-109 -132 0
-109 -131 0
-109 -122 0
-109 -121 0
-109 -113 0
-108 -129 0
-108 -124 0
-108 -118 0
-108 -110 0
-107 -128 0
-107 -126 0
-107 -120 0
-107 -118 0
-107 -111 0
-106 -128 0
-106 -126 0
-106 -120 0
-106 -118 0
-106 -113 0
-106 -107 0
-104 -127 0
-104 -124 0
-104 -118 0
-104 -108 0
-103 -127 0
-103 -111 0
-103 -107 0
-103 -104 0
-102 -130 0
-102 -125 0
-102 -124 0
-102 -117 0
-101 -131 0
-101 -130 0
-101 -114 0
-101 -102 0
-100 -131 0
-100 -127 0
-100 -125 0
-100 -120 0
-100 -114 0
-100 -101 0
-99 -115 0
-99 -113 0
-99 -111 0
-99 -106 0
-98 -130 0
-98 -102 0
-98 -101 0
-97 -131 0
-97 -115 0
-97 -114 0
-97 -101 0
-97 -100 0
-96 -128 0
-96 -126 0
-96 -120 0
-96 -118 0
-96 -117 0
-96 -107 0
-96 -106 0
-95 -129 0
-95 -110 0
-95 -108 0
-95 -105 0
-94 -132 0
-94 -131 0
-94 -128 0
-94 -126 0
-94 -120 0
-94 -118 0
-94 -109 0
-94 -107 0
-94 -106 0
-94 -96 0
-93 -122 0
-93 -121 0
-93 -113 0
-93 -111 0
-93 -109 0
-93 -107 0
-93 -103 0
-92 -131 0
-92 -117 0
-92 -114 0
-92 -101 0
-92 -100 0
-92 -97 0
-92 -96 0
-91 -132 0
-91 -131 0
-91 -109 0
-91 -105 0
-91 -94 0
-90 -130 0
-90 -127 0
-90 -125 0
-90 -123 0
-90 -120 0
-90 -119 0
-90 -100 0
-89 -127 0
-89 -125 0
-89 -120 0
-89 -105 0
-89 -100 0
-89 -91 0
-89 -90 0
-88 -129 0
-88 -123 0
-88 -121 0
-88 -114 0
-88 -110 0
-88 -108 0
-88 -95 0
-87 -122 0
-87 -121 0
-87 -115 0
-87 -113 0
-87 -109 0
-87 -97 0
-87 -93 0
-86 -115 0
-86 -98 0
-86 -97 0
-86 -87 0
-85 -130 0
-85 -127 0
-85 -104 0
-85 -103 0
-85 -102 0
-85 -101 0
-85 -98 0
-84 -131 0
-84 -114 0
-84 -111 0
-84 -107 0
-84 -103 0
-84 -101 0
-84 -100 0
-84 -97 0
-84 -93 0
-84 -92 0
-83 -132 0
-83 -116 0
-83 -112 0
-83 -105 0
-83 -95 0
-82 -130 0
-82 -124 0
-82 -123 0
-82 -119 0
-82 -118 0
-82 -108 0
-82 -104 0
-82 -90 0
-81 -127 0
-81 -125 0
-81 -120 0
-81 -115 0
-81 -111 0
-81 -100 0
-81 -99 0
-81 -90 0
-81 -89 0
-80 -124 0
-80 -118 0
-80 -108 0
-80 -104 0
-80 -98 0
-80 -86 0
-80 -82 0
-79 -125 0
-79 -124 0
-79 -117 0
-79 -113 0
-79 -106 0
-79 -102 0
-79 -99 0
-78 -127 0
-78 -125 0
-78 -122 0
-78 -121 0
-78 -120 0
-78 -113 0
-78 -109 0
-78 -100 0
-78 -93 0
-78 -90 0
-78 -89 0
-78 -87 0
-78 -81 0
-77 -132 0
-77 -131 0
-77 -125 0
-77 -124 0
-77 -117 0
-77 -109 0
-77 -102 0
-77 -94 0
-77 -91 0
-77 -79 0
-76 -131 0
-76 -114 0
-76 -113 0
-76 -106 0
-76 -101 0
-76 -100 0
-76 -99 0
-76 -97 0
-76 -92 0
-76 -84 0
-76 -79 0
-75 -130 0
-75 -122 0
-75 -121 0
-75 -113 0
-75 -109 0
-75 -102 0
-75 -101 0
-75 -98 0
-75 -93 0
-75 -87 0
-75 -85 0
-75 -78 0
-74 -124 0
-74 -118 0
-74 -115 0
-74 -111 0
-74 -108 0
-74 -104 0
-74 -99 0
-74 -82 0
-74 -81 0
-74 -80 0
-73 -126 0
-73 -122 0
-73 -121 0
-73 -113 0
-73 -112 0
-73 -110 0
-73 -109 0
-73 -93 0
-73 -87 0
-73 -78 0
-73 -75 0
-72 -122 0
-72 -121 0
-72 -117 0
-72 -113 0
-72 -109 0
-72 -96 0
-72 -93 0
-72 -92 0
-72 -87 0
-72 -78 0
-72 -75 0
-72 -73 0
-71 -117 0
-71 -105 0
-71 -96 0
-71 -92 0
-71 -91 0
-71 -89 0
-71 -72 0
-70 -111 0
-70 -107 0
-70 -103 0
-70 -98 0
-70 -93 0
-70 -86 0
-70 -84 0
-70 -80 0
-69 -127 0
-69 -113 0
-69 -106 0
-69 -104 0
-69 -103 0
-69 -99 0
-69 -85 0
-69 -79 0
-69 -76 0
-68 -129 0
-68 -117 0
-68 -110 0
-68 -108 0
-68 -96 0
-68 -95 0
-68 -92 0
-68 -88 0
-68 -72 0
-68 -71 0
-67 -130 0
-67 -126 0
-67 -123 0
-67 -119 0
-67 -112 0
-67 -110 0
-67 -90 0
-67 -82 0
-67 -73 0
-66 -132 0
-66 -131 0
-66 -115 0
-66 -111 0
-66 -109 0
-66 -99 0
-66 -94 0
-66 -91 0
-66 -81 0
-66 -77 0
-66 -74 0
-65 -132 0
-65 -116 0
-65 -113 0
-65 -112 0
-65 -106 0
-65 -99 0
-65 -83 0
-65 -79 0
-65 -76 0
-65 -69 0
-64 -130 0
-64 -123 0
-64 -119 0
-64 -115 0
-64 -97 0
-64 -90 0
-64 -87 0
-64 -86 0
-64 -82 0
-64 -67 0
-63 -123 0
-63 -121 0
-63 -114 0
-63 -105 0
-63 -91 0
-63 -89 0
-63 -88 0
-63 -71 0
-62 -129 0
-62 -128 0
-62 -127 0
-62 -122 0
-62 -119 0
-62 -116 0
-62 -104 0
-62 -103 0
-62 -85 0
-62 -69 0
-61 -125 0
-61 -124 0
-61 -117 0
-61 -105 0
-61 -102 0
-61 -95 0
-61 -83 0
-61 -79 0
-61 -77 0
-60 -126 0
-60 -112 0
-60 -110 0
-60 -98 0
-60 -86 0
-60 -80 0
-60 -73 0
-60 -70 0
-60 -67 0
-59 -125 0
-59 -124 0
-59 -117 0
-59 -115 0
-59 -102 0
-59 -97 0
-59 -87 0
-59 -86 0
-59 -79 0
-59 -77 0
-59 -64 0
-59 -61 0
-58 -129 0
-58 -115 0
-58 -110 0
-58 -108 0
-58 -97 0
-58 -95 0
-58 -88 0
-58 -87 0
-58 -86 0
-58 -68 0
-58 -64 0
-58 -59 0
-57 -129 0
-57 -111 0
-57 -110 0
-57 -108 0
-57 -107 0
-57 -103 0
-57 -95 0
-57 -93 0
-57 -88 0
-57 -84 0
-57 -70 0
-57 -68 0
-57 -58 0
-56 -130 0
-56 -115 0
-56 -111 0
-56 -102 0
-56 -101 0
-56 -99 0
-56 -98 0
-56 -85 0
-56 -81 0
-56 -75 0
-56 -74 0
-56 -66 0
-55 -130 0
-55 -123 0
-55 -119 0
-55 -105 0
-55 -95 0
-55 -90 0
-55 -83 0
-55 -82 0
-55 -67 0
-55 -64 0
-55 -61 0
-54 -124 0
-54 -122 0
-54 -121 0
-54 -118 0
-54 -113 0
-54 -109 0
-54 -108 0
-54 -104 0
-54 -93 0
-54 -87 0
-54 -82 0
-54 -80 0
-54 -78 0
-54 -75 0
-54 -74 0
-54 -73 0
-54 -72 0
-53 -115 0
-53 -111 0
-53 -105 0
-53 -99 0
-53 -95 0
-53 -83 0
-53 -81 0
-53 -74 0
-53 -66 0
-53 -61 0
-53 -56 0
-53 -55 0
-52 -130 0
-52 -105 0
-52 -102 0
-52 -101 0
-52 -98 0
-52 -91 0
-52 -89 0
-52 -85 0
-52 -75 0
-52 -71 0
-52 -63 0
-52 -56 0
-51 -132 0
-51 -130 0
-51 -116 0
-51 -112 0
-51 -102 0
-51 -101 0
-51 -98 0
-51 -85 0
-51 -83 0
-51 -75 0
-51 -65 0
-51 -56 0
-51 -52 0
-50 -127 0
-50 -126 0
-50 -112 0
-50 -110 0
-50 -104 0
-50 -103 0
-50 -85 0
-50 -73 0
-50 -69 0
-50 -67 0
-50 -62 0
-50 -60 0
-49 -117 0
-49 -115 0
-49 -111 0
-49 -99 0
-49 -96 0
-49 -92 0
-49 -81 0
-49 -74 0
-49 -72 0
-49 -71 0
-49 -68 0
-49 -66 0
-49 -56 0
-49 -53 0
-48 -113 0
-48 -106 0
-48 -99 0
-48 -98 0
-48 -86 0
-48 -80 0
-48 -79 0
-48 -76 0
-48 -70 0
-48 -69 0
-48 -65 0
-48 -60 0
-47 -125 0
-47 -124 0
-47 -117 0
-47 -111 0
-47 -107 0
-47 -103 0
-47 -102 0
-47 -93 0
-47 -84 0
-47 -79 0
-47 -77 0
-47 -70 0
-47 -61 0
-47 -59 0
-47 -57 0
-46 -125 0
-46 -124 0
-46 -123 0
-46 -121 0
-46 -117 0
-46 -114 0
-46 -102 0
-46 -88 0
-46 -79 0
-46 -77 0
-46 -63 0
-46 -61 0
-46 -59 0
-46 -47 0
-45 -129 0
-45 -127 0
-45 -125 0
-45 -120 0
-45 -110 0
-45 -108 0
-45 -100 0
-45 -95 0
-45 -90 0
-45 -89 0
-45 -88 0
-45 -81 0
-45 -78 0
-45 -68 0
-45 -58 0
-45 -57 0
-44 -128 0
-44 -126 0
-44 -120 0
-44 -118 0
-44 -115 0
-44 -107 0
-44 -106 0
-44 -97 0
-44 -96 0
-44 -94 0
-44 -87 0
-44 -86 0
-44 -64 0
-44 -59 0
-44 -58 0
-43 -127 0
-43 -115 0
-43 -104 0
-43 -103 0
-43 -97 0
-43 -87 0
-43 -86 0
-43 -85 0
-43 -69 0
-43 -64 0
-43 -62 0
-43 -59 0
-43 -58 0
-43 -50 0
-43 -44 0
-42 -132 0
-42 -131 0
-42 -127 0
-42 -109 0
-42 -104 0
-42 -103 0
-42 -94 0
-42 -91 0
-42 -85 0
-42 -77 0
-42 -69 0
-42 -66 0
-42 -62 0
-42 -50 0
-42 -43 0
-41 -132 0
-41 -124 0
-41 -118 0
-41 -116 0
-41 -112 0
-41 -108 0
-41 -104 0
-41 -83 0
-41 -82 0
-41 -80 0
-41 -74 0
-41 -65 0
-41 -54 0
-41 -51 0
-40 -129 0
-40 -128 0
-40 -122 0
-40 -119 0
-40 -116 0
-40 -115 0
-40 -111 0
-40 -99 0
-40 -81 0
-40 -74 0
-40 -66 0
-40 -62 0
-40 -56 0
-40 -53 0
-40 -49 0
-39 -132 0
-39 -127 0
-39 -125 0
-39 -120 0
-39 -116 0
-39 -112 0
-39 -100 0
-39 -90 0
-39 -89 0
-39 -83 0
-39 -81 0
-39 -78 0
-39 -65 0
-39 -51 0
-39 -45 0
-39 -41 0
-38 -127 0
-38 -125 0
-38 -120 0
-38 -100 0
-38 -98 0
-38 -90 0
-38 -89 0
-38 -86 0
-38 -81 0
-38 -80 0
-38 -78 0
-38 -70 0
-38 -60 0
-38 -48 0
-38 -45 0
-38 -39 0
-37 -105 0
-37 -98 0
-37 -95 0
-37 -86 0
-37 -83 0
-37 -80 0
-37 -70 0
-37 -61 0
-37 -60 0
-37 -55 0
-37 -53 0
-37 -48 0
-37 -38 0
-36 -127 0
-36 -105 0
-36 -104 0
-36 -103 0
-36 -95 0
-36 -85 0
-36 -83 0
-36 -69 0
-36 -62 0
-36 -61 0
-36 -55 0
-36 -53 0
-36 -50 0
-36 -43 0
-36 -42 0
-36 -37 0
-35 -127 0
-35 -123 0
-35 -121 0
-35 -114 0
-35 -104 0
-35 -103 0
-35 -88 0
-35 -85 0
-35 -69 0
-35 -63 0
-35 -62 0
-35 -50 0
-35 -46 0
-35 -43 0
-35 -42 0
-35 -36 0
-34 -122 0
-34 -121 0
-34 -113 0
-34 -109 0
-34 -105 0
-34 -95 0
-34 -93 0
-34 -87 0
-34 -83 0
-34 -78 0
-34 -75 0
-34 -73 0
-34 -72 0
-34 -61 0
-34 -55 0
-34 -54 0
-34 -53 0
-34 -37 0
-34 -36 0
-33 -130 0
-33 -123 0
-33 -119 0
-33 -113 0
-33 -106 0
-33 -99 0
-33 -90 0
-33 -82 0
-33 -79 0
-33 -76 0
-33 -69 0
-33 -67 0
-33 -65 0
-33 -64 0
-33 -55 0
-33 -48 0
-32 -124 0
-32 -118 0
-32 -108 0
-32 -105 0
-32 -104 0
-32 -91 0
-32 -89 0
-32 -82 0
-32 -80 0
-32 -74 0
-32 -71 0
-32 -63 0
-32 -54 0
-32 -52 0
-32 -41 0
-31 -126 0
-31 -115 0
-31 -112 0
-31 -111 0
-31 -110 0
-31 -99 0
-31 -81 0
-31 -74 0
-31 -73 0
-31 -67 0
-31 -66 0
-31 -60 0
-31 -56 0
-31 -53 0
-31 -50 0
-31 -49 0
-31 -40 0
-30 -127 0
-30 -117 0
-30 -104 0
-30 -103 0
-30 -96 0
-30 -92 0
-30 -85 0
-30 -72 0
-30 -71 0
-30 -69 0
-30 -68 0
-30 -62 0
-30 -50 0
-30 -49 0
-30 -43 0
-30 -42 0
-30 -36 0
-30 -35 0
-29 -129 0
-29 -128 0
-29 -122 0
-29 -119 0
-29 -116 0
-29 -105 0
-29 -91 0
-29 -89 0
-29 -71 0
-29 -63 0
-29 -62 0
-29 -52 0
-29 -40 0
-29 -32 0
-28 -111 0
-28 -107 0
-28 -105 0
-28 -103 0
-28 -93 0
-28 -91 0
-28 -89 0
-28 -84 0
-28 -71 0
-28 -70 0
-28 -63 0
-28 -57 0
-28 -52 0
-28 -47 0
-28 -32 0
-28 -29 0
-27 -128 0
-27 -126 0
-27 -123 0
-27 -121 0
-27 -120 0
-27 -118 0
-27 -114 0
-27 -107 0
-27 -106 0
-27 -96 0
-27 -94 0
-27 -88 0
-27 -63 0
-27 -46 0
-27 -44 0
-27 -35 0
-26 -130 0
-26 -128 0
-26 -126 0
-26 -120 0
-26 -118 0
-26 -107 0
-26 -106 0
-26 -102 0
-26 -101 0
-26 -98 0
-26 -96 0
-26 -94 0
-26 -85 0
-26 -75 0
-26 -56 0
-26 -52 0
-26 -51 0
-26 -44 0
-26 -27 0
-25 -128 0
-25 -126 0
-25 -120 0
-25 -118 0
-25 -107 0
-25 -106 0
-25 -105 0
-25 -96 0
-25 -95 0
-25 -94 0
-25 -83 0
-25 -61 0
-25 -55 0
-25 -53 0
-25 -44 0
-25 -37 0
-25 -36 0
-25 -34 0
-25 -27 0
-25 -26 0
-24 -123 0
-24 -121 0
-24 -114 0
-24 -98 0
-24 -88 0
-24 -86 0
-24 -80 0
-24 -70 0
-24 -63 0
-24 -60 0
-24 -48 0
-24 -46 0
-24 -38 0
-24 -37 0
-24 -35 0
-24 -27 0
-23 -126 0
-23 -112 0
-23 -110 0
-23 -105 0
-23 -91 0
-23 -89 0
-23 -73 0
-23 -71 0
-23 -67 0
-23 -63 0
-23 -60 0
-23 -52 0
-23 -50 0
-23 -32 0
-23 -31 0
-23 -29 0
-23 -28 0
-22 -126 0
-22 -125 0
-22 -124 0
-22 -117 0
-22 -112 0
-22 -110 0
-22 -102 0
-22 -79 0
-22 -77 0
-22 -73 0
-22 -67 0
-22 -61 0
-22 -60 0
-22 -59 0
-22 -50 0
-22 -47 0
-22 -46 0
-22 -31 0
-22 -23 0
-21 -132 0
-21 -123 0
-21 -121 0
-21 -116 0
-21 -114 0
-21 -112 0
-21 -88 0
-21 -83 0
-21 -65 0
-21 -63 0
-21 -51 0
-21 -46 0
-21 -41 0
-21 -39 0
-21 -35 0
-21 -27 0
-21 -24 0
-20 -132 0
-20 -116 0
-20 -112 0
-20 -111 0
-20 -107 0
-20 -103 0
-20 -93 0
-20 -84 0
-20 -83 0
-20 -70 0
-20 -65 0
-20 -57 0
-20 -51 0
-20 -47 0
-20 -41 0
-20 -39 0
-20 -28 0
-20 -21 0
-19 -130 0
-19 -123 0
-19 -119 0
-19 -117 0
-19 -96 0
-19 -92 0
-19 -90 0
-19 -82 0
-19 -72 0
-19 -71 0
-19 -68 0
-19 -67 0
-19 -64 0
-19 -55 0
-19 -49 0
-19 -33 0
-19 -30 0
-18 -129 0
-18 -128 0
-18 -122 0
-18 -119 0
-18 -116 0
-18 -98 0
-18 -86 0
-18 -80 0
-18 -70 0
-18 -62 0
-18 -60 0
-18 -48 0
-18 -40 0
-18 -38 0
-18 -37 0
-18 -29 0
-18 -24 0
-17 -129 0
-17 -113 0
-17 -110 0
-17 -108 0
-17 -106 0
-17 -99 0
-17 -95 0
-17 -88 0
-17 -79 0
-17 -76 0
-17 -69 0
-17 -68 0
-17 -65 0
-17 -58 0
-17 -57 0
-17 -48 0
-17 -45 0
-17 -33 0
-16 -130 0
-16 -123 0
-16 -119 0
-16 -111 0
-16 -107 0
-16 -103 0
-16 -93 0
-16 -90 0
-16 -84 0
-16 -82 0
-16 -70 0
-16 -67 0
-16 -64 0
-16 -57 0
-16 -55 0
-16 -47 0
-16 -33 0
-16 -28 0
-16 -20 0
-16 -19 0
-15 -131 0
-15 -129 0
-15 -128 0
-15 -122 0
-15 -119 0
-15 -116 0
-15 -114 0
-15 -101 0
-15 -100 0
-15 -97 0
-15 -92 0
-15 -84 0
-15 -76 0
-15 -62 0
-15 -40 0
-15 -29 0
-15 -18 0
-14 -132 0
-14 -131 0
-14 -109 0
-14 -98 0
-14 -94 0
-14 -91 0
-14 -86 0
-14 -80 0
-14 -77 0
-14 -70 0
-14 -66 0
-14 -60 0
-14 -48 0
-14 -42 0
-14 -38 0
-14 -37 0
-14 -24 0
-14 -18 0
-13 -113 0
-13 -106 0
-13 -105 0
-13 -99 0
-13 -91 0
-13 -89 0
-13 -79 0
-13 -76 0
-13 -71 0
-13 -69 0
-13 -65 0
-13 -63 0
-13 -52 0
-13 -48 0
-13 -33 0
-13 -32 0
-13 -29 0
-13 -28 0
-13 -23 0
-13 -17 0
-12 -130 0
-12 -129 0
-12 -110 0
-12 -108 0
-12 -102 0
-12 -101 0
-12 -98 0
-12 -95 0
-12 -88 0
-12 -85 0
-12 -75 0
-12 -68 0
-12 -58 0
-12 -57 0
-12 -56 0
-12 -52 0
-12 -51 0
-12 -45 0
-12 -26 0
-12 -17 0
-11 -132 0
-11 -116 0
-11 -115 0
-11 -112 0
-11 -97 0
-11 -87 0
-11 -86 0
-11 -83 0
-11 -65 0
-11 -64 0
-11 -59 0
-11 -58 0
-11 -51 0
-11 -44 0
-11 -43 0
-11 -41 0
-11 -39 0
-11 -21 0
-11 -20 0
-10 -115 0
-10 -105 0
-10 -97 0
-10 -91 0
-10 -89 0
-10 -87 0
-10 -86 0
-10 -71 0
-10 -64 0
-10 -63 0
-10 -59 0
-10 -58 0
-10 -52 0
-10 -44 0
-10 -43 0
-10 -32 0
-10 -29 0
-10 -28 0
-10 -23 0
-10 -13 0
-10 -11 0
-9 -123 0
-9 -121 0
-9 -115 0
-9 -114 0
-9 -111 0
-9 -99 0
-9 -88 0
-9 -81 0
-9 -74 0
-9 -66 0
-9 -63 0
-9 -56 0
-9 -53 0
-9 -49 0
-9 -46 0
-9 -40 0
-9 -35 0
-9 -31 0
-9 -27 0
-9 -24 0
-9 -21 0
-8 -132 0
-8 -131 0
-8 -130 0
-8 -123 0
-8 -119 0
-8 -109 0
-8 -94 0
-8 -91 0
-8 -90 0
-8 -82 0
-8 -77 0
-8 -67 0
-8 -66 0
-8 -64 0
-8 -55 0
-8 -42 0
-8 -33 0
-8 -19 0
-8 -16 0
-8 -14 0
-7 -131 0
-7 -124 0
-7 -118 0
-7 -114 0
-7 -108 0
-7 -104 0
-7 -101 0
-7 -100 0
-7 -97 0
-7 -92 0
-7 -84 0
-7 -82 0
-7 -80 0
-7 -76 0
-7 -74 0
-7 -54 0
-7 -41 0
-7 -32 0
-7 -15 0
-6 -132 0
-6 -117 0
-6 -116 0
-6 -112 0
-6 -96 0
-6 -92 0
-6 -83 0
-6 -72 0
-6 -71 0
-6 -68 0
-6 -65 0
-6 -51 0
-6 -49 0
-6 -41 0
-6 -39 0
-6 -30 0
-6 -21 0
-6 -20 0
-6 -19 0
-6 -11 0
-5 -131 0
-5 -114 0
-5 -105 0
-5 -101 0
-5 -100 0
-5 -97 0
-5 -95 0
-5 -92 0
-5 -84 0
-5 -83 0
-5 -76 0
-5 -61 0
-5 -55 0
-5 -53 0
-5 -37 0
-5 -36 0
-5 -34 0
-5 -25 0
-5 -15 0
-5 -7 0
-4 -132 0
-4 -131 0
-4 -129 0
-4 -110 0
-4 -109 0
-4 -108 0
-4 -95 0
-4 -94 0
-4 -91 0
-4 -88 0
-4 -77 0
-4 -68 0
-4 -66 0
-4 -58 0
-4 -57 0
-4 -45 0
-4 -42 0
-4 -17 0
-4 -14 0
-4 -12 0
-4 -8 0
-3 -131 0
-3 -126 0
-3 -114 0
-3 -112 0
-3 -110 0
-3 -101 0
-3 -100 0
-3 -97 0
-3 -92 0
-3 -84 0
-3 -76 0
-3 -73 0
-3 -67 0
-3 -60 0
-3 -50 0
-3 -31 0
-3 -23 0
-3 -22 0
-3 -15 0
-3 -7 0
-3 -5 0
-2 -117 0
-2 -98 0
-2 -96 0
-2 -92 0
-2 -86 0
-2 -80 0
-2 -72 0
-2 -71 0
-2 -70 0
-2 -68 0
-2 -60 0
-2 -49 0
-2 -48 0
-2 -38 0
-2 -37 0
-2 -30 0
-2 -24 0
-2 -19 0
-2 -18 0
-2 -14 0
-2 -6 0
-1 -129 0
-1 -128 0
-1 -125 0
-1 -124 0
-1 -122 0
-1 -119 0
-1 -117 0
-1 -116 0
-1 -102 0
-1 -79 0
-1 -77 0
-1 -62 0
-1 -61 0
-1 -59 0
-1 -47 0
-1 -46 0
-1 -40 0
-1 -29 0
-1 -22 0
-1 -18 0
-1 -15 0
1 15 18 29 40 62 116 119 122 128 129 0
2 6 19 30 49 68 71 72 92 96 117 0
3 22 23 31 50 60 67 73 110 112 126 0
4 8 14 42 66 77 91 94 109 131 132 0
5 25 34 36 37 53 55 61 83 95 105 0
7 32 41 54 74 80 82 104 108 118 124 0
9 21 24 27 35 46 63 88 114 121 123 0
10 11 43 44 58 59 64 86 87 97 115 0
12 26 51 52 56 75 85 98 101 102 130 0
13 17 33 48 65 69 76 79 99 106 113 0
16 20 28 47 57 70 84 93 103 107 111 0
38 39 45 78 81 89 90 100 120 125 127 0
