p cnf 132 1398
-126 -129 0
-125 -129 0
-125 -126 0
-123 -130 0
-123 -127 0
-122 -128 0
-121 -130 0
-121 -127 0
-120 -125 0
-119 -124 0
-118 -126 0
-118 -122 0
-117 -122 0
-117 -119 0
-117 -118 0
-116 -129 0
-115 -129 0
-115 -126 0
-115 -125 0
-114 -125 0
-114 -120 0
-113 -128 0
-112 -132 0
-112 -131 0
-111 -132 0
-111 -129 0
-111 -116 0
-111 -112 0
-110 -131 0
-110 -115 0
-109 -126 0
-109 -118 0
-109 -116 0
-108 -132 0
-108 -124 0
-108 -119 0
-107 -130 0
-107 -124 0
-107 -121 0
-106 -128 0
-106 -124 0
-106 -113 0
-106 -107 0
-105 -120 0
-105 -119 0
-105 -117 0
-104 -132 0
-104 -127 0
-104 -121 0
-104 -112 0
-104 -111 0
-103 -114 0
-103 -113 0
-102 -128 0
-102 -126 0
-102 -118 0
-102 -113 0
-102 -109 0
-102 -106 0
-101 -129 0
-101 -126 0
-101 -125 0
-101 -124 0
-101 -115 0
-101 -107 0
-101 -106 0
-100 -124 0
-100 -116 0
-100 -109 0
-100 -107 0
-100 -106 0
-100 -101 0
-99 -127 0
-99 -126 0
-99 -123 0
-99 -118 0
-99 -109 0
-99 -102 0
-98 -116 0
-98 -115 0
-98 -110 0
-98 -109 0
-98 -100 0
-97 -128 0
-97 -125 0
-97 -120 0
-97 -114 0
-97 -113 0
-97 -106 0
-97 -102 0
-96 -129 0
-96 -116 0
-96 -114 0
-96 -111 0
-96 -103 0
-95 -129 0
-95 -124 0
-95 -119 0
-95 -116 0
-95 -111 0
-95 -108 0
-95 -96 0
-94 -131 0
-94 -114 0
-94 -112 0
-94 -103 0
-94 -96 0
-93 -120 0
-93 -113 0
-93 -105 0
-93 -103 0
-92 -129 0
-92 -122 0
-92 -118 0
-92 -117 0
-92 -116 0
-92 -111 0
-92 -96 0
-92 -95 0
-91 -131 0
-91 -127 0
-91 -123 0
-91 -112 0
-91 -99 0
-91 -94 0
-90 -132 0
-90 -128 0
-90 -113 0
-90 -108 0
-90 -106 0
-90 -102 0
-90 -97 0
-89 -131 0
-89 -130 0
-89 -121 0
-89 -112 0
-89 -107 0
-89 -94 0
-89 -91 0
-88 -122 0
-88 -118 0
-88 -117 0
-88 -115 0
-88 -110 0
-88 -98 0
-88 -92 0
-87 -126 0
-87 -118 0
-87 -114 0
-87 -109 0
-87 -103 0
-87 -102 0
-87 -99 0
-87 -96 0
-87 -94 0
-86 -132 0
-86 -127 0
-86 -123 0
-86 -108 0
-86 -99 0
-86 -91 0
-86 -90 0
-85 -127 0
-85 -122 0
-85 -121 0
-85 -118 0
-85 -117 0
-85 -104 0
-85 -92 0
-85 -88 0
-84 -131 0
-84 -129 0
-84 -116 0
-84 -111 0
-84 -110 0
-84 -96 0
-84 -95 0
-84 -92 0
-83 -127 0
-83 -125 0
-83 -123 0
-83 -120 0
-83 -114 0
-83 -99 0
-83 -97 0
-83 -91 0
-83 -86 0
-82 -129 0
-82 -120 0
-82 -116 0
-82 -111 0
-82 -105 0
-82 -96 0
-82 -95 0
-82 -93 0
-82 -92 0
-82 -84 0
-81 -130 0
-81 -129 0
-81 -126 0
-81 -125 0
-81 -123 0
-81 -115 0
-81 -101 0
-80 -131 0
-80 -129 0
-80 -126 0
-80 -125 0
-80 -115 0
-80 -112 0
-80 -101 0
-80 -94 0
-80 -91 0
-80 -89 0
-80 -81 0
-79 -130 0
-79 -123 0
-79 -116 0
-79 -109 0
-79 -100 0
-79 -98 0
-79 -81 0
-78 -128 0
-78 -127 0
-78 -121 0
-78 -113 0
-78 -106 0
-78 -104 0
-78 -102 0
-78 -97 0
-78 -90 0
-78 -85 0
-77 -131 0
-77 -124 0
-77 -119 0
-77 -112 0
-77 -108 0
-77 -95 0
-77 -94 0
-77 -91 0
-77 -89 0
-77 -80 0
-76 -127 0
-76 -121 0
-76 -114 0
-76 -104 0
-76 -103 0
-76 -96 0
-76 -94 0
-76 -87 0
-76 -85 0
-76 -78 0
-75 -127 0
-75 -121 0
-75 -116 0
-75 -109 0
-75 -104 0
-75 -100 0
-75 -98 0
-75 -85 0
-75 -79 0
-75 -78 0
-75 -76 0
-74 -131 0
-74 -113 0
-74 -110 0
-74 -103 0
-74 -93 0
-74 -84 0
-73 -130 0
-73 -123 0
-73 -122 0
-73 -118 0
-73 -117 0
-73 -92 0
-73 -88 0
-73 -85 0
-73 -81 0
-73 -79 0
-72 -131 0
-72 -126 0
-72 -118 0
-72 -110 0
-72 -109 0
-72 -102 0
-72 -99 0
-72 -87 0
-72 -84 0
-72 -74 0
-71 -125 0
-71 -124 0
-71 -120 0
-71 -119 0
-71 -114 0
-71 -108 0
-71 -97 0
-71 -95 0
-71 -83 0
-71 -77 0
-70 -130 0
-70 -121 0
-70 -119 0
-70 -117 0
-70 -107 0
-70 -105 0
-70 -89 0
-69 -132 0
-69 -122 0
-69 -118 0
-69 -117 0
-69 -108 0
-69 -92 0
-69 -90 0
-69 -88 0
-69 -86 0
-69 -85 0
-69 -73 0
-68 -127 0
-68 -124 0
-68 -121 0
-68 -119 0
-68 -108 0
-68 -104 0
-68 -95 0
-68 -85 0
-68 -78 0
-68 -77 0
-68 -76 0
-68 -75 0
-68 -71 0
-67 -125 0
-67 -122 0
-67 -120 0
-67 -118 0
-67 -117 0
-67 -114 0
-67 -97 0
-67 -92 0
-67 -88 0
-67 -85 0
-67 -83 0
-67 -73 0
-67 -71 0
-67 -69 0
-66 -128 0
-66 -122 0
-66 -116 0
-66 -109 0
-66 -100 0
-66 -98 0
-66 -79 0
-66 -75 0
-65 -132 0
-65 -116 0
-65 -109 0
-65 -108 0
-65 -100 0
-65 -98 0
-65 -90 0
-65 -86 0
-65 -79 0
-65 -75 0
-65 -69 0
-65 -66 0
-64 -131 0
-64 -127 0
-64 -121 0
-64 -110 0
-64 -104 0
-64 -85 0
-64 -84 0
-64 -78 0
-64 -76 0
-64 -75 0
-64 -74 0
-64 -72 0
-64 -68 0
-63 -132 0
-63 -130 0
-63 -123 0
-63 -112 0
-63 -111 0
-63 -104 0
-63 -81 0
-63 -79 0
-63 -73 0
-62 -132 0
-62 -119 0
-62 -117 0
-62 -112 0
-62 -111 0
-62 -105 0
-62 -104 0
-62 -70 0
-62 -63 0
-61 -120 0
-61 -115 0
-61 -110 0
-61 -105 0
-61 -98 0
-61 -93 0
-61 -88 0
-61 -82 0
-60 -132 0
-60 -114 0
-60 -108 0
-60 -103 0
-60 -96 0
-60 -94 0
-60 -90 0
-60 -87 0
-60 -86 0
-60 -76 0
-60 -69 0
-60 -65 0
-59 -116 0
-59 -113 0
-59 -109 0
-59 -103 0
-59 -100 0
-59 -98 0
-59 -93 0
-59 -79 0
-59 -75 0
-59 -74 0
-59 -66 0
-59 -65 0
-58 -129 0
-58 -126 0
-58 -125 0
-58 -119 0
-58 -117 0
-58 -115 0
-58 -105 0
-58 -101 0
-58 -81 0
-58 -80 0
-58 -70 0
-58 -62 0
-57 -132 0
-57 -128 0
-57 -122 0
-57 -112 0
-57 -111 0
-57 -104 0
-57 -66 0
-57 -63 0
-57 -62 0
-56 -124 0
-56 -119 0
-56 -115 0
-56 -110 0
-56 -108 0
-56 -98 0
-56 -95 0
-56 -88 0
-56 -77 0
-56 -71 0
-56 -68 0
-56 -61 0
-55 -115 0
-55 -114 0
-55 -110 0
-55 -103 0
-55 -98 0
-55 -96 0
-55 -94 0
-55 -88 0
-55 -87 0
-55 -76 0
-55 -61 0
-55 -60 0
-55 -56 0
-54 -131 0
-54 -124 0
-54 -110 0
-54 -107 0
-54 -106 0
-54 -101 0
-54 -100 0
-54 -84 0
-54 -74 0
-54 -72 0
-54 -64 0
-53 -124 0
-53 -119 0
-53 -113 0
-53 -108 0
-53 -103 0
-53 -95 0
-53 -93 0
-53 -77 0
-53 -74 0
-53 -71 0
-53 -68 0
-53 -59 0
-53 -56 0
-52 -119 0
-52 -117 0
-52 -114 0
-52 -105 0
-52 -103 0
-52 -96 0
-52 -94 0
-52 -87 0
-52 -76 0
-52 -70 0
-52 -62 0
-52 -60 0
-52 -58 0
-52 -55 0
-51 -130 0
-51 -124 0
-51 -123 0
-51 -119 0
-51 -108 0
-51 -95 0
-51 -81 0
-51 -79 0
-51 -77 0
-51 -73 0
-51 -71 0
-51 -68 0
-51 -63 0
-51 -56 0
-51 -53 0
-50 -127 0
-50 -123 0
-50 -119 0
-50 -117 0
-50 -105 0
-50 -99 0
-50 -91 0
-50 -86 0
-50 -83 0
-50 -70 0
-50 -62 0
-50 -58 0
-50 -52 0
-49 -132 0
-49 -120 0
-49 -108 0
-49 -105 0
-49 -93 0
-49 -90 0
-49 -86 0
-49 -82 0
-49 -69 0
-49 -65 0
-49 -61 0
-49 -60 0
-48 -131 0
-48 -130 0
-48 -123 0
-48 -110 0
-48 -84 0
-48 -81 0
-48 -79 0
-48 -74 0
-48 -73 0
-48 -72 0
-48 -64 0
-48 -63 0
-48 -54 0
-48 -51 0
-47 -130 0
-47 -121 0
-47 -113 0
-47 -107 0
-47 -103 0
-47 -93 0
-47 -89 0
-47 -74 0
-47 -70 0
-47 -59 0
-47 -53 0
-46 -132 0
-46 -130 0
-46 -121 0
-46 -108 0
-46 -107 0
-46 -90 0
-46 -89 0
-46 -86 0
-46 -70 0
-46 -69 0
-46 -65 0
-46 -60 0
-46 -49 0
-46 -47 0
-45 -130 0
-45 -128 0
-45 -123 0
-45 -113 0
-45 -106 0
-45 -102 0
-45 -97 0
-45 -90 0
-45 -81 0
-45 -79 0
-45 -78 0
-45 -73 0
-45 -63 0
-45 -51 0
-45 -48 0
-44 -128 0
-44 -122 0
-44 -120 0
-44 -105 0
-44 -93 0
-44 -82 0
-44 -66 0
-44 -61 0
-44 -57 0
-44 -49 0
-43 -132 0
-43 -115 0
-43 -112 0
-43 -111 0
-43 -110 0
-43 -104 0
-43 -98 0
-43 -88 0
-43 -63 0
-43 -62 0
-43 -61 0
-43 -57 0
-43 -56 0
-43 -55 0
-42 -126 0
-42 -124 0
-42 -119 0
-42 -118 0
-42 -109 0
-42 -108 0
-42 -102 0
-42 -99 0
-42 -95 0
-42 -87 0
-42 -77 0
-42 -72 0
-42 -71 0
-42 -68 0
-42 -56 0
-42 -53 0
-42 -51 0
-41 -127 0
-41 -121 0
-41 -120 0
-41 -105 0
-41 -104 0
-41 -93 0
-41 -85 0
-41 -82 0
-41 -78 0
-41 -76 0
-41 -75 0
-41 -68 0
-41 -64 0
-41 -61 0
-41 -49 0
-41 -44 0
-40 -130 0
-40 -121 0
-40 -115 0
-40 -110 0
-40 -107 0
-40 -98 0
-40 -89 0
-40 -88 0
-40 -70 0
-40 -61 0
-40 -56 0
-40 -55 0
-40 -47 0
-40 -46 0
-40 -43 0
-39 -131 0
-39 -122 0
-39 -118 0
-39 -117 0
-39 -112 0
-39 -94 0
-39 -92 0
-39 -91 0
-39 -89 0
-39 -88 0
-39 -85 0
-39 -80 0
-39 -77 0
-39 -73 0
-39 -69 0
-39 -67 0
-38 -129 0
-38 -128 0
-38 -116 0
-38 -113 0
-38 -111 0
-38 -106 0
-38 -102 0
-38 -97 0
-38 -96 0
-38 -95 0
-38 -92 0
-38 -90 0
-38 -84 0
-38 -82 0
-38 -78 0
-38 -45 0
-37 -130 0
-37 -125 0
-37 -121 0
-37 -120 0
-37 -114 0
-37 -107 0
-37 -97 0
-37 -89 0
-37 -83 0
-37 -71 0
-37 -70 0
-37 -67 0
-37 -47 0
-37 -46 0
-37 -40 0
-36 -127 0
-36 -123 0
-36 -113 0
-36 -103 0
-36 -99 0
-36 -93 0
-36 -91 0
-36 -86 0
-36 -83 0
-36 -74 0
-36 -59 0
-36 -53 0
-36 -50 0
-36 -47 0
-35 -126 0
-35 -120 0
-35 -118 0
-35 -109 0
-35 -105 0
-35 -102 0
-35 -99 0
-35 -93 0
-35 -87 0
-35 -82 0
-35 -72 0
-35 -61 0
-35 -49 0
-35 -44 0
-35 -42 0
-35 -41 0
-34 -131 0
-34 -116 0
-34 -112 0
-34 -109 0
-34 -100 0
-34 -98 0
-34 -94 0
-34 -91 0
-34 -89 0
-34 -80 0
-34 -79 0
-34 -77 0
-34 -75 0
-34 -66 0
-34 -65 0
-34 -59 0
-34 -39 0
-33 -130 0
-33 -123 0
-33 -120 0
-33 -105 0
-33 -93 0
-33 -82 0
-33 -81 0
-33 -79 0
-33 -73 0
-33 -63 0
-33 -61 0
-33 -51 0
-33 -49 0
-33 -48 0
-33 -45 0
-33 -44 0
-33 -41 0
-33 -35 0
-32 -124 0
-32 -120 0
-32 -107 0
-32 -106 0
-32 -105 0
-32 -101 0
-32 -100 0
-32 -93 0
-32 -82 0
-32 -61 0
-32 -54 0
-32 -49 0
-32 -44 0
-32 -41 0
-32 -35 0
-32 -33 0
-31 -128 0
-31 -122 0
-31 -114 0
-31 -103 0
-31 -96 0
-31 -94 0
-31 -87 0
-31 -76 0
-31 -66 0
-31 -60 0
-31 -57 0
-31 -55 0
-31 -52 0
-31 -44 0
-30 -127 0
-30 -123 0
-30 -115 0
-30 -110 0
-30 -99 0
-30 -98 0
-30 -91 0
-30 -88 0
-30 -86 0
-30 -83 0
-30 -61 0
-30 -56 0
-30 -55 0
-30 -50 0
-30 -43 0
-30 -40 0
-30 -36 0
-29 -128 0
-29 -124 0
-29 -122 0
-29 -119 0
-29 -108 0
-29 -95 0
-29 -77 0
-29 -71 0
-29 -68 0
-29 -66 0
-29 -57 0
-29 -56 0
-29 -53 0
-29 -51 0
-29 -44 0
-29 -42 0
-29 -31 0
-28 -119 0
-28 -117 0
-28 -116 0
-28 -109 0
-28 -105 0
-28 -100 0
-28 -98 0
-28 -79 0
-28 -75 0
-28 -70 0
-28 -66 0
-28 -65 0
-28 -62 0
-28 -59 0
-28 -58 0
-28 -52 0
-28 -50 0
-28 -34 0
-27 -128 0
-27 -127 0
-27 -123 0
-27 -122 0
-27 -99 0
-27 -91 0
-27 -86 0
-27 -83 0
-27 -66 0
-27 -57 0
-27 -50 0
-27 -44 0
-27 -36 0
-27 -31 0
-27 -30 0
-27 -29 0
-26 -131 0
-26 -128 0
-26 -122 0
-26 -110 0
-26 -84 0
-26 -74 0
-26 -72 0
-26 -66 0
-26 -64 0
-26 -57 0
-26 -54 0
-26 -48 0
-26 -44 0
-26 -31 0
-26 -29 0
-26 -27 0
-25 -131 0
-25 -125 0
-25 -120 0
-25 -114 0
-25 -110 0
-25 -97 0
-25 -84 0
-25 -83 0
-25 -74 0
-25 -72 0
-25 -71 0
-25 -67 0
-25 -64 0
-25 -54 0
-25 -48 0
-25 -37 0
-25 -26 0
-24 -129 0
-24 -127 0
-24 -126 0
-24 -125 0
-24 -121 0
-24 -115 0
-24 -104 0
-24 -101 0
-24 -85 0
-24 -81 0
-24 -80 0
-24 -78 0
-24 -76 0
-24 -75 0
-24 -68 0
-24 -64 0
-24 -58 0
-24 -41 0
-23 -130 0
-23 -126 0
-23 -121 0
-23 -118 0
-23 -109 0
-23 -107 0
-23 -102 0
-23 -99 0
-23 -89 0
-23 -87 0
-23 -72 0
-23 -70 0
-23 -47 0
-23 -46 0
-23 -42 0
-23 -40 0
-23 -37 0
-23 -35 0
-22 -131 0
-22 -120 0
-22 -112 0
-22 -105 0
-22 -94 0
-22 -93 0
-22 -91 0
-22 -89 0
-22 -82 0
-22 -80 0
-22 -77 0
-22 -61 0
-22 -49 0
-22 -44 0
-22 -41 0
-22 -39 0
-22 -35 0
-22 -34 0
-22 -33 0
-22 -32 0
-21 -131 0
-21 -119 0
-21 -117 0
-21 -110 0
-21 -105 0
-21 -84 0
-21 -74 0
-21 -72 0
-21 -70 0
-21 -64 0
-21 -62 0
-21 -58 0
-21 -54 0
-21 -52 0
-21 -50 0
-21 -48 0
-21 -28 0
-21 -26 0
-21 -25 0
-20 -125 0
-20 -120 0
-20 -116 0
-20 -114 0
-20 -109 0
-20 -100 0
-20 -98 0
-20 -97 0
-20 -83 0
-20 -79 0
-20 -75 0
-20 -71 0
-20 -67 0
-20 -66 0
-20 -65 0
-20 -59 0
-20 -37 0
-20 -34 0
-20 -28 0
-20 -25 0
-19 -129 0
-19 -128 0
-19 -126 0
-19 -125 0
-19 -122 0
-19 -115 0
-19 -101 0
-19 -81 0
-19 -80 0
-19 -66 0
-19 -58 0
-19 -57 0
-19 -44 0
-19 -31 0
-19 -29 0
-19 -27 0
-19 -26 0
-19 -24 0
-18 -132 0
-18 -124 0
-18 -112 0
-18 -111 0
-18 -107 0
-18 -106 0
-18 -104 0
-18 -101 0
-18 -100 0
-18 -63 0
-18 -62 0
-18 -57 0
-18 -54 0
-18 -43 0
-18 -32 0
-17 -129 0
-17 -127 0
-17 -123 0
-17 -116 0
-17 -111 0
-17 -99 0
-17 -96 0
-17 -95 0
-17 -92 0
-17 -91 0
-17 -86 0
-17 -84 0
-17 -83 0
-17 -82 0
-17 -50 0
-17 -38 0
-17 -36 0
-17 -30 0
-17 -27 0
-16 -127 0
-16 -124 0
-16 -123 0
-16 -107 0
-16 -106 0
-16 -101 0
-16 -100 0
-16 -99 0
-16 -91 0
-16 -86 0
-16 -83 0
-16 -54 0
-16 -50 0
-16 -36 0
-16 -32 0
-16 -30 0
-16 -27 0
-16 -18 0
-16 -17 0
-15 -130 0
-15 -123 0
-15 -114 0
-15 -103 0
-15 -96 0
-15 -94 0
-15 -87 0
-15 -81 0
-15 -79 0
-15 -76 0
-15 -73 0
-15 -63 0
-15 -60 0
-15 -55 0
-15 -52 0
-15 -51 0
-15 -48 0
-15 -45 0
-15 -33 0
-15 -31 0
-14 -130 0
-14 -129 0
-14 -121 0
-14 -116 0
-14 -111 0
-14 -107 0
-14 -96 0
-14 -95 0
-14 -92 0
-14 -89 0
-14 -84 0
-14 -82 0
-14 -70 0
-14 -47 0
-14 -46 0
-14 -40 0
-14 -38 0
-14 -37 0
-14 -23 0
-14 -17 0
-13 -132 0
-13 -131 0
-13 -110 0
-13 -108 0
-13 -90 0
-13 -86 0
-13 -84 0
-13 -74 0
-13 -72 0
-13 -69 0
-13 -65 0
-13 -64 0
-13 -60 0
-13 -54 0
-13 -49 0
-13 -48 0
-13 -46 0
-13 -26 0
-13 -25 0
-13 -21 0
-12 -128 0
-12 -115 0
-12 -113 0
-12 -110 0
-12 -106 0
-12 -102 0
-12 -98 0
-12 -97 0
-12 -90 0
-12 -88 0
-12 -78 0
-12 -61 0
-12 -56 0
-12 -55 0
-12 -45 0
-12 -43 0
-12 -40 0
-12 -38 0
-12 -30 0
-11 -128 0
-11 -119 0
-11 -117 0
-11 -113 0
-11 -106 0
-11 -105 0
-11 -102 0
-11 -97 0
-11 -90 0
-11 -78 0
-11 -70 0
-11 -62 0
-11 -58 0
-11 -52 0
-11 -50 0
-11 -45 0
-11 -38 0
-11 -28 0
-11 -21 0
-11 -12 0
-10 -122 0
-10 -118 0
-10 -117 0
-10 -113 0
-10 -103 0
-10 -93 0
-10 -92 0
-10 -88 0
-10 -85 0
-10 -74 0
-10 -73 0
-10 -69 0
-10 -67 0
-10 -59 0
-10 -53 0
-10 -47 0
-10 -39 0
-10 -36 0
-9 -132 0
-9 -126 0
-9 -118 0
-9 -112 0
-9 -111 0
-9 -109 0
-9 -104 0
-9 -102 0
-9 -99 0
-9 -87 0
-9 -72 0
-9 -63 0
-9 -62 0
-9 -57 0
-9 -43 0
-9 -42 0
-9 -35 0
-9 -23 0
-9 -18 0
-8 -132 0
-8 -113 0
-8 -112 0
-8 -111 0
-8 -104 0
-8 -103 0
-8 -93 0
-8 -74 0
-8 -63 0
-8 -62 0
-8 -59 0
-8 -57 0
-8 -53 0
-8 -47 0
-8 -43 0
-8 -36 0
-8 -18 0
-8 -10 0
-8 -9 0
-7 -124 0
-7 -122 0
-7 -118 0
-7 -117 0
-7 -107 0
-7 -106 0
-7 -101 0
-7 -100 0
-7 -92 0
-7 -88 0
-7 -85 0
-7 -73 0
-7 -69 0
-7 -67 0
-7 -54 0
-7 -39 0
-7 -32 0
-7 -18 0
-7 -16 0
-7 -10 0
-6 -130 0
-6 -128 0
-6 -122 0
-6 -121 0
-6 -107 0
-6 -89 0
-6 -70 0
-6 -66 0
-6 -57 0
-6 -47 0
-6 -46 0
-6 -44 0
-6 -40 0
-6 -37 0
-6 -31 0
-6 -29 0
-6 -27 0
-6 -26 0
-6 -23 0
-6 -19 0
-6 -14 0
-5 -132 0
-5 -129 0
-5 -126 0
-5 -125 0
-5 -115 0
-5 -108 0
-5 -101 0
-5 -90 0
-5 -86 0
-5 -81 0
-5 -80 0
-5 -69 0
-5 -65 0
-5 -60 0
-5 -58 0
-5 -49 0
-5 -46 0
-5 -24 0
-5 -19 0
-5 -13 0
-4 -132 0
-4 -125 0
-4 -120 0
-4 -114 0
-4 -112 0
-4 -111 0
-4 -104 0
-4 -97 0
-4 -83 0
-4 -71 0
-4 -67 0
-4 -63 0
-4 -62 0
-4 -57 0
-4 -43 0
-4 -37 0
-4 -25 0
-4 -20 0
-4 -18 0
-4 -9 0
-4 -8 0
-3 -131 0
-3 -128 0
-3 -113 0
-3 -112 0
-3 -106 0
-3 -102 0
-3 -97 0
-3 -94 0
-3 -91 0
-3 -90 0
-3 -89 0
-3 -80 0
-3 -78 0
-3 -77 0
-3 -45 0
-3 -39 0
-3 -38 0
-3 -34 0
-3 -22 0
-3 -12 0
-3 -11 0
-2 -124 0
-2 -114 0
-2 -107 0
-2 -106 0
-2 -103 0
-2 -101 0
-2 -100 0
-2 -96 0
-2 -94 0
-2 -87 0
-2 -76 0
-2 -60 0
-2 -55 0
-2 -54 0
-2 -52 0
-2 -32 0
-2 -31 0
-2 -18 0
-2 -16 0
-2 -15 0
-2 -7 0
-1 -129 0
-1 -126 0
-1 -125 0
-1 -115 0
-1 -113 0
-1 -103 0
-1 -101 0
-1 -93 0
-1 -81 0
-1 -80 0
-1 -74 0
-1 -59 0
-1 -58 0
-1 -53 0
-1 -47 0
-1 -36 0
-1 -24 0
-1 -19 0
-1 -10 0
-1 -8 0
-1 -5 0
1 8 10 36 47 53 59 74 93 103 113 0
2 7 16 18 32 54 100 101 106 107 124 0
3 22 34 39 77 80 89 91 94 112 131 0
4 20 25 37 67 71 83 97 114 120 125 0
5 13 46 49 60 65 69 86 90 108 132 0
6 19 26 27 29 31 44 57 66 122 128 0
9 23 35 42 72 87 99 102 109 118 126 0
11 21 28 50 52 58 62 70 105 117 119 0
12 30 40 43 55 56 61 88 98 110 115 0
14 17 38 82 84 92 95 96 111 116 129 0
15 33 45 48 51 63 73 79 81 123 130 0
24 41 64 68 75 76 78 85 104 121 127 0
