p cnf 132 1398
-128 -130 0
-128 -129 0
-126 -129 0
-126 -128 0
-125 -129 0
-125 -128 0
-125 -127 0
-125 -126 0
-124 -127 0
-124 -125 0
-123 -131 0
-122 -131 0
-122 -123 0
-121 -122 0
-120 -126 0
-119 -132 0
-119 -131 0
-118 -124 0
-117 -132 0
-117 -129 0
-116 -129 0
-116 -122 0
-116 -121 0
-116 -117 0
-115 -124 0
-115 -118 0
-114 -126 0
-114 -120 0
-113 -118 0
-112 -132 0
-112 -122 0
-112 -121 0
-112 -119 0
-112 -116 0
-111 -131 0
-111 -126 0
-111 -120 0
-111 -119 0
-111 -114 0
-110 -132 0
-110 -131 0
-110 -123 0
-110 -122 0
-110 -117 0
-109 -127 0
-109 -125 0
-109 -124 0
-109 -120 0
-108 -115 0
-108 -114 0
-107 -131 0
-107 -130 0
-107 -128 0
-107 -119 0
-107 -111 0
-106 -129 0
-106 -117 0
-106 -116 0
-106 -114 0
-106 -108 0
-105 -131 0
-105 -123 0
-105 -122 0
-105 -120 0
-105 -110 0
-105 -109 0
-104 -132 0
-104 -129 0
-104 -128 0
-104 -126 0
-104 -125 0
-104 -119 0
-104 -112 0
-103 -131 0
-103 -123 0
-103 -122 0
-103 -110 0
-103 -105 0
-102 -130 0
-102 -128 0
-102 -127 0
-102 -107 0
-101 -127 0
-101 -125 0
-101 -124 0
-101 -122 0
-101 -121 0
-101 -116 0
-101 -112 0
-101 -109 0
-100 -130 0
-100 -128 0
-100 -114 0
-100 -108 0
-100 -107 0
-100 -106 0
-100 -102 0
-99 -115 0
-99 -113 0
-99 -108 0
-98 -131 0
-98 -127 0
-98 -125 0
-98 -124 0
-98 -119 0
-98 -111 0
-98 -109 0
-98 -107 0
-98 -101 0
-97 -131 0
-97 -129 0
-97 -119 0
-97 -117 0
-97 -116 0
-97 -111 0
-97 -107 0
-97 -106 0
-97 -98 0
-96 -120 0
-96 -118 0
-96 -113 0
-96 -109 0
-96 -105 0
-95 -127 0
-95 -115 0
-95 -108 0
-95 -102 0
-95 -99 0
-94 -130 0
-94 -128 0
-94 -124 0
-94 -118 0
-94 -115 0
-94 -107 0
-94 -102 0
-94 -100 0
-93 -130 0
-93 -128 0
-93 -120 0
-93 -109 0
-93 -107 0
-93 -105 0
-93 -102 0
-93 -100 0
-93 -96 0
-93 -94 0
-92 -113 0
-92 -99 0
-91 -131 0
-91 -130 0
-91 -123 0
-91 -122 0
-91 -110 0
-91 -105 0
-91 -103 0
-90 -132 0
-90 -119 0
-90 -113 0
-90 -112 0
-90 -104 0
-90 -99 0
-90 -92 0
-89 -129 0
-89 -120 0
-89 -117 0
-89 -116 0
-89 -109 0
-89 -106 0
-89 -105 0
-89 -97 0
-89 -96 0
-89 -93 0
-88 -131 0
-88 -124 0
-88 -123 0
-88 -122 0
-88 -118 0
-88 -115 0
-88 -110 0
-88 -105 0
-88 -103 0
-88 -94 0
-88 -91 0
-87 -130 0
-87 -92 0
-87 -91 0
-86 -132 0
-86 -117 0
-86 -110 0
-86 -92 0
-86 -87 0
-85 -118 0
-85 -113 0
-85 -103 0
-85 -96 0
-84 -121 0
-84 -113 0
-84 -99 0
-84 -92 0
-84 -90 0
-83 -122 0
-83 -121 0
-83 -118 0
-83 -116 0
-83 -113 0
-83 -112 0
-83 -101 0
-83 -96 0
-83 -85 0
-82 -130 0
-82 -91 0
-82 -87 0
-81 -130 0
-81 -121 0
-81 -91 0
-81 -87 0
-81 -84 0
-81 -82 0
-80 -130 0
-80 -128 0
-80 -107 0
-80 -103 0
-80 -102 0
-80 -100 0
-80 -94 0
-80 -93 0
-80 -85 0
-79 -103 0
-79 -85 0
-79 -82 0
-79 -80 0
-78 -121 0
-78 -103 0
-78 -85 0
-78 -84 0
-78 -81 0
-78 -80 0
-78 -79 0
-77 -127 0
-77 -125 0
-77 -124 0
-77 -113 0
-77 -109 0
-77 -101 0
-77 -99 0
-77 -98 0
-77 -92 0
-77 -90 0
-77 -84 0
-76 -129 0
-76 -123 0
-76 -117 0
-76 -116 0
-76 -106 0
-76 -97 0
-76 -89 0
-75 -132 0
-75 -124 0
-75 -119 0
-75 -118 0
-75 -115 0
-75 -112 0
-75 -104 0
-75 -94 0
-75 -90 0
-75 -88 0
-74 -132 0
-74 -127 0
-74 -119 0
-74 -112 0
-74 -104 0
-74 -102 0
-74 -95 0
-74 -90 0
-74 -75 0
-73 -129 0
-73 -128 0
-73 -126 0
-73 -125 0
-73 -118 0
-73 -113 0
-73 -104 0
-73 -96 0
-73 -85 0
-73 -83 0
-72 -121 0
-72 -120 0
-72 -109 0
-72 -105 0
-72 -96 0
-72 -93 0
-72 -89 0
-72 -84 0
-72 -81 0
-72 -78 0
-71 -132 0
-71 -117 0
-71 -110 0
-71 -86 0
-71 -82 0
-71 -79 0
-70 -132 0
-70 -130 0
-70 -128 0
-70 -117 0
-70 -110 0
-70 -107 0
-70 -102 0
-70 -100 0
-70 -94 0
-70 -93 0
-70 -86 0
-70 -80 0
-70 -71 0
-69 -129 0
-69 -128 0
-69 -126 0
-69 -125 0
-69 -104 0
-69 -82 0
-69 -79 0
-69 -73 0
-69 -71 0
-68 -127 0
-68 -102 0
-68 -95 0
-68 -92 0
-68 -87 0
-68 -86 0
-68 -74 0
-67 -130 0
-67 -127 0
-67 -125 0
-67 -124 0
-67 -109 0
-67 -101 0
-67 -98 0
-67 -91 0
-67 -87 0
-67 -82 0
-67 -81 0
-67 -77 0
-66 -127 0
-66 -126 0
-66 -120 0
-66 -114 0
-66 -111 0
-66 -102 0
-66 -95 0
-66 -74 0
-66 -68 0
-65 -120 0
-65 -109 0
-65 -105 0
-65 -96 0
-65 -93 0
-65 -92 0
-65 -89 0
-65 -87 0
-65 -86 0
-65 -72 0
-65 -68 0
-64 -126 0
-64 -120 0
-64 -114 0
-64 -111 0
-64 -103 0
-64 -85 0
-64 -80 0
-64 -79 0
-64 -78 0
-64 -66 0
-63 -114 0
-63 -108 0
-63 -106 0
-63 -100 0
-63 -82 0
-63 -79 0
-63 -71 0
-63 -69 0
-62 -127 0
-62 -125 0
-62 -124 0
-62 -109 0
-62 -103 0
-62 -101 0
-62 -98 0
-62 -85 0
-62 -80 0
-62 -79 0
-62 -78 0
-62 -77 0
-62 -67 0
-62 -64 0
-61 -132 0
-61 -130 0
-61 -119 0
-61 -112 0
-61 -104 0
-61 -91 0
-61 -90 0
-61 -87 0
-61 -82 0
-61 -81 0
-61 -75 0
-61 -74 0
-61 -67 0
-60 -132 0
-60 -120 0
-60 -119 0
-60 -112 0
-60 -109 0
-60 -105 0
-60 -104 0
-60 -96 0
-60 -93 0
-60 -90 0
-60 -89 0
-60 -75 0
-60 -74 0
-60 -72 0
-60 -65 0
-60 -61 0
-59 -115 0
-59 -108 0
-59 -103 0
-59 -99 0
-59 -95 0
-59 -85 0
-59 -80 0
-59 -79 0
-59 -78 0
-59 -64 0
-59 -62 0
-58 -130 0
-58 -126 0
-58 -120 0
-58 -114 0
-58 -111 0
-58 -91 0
-58 -87 0
-58 -82 0
-58 -81 0
-58 -67 0
-58 -66 0
-58 -64 0
-58 -61 0
-57 -122 0
-57 -121 0
-57 -116 0
-57 -112 0
-57 -101 0
-57 -83 0
-57 -82 0
-57 -79 0
-57 -71 0
-57 -69 0
-57 -63 0
-56 -132 0
-56 -117 0
-56 -115 0
-56 -110 0
-56 -108 0
-56 -99 0
-56 -95 0
-56 -86 0
-56 -71 0
-56 -70 0
-56 -59 0
-55 -126 0
-55 -120 0
-55 -114 0
-55 -113 0
-55 -111 0
-55 -99 0
-55 -92 0
-55 -90 0
-55 -84 0
-55 -77 0
-55 -66 0
-55 -64 0
-55 -58 0
-54 -121 0
-54 -114 0
-54 -108 0
-54 -106 0
-54 -100 0
-54 -84 0
-54 -81 0
-54 -78 0
-54 -72 0
-54 -63 0
-53 -129 0
-53 -128 0
-53 -126 0
-53 -125 0
-53 -121 0
-53 -104 0
-53 -84 0
-53 -81 0
-53 -78 0
-53 -73 0
-53 -72 0
-53 -69 0
-53 -54 0
-52 -123 0
-52 -82 0
-52 -79 0
-52 -76 0
-52 -71 0
-52 -69 0
-52 -63 0
-52 -57 0
-51 -123 0
-51 -118 0
-51 -113 0
-51 -96 0
-51 -85 0
-51 -83 0
-51 -76 0
-51 -73 0
-51 -52 0
-50 -130 0
-50 -118 0
-50 -113 0
-50 -96 0
-50 -91 0
-50 -87 0
-50 -85 0
-50 -83 0
-50 -82 0
-50 -81 0
-50 -73 0
-50 -67 0
-50 -61 0
-50 -58 0
-50 -51 0
-49 -131 0
-49 -127 0
-49 -123 0
-49 -122 0
-49 -110 0
-49 -105 0
-49 -103 0
-49 -102 0
-49 -95 0
-49 -91 0
-49 -88 0
-49 -74 0
-49 -68 0
-49 -66 0
-48 -122 0
-48 -121 0
-48 -116 0
-48 -115 0
-48 -112 0
-48 -108 0
-48 -101 0
-48 -99 0
-48 -95 0
-48 -83 0
-48 -59 0
-48 -57 0
-48 -56 0
-47 -126 0
-47 -123 0
-47 -120 0
-47 -114 0
-47 -111 0
-47 -76 0
-47 -66 0
-47 -64 0
-47 -58 0
-47 -55 0
-47 -52 0
-47 -51 0
-46 -132 0
-46 -119 0
-46 -112 0
-46 -104 0
-46 -103 0
-46 -90 0
-46 -85 0
-46 -80 0
-46 -79 0
-46 -78 0
-46 -75 0
-46 -74 0
-46 -64 0
-46 -62 0
-46 -61 0
-46 -60 0
-46 -59 0
-45 -127 0
-45 -125 0
-45 -124 0
-45 -114 0
-45 -109 0
-45 -108 0
-45 -106 0
-45 -101 0
-45 -100 0
-45 -98 0
-45 -77 0
-45 -67 0
-45 -63 0
-45 -62 0
-45 -54 0
-44 -129 0
-44 -124 0
-44 -118 0
-44 -117 0
-44 -116 0
-44 -115 0
-44 -106 0
-44 -97 0
-44 -94 0
-44 -89 0
-44 -88 0
-44 -76 0
-44 -75 0
-43 -127 0
-43 -121 0
-43 -102 0
-43 -95 0
-43 -84 0
-43 -81 0
-43 -78 0
-43 -74 0
-43 -72 0
-43 -68 0
-43 -66 0
-43 -54 0
-43 -53 0
-43 -49 0
-42 -123 0
-42 -92 0
-42 -87 0
-42 -86 0
-42 -76 0
-42 -68 0
-42 -65 0
-42 -52 0
-42 -51 0
-42 -47 0
-41 -118 0
-41 -114 0
-41 -113 0
-41 -108 0
-41 -106 0
-41 -100 0
-41 -96 0
-41 -85 0
-41 -83 0
-41 -73 0
-41 -63 0
-41 -54 0
-41 -51 0
-41 -50 0
-41 -45 0
-40 -127 0
-40 -118 0
-40 -113 0
-40 -102 0
-40 -96 0
-40 -95 0
-40 -85 0
-40 -83 0
-40 -74 0
-40 -73 0
-40 -68 0
-40 -66 0
-40 -51 0
-40 -50 0
-40 -49 0
-40 -43 0
-40 -41 0
-39 -124 0
-39 -118 0
-39 -115 0
-39 -94 0
-39 -92 0
-39 -88 0
-39 -87 0
-39 -86 0
-39 -75 0
-39 -68 0
-39 -65 0
-39 -44 0
-39 -42 0
-38 -113 0
-38 -99 0
-38 -92 0
-38 -90 0
-38 -84 0
-38 -82 0
-38 -79 0
-38 -77 0
-38 -71 0
-38 -69 0
-38 -63 0
-38 -57 0
-38 -55 0
-38 -52 0
-37 -131 0
-37 -129 0
-37 -128 0
-37 -126 0
-37 -125 0
-37 -123 0
-37 -122 0
-37 -110 0
-37 -105 0
-37 -104 0
-37 -103 0
-37 -91 0
-37 -88 0
-37 -73 0
-37 -69 0
-37 -53 0
-37 -49 0
-36 -132 0
-36 -119 0
-36 -114 0
-36 -112 0
-36 -108 0
-36 -106 0
-36 -104 0
-36 -100 0
-36 -90 0
-36 -75 0
-36 -74 0
-36 -63 0
-36 -61 0
-36 -60 0
-36 -54 0
-36 -46 0
-36 -45 0
-36 -41 0
-35 -130 0
-35 -128 0
-35 -123 0
-35 -107 0
-35 -102 0
-35 -100 0
-35 -94 0
-35 -93 0
-35 -80 0
-35 -76 0
-35 -70 0
-35 -52 0
-35 -51 0
-35 -47 0
-35 -42 0
-34 -129 0
-34 -128 0
-34 -126 0
-34 -125 0
-34 -115 0
-34 -108 0
-34 -104 0
-34 -99 0
-34 -95 0
-34 -73 0
-34 -69 0
-34 -59 0
-34 -56 0
-34 -53 0
-34 -48 0
-34 -37 0
-33 -124 0
-33 -118 0
-33 -115 0
-33 -94 0
-33 -88 0
-33 -82 0
-33 -79 0
-33 -75 0
-33 -71 0
-33 -69 0
-33 -63 0
-33 -57 0
-33 -52 0
-33 -44 0
-33 -39 0
-33 -38 0
-32 -122 0
-32 -121 0
-32 -116 0
-32 -112 0
-32 -101 0
-32 -92 0
-32 -87 0
-32 -86 0
-32 -83 0
-32 -68 0
-32 -65 0
-32 -57 0
-32 -48 0
-32 -42 0
-32 -39 0
-31 -103 0
-31 -92 0
-31 -87 0
-31 -86 0
-31 -85 0
-31 -80 0
-31 -79 0
-31 -78 0
-31 -68 0
-31 -65 0
-31 -64 0
-31 -62 0
-31 -59 0
-31 -46 0
-31 -42 0
-31 -39 0
-31 -32 0
-30 -127 0
-30 -125 0
-30 -124 0
-30 -123 0
-30 -109 0
-30 -101 0
-30 -98 0
-30 -77 0
-30 -76 0
-30 -67 0
-30 -62 0
-30 -52 0
-30 -51 0
-30 -47 0
-30 -45 0
-30 -42 0
-30 -35 0
-29 -126 0
-29 -122 0
-29 -121 0
-29 -120 0
-29 -116 0
-29 -114 0
-29 -112 0
-29 -111 0
-29 -101 0
-29 -83 0
-29 -66 0
-29 -64 0
-29 -58 0
-29 -57 0
-29 -55 0
-29 -48 0
-29 -47 0
-29 -32 0
-28 -130 0
-28 -115 0
-28 -108 0
-28 -99 0
-28 -95 0
-28 -91 0
-28 -87 0
-28 -82 0
-28 -81 0
-28 -67 0
-28 -61 0
-28 -59 0
-28 -58 0
-28 -56 0
-28 -50 0
-28 -48 0
-28 -34 0
-27 -131 0
-27 -119 0
-27 -115 0
-27 -111 0
-27 -108 0
-27 -107 0
-27 -99 0
-27 -98 0
-27 -97 0
-27 -95 0
-27 -59 0
-27 -56 0
-27 -48 0
-27 -34 0
-27 -28 0
-26 -132 0
-26 -127 0
-26 -125 0
-26 -124 0
-26 -117 0
-26 -110 0
-26 -109 0
-26 -101 0
-26 -98 0
-26 -86 0
-26 -77 0
-26 -71 0
-26 -70 0
-26 -67 0
-26 -62 0
-26 -56 0
-26 -45 0
-26 -30 0
-25 -132 0
-25 -126 0
-25 -120 0
-25 -117 0
-25 -114 0
-25 -111 0
-25 -110 0
-25 -86 0
-25 -71 0
-25 -70 0
-25 -66 0
-25 -64 0
-25 -58 0
-25 -56 0
-25 -55 0
-25 -47 0
-25 -29 0
-25 -26 0
-24 -127 0
-24 -102 0
-24 -95 0
-24 -82 0
-24 -79 0
-24 -74 0
-24 -71 0
-24 -69 0
-24 -68 0
-24 -66 0
-24 -63 0
-24 -57 0
-24 -52 0
-24 -49 0
-24 -43 0
-24 -40 0
-24 -38 0
-24 -33 0
-23 -129 0
-23 -128 0
-23 -126 0
-23 -125 0
-23 -104 0
-23 -92 0
-23 -87 0
-23 -86 0
-23 -73 0
-23 -69 0
-23 -68 0
-23 -65 0
-23 -53 0
-23 -42 0
-23 -39 0
-23 -37 0
-23 -34 0
-23 -32 0
-23 -31 0
-22 -132 0
-22 -123 0
-22 -119 0
-22 -112 0
-22 -104 0
-22 -90 0
-22 -76 0
-22 -75 0
-22 -74 0
-22 -61 0
-22 -60 0
-22 -52 0
-22 -51 0
-22 -47 0
-22 -46 0
-22 -42 0
-22 -36 0
-22 -35 0
-22 -30 0
-21 -131 0
-21 -121 0
-21 -119 0
-21 -111 0
-21 -107 0
-21 -98 0
-21 -97 0
-21 -84 0
-21 -81 0
-21 -78 0
-21 -72 0
-21 -54 0
-21 -53 0
-21 -43 0
-21 -27 0
-20 -131 0
-20 -119 0
-20 -118 0
-20 -113 0
-20 -111 0
-20 -107 0
-20 -98 0
-20 -97 0
-20 -96 0
-20 -85 0
-20 -83 0
-20 -73 0
-20 -51 0
-20 -50 0
-20 -41 0
-20 -40 0
-20 -27 0
-20 -21 0
-19 -129 0
-19 -117 0
-19 -116 0
-19 -106 0
-19 -103 0
-19 -97 0
-19 -89 0
-19 -85 0
-19 -80 0
-19 -79 0
-19 -78 0
-19 -76 0
-19 -64 0
-19 -62 0
-19 -59 0
-19 -46 0
-19 -44 0
-19 -31 0
-18 -126 0
-18 -124 0
-18 -120 0
-18 -118 0
-18 -115 0
-18 -114 0
-18 -111 0
-18 -94 0
-18 -88 0
-18 -75 0
-18 -66 0
-18 -64 0
-18 -58 0
-18 -55 0
-18 -47 0
-18 -44 0
-18 -39 0
-18 -33 0
-18 -29 0
-18 -25 0
-17 -120 0
-17 -115 0
-17 -109 0
-17 -108 0
-17 -105 0
-17 -99 0
-17 -96 0
-17 -95 0
-17 -93 0
-17 -89 0
-17 -72 0
-17 -65 0
-17 -60 0
-17 -59 0
-17 -56 0
-17 -48 0
-17 -34 0
-17 -28 0
-17 -27 0
-16 -130 0
-16 -129 0
-16 -117 0
-16 -116 0
-16 -106 0
-16 -97 0
-16 -91 0
-16 -89 0
-16 -87 0
-16 -82 0
-16 -81 0
-16 -76 0
-16 -67 0
-16 -61 0
-16 -58 0
-16 -50 0
-16 -44 0
-16 -28 0
-16 -19 0
-15 -131 0
-15 -119 0
-15 -111 0
-15 -107 0
-15 -98 0
-15 -97 0
-15 -92 0
-15 -87 0
-15 -86 0
-15 -68 0
-15 -65 0
-15 -42 0
-15 -39 0
-15 -32 0
-15 -31 0
-15 -27 0
-15 -23 0
-15 -21 0
-15 -20 0
-14 -129 0
-14 -117 0
-14 -116 0
-14 -113 0
-14 -106 0
-14 -99 0
-14 -97 0
-14 -92 0
-14 -90 0
-14 -89 0
-14 -84 0
-14 -77 0
-14 -76 0
-14 -55 0
-14 -44 0
-14 -38 0
-14 -19 0
-14 -16 0
-13 -130 0
-13 -128 0
-13 -122 0
-13 -121 0
-13 -116 0
-13 -112 0
-13 -107 0
-13 -102 0
-13 -101 0
-13 -100 0
-13 -94 0
-13 -93 0
-13 -83 0
-13 -80 0
-13 -70 0
-13 -57 0
-13 -48 0
-13 -35 0
-13 -32 0
-13 -29 0
-12 -131 0
-12 -123 0
-12 -122 0
-12 -114 0
-12 -110 0
-12 -108 0
-12 -106 0
-12 -105 0
-12 -103 0
-12 -100 0
-12 -91 0
-12 -88 0
-12 -63 0
-12 -54 0
-12 -49 0
-12 -45 0
-12 -41 0
-12 -37 0
-12 -36 0
-11 -131 0
-11 -119 0
-11 -111 0
-11 -107 0
-11 -98 0
-11 -97 0
-11 -82 0
-11 -79 0
-11 -71 0
-11 -69 0
-11 -63 0
-11 -57 0
-11 -52 0
-11 -38 0
-11 -33 0
-11 -27 0
-11 -24 0
-11 -21 0
-11 -20 0
-11 -15 0
-10 -132 0
-10 -118 0
-10 -117 0
-10 -113 0
-10 -110 0
-10 -96 0
-10 -86 0
-10 -85 0
-10 -83 0
-10 -73 0
-10 -71 0
-10 -70 0
-10 -56 0
-10 -51 0
-10 -50 0
-10 -41 0
-10 -40 0
-10 -26 0
-10 -25 0
-10 -20 0
-9 -123 0
-9 -121 0
-9 -84 0
-9 -81 0
-9 -78 0
-9 -76 0
-9 -72 0
-9 -54 0
-9 -53 0
-9 -52 0
-9 -51 0
-9 -47 0
-9 -43 0
-9 -42 0
-9 -35 0
-9 -30 0
-9 -22 0
-9 -21 0
-8 -129 0
-8 -127 0
-8 -117 0
-8 -116 0
-8 -106 0
-8 -102 0
-8 -97 0
-8 -95 0
-8 -89 0
-8 -76 0
-8 -74 0
-8 -68 0
-8 -66 0
-8 -49 0
-8 -44 0
-8 -43 0
-8 -40 0
-8 -24 0
-8 -19 0
-8 -16 0
-8 -14 0
-7 -131 0
-7 -123 0
-7 -122 0
-7 -113 0
-7 -110 0
-7 -105 0
-7 -103 0
-7 -99 0
-7 -92 0
-7 -91 0
-7 -90 0
-7 -88 0
-7 -84 0
-7 -77 0
-7 -55 0
-7 -49 0
-7 -38 0
-7 -37 0
-7 -14 0
-7 -12 0
-6 -124 0
-6 -121 0
-6 -118 0
-6 -115 0
-6 -94 0
-6 -88 0
-6 -84 0
-6 -81 0
-6 -78 0
-6 -75 0
-6 -72 0
-6 -54 0
-6 -53 0
-6 -44 0
-6 -43 0
-6 -39 0
-6 -33 0
-6 -21 0
-6 -18 0
-6 -9 0
-5 -130 0
-5 -128 0
-5 -113 0
-5 -107 0
-5 -102 0
-5 -100 0
-5 -99 0
-5 -94 0
-5 -93 0
-5 -92 0
-5 -90 0
-5 -84 0
-5 -80 0
-5 -77 0
-5 -70 0
-5 -55 0
-5 -38 0
-5 -35 0
-5 -14 0
-5 -13 0
-5 -7 0
-4 -114 0
-4 -108 0
-4 -106 0
-4 -100 0
-4 -92 0
-4 -87 0
-4 -86 0
-4 -68 0
-4 -65 0
-4 -63 0
-4 -54 0
-4 -45 0
-4 -42 0
-4 -41 0
-4 -39 0
-4 -36 0
-4 -32 0
-4 -31 0
-4 -23 0
-4 -15 0
-4 -12 0
-3 -123 0
-3 -115 0
-3 -108 0
-3 -99 0
-3 -95 0
-3 -76 0
-3 -59 0
-3 -56 0
-3 -52 0
-3 -51 0
-3 -48 0
-3 -47 0
-3 -42 0
-3 -35 0
-3 -34 0
-3 -30 0
-3 -28 0
-3 -27 0
-3 -22 0
-3 -17 0
-3 -9 0
-2 -120 0
-2 -109 0
-2 -105 0
-2 -96 0
-2 -93 0
-2 -89 0
-2 -82 0
-2 -79 0
-2 -72 0
-2 -71 0
-2 -69 0
-2 -65 0
-2 -63 0
-2 -60 0
-2 -57 0
-2 -52 0
-2 -38 0
-2 -33 0
-2 -24 0
-2 -17 0
-2 -11 0
-1 -132 0
-1 -121 0
-1 -117 0
-1 -110 0
-1 -86 0
-1 -84 0
-1 -81 0
-1 -78 0
-1 -72 0
-1 -71 0
-1 -70 0
-1 -56 0
-1 -54 0
-1 -53 0
-1 -43 0
-1 -26 0
-1 -25 0
-1 -21 0
-1 -10 0
-1 -9 0
-1 -6 0
1 10 25 26 56 70 71 86 110 117 132 0
2 17 60 65 72 89 93 96 105 109 120 0
3 9 22 30 35 42 47 51 52 76 123 0
4 12 36 41 45 54 63 100 106 108 114 0
5 7 14 38 55 77 84 90 92 99 113 0
6 18 33 39 44 75 88 94 115 118 124 0
8 24 40 43 49 66 68 74 95 102 127 0
11 15 20 21 27 97 98 107 111 119 131 0
13 29 32 48 57 83 101 112 116 121 122 0
16 28 50 58 61 67 81 82 87 91 130 0
19 31 46 59 62 64 78 79 80 85 103 0
23 34 37 53 69 73 104 125 126 128 129 0
