p cnf 90 775
-87 -89 0
-85 -90 0
-83 -86 0
-82 -90 0
-82 -86 0
-82 -83 0
-80 -90 0
-80 -85 0
-80 -81 0
-79 -85 0
-78 -83 0
-78 -79 0
-77 -90 0
-77 -85 0
-77 -83 0
-77 -80 0
-77 -78 0
-76 -81 0
-76 -80 0
-76 -79 0
-76 -78 0
-75 -89 0
-74 -89 0
-74 -87 0
-74 -81 0
-74 -80 0
-74 -76 0
-73 -90 0
-73 -88 0
-73 -82 0
-72 -88 0
-72 -81 0
-72 -80 0
-72 -76 0
-72 -74 0
-72 -73 0
-71 -86 0
-71 -83 0
-71 -82 0
-71 -81 0
-71 -80 0
-71 -76 0
-71 -74 0
-71 -72 0
-70 -89 0
-70 -88 0
-70 -87 0
-70 -74 0
-69 -88 0
-69 -75 0
-69 -70 0
-68 -87 0
-68 -84 0
-67 -83 0
-67 -78 0
-67 -77 0
-66 -87 0
-66 -79 0
-66 -78 0
-66 -76 0
-66 -68 0
-65 -85 0
-65 -84 0
-65 -79 0
-65 -68 0
-64 -90 0
-64 -86 0
-64 -85 0
-64 -80 0
-64 -77 0
-63 -88 0
-63 -86 0
-63 -73 0
-63 -72 0
-63 -64 0
-62 -86 0
-62 -81 0
-62 -64 0
-62 -63 0
-61 -89 0
-61 -87 0
-61 -85 0
-61 -79 0
-61 -74 0
-61 -70 0
-61 -65 0
-60 -85 0
-60 -79 0
-60 -67 0
-60 -65 0
-60 -61 0
-59 -89 0
-59 -84 0
-59 -75 0
-59 -68 0
-59 -65 0
-58 -90 0
-58 -87 0
-58 -85 0
-58 -80 0
-58 -77 0
-58 -68 0
-58 -66 0
-58 -64 0
-57 -86 0
-57 -64 0
-57 -63 0
-57 -62 0
-56 -86 0
-56 -84 0
-56 -83 0
-56 -82 0
-56 -71 0
-55 -88 0
-55 -86 0
-55 -83 0
-55 -82 0
-55 -71 0
-55 -70 0
-55 -69 0
-55 -56 0
-54 -89 0
-54 -86 0
-54 -83 0
-54 -82 0
-54 -75 0
-54 -71 0
-54 -59 0
-54 -56 0
-54 -55 0
-53 -90 0
-53 -88 0
-53 -85 0
-53 -80 0
-53 -77 0
-53 -70 0
-53 -69 0
-53 -64 0
-53 -58 0
-53 -55 0
-52 -89 0
-52 -87 0
-52 -84 0
-52 -74 0
-52 -70 0
-52 -61 0
-52 -56 0
-51 -84 0
-51 -75 0
-51 -69 0
-51 -56 0
-51 -52 0
-50 -88 0
-50 -79 0
-50 -78 0
-50 -76 0
-50 -70 0
-50 -69 0
-50 -66 0
-50 -55 0
-50 -53 0
-49 -87 0
-49 -68 0
-49 -66 0
-49 -58 0
-49 -57 0
-48 -88 0
-48 -81 0
-48 -70 0
-48 -69 0
-48 -62 0
-48 -55 0
-48 -53 0
-48 -50 0
-47 -83 0
-47 -78 0
-47 -77 0
-47 -75 0
-47 -69 0
-47 -67 0
-47 -51 0
-46 -85 0
-46 -79 0
-46 -75 0
-46 -69 0
-46 -65 0
-46 -61 0
-46 -60 0
-46 -51 0
-46 -47 0
-45 -86 0
-45 -84 0
-45 -68 0
-45 -65 0
-45 -64 0
-45 -63 0
-45 -62 0
-45 -59 0
-45 -57 0
-44 -90 0
-44 -82 0
-44 -73 0
-44 -57 0
-44 -49 0
-43 -88 0
-43 -70 0
-43 -69 0
-43 -57 0
-43 -55 0
-43 -53 0
-43 -50 0
-43 -49 0
-43 -48 0
-43 -44 0
-42 -81 0
-42 -80 0
-42 -76 0
-42 -74 0
-42 -72 0
-42 -71 0
-42 -67 0
-42 -60 0
-41 -90 0
-41 -82 0
-41 -79 0
-41 -78 0
-41 -76 0
-41 -73 0
-41 -66 0
-41 -50 0
-41 -44 0
-40 -84 0
-40 -81 0
-40 -80 0
-40 -76 0
-40 -74 0
-40 -72 0
-40 -71 0
-40 -68 0
-40 -65 0
-40 -59 0
-40 -45 0
-40 -42 0
-39 -90 0
-39 -82 0
-39 -81 0
-39 -73 0
-39 -62 0
-39 -48 0
-39 -44 0
-39 -41 0
-38 -81 0
-38 -80 0
-38 -76 0
-38 -75 0
-38 -74 0
-38 -72 0
-38 -71 0
-38 -69 0
-38 -51 0
-38 -47 0
-38 -46 0
-38 -42 0
-38 -40 0
-37 -87 0
-37 -68 0
-37 -67 0
-37 -66 0
-37 -60 0
-37 -58 0
-37 -49 0
-37 -42 0
-36 -89 0
-36 -88 0
-36 -75 0
-36 -73 0
-36 -72 0
-36 -63 0
-36 -59 0
-36 -54 0
-35 -87 0
-35 -81 0
-35 -68 0
-35 -66 0
-35 -62 0
-35 -58 0
-35 -49 0
-35 -48 0
-35 -39 0
-35 -37 0
-34 -89 0
-34 -75 0
-34 -59 0
-34 -57 0
-34 -54 0
-34 -49 0
-34 -44 0
-34 -43 0
-34 -36 0
-33 -87 0
-33 -86 0
-33 -83 0
-33 -82 0
-33 -71 0
-33 -68 0
-33 -66 0
-33 -58 0
-33 -56 0
-33 -55 0
-33 -54 0
-33 -49 0
-33 -37 0
-33 -35 0
-32 -89 0
-32 -87 0
-32 -83 0
-32 -78 0
-32 -77 0
-32 -74 0
-32 -70 0
-32 -67 0
-32 -61 0
-32 -52 0
-32 -47 0
-31 -83 0
-31 -81 0
-31 -78 0
-31 -77 0
-31 -67 0
-31 -62 0
-31 -48 0
-31 -47 0
-31 -39 0
-31 -35 0
-31 -32 0
-30 -86 0
-30 -67 0
-30 -64 0
-30 -63 0
-30 -62 0
-30 -60 0
-30 -57 0
-30 -45 0
-30 -42 0
-30 -37 0
-29 -89 0
-29 -81 0
-29 -75 0
-29 -62 0
-29 -59 0
-29 -54 0
-29 -48 0
-29 -39 0
-29 -36 0
-29 -35 0
-29 -34 0
-29 -31 0
-28 -88 0
-28 -87 0
-28 -73 0
-28 -72 0
-28 -68 0
-28 -66 0
-28 -63 0
-28 -58 0
-28 -49 0
-28 -37 0
-28 -36 0
-28 -35 0
-28 -33 0
-27 -85 0
-27 -81 0
-27 -79 0
-27 -65 0
-27 -62 0
-27 -61 0
-27 -60 0
-27 -48 0
-27 -46 0
-27 -39 0
-27 -35 0
-27 -31 0
-27 -29 0
-26 -90 0
-26 -82 0
-26 -73 0
-26 -67 0
-26 -60 0
-26 -44 0
-26 -42 0
-26 -41 0
-26 -39 0
-26 -37 0
-26 -30 0
-25 -83 0
-25 -78 0
-25 -77 0
-25 -67 0
-25 -57 0
-25 -49 0
-25 -47 0
-25 -44 0
-25 -43 0
-25 -34 0
-25 -32 0
-25 -31 0
-24 -88 0
-24 -85 0
-24 -79 0
-24 -73 0
-24 -72 0
-24 -65 0
-24 -63 0
-24 -61 0
-24 -60 0
-24 -46 0
-24 -36 0
-24 -28 0
-24 -27 0
-23 -86 0
-23 -75 0
-23 -69 0
-23 -64 0
-23 -63 0
-23 -62 0
-23 -57 0
-23 -51 0
-23 -47 0
-23 -46 0
-23 -45 0
-23 -38 0
-23 -30 0
-22 -89 0
-22 -75 0
-22 -67 0
-22 -60 0
-22 -59 0
-22 -54 0
-22 -42 0
-22 -37 0
-22 -36 0
-22 -34 0
-22 -30 0
-22 -29 0
-22 -26 0
-21 -90 0
-21 -89 0
-21 -85 0
-21 -80 0
-21 -77 0
-21 -75 0
-21 -64 0
-21 -59 0
-21 -58 0
-21 -54 0
-21 -53 0
-21 -36 0
-21 -34 0
-21 -29 0
-21 -22 0
-20 -88 0
-20 -84 0
-20 -70 0
-20 -69 0
-20 -68 0
-20 -65 0
-20 -59 0
-20 -55 0
-20 -53 0
-20 -50 0
-20 -48 0
-20 -45 0
-20 -43 0
-20 -40 0
-19 -88 0
-19 -84 0
-19 -73 0
-19 -72 0
-19 -63 0
-19 -56 0
-19 -52 0
-19 -51 0
-19 -36 0
-19 -28 0
-19 -24 0
-18 -90 0
-18 -85 0
-18 -84 0
-18 -80 0
-18 -77 0
-18 -64 0
-18 -58 0
-18 -56 0
-18 -53 0
-18 -52 0
-18 -51 0
-18 -21 0
-18 -19 0
-17 -84 0
-17 -81 0
-17 -62 0
-17 -56 0
-17 -52 0
-17 -51 0
-17 -48 0
-17 -39 0
-17 -35 0
-17 -31 0
-17 -29 0
-17 -27 0
-17 -19 0
-17 -18 0
-16 -90 0
-16 -82 0
-16 -75 0
-16 -73 0
-16 -69 0
-16 -51 0
-16 -47 0
-16 -46 0
-16 -44 0
-16 -41 0
-16 -39 0
-16 -38 0
-16 -26 0
-16 -23 0
-15 -88 0
-15 -70 0
-15 -69 0
-15 -67 0
-15 -60 0
-15 -55 0
-15 -53 0
-15 -50 0
-15 -48 0
-15 -43 0
-15 -42 0
-15 -37 0
-15 -30 0
-15 -26 0
-15 -22 0
-15 -20 0
-14 -90 0
-14 -84 0
-14 -82 0
-14 -73 0
-14 -68 0
-14 -65 0
-14 -59 0
-14 -45 0
-14 -44 0
-14 -41 0
-14 -40 0
-14 -39 0
-14 -26 0
-14 -20 0
-14 -16 0
-13 -90 0
-13 -89 0
-13 -87 0
-13 -82 0
-13 -74 0
-13 -73 0
-13 -70 0
-13 -61 0
-13 -52 0
-13 -44 0
-13 -41 0
-13 -39 0
-13 -32 0
-13 -26 0
-13 -16 0
-13 -14 0
-12 -89 0
-12 -79 0
-12 -78 0
-12 -76 0
-12 -75 0
-12 -66 0
-12 -59 0
-12 -54 0
-12 -50 0
-12 -41 0
-12 -36 0
-12 -34 0
-12 -29 0
-12 -22 0
-12 -21 0
-11 -86 0
-11 -79 0
-11 -78 0
-11 -76 0
-11 -66 0
-11 -64 0
-11 -63 0
-11 -62 0
-11 -57 0
-11 -50 0
-11 -45 0
-11 -41 0
-11 -30 0
-11 -23 0
-11 -12 0
-10 -88 0
-10 -83 0
-10 -78 0
-10 -77 0
-10 -73 0
-10 -72 0
-10 -67 0
-10 -63 0
-10 -47 0
-10 -36 0
-10 -32 0
-10 -31 0
-10 -28 0
-10 -25 0
-10 -24 0
-10 -19 0
-9 -85 0
-9 -79 0
-9 -65 0
-9 -61 0
-9 -60 0
-9 -57 0
-9 -49 0
-9 -46 0
-9 -44 0
-9 -43 0
-9 -34 0
-9 -27 0
-9 -25 0
-9 -24 0
-8 -87 0
-8 -75 0
-8 -69 0
-8 -68 0
-8 -66 0
-8 -58 0
-8 -51 0
-8 -49 0
-8 -47 0
-8 -46 0
-8 -38 0
-8 -37 0
-8 -35 0
-8 -33 0
-8 -28 0
-8 -23 0
-8 -16 0
-7 -84 0
-7 -57 0
-7 -56 0
-7 -52 0
-7 -51 0
-7 -49 0
-7 -44 0
-7 -43 0
-7 -34 0
-7 -25 0
-7 -19 0
-7 -18 0
-7 -17 0
-7 -9 0
-6 -84 0
-6 -67 0
-6 -60 0
-6 -56 0
-6 -52 0
-6 -51 0
-6 -42 0
-6 -37 0
-6 -30 0
-6 -26 0
-6 -22 0
-6 -19 0
-6 -18 0
-6 -17 0
-6 -15 0
-6 -7 0
-5 -89 0
-5 -87 0
-5 -86 0
-5 -74 0
-5 -70 0
-5 -64 0
-5 -63 0
-5 -62 0
-5 -61 0
-5 -57 0
-5 -52 0
-5 -45 0
-5 -32 0
-5 -30 0
-5 -23 0
-5 -13 0
-5 -11 0
-4 -81 0
-4 -80 0
-4 -76 0
-4 -74 0
-4 -72 0
-4 -71 0
-4 -57 0
-4 -49 0
-4 -44 0
-4 -43 0
-4 -42 0
-4 -40 0
-4 -38 0
-4 -34 0
-4 -25 0
-4 -9 0
-4 -7 0
-3 -84 0
-3 -83 0
-3 -78 0
-3 -77 0
-3 -68 0
-3 -67 0
-3 -65 0
-3 -59 0
-3 -47 0
-3 -45 0
-3 -40 0
-3 -32 0
-3 -31 0
-3 -25 0
-3 -20 0
-3 -14 0
-3 -10 0
-2 -84 0
-2 -79 0
-2 -78 0
-2 -76 0
-2 -66 0
-2 -56 0
-2 -52 0
-2 -51 0
-2 -50 0
-2 -41 0
-2 -19 0
-2 -18 0
-2 -17 0
-2 -12 0
-2 -11 0
-2 -7 0
-2 -6 0
-1 -86 0
-1 -85 0
-1 -83 0
-1 -82 0
-1 -79 0
-1 -71 0
-1 -65 0
-1 -61 0
-1 -60 0
-1 -56 0
-1 -55 0
-1 -54 0
-1 -46 0
-1 -33 0
-1 -27 0
-1 -24 0
-1 -9 0
1 33 54 55 56 71 82 83 86 0
2 11 12 41 50 66 76 78 79 0
3 14 20 40 45 59 65 68 84 0
4 7 9 25 34 43 44 49 57 0
5 13 32 52 61 70 74 87 89 0
6 15 22 26 30 37 42 60 67 0
8 16 23 38 46 47 51 69 75 0
10 19 24 28 36 63 72 73 88 0
17 27 29 31 35 39 48 62 81 0
18 21 53 58 64 77 80 85 90 0
