p cnf 56 372
-54 -56 0
-52 -56 0
-50 -52 0
-48 -55 0
-48 -52 0
-48 -50 0
-47 -55 0
-47 -49 0
-46 -56 0
-46 -52 0
-45 -51 0
-45 -49 0
-45 -47 0
-44 -56 0
-44 -54 0
-44 -53 0
-43 -51 0
-43 -49 0
-42 -54 0
-42 -49 0
-42 -43 0
-41 -56 0
-41 -53 0
-41 -52 0
-41 -46 0
-40 -51 0
-40 -46 0
-40 -43 0
-39 -49 0
-39 -47 0
-39 -46 0
-39 -45 0
-39 -40 0
-38 -53 0
-38 -51 0
-38 -43 0
-38 -41 0
-38 -40 0
-37 -56 0
-37 -55 0
-37 -52 0
-37 -47 0
-37 -46 0
-37 -41 0
-36 -56 0
-36 -54 0
-36 -51 0
-36 -44 0
-36 -43 0
-36 -40 0
-36 -38 0
-35 -55 0
-35 -54 0
-35 -47 0
-35 -42 0
-35 -37 0
-34 -51 0
-34 -43 0
-34 -40 0
-34 -38 0
-34 -36 0
-33 -56 0
-33 -52 0
-33 -49 0
-33 -46 0
-33 -43 0
-33 -42 0
-33 -41 0
-33 -37 0
-32 -50 0
-32 -49 0
-32 -43 0
-32 -42 0
-32 -33 0
-31 -54 0
-31 -52 0
-31 -50 0
-31 -48 0
-31 -42 0
-31 -35 0
-30 -52 0
-30 -51 0
-30 -50 0
-30 -48 0
-30 -43 0
-30 -40 0
-30 -38 0
-30 -36 0
-30 -34 0
-30 -31 0
-29 -52 0
-29 -50 0
-29 -49 0
-29 -48 0
-29 -47 0
-29 -45 0
-29 -39 0
-29 -31 0
-29 -30 0
-28 -53 0
-28 -46 0
-28 -44 0
-28 -40 0
-28 -39 0
-27 -50 0
-27 -46 0
-27 -40 0
-27 -39 0
-27 -32 0
-27 -28 0
-26 -55 0
-26 -48 0
-26 -34 0
-25 -55 0
-25 -48 0
-25 -46 0
-25 -40 0
-25 -39 0
-25 -28 0
-25 -27 0
-25 -26 0
-24 -56 0
-24 -54 0
-24 -50 0
-24 -44 0
-24 -36 0
-24 -32 0
-24 -27 0
-23 -56 0
-23 -52 0
-23 -46 0
-23 -41 0
-23 -37 0
-23 -34 0
-23 -33 0
-23 -26 0
-22 -49 0
-22 -47 0
-22 -45 0
-22 -39 0
-22 -34 0
-22 -29 0
-22 -26 0
-22 -23 0
-21 -50 0
-21 -34 0
-21 -32 0
-21 -27 0
-21 -26 0
-21 -24 0
-21 -23 0
-21 -22 0
-20 -56 0
-20 -54 0
-20 -49 0
-20 -47 0
-20 -45 0
-20 -44 0
-20 -39 0
-20 -36 0
-20 -29 0
-20 -24 0
-20 -22 0
-19 -56 0
-19 -52 0
-19 -51 0
-19 -46 0
-19 -45 0
-19 -41 0
-19 -37 0
-19 -33 0
-19 -23 0
-18 -53 0
-18 -52 0
-18 -50 0
-18 -48 0
-18 -44 0
-18 -31 0
-18 -30 0
-18 -29 0
-18 -28 0
-17 -54 0
-17 -46 0
-17 -42 0
-17 -40 0
-17 -39 0
-17 -35 0
-17 -31 0
-17 -28 0
-17 -27 0
-17 -25 0
-16 -56 0
-16 -55 0
-16 -54 0
-16 -48 0
-16 -44 0
-16 -36 0
-16 -26 0
-16 -25 0
-16 -24 0
-16 -20 0
-15 -54 0
-15 -42 0
-15 -35 0
-15 -34 0
-15 -31 0
-15 -26 0
-15 -23 0
-15 -22 0
-15 -21 0
-15 -17 0
-14 -53 0
-14 -44 0
-14 -34 0
-14 -28 0
-14 -26 0
-14 -23 0
-14 -22 0
-14 -21 0
-14 -18 0
-14 -15 0
-13 -55 0
-13 -53 0
-13 -47 0
-13 -44 0
-13 -37 0
-13 -35 0
-13 -28 0
-13 -18 0
-13 -14 0
-12 -54 0
-12 -53 0
-12 -42 0
-12 -41 0
-12 -38 0
-12 -35 0
-12 -31 0
-12 -17 0
-12 -15 0
-11 -55 0
-11 -51 0
-11 -48 0
-11 -45 0
-11 -26 0
-11 -25 0
-11 -19 0
-11 -16 0
-10 -55 0
-10 -53 0
-10 -48 0
-10 -41 0
-10 -38 0
-10 -26 0
-10 -25 0
-10 -16 0
-10 -12 0
-10 -11 0
-9 -54 0
-9 -51 0
-9 -45 0
-9 -42 0
-9 -35 0
-9 -31 0
-9 -19 0
-9 -17 0
-9 -15 0
-9 -12 0
-9 -11 0
-8 -55 0
-8 -51 0
-8 -47 0
-8 -43 0
-8 -40 0
-8 -38 0
-8 -37 0
-8 -36 0
-8 -35 0
-8 -34 0
-8 -30 0
-8 -13 0
-7 -53 0
-7 -50 0
-7 -41 0
-7 -38 0
-7 -32 0
-7 -27 0
-7 -24 0
-7 -21 0
-7 -12 0
-7 -10 0
-6 -53 0
-6 -49 0
-6 -47 0
-6 -45 0
-6 -41 0
-6 -39 0
-6 -38 0
-6 -29 0
-6 -22 0
-6 -20 0
-6 -12 0
-6 -10 0
-6 -7 0
-5 -53 0
-5 -49 0
-5 -44 0
-5 -43 0
-5 -42 0
-5 -33 0
-5 -32 0
-5 -28 0
-5 -18 0
-5 -14 0
-5 -13 0
-4 -53 0
-4 -51 0
-4 -45 0
-4 -44 0
-4 -28 0
-4 -19 0
-4 -18 0
-4 -14 0
-4 -13 0
-4 -11 0
-4 -9 0
-4 -5 0
-3 -55 0
-3 -50 0
-3 -47 0
-3 -37 0
-3 -35 0
-3 -32 0
-3 -27 0
-3 -24 0
-3 -21 0
-3 -13 0
-3 -8 0
-3 -7 0
-2 -51 0
-2 -50 0
-2 -45 0
-2 -32 0
-2 -27 0
-2 -24 0
-2 -21 0
-2 -19 0
-2 -11 0
-2 -9 0
-2 -7 0
-2 -4 0
-2 -3 0
-1 -55 0
-1 -49 0
-1 -48 0
-1 -43 0
-1 -42 0
-1 -33 0
-1 -32 0
-1 -26 0
-1 -25 0
-1 -16 0
-1 -11 0
-1 -10 0
-1 -5 0
1 5 32 33 42 43 49 0
2 4 9 11 19 45 51 0
3 8 13 35 37 47 55 0
6 7 10 12 38 41 53 0
14 15 21 22 23 26 34 0
16 20 24 36 44 54 56 0
17 25 27 28 39 40 46 0
18 29 30 31 48 50 52 0
