p cnf 110 1056
-108 -109 0
-107 -110 0
-106 -109 0
-106 -108 0
-105 -109 0
-104 -106 0
-103 -110 0
-102 -109 0
-102 -105 0
-100 -103 0
-99 -110 0
-99 -103 0
-98 -101 0
-98 -100 0
-97 -109 0
-97 -105 0
-97 -104 0
-97 -102 0
-96 -107 0
-95 -99 0
-94 -110 0
-94 -107 0
-94 -101 0
-93 -106 0
-93 -104 0
-93 -100 0
-93 -98 0
-92 -110 0
-92 -109 0
-92 -105 0
-92 -103 0
-92 -102 0
-92 -99 0
-92 -97 0
-91 -108 0
-91 -95 0
-90 -101 0
-90 -96 0
-90 -94 0
-89 -108 0
-89 -102 0
-89 -91 0
-88 -108 0
-88 -100 0
-88 -98 0
-88 -93 0
-88 -91 0
-88 -89 0
-87 -103 0
-87 -100 0
-87 -95 0
-87 -91 0
-85 -109 0
-85 -105 0
-85 -102 0
-85 -97 0
-85 -92 0
-84 -86 0
-84 -85 0
-83 -102 0
-83 -96 0
-83 -90 0
-83 -89 0
-82 -102 0
-82 -89 0
-82 -83 0
-81 -109 0
-81 -108 0
-81 -106 0
-81 -103 0
-81 -100 0
-81 -87 0
-80 -106 0
-80 -104 0
-80 -93 0
-80 -86 0
-79 -86 0
-79 -82 0
-79 -80 0
-78 -103 0
-78 -100 0
-78 -87 0
-78 -86 0
-78 -81 0
-78 -80 0
-78 -79 0
-77 -103 0
-77 -100 0
-77 -87 0
-77 -85 0
-77 -84 0
-77 -81 0
-77 -78 0
-76 -104 0
-76 -97 0
-76 -86 0
-76 -84 0
-75 -107 0
-75 -103 0
-75 -100 0
-75 -96 0
-75 -87 0
-75 -81 0
-75 -78 0
-75 -77 0
-74 -110 0
-74 -108 0
-74 -103 0
-74 -99 0
-74 -92 0
-74 -91 0
-74 -89 0
-74 -88 0
-73 -104 0
-73 -101 0
-73 -98 0
-73 -97 0
-73 -76 0
-72 -109 0
-72 -105 0
-72 -102 0
-72 -97 0
-72 -95 0
-72 -92 0
-72 -91 0
-72 -87 0
-72 -85 0
-71 -96 0
-71 -90 0
-71 -86 0
-71 -83 0
-71 -80 0
-71 -79 0
-71 -78 0
-70 -109 0
-70 -108 0
-70 -106 0
-70 -82 0
-70 -81 0
-70 -79 0
-69 -101 0
-69 -99 0
-69 -95 0
-69 -94 0
-69 -90 0
-68 -110 0
-68 -109 0
-68 -108 0
-68 -107 0
-68 -106 0
-68 -94 0
-68 -81 0
-68 -70 0
-67 -95 0
-67 -91 0
-67 -87 0
-67 -82 0
-67 -79 0
-67 -72 0
-67 -70 0
-66 -106 0
-66 -104 0
-66 -102 0
-66 -93 0
-66 -89 0
-66 -83 0
-66 -82 0
-66 -80 0
-65 -105 0
-65 -82 0
-65 -79 0
-65 -70 0
-65 -67 0
-64 -110 0
-64 -103 0
-64 -99 0
-64 -96 0
-64 -92 0
-64 -90 0
-64 -83 0
-64 -74 0
-64 -71 0
-63 -104 0
-63 -103 0
-63 -100 0
-63 -97 0
-63 -87 0
-63 -81 0
-63 -78 0
-63 -77 0
-63 -76 0
-63 -75 0
-63 -73 0
-62 -110 0
-62 -107 0
-62 -104 0
-62 -97 0
-62 -94 0
-62 -76 0
-62 -73 0
-62 -68 0
-62 -63 0
-61 -107 0
-61 -106 0
-61 -104 0
-61 -96 0
-61 -93 0
-61 -80 0
-61 -75 0
-61 -66 0
-60 -105 0
-60 -103 0
-60 -100 0
-60 -87 0
-60 -81 0
-60 -78 0
-60 -77 0
-60 -75 0
-60 -65 0
-60 -63 0
-59 -108 0
-59 -91 0
-59 -89 0
-59 -88 0
-59 -86 0
-59 -80 0
-59 -79 0
-59 -78 0
-59 -74 0
-59 -71 0
-58 -108 0
-58 -101 0
-58 -94 0
-58 -91 0
-58 -90 0
-58 -89 0
-58 -88 0
-58 -74 0
-58 -69 0
-58 -59 0
-57 -107 0
-57 -96 0
-57 -82 0
-57 -79 0
-57 -75 0
-57 -70 0
-57 -67 0
-57 -65 0
-57 -61 0
-56 -100 0
-56 -98 0
-56 -96 0
-56 -93 0
-56 -90 0
-56 -88 0
-56 -83 0
-56 -71 0
-56 -64 0
-55 -110 0
-55 -107 0
-55 -94 0
-55 -85 0
-55 -84 0
-55 -77 0
-55 -68 0
-55 -62 0
-54 -108 0
-54 -91 0
-54 -89 0
-54 -88 0
-54 -85 0
-54 -84 0
-54 -77 0
-54 -74 0
-54 -59 0
-54 -58 0
-54 -55 0
-53 -95 0
-53 -91 0
-53 -87 0
-53 -86 0
-53 -84 0
-53 -76 0
-53 -72 0
-53 -67 0
-52 -108 0
-52 -105 0
-52 -91 0
-52 -89 0
-52 -88 0
-52 -74 0
-52 -65 0
-52 -60 0
-52 -59 0
-52 -58 0
-52 -54 0
-51 -110 0
-51 -107 0
-51 -94 0
-51 -86 0
-51 -80 0
-51 -79 0
-51 -78 0
-51 -71 0
-51 -68 0
-51 -62 0
-51 -59 0
-51 -55 0
-50 -105 0
-50 -99 0
-50 -95 0
-50 -69 0
-50 -65 0
-50 -60 0
-50 -52 0
-49 -110 0
-49 -107 0
-49 -102 0
-49 -94 0
-49 -89 0
-49 -83 0
-49 -82 0
-49 -68 0
-49 -66 0
-49 -62 0
-49 -55 0
-49 -51 0
-48 -110 0
-48 -107 0
-48 -100 0
-48 -98 0
-48 -94 0
-48 -93 0
-48 -88 0
-48 -68 0
-48 -62 0
-48 -56 0
-48 -55 0
-48 -51 0
-48 -49 0
-47 -106 0
-47 -104 0
-47 -93 0
-47 -85 0
-47 -84 0
-47 -80 0
-47 -77 0
-47 -66 0
-47 -61 0
-47 -55 0
-47 -54 0
-46 -108 0
-46 -104 0
-46 -97 0
-46 -91 0
-46 -89 0
-46 -88 0
-46 -76 0
-46 -74 0
-46 -73 0
-46 -63 0
-46 -62 0
-46 -59 0
-46 -58 0
-46 -54 0
-46 -52 0
-45 -110 0
-45 -103 0
-45 -101 0
-45 -99 0
-45 -98 0
-45 -92 0
-45 -74 0
-45 -73 0
-45 -64 0
-44 -110 0
-44 -106 0
-44 -104 0
-44 -103 0
-44 -99 0
-44 -93 0
-44 -92 0
-44 -80 0
-44 -74 0
-44 -66 0
-44 -64 0
-44 -61 0
-44 -47 0
-44 -45 0
-43 -109 0
-43 -105 0
-43 -102 0
-43 -100 0
-43 -98 0
-43 -97 0
-43 -93 0
-43 -92 0
-43 -88 0
-43 -85 0
-43 -72 0
-43 -56 0
-43 -48 0
-42 -105 0
-42 -86 0
-42 -84 0
-42 -76 0
-42 -65 0
-42 -60 0
-42 -53 0
-42 -52 0
-42 -50 0
-41 -106 0
-41 -104 0
-41 -95 0
-41 -93 0
-41 -91 0
-41 -87 0
-41 -80 0
-41 -72 0
-41 -67 0
-41 -66 0
-41 -61 0
-41 -53 0
-41 -47 0
-41 -44 0
-40 -104 0
-40 -97 0
-40 -82 0
-40 -79 0
-40 -76 0
-40 -73 0
-40 -70 0
-40 -67 0
-40 -65 0
-40 -63 0
-40 -62 0
-40 -57 0
-40 -46 0
-39 -102 0
-39 -101 0
-39 -98 0
-39 -89 0
-39 -83 0
-39 -82 0
-39 -73 0
-39 -66 0
-39 -49 0
-39 -45 0
-38 -107 0
-38 -101 0
-38 -98 0
-38 -96 0
-38 -75 0
-38 -73 0
-38 -61 0
-38 -57 0
-38 -45 0
-38 -39 0
-37 -103 0
-37 -102 0
-37 -100 0
-37 -89 0
-37 -87 0
-37 -83 0
-37 -82 0
-37 -81 0
-37 -78 0
-37 -77 0
-37 -75 0
-37 -66 0
-37 -63 0
-37 -60 0
-37 -49 0
-37 -39 0
-36 -104 0
-36 -99 0
-36 -97 0
-36 -95 0
-36 -76 0
-36 -73 0
-36 -69 0
-36 -63 0
-36 -62 0
-36 -50 0
-36 -46 0
-36 -40 0
-35 -101 0
-35 -94 0
-35 -90 0
-35 -82 0
-35 -79 0
-35 -70 0
-35 -69 0
-35 -67 0
-35 -65 0
-35 -58 0
-35 -57 0
-35 -40 0
-34 -85 0
-34 -84 0
-34 -82 0
-34 -79 0
-34 -77 0
-34 -70 0
-34 -67 0
-34 -65 0
-34 -57 0
-34 -55 0
-34 -54 0
-34 -47 0
-34 -40 0
-34 -35 0
-33 -104 0
-33 -97 0
-33 -96 0
-33 -90 0
-33 -83 0
-33 -76 0
-33 -73 0
-33 -71 0
-33 -64 0
-33 -63 0
-33 -62 0
-33 -56 0
-33 -46 0
-33 -40 0
-33 -36 0
-32 -106 0
-32 -104 0
-32 -101 0
-32 -94 0
-32 -93 0
-32 -90 0
-32 -80 0
-32 -69 0
-32 -66 0
-32 -61 0
-32 -58 0
-32 -47 0
-32 -44 0
-32 -41 0
-32 -35 0
-31 -109 0
-31 -108 0
-31 -106 0
-31 -101 0
-31 -98 0
-31 -81 0
-31 -73 0
-31 -70 0
-31 -68 0
-31 -45 0
-31 -39 0
-31 -38 0
-30 -96 0
-30 -95 0
-30 -91 0
-30 -90 0
-30 -87 0
-30 -83 0
-30 -72 0
-30 -71 0
-30 -67 0
-30 -64 0
-30 -56 0
-30 -53 0
-30 -41 0
-30 -33 0
-29 -110 0
-29 -107 0
-29 -105 0
-29 -94 0
-29 -68 0
-29 -65 0
-29 -62 0
-29 -60 0
-29 -55 0
-29 -52 0
-29 -51 0
-29 -50 0
-29 -49 0
-29 -48 0
-29 -42 0
-28 -100 0
-28 -99 0
-28 -98 0
-28 -95 0
-28 -93 0
-28 -88 0
-28 -69 0
-28 -56 0
-28 -50 0
-28 -48 0
-28 -43 0
-28 -36 0
-27 -101 0
-27 -98 0
-27 -86 0
-27 -80 0
-27 -79 0
-27 -78 0
-27 -73 0
-27 -71 0
-27 -59 0
-27 -51 0
-27 -45 0
-27 -39 0
-27 -38 0
-27 -31 0
-26 -105 0
-26 -96 0
-26 -90 0
-26 -83 0
-26 -71 0
-26 -65 0
-26 -64 0
-26 -60 0
-26 -56 0
-26 -52 0
-26 -50 0
-26 -42 0
-26 -33 0
-26 -30 0
-26 -29 0
-25 -107 0
-25 -99 0
-25 -96 0
-25 -95 0
-25 -75 0
-25 -69 0
-25 -61 0
-25 -57 0
-25 -50 0
-25 -38 0
-25 -36 0
-25 -28 0
-24 -109 0
-24 -108 0
-24 -106 0
-24 -99 0
-24 -95 0
-24 -81 0
-24 -70 0
-24 -69 0
-24 -68 0
-24 -50 0
-24 -36 0
-24 -31 0
-24 -28 0
-24 -25 0
-23 -110 0
-23 -103 0
-23 -99 0
-23 -92 0
-23 -86 0
-23 -84 0
-23 -76 0
-23 -74 0
-23 -64 0
-23 -53 0
-23 -45 0
-23 -44 0
-23 -42 0
-22 -102 0
-22 -99 0
-22 -95 0
-22 -89 0
-22 -83 0
-22 -82 0
-22 -69 0
-22 -66 0
-22 -50 0
-22 -49 0
-22 -39 0
-22 -37 0
-22 -36 0
-22 -28 0
-22 -25 0
-22 -24 0
-21 -101 0
-21 -98 0
-21 -85 0
-21 -84 0
-21 -77 0
-21 -73 0
-21 -55 0
-21 -54 0
-21 -47 0
-21 -45 0
-21 -39 0
-21 -38 0
-21 -34 0
-21 -31 0
-21 -27 0
-20 -100 0
-20 -98 0
-20 -93 0
-20 -88 0
-20 -82 0
-20 -79 0
-20 -70 0
-20 -67 0
-20 -65 0
-20 -57 0
-20 -56 0
-20 -48 0
-20 -43 0
-20 -40 0
-20 -35 0
-20 -34 0
-20 -28 0
-19 -108 0
-19 -107 0
-19 -96 0
-19 -91 0
-19 -89 0
-19 -88 0
-19 -75 0
-19 -74 0
-19 -61 0
-19 -59 0
-19 -58 0
-19 -57 0
-19 -54 0
-19 -52 0
-19 -46 0
-19 -38 0
-19 -25 0
-18 -101 0
-18 -98 0
-18 -95 0
-18 -91 0
-18 -87 0
-18 -73 0
-18 -72 0
-18 -67 0
-18 -53 0
-18 -45 0
-18 -41 0
-18 -39 0
-18 -38 0
-18 -31 0
-18 -30 0
-18 -27 0
-18 -21 0
-17 -106 0
-17 -105 0
-17 -104 0
-17 -93 0
-17 -80 0
-17 -66 0
-17 -65 0
-17 -61 0
-17 -60 0
-17 -52 0
-17 -50 0
-17 -47 0
-17 -44 0
-17 -42 0
-17 -41 0
-17 -32 0
-17 -29 0
-17 -26 0
-16 -110 0
-16 -107 0
-16 -95 0
-16 -94 0
-16 -91 0
-16 -87 0
-16 -72 0
-16 -68 0
-16 -67 0
-16 -62 0
-16 -55 0
-16 -53 0
-16 -51 0
-16 -49 0
-16 -48 0
-16 -41 0
-16 -30 0
-16 -29 0
-16 -18 0
-15 -96 0
-15 -90 0
-15 -85 0
-15 -84 0
-15 -83 0
-15 -77 0
-15 -71 0
-15 -64 0
-15 -56 0
-15 -55 0
-15 -54 0
-15 -47 0
-15 -34 0
-15 -33 0
-15 -30 0
-15 -26 0
-15 -21 0
-14 -109 0
-14 -107 0
-14 -105 0
-14 -102 0
-14 -97 0
-14 -96 0
-14 -92 0
-14 -85 0
-14 -75 0
-14 -72 0
-14 -61 0
-14 -57 0
-14 -43 0
-14 -38 0
-14 -25 0
-14 -19 0
-13 -99 0
-13 -95 0
-13 -86 0
-13 -80 0
-13 -79 0
-13 -78 0
-13 -71 0
-13 -69 0
-13 -59 0
-13 -51 0
-13 -50 0
-13 -36 0
-13 -28 0
-13 -27 0
-13 -25 0
-13 -24 0
-13 -22 0
-12 -109 0
-12 -108 0
-12 -106 0
-12 -86 0
-12 -84 0
-12 -81 0
-12 -76 0
-12 -70 0
-12 -68 0
-12 -53 0
-12 -42 0
-12 -31 0
-12 -24 0
-12 -23 0
-11 -102 0
-11 -89 0
-11 -86 0
-11 -84 0
-11 -83 0
-11 -82 0
-11 -76 0
-11 -66 0
-11 -53 0
-11 -49 0
-11 -42 0
-11 -39 0
-11 -37 0
-11 -23 0
-11 -22 0
-11 -12 0
-10 -100 0
-10 -98 0
-10 -93 0
-10 -88 0
-10 -86 0
-10 -84 0
-10 -76 0
-10 -56 0
-10 -53 0
-10 -48 0
-10 -43 0
-10 -42 0
-10 -28 0
-10 -23 0
-10 -20 0
-10 -12 0
-10 -11 0
-9 -99 0
-9 -95 0
-9 -85 0
-9 -84 0
-9 -77 0
-9 -69 0
-9 -55 0
-9 -54 0
-9 -50 0
-9 -47 0
-9 -36 0
-9 -34 0
-9 -28 0
-9 -25 0
-9 -24 0
-9 -22 0
-9 -21 0
-9 -15 0
-9 -13 0
-8 -109 0
-8 -105 0
-8 -102 0
-8 -101 0
-8 -97 0
-8 -94 0
-8 -92 0
-8 -90 0
-8 -85 0
-8 -72 0
-8 -69 0
-8 -58 0
-8 -43 0
-8 -35 0
-8 -32 0
-8 -14 0
-7 -110 0
-7 -103 0
-7 -99 0
-7 -92 0
-7 -82 0
-7 -79 0
-7 -74 0
-7 -70 0
-7 -67 0
-7 -65 0
-7 -64 0
-7 -57 0
-7 -45 0
-7 -44 0
-7 -40 0
-7 -35 0
-7 -34 0
-7 -23 0
-7 -20 0
-6 -101 0
-6 -94 0
-6 -90 0
-6 -86 0
-6 -84 0
-6 -76 0
-6 -69 0
-6 -58 0
-6 -53 0
-6 -42 0
-6 -35 0
-6 -32 0
-6 -23 0
-6 -12 0
-6 -11 0
-6 -10 0
-6 -8 0
-5 -103 0
-5 -101 0
-5 -100 0
-5 -94 0
-5 -90 0
-5 -87 0
-5 -81 0
-5 -78 0
-5 -77 0
-5 -75 0
-5 -69 0
-5 -63 0
-5 -60 0
-5 -58 0
-5 -37 0
-5 -35 0
-5 -32 0
-5 -8 0
-5 -6 0
-4 -107 0
-4 -96 0
-4 -86 0
-4 -84 0
-4 -76 0
-4 -75 0
-4 -61 0
-4 -57 0
-4 -53 0
-4 -42 0
-4 -38 0
-4 -25 0
-4 -23 0
-4 -19 0
-4 -14 0
-4 -12 0
-4 -11 0
-4 -10 0
-4 -6 0
-3 -109 0
-3 -108 0
-3 -106 0
-3 -96 0
-3 -90 0
-3 -83 0
-3 -81 0
-3 -71 0
-3 -70 0
-3 -68 0
-3 -64 0
-3 -56 0
-3 -33 0
-3 -31 0
-3 -30 0
-3 -26 0
-3 -24 0
-3 -15 0
-3 -12 0
-2 -105 0
-2 -101 0
-2 -98 0
-2 -73 0
-2 -65 0
-2 -60 0
-2 -52 0
-2 -50 0
-2 -45 0
-2 -42 0
-2 -39 0
-2 -38 0
-2 -31 0
-2 -29 0
-2 -27 0
-2 -26 0
-2 -21 0
-2 -18 0
-2 -17 0
-1 -109 0
-1 -105 0
-1 -102 0
-1 -97 0
-1 -92 0
-1 -86 0
-1 -85 0
-1 -80 0
-1 -79 0
-1 -78 0
-1 -72 0
-1 -71 0
-1 -59 0
-1 -51 0
-1 -43 0
-1 -27 0
-1 -14 0
-1 -13 0
-1 -8 0
1 13 27 51 59 71 78 79 80 86 0
2 17 26 29 42 50 52 60 65 105 0
3 12 24 31 68 70 81 106 108 109 0
4 14 19 25 38 57 61 75 96 107 0
5 6 8 32 35 58 69 90 94 101 0
7 23 44 45 64 74 92 99 103 110 0
9 15 21 34 47 54 55 77 84 85 0
10 20 28 43 48 56 88 93 98 100 0
11 22 37 39 49 66 82 83 89 102 0
16 18 30 41 53 67 72 87 91 95 0
33 36 40 46 62 63 73 76 97 104 0
