p cnf 90 775
-87 -90 0
-86 -88 0
-84 -89 0
-83 -90 0
-82 -88 0
-82 -86 0
-82 -84 0
-81 -90 0
-81 -86 0
-81 -83 0
-79 -89 0
-79 -85 0
-78 -87 0
-78 -85 0
-77 -90 0
-77 -88 0
-77 -83 0
-77 -81 0
-76 -90 0
-76 -85 0
-76 -83 0
-76 -81 0
-76 -78 0
-76 -77 0
-75 -89 0
-75 -79 0
-74 -83 0
-73 -87 0
-73 -84 0
-73 -82 0
-73 -78 0
-72 -75 0
-71 -86 0
-71 -85 0
-71 -81 0
-71 -79 0
-70 -89 0
-70 -80 0
-70 -79 0
-70 -75 0
-69 -89 0
-69 -87 0
-69 -79 0
-69 -78 0
-69 -75 0
-69 -73 0
-69 -70 0
-68 -72 0
-67 -87 0
-67 -86 0
-67 -81 0
-67 -78 0
-67 -73 0
-67 -71 0
-67 -69 0
-66 -80 0
-66 -68 0
-65 -86 0
-65 -81 0
-65 -71 0
-65 -68 0
-65 -67 0
-65 -66 0
-64 -89 0
-64 -84 0
-64 -80 0
-64 -66 0
-63 -83 0
-63 -80 0
-63 -74 0
-63 -70 0
-62 -88 0
-62 -86 0
-62 -82 0
-62 -72 0
-62 -68 0
-61 -88 0
-61 -77 0
-61 -74 0
-60 -90 0
-60 -87 0
-60 -68 0
-60 -66 0
-60 -65 0
-59 -86 0
-59 -81 0
-59 -71 0
-59 -67 0
-59 -65 0
-58 -90 0
-58 -87 0
-58 -60 0
-58 -59 0
-57 -87 0
-57 -80 0
-57 -78 0
-57 -73 0
-57 -69 0
-57 -67 0
-57 -66 0
-57 -64 0
-56 -85 0
-56 -84 0
-56 -82 0
-56 -79 0
-56 -73 0
-56 -71 0
-55 -90 0
-55 -87 0
-55 -74 0
-55 -61 0
-55 -60 0
-55 -58 0
-54 -90 0
-54 -88 0
-54 -87 0
-54 -86 0
-54 -82 0
-54 -62 0
-54 -60 0
-54 -58 0
-54 -55 0
-53 -85 0
-53 -78 0
-53 -76 0
-53 -74 0
-53 -61 0
-53 -55 0
-52 -72 0
-52 -68 0
-52 -62 0
-52 -59 0
-52 -58 0
-51 -90 0
-51 -89 0
-51 -83 0
-51 -81 0
-51 -79 0
-51 -77 0
-51 -76 0
-51 -75 0
-51 -70 0
-51 -69 0
-50 -85 0
-50 -83 0
-50 -79 0
-50 -74 0
-50 -71 0
-50 -63 0
-50 -56 0
-49 -85 0
-49 -78 0
-49 -76 0
-49 -75 0
-49 -72 0
-49 -53 0
-48 -90 0
-48 -84 0
-48 -83 0
-48 -82 0
-48 -81 0
-48 -77 0
-48 -76 0
-48 -73 0
-48 -56 0
-48 -51 0
-47 -88 0
-47 -87 0
-47 -78 0
-47 -77 0
-47 -73 0
-47 -69 0
-47 -67 0
-47 -61 0
-47 -57 0
-46 -86 0
-46 -81 0
-46 -75 0
-46 -72 0
-46 -71 0
-46 -67 0
-46 -65 0
-46 -59 0
-46 -49 0
-45 -89 0
-45 -84 0
-45 -72 0
-45 -68 0
-45 -64 0
-45 -62 0
-45 -52 0
-44 -90 0
-44 -89 0
-44 -87 0
-44 -84 0
-44 -64 0
-44 -60 0
-44 -58 0
-44 -55 0
-44 -54 0
-44 -45 0
-43 -90 0
-43 -87 0
-43 -80 0
-43 -70 0
-43 -63 0
-43 -60 0
-43 -58 0
-43 -55 0
-43 -54 0
-43 -44 0
-42 -90 0
-42 -83 0
-42 -81 0
-42 -80 0
-42 -77 0
-42 -76 0
-42 -66 0
-42 -64 0
-42 -57 0
-42 -51 0
-42 -48 0
-41 -88 0
-41 -77 0
-41 -68 0
-41 -66 0
-41 -65 0
-41 -61 0
-41 -60 0
-41 -47 0
-40 -89 0
-40 -88 0
-40 -86 0
-40 -82 0
-40 -79 0
-40 -75 0
-40 -70 0
-40 -69 0
-40 -62 0
-40 -54 0
-40 -51 0
-39 -86 0
-39 -81 0
-39 -80 0
-39 -71 0
-39 -70 0
-39 -67 0
-39 -65 0
-39 -63 0
-39 -59 0
-39 -46 0
-39 -43 0
-38 -80 0
-38 -66 0
-38 -64 0
-38 -59 0
-38 -58 0
-38 -57 0
-38 -52 0
-38 -42 0
-37 -74 0
-37 -72 0
-37 -68 0
-37 -62 0
-37 -61 0
-37 -55 0
-37 -53 0
-37 -52 0
-37 -45 0
-36 -84 0
-36 -82 0
-36 -74 0
-36 -73 0
-36 -61 0
-36 -56 0
-36 -55 0
-36 -53 0
-36 -48 0
-36 -37 0
-35 -85 0
-35 -78 0
-35 -76 0
-35 -68 0
-35 -66 0
-35 -65 0
-35 -60 0
-35 -53 0
-35 -49 0
-35 -41 0
-34 -80 0
-34 -74 0
-34 -66 0
-34 -64 0
-34 -61 0
-34 -57 0
-34 -55 0
-34 -53 0
-34 -42 0
-34 -38 0
-34 -37 0
-34 -36 0
-33 -83 0
-33 -74 0
-33 -68 0
-33 -66 0
-33 -65 0
-33 -63 0
-33 -60 0
-33 -50 0
-33 -41 0
-33 -35 0
-32 -88 0
-32 -80 0
-32 -77 0
-32 -70 0
-32 -63 0
-32 -61 0
-32 -47 0
-32 -43 0
-32 -41 0
-32 -39 0
-31 -88 0
-31 -77 0
-31 -75 0
-31 -72 0
-31 -61 0
-31 -49 0
-31 -47 0
-31 -46 0
-31 -41 0
-31 -32 0
-30 -90 0
-30 -87 0
-30 -75 0
-30 -72 0
-30 -60 0
-30 -58 0
-30 -55 0
-30 -54 0
-30 -49 0
-30 -46 0
-30 -44 0
-30 -43 0
-30 -31 0
-29 -84 0
-29 -82 0
-29 -75 0
-29 -73 0
-29 -72 0
-29 -56 0
-29 -49 0
-29 -48 0
-29 -46 0
-29 -36 0
-29 -31 0
-29 -30 0
-28 -87 0
-28 -78 0
-28 -73 0
-28 -72 0
-28 -69 0
-28 -68 0
-28 -67 0
-28 -62 0
-28 -57 0
-28 -52 0
-28 -47 0
-28 -45 0
-28 -37 0
-27 -89 0
-27 -79 0
-27 -75 0
-27 -70 0
-27 -69 0
-27 -68 0
-27 -66 0
-27 -65 0
-27 -60 0
-27 -51 0
-27 -41 0
-27 -40 0
-27 -35 0
-27 -33 0
-26 -85 0
-26 -78 0
-26 -76 0
-26 -59 0
-26 -58 0
-26 -53 0
-26 -52 0
-26 -49 0
-26 -38 0
-26 -35 0
-25 -89 0
-25 -79 0
-25 -75 0
-25 -74 0
-25 -70 0
-25 -69 0
-25 -61 0
-25 -55 0
-25 -53 0
-25 -51 0
-25 -40 0
-25 -37 0
-25 -36 0
-25 -34 0
-25 -27 0
-24 -83 0
-24 -74 0
-24 -63 0
-24 -59 0
-24 -58 0
-24 -52 0
-24 -50 0
-24 -38 0
-24 -33 0
-24 -26 0
-23 -89 0
-23 -85 0
-23 -84 0
-23 -78 0
-23 -76 0
-23 -64 0
-23 -53 0
-23 -49 0
-23 -45 0
-23 -44 0
-23 -35 0
-23 -26 0
-22 -80 0
-22 -72 0
-22 -70 0
-22 -68 0
-22 -63 0
-22 -62 0
-22 -52 0
-22 -45 0
-22 -43 0
-22 -39 0
-22 -37 0
-22 -32 0
-22 -28 0
-21 -88 0
-21 -86 0
-21 -83 0
-21 -82 0
-21 -74 0
-21 -63 0
-21 -62 0
-21 -54 0
-21 -50 0
-21 -40 0
-21 -33 0
-21 -24 0
-20 -87 0
-20 -83 0
-20 -78 0
-20 -74 0
-20 -73 0
-20 -69 0
-20 -67 0
-20 -63 0
-20 -57 0
-20 -50 0
-20 -47 0
-20 -33 0
-20 -28 0
-20 -24 0
-20 -21 0
-19 -84 0
-19 -82 0
-19 -73 0
-19 -68 0
-19 -66 0
-19 -65 0
-19 -60 0
-19 -56 0
-19 -48 0
-19 -41 0
-19 -36 0
-19 -35 0
-19 -33 0
-19 -29 0
-19 -27 0
-18 -84 0
-18 -82 0
-18 -80 0
-18 -73 0
-18 -70 0
-18 -63 0
-18 -56 0
-18 -48 0
-18 -43 0
-18 -39 0
-18 -36 0
-18 -32 0
-18 -29 0
-18 -22 0
-18 -19 0
-17 -88 0
-17 -77 0
-17 -61 0
-17 -59 0
-17 -58 0
-17 -52 0
-17 -47 0
-17 -41 0
-17 -38 0
-17 -32 0
-17 -31 0
-17 -26 0
-17 -24 0
-16 -88 0
-16 -86 0
-16 -82 0
-16 -80 0
-16 -66 0
-16 -64 0
-16 -62 0
-16 -57 0
-16 -54 0
-16 -42 0
-16 -40 0
-16 -38 0
-16 -34 0
-16 -21 0
-15 -85 0
-15 -79 0
-15 -72 0
-15 -71 0
-15 -68 0
-15 -62 0
-15 -56 0
-15 -52 0
-15 -50 0
-15 -45 0
-15 -37 0
-15 -28 0
-15 -22 0
-14 -85 0
-14 -80 0
-14 -79 0
-14 -71 0
-14 -66 0
-14 -64 0
-14 -57 0
-14 -56 0
-14 -50 0
-14 -42 0
-14 -38 0
-14 -34 0
-14 -16 0
-14 -15 0
-13 -89 0
-13 -86 0
-13 -84 0
-13 -81 0
-13 -71 0
-13 -67 0
-13 -65 0
-13 -64 0
-13 -59 0
-13 -46 0
-13 -45 0
-13 -44 0
-13 -39 0
-13 -23 0
-12 -89 0
-12 -84 0
-12 -83 0
-12 -74 0
-12 -64 0
-12 -63 0
-12 -50 0
-12 -45 0
-12 -44 0
-12 -33 0
-12 -24 0
-12 -23 0
-12 -21 0
-12 -20 0
-12 -13 0
-11 -85 0
-11 -80 0
-11 -78 0
-11 -76 0
-11 -70 0
-11 -63 0
-11 -53 0
-11 -49 0
-11 -43 0
-11 -39 0
-11 -35 0
-11 -32 0
-11 -26 0
-11 -23 0
-11 -22 0
-11 -18 0
-10 -89 0
-10 -88 0
-10 -84 0
-10 -77 0
-10 -64 0
-10 -61 0
-10 -47 0
-10 -45 0
-10 -44 0
-10 -41 0
-10 -32 0
-10 -31 0
-10 -23 0
-10 -17 0
-10 -13 0
-10 -12 0
-9 -90 0
-9 -87 0
-9 -85 0
-9 -79 0
-9 -71 0
-9 -60 0
-9 -58 0
-9 -56 0
-9 -55 0
-9 -54 0
-9 -50 0
-9 -44 0
-9 -43 0
-9 -30 0
-9 -15 0
-9 -14 0
-8 -83 0
-8 -75 0
-8 -74 0
-8 -72 0
-8 -63 0
-8 -50 0
-8 -49 0
-8 -46 0
-8 -33 0
-8 -31 0
-8 -30 0
-8 -29 0
-8 -24 0
-8 -21 0
-8 -20 0
-8 -12 0
-7 -88 0
-7 -86 0
-7 -85 0
-7 -82 0
-7 -78 0
-7 -76 0
-7 -62 0
-7 -54 0
-7 -53 0
-7 -49 0
-7 -40 0
-7 -35 0
-7 -26 0
-7 -23 0
-7 -21 0
-7 -16 0
-7 -11 0
-6 -80 0
-6 -75 0
-6 -72 0
-6 -66 0
-6 -64 0
-6 -57 0
-6 -49 0
-6 -46 0
-6 -42 0
-6 -38 0
-6 -34 0
-6 -31 0
-6 -30 0
-6 -29 0
-6 -16 0
-6 -14 0
-6 -8 0
-5 -86 0
-5 -81 0
-5 -74 0
-5 -71 0
-5 -67 0
-5 -65 0
-5 -61 0
-5 -59 0
-5 -55 0
-5 -53 0
-5 -46 0
-5 -39 0
-5 -37 0
-5 -36 0
-5 -34 0
-5 -25 0
-5 -13 0
-4 -89 0
-4 -79 0
-4 -75 0
-4 -70 0
-4 -69 0
-4 -59 0
-4 -58 0
-4 -52 0
-4 -51 0
-4 -40 0
-4 -38 0
-4 -27 0
-4 -26 0
-4 -25 0
-4 -24 0
-4 -17 0
-3 -84 0
-3 -82 0
-3 -73 0
-3 -59 0
-3 -58 0
-3 -56 0
-3 -52 0
-3 -48 0
-3 -38 0
-3 -36 0
-3 -29 0
-3 -26 0
-3 -24 0
-3 -19 0
-3 -18 0
-3 -17 0
-3 -4 0
-2 -90 0
-2 -83 0
-2 -81 0
-2 -77 0
-2 -76 0
-2 -72 0
-2 -68 0
-2 -62 0
-2 -52 0
-2 -51 0
-2 -48 0
-2 -45 0
-2 -42 0
-2 -37 0
-2 -28 0
-2 -22 0
-2 -15 0
-1 -88 0
-1 -85 0
-1 -79 0
-1 -77 0
-1 -71 0
-1 -61 0
-1 -56 0
-1 -50 0
-1 -47 0
-1 -41 0
-1 -32 0
-1 -31 0
-1 -17 0
-1 -15 0
-1 -14 0
-1 -10 0
-1 -9 0
1 9 14 15 50 56 71 79 85 0
2 42 48 51 76 77 81 83 90 0
3 4 17 24 26 38 52 58 59 0
5 25 34 36 37 53 55 61 74 0
6 8 29 30 31 46 49 72 75 0
7 16 21 40 54 62 82 86 88 0
10 12 13 23 44 45 64 84 89 0
11 18 22 32 39 43 63 70 80 0
19 27 33 35 41 60 65 66 68 0
20 28 47 57 67 69 73 78 87 0
