p cnf 42 238
-39 -42 0
-37 -42 0
-37 -39 0
-37 -38 0
-36 -38 0
-35 -40 0
-34 -40 0
-34 -35 0
-33 -42 0
-33 -39 0
-33 -37 0
-32 -41 0
-32 -39 0
-31 -41 0
-31 -40 0
-30 -42 0
-30 -41 0
-30 -39 0
-30 -37 0
-30 -33 0
-30 -31 0
-29 -40 0
-29 -38 0
-29 -37 0
-29 -31 0
-28 -41 0
-28 -36 0
-28 -32 0
-27 -42 0
-27 -40 0
-27 -39 0
-27 -37 0
-27 -35 0
-27 -34 0
-27 -33 0
-27 -30 0
-26 -42 0
-26 -40 0
-26 -31 0
-26 -29 0
-25 -40 0
-25 -33 0
-25 -31 0
-25 -29 0
-25 -26 0
-24 -38 0
-24 -36 0
-24 -33 0
-24 -25 0
-23 -40 0
-23 -36 0
-23 -31 0
-23 -29 0
-23 -28 0
-23 -26 0
-23 -25 0
-22 -41 0
-22 -33 0
-22 -32 0
-22 -28 0
-22 -25 0
-22 -24 0
-21 -38 0
-21 -37 0
-21 -34 0
-21 -29 0
-20 -41 0
-20 -40 0
-20 -35 0
-20 -34 0
-20 -32 0
-20 -28 0
-20 -27 0
-20 -22 0
-19 -42 0
-19 -39 0
-19 -37 0
-19 -36 0
-19 -33 0
-19 -30 0
-19 -28 0
-19 -27 0
-19 -23 0
-18 -40 0
-18 -39 0
-18 -32 0
-18 -31 0
-18 -29 0
-18 -26 0
-18 -25 0
-18 -23 0
-17 -39 0
-17 -35 0
-17 -32 0
-17 -18 0
-16 -36 0
-16 -34 0
-16 -28 0
-16 -23 0
-16 -21 0
-16 -19 0
-15 -42 0
-15 -41 0
-15 -32 0
-15 -28 0
-15 -26 0
-15 -22 0
-15 -20 0
-14 -41 0
-14 -38 0
-14 -36 0
-14 -31 0
-14 -30 0
-14 -24 0
-13 -42 0
-13 -35 0
-13 -26 0
-13 -17 0
-13 -15 0
-12 -35 0
-12 -33 0
-12 -25 0
-12 -24 0
-12 -22 0
-12 -17 0
-12 -13 0
-11 -39 0
-11 -34 0
-11 -32 0
-11 -21 0
-11 -18 0
-11 -17 0
-11 -16 0
-10 -42 0
-10 -38 0
-10 -36 0
-10 -26 0
-10 -24 0
-10 -15 0
-10 -14 0
-10 -13 0
-9 -40 0
-9 -38 0
-9 -36 0
-9 -35 0
-9 -34 0
-9 -27 0
-9 -24 0
-9 -20 0
-9 -14 0
-9 -10 0
-8 -41 0
-8 -35 0
-8 -31 0
-8 -30 0
-8 -17 0
-8 -14 0
-8 -13 0
-8 -12 0
-7 -38 0
-7 -37 0
-7 -35 0
-7 -29 0
-7 -21 0
-7 -17 0
-7 -13 0
-7 -12 0
-7 -8 0
-6 -36 0
-6 -35 0
-6 -28 0
-6 -23 0
-6 -19 0
-6 -17 0
-6 -16 0
-6 -13 0
-6 -12 0
-6 -8 0
-6 -7 0
-5 -39 0
-5 -38 0
-5 -36 0
-5 -32 0
-5 -24 0
-5 -18 0
-5 -17 0
-5 -14 0
-5 -11 0
-5 -10 0
-5 -9 0
-4 -41 0
-4 -34 0
-4 -31 0
-4 -30 0
-4 -21 0
-4 -16 0
-4 -14 0
-4 -11 0
-4 -8 0
-3 -34 0
-3 -33 0
-3 -25 0
-3 -24 0
-3 -22 0
-3 -21 0
-3 -16 0
-3 -12 0
-3 -11 0
-3 -4 0
-2 -42 0
-2 -34 0
-2 -26 0
-2 -21 0
-2 -16 0
-2 -15 0
-2 -13 0
-2 -11 0
-2 -10 0
-2 -4 0
-2 -3 0
-1 -41 0
-1 -38 0
-1 -37 0
-1 -32 0
-1 -29 0
-1 -28 0
-1 -22 0
-1 -21 0
-1 -20 0
-1 -15 0
-1 -7 0
1 7 21 29 37 38 0
2 10 13 15 26 42 0
3 12 22 24 25 33 0
4 8 14 30 31 41 0
5 11 17 18 32 39 0
6 16 19 23 28 36 0
9 20 27 34 35 40 0
