p cnf 56 372
-55 -56 0
-53 -56 0
-53 -55 0
-51 -54 0
-50 -54 0
-50 -53 0
-49 -54 0
-49 -52 0
-49 -50 0
-48 -56 0
-48 -54 0
-48 -50 0
-48 -49 0
-47 -56 0
-47 -55 0
-47 -53 0
-46 -52 0
-46 -49 0
-45 -55 0
-45 -52 0
-44 -52 0
-44 -51 0
-44 -49 0
-44 -46 0
-43 -56 0
-43 -48 0
-43 -46 0
-42 -54 0
-42 -50 0
-42 -49 0
-42 -48 0
-42 -47 0
-41 -55 0
-41 -51 0
-41 -45 0
-41 -44 0
-40 -51 0
-40 -47 0
-40 -44 0
-40 -42 0
-40 -41 0
-39 -51 0
-39 -44 0
-39 -41 0
-39 -40 0
-38 -56 0
-38 -55 0
-38 -54 0
-38 -53 0
-38 -51 0
-38 -47 0
-37 -56 0
-37 -55 0
-37 -53 0
-37 -52 0
-37 -49 0
-37 -47 0
-37 -46 0
-37 -44 0
-37 -38 0
-36 -54 0
-36 -51 0
-36 -38 0
-35 -52 0
-35 -49 0
-35 -46 0
-35 -44 0
-35 -37 0
-34 -55 0
-34 -45 0
-34 -41 0
-34 -36 0
-33 -47 0
-33 -42 0
-33 -40 0
-33 -35 0
-32 -47 0
-32 -42 0
-32 -40 0
-32 -36 0
-32 -34 0
-32 -33 0
-31 -52 0
-31 -49 0
-31 -46 0
-31 -44 0
-31 -37 0
-31 -36 0
-31 -35 0
-31 -34 0
-31 -32 0
-30 -53 0
-30 -52 0
-30 -50 0
-30 -45 0
-29 -53 0
-29 -51 0
-29 -50 0
-29 -44 0
-29 -41 0
-29 -40 0
-29 -39 0
-29 -30 0
-28 -56 0
-28 -48 0
-28 -43 0
-28 -36 0
-28 -34 0
-28 -32 0
-28 -31 0
-27 -55 0
-27 -45 0
-27 -41 0
-27 -35 0
-27 -34 0
-27 -33 0
-26 -39 0
-26 -36 0
-26 -34 0
-26 -32 0
-26 -31 0
-26 -28 0
-25 -52 0
-25 -45 0
-25 -39 0
-25 -30 0
-25 -26 0
-24 -54 0
-24 -51 0
-24 -38 0
-24 -36 0
-24 -35 0
-24 -33 0
-24 -27 0
-23 -36 0
-23 -34 0
-23 -32 0
-23 -31 0
-23 -28 0
-23 -26 0
-22 -53 0
-22 -50 0
-22 -46 0
-22 -43 0
-22 -30 0
-22 -29 0
-21 -39 0
-21 -35 0
-21 -33 0
-21 -27 0
-21 -26 0
-21 -25 0
-21 -24 0
-20 -46 0
-20 -43 0
-20 -23 0
-20 -22 0
-19 -54 0
-19 -50 0
-19 -49 0
-19 -48 0
-19 -42 0
-19 -39 0
-19 -26 0
-19 -25 0
-19 -21 0
-18 -54 0
-18 -51 0
-18 -46 0
-18 -43 0
-18 -38 0
-18 -36 0
-18 -24 0
-18 -22 0
-18 -20 0
-17 -56 0
-17 -52 0
-17 -48 0
-17 -45 0
-17 -43 0
-17 -30 0
-17 -28 0
-17 -25 0
-16 -53 0
-16 -50 0
-16 -36 0
-16 -34 0
-16 -32 0
-16 -31 0
-16 -30 0
-16 -29 0
-16 -28 0
-16 -26 0
-16 -23 0
-16 -22 0
-15 -56 0
-15 -51 0
-15 -48 0
-15 -44 0
-15 -43 0
-15 -41 0
-15 -40 0
-15 -39 0
-15 -29 0
-15 -28 0
-15 -17 0
-14 -51 0
-14 -44 0
-14 -41 0
-14 -40 0
-14 -39 0
-14 -29 0
-14 -23 0
-14 -20 0
-14 -15 0
-13 -52 0
-13 -47 0
-13 -45 0
-13 -42 0
-13 -40 0
-13 -33 0
-13 -32 0
-13 -30 0
-13 -25 0
-13 -17 0
-12 -56 0
-12 -55 0
-12 -53 0
-12 -47 0
-12 -39 0
-12 -38 0
-12 -37 0
-12 -26 0
-12 -25 0
-12 -21 0
-12 -19 0
-11 -55 0
-11 -54 0
-11 -50 0
-11 -49 0
-11 -48 0
-11 -45 0
-11 -42 0
-11 -41 0
-11 -34 0
-11 -27 0
-11 -19 0
-10 -56 0
-10 -48 0
-10 -43 0
-10 -35 0
-10 -33 0
-10 -28 0
-10 -27 0
-10 -24 0
-10 -21 0
-10 -17 0
-10 -15 0
-9 -54 0
-9 -50 0
-9 -49 0
-9 -48 0
-9 -42 0
-9 -23 0
-9 -20 0
-9 -19 0
-9 -14 0
-9 -11 0
-8 -46 0
-8 -43 0
-8 -39 0
-8 -26 0
-8 -25 0
-8 -22 0
-8 -21 0
-8 -20 0
-8 -19 0
-8 -18 0
-8 -12 0
-7 -35 0
-7 -33 0
-7 -27 0
-7 -24 0
-7 -23 0
-7 -21 0
-7 -20 0
-7 -14 0
-7 -10 0
-7 -9 0
-6 -56 0
-6 -55 0
-6 -53 0
-6 -47 0
-6 -38 0
-6 -37 0
-6 -23 0
-6 -20 0
-6 -14 0
-6 -12 0
-6 -9 0
-6 -7 0
-5 -47 0
-5 -46 0
-5 -43 0
-5 -42 0
-5 -40 0
-5 -33 0
-5 -32 0
-5 -22 0
-5 -20 0
-5 -18 0
-5 -13 0
-5 -8 0
-4 -55 0
-4 -46 0
-4 -45 0
-4 -43 0
-4 -41 0
-4 -34 0
-4 -27 0
-4 -22 0
-4 -20 0
-4 -18 0
-4 -11 0
-4 -8 0
-4 -5 0
-3 -53 0
-3 -50 0
-3 -35 0
-3 -33 0
-3 -30 0
-3 -29 0
-3 -27 0
-3 -24 0
-3 -22 0
-3 -21 0
-3 -16 0
-3 -10 0
-3 -7 0
-2 -54 0
-2 -52 0
-2 -51 0
-2 -45 0
-2 -38 0
-2 -36 0
-2 -30 0
-2 -25 0
-2 -24 0
-2 -18 0
-2 -17 0
-2 -13 0
-1 -52 0
-1 -45 0
-1 -30 0
-1 -25 0
-1 -23 0
-1 -20 0
-1 -17 0
-1 -14 0
-1 -13 0
-1 -9 0
-1 -7 0
-1 -6 0
-1 -2 0
1 6 7 9 14 20 23 0
2 18 24 36 38 51 54 0
3 16 22 29 30 50 53 0
4 11 27 34 41 45 55 0
5 13 32 33 40 42 47 0
8 12 19 21 25 26 39 0
10 15 17 28 43 48 56 0
31 35 37 44 46 49 52 0
