p cnf 110 1056
-108 -109 0
-106 -108 0
-105 -110 0
-105 -109 0
-105 -108 0
-102 -110 0
-101 -109 0
-101 -108 0
-101 -105 0
-100 -102 0
-99 -109 0
-98 -101 0
-98 -99 0
-97 -108 0
-97 -106 0
-97 -103 0
-96 -107 0
-95 -109 0
-95 -99 0
-93 -110 0
-93 -109 0
-93 -102 0
-93 -99 0
-93 -95 0
-92 -108 0
-92 -106 0
-92 -100 0
-92 -97 0
-91 -107 0
-91 -103 0
-91 -96 0
-90 -109 0
-90 -104 0
-90 -99 0
-90 -95 0
-90 -93 0
-89 -101 0
-89 -100 0
-89 -98 0
-89 -92 0
-88 -106 0
-88 -104 0
-87 -108 0
-87 -107 0
-87 -106 0
-87 -97 0
-87 -96 0
-87 -92 0
-87 -91 0
-86 -109 0
-86 -99 0
-86 -95 0
-86 -93 0
-86 -90 0
-85 -101 0
-85 -98 0
-85 -94 0
-85 -89 0
-84 -110 0
-84 -107 0
-84 -105 0
-84 -96 0
-84 -91 0
-84 -87 0
-83 -102 0
-83 -100 0
-83 -95 0
-82 -110 0
-82 -106 0
-82 -105 0
-82 -88 0
-82 -84 0
-81 -102 0
-81 -100 0
-81 -94 0
-81 -85 0
-81 -83 0
-80 -99 0
-80 -98 0
-80 -94 0
-79 -108 0
-79 -106 0
-79 -97 0
-79 -92 0
-79 -87 0
-79 -86 0
-78 -96 0
-78 -86 0
-78 -79 0
-77 -104 0
-77 -103 0
-77 -97 0
-77 -88 0
-76 -96 0
-76 -94 0
-76 -85 0
-76 -81 0
-76 -78 0
-75 -107 0
-75 -104 0
-75 -90 0
-74 -106 0
-74 -96 0
-74 -88 0
-74 -82 0
-74 -78 0
-74 -76 0
-73 -109 0
-73 -100 0
-73 -99 0
-73 -95 0
-73 -93 0
-73 -92 0
-73 -90 0
-73 -89 0
-73 -86 0
-72 -109 0
-72 -103 0
-72 -99 0
-72 -97 0
-72 -95 0
-72 -93 0
-72 -90 0
-72 -86 0
-72 -77 0
-72 -73 0
-71 -94 0
-71 -86 0
-71 -80 0
-71 -79 0
-71 -78 0
-70 -107 0
-70 -101 0
-70 -98 0
-70 -96 0
-70 -91 0
-70 -89 0
-70 -87 0
-70 -85 0
-70 -84 0
-69 -104 0
-69 -96 0
-69 -90 0
-69 -78 0
-69 -76 0
-69 -75 0
-69 -74 0
-68 -107 0
-68 -103 0
-68 -97 0
-68 -77 0
-68 -75 0
-68 -72 0
-67 -110 0
-67 -105 0
-67 -100 0
-67 -92 0
-67 -89 0
-67 -84 0
-67 -82 0
-67 -73 0
-66 -110 0
-66 -105 0
-66 -99 0
-66 -98 0
-66 -84 0
-66 -82 0
-66 -80 0
-66 -67 0
-65 -110 0
-65 -102 0
-65 -94 0
-65 -93 0
-65 -80 0
-65 -71 0
-64 -101 0
-64 -98 0
-64 -89 0
-64 -86 0
-64 -85 0
-64 -79 0
-64 -78 0
-64 -71 0
-64 -70 0
-63 -103 0
-63 -101 0
-63 -98 0
-63 -97 0
-63 -89 0
-63 -85 0
-63 -77 0
-63 -72 0
-63 -70 0
-63 -68 0
-63 -64 0
-62 -109 0
-62 -106 0
-62 -99 0
-62 -95 0
-62 -93 0
-62 -90 0
-62 -88 0
-62 -86 0
-62 -82 0
-62 -74 0
-62 -73 0
-62 -72 0
-61 -104 0
-61 -95 0
-61 -88 0
-61 -83 0
-61 -77 0
-60 -110 0
-60 -105 0
-60 -94 0
-60 -85 0
-60 -84 0
-60 -82 0
-60 -81 0
-60 -76 0
-60 -67 0
-60 -66 0
-59 -109 0
-59 -108 0
-59 -105 0
-59 -101 0
-59 -96 0
-59 -78 0
-59 -76 0
-59 -74 0
-59 -69 0
-58 -104 0
-58 -88 0
-58 -86 0
-58 -79 0
-58 -78 0
-58 -77 0
-58 -71 0
-58 -64 0
-58 -61 0
-57 -107 0
-57 -96 0
-57 -94 0
-57 -91 0
-57 -87 0
-57 -84 0
-57 -80 0
-57 -71 0
-57 -70 0
-57 -65 0
-56 -110 0
-56 -105 0
-56 -86 0
-56 -84 0
-56 -82 0
-56 -79 0
-56 -78 0
-56 -71 0
-56 -67 0
-56 -66 0
-56 -64 0
-56 -60 0
-56 -58 0
-55 -107 0
-55 -95 0
-55 -83 0
-55 -75 0
-55 -68 0
-55 -61 0
-54 -106 0
-54 -101 0
-54 -98 0
-54 -89 0
-54 -88 0
-54 -85 0
-54 -82 0
-54 -74 0
-54 -70 0
-54 -64 0
-54 -63 0
-54 -62 0
-53 -96 0
-53 -95 0
-53 -83 0
-53 -78 0
-53 -76 0
-53 -74 0
-53 -69 0
-53 -61 0
-53 -59 0
-53 -55 0
-52 -108 0
-52 -106 0
-52 -99 0
-52 -98 0
-52 -97 0
-52 -92 0
-52 -87 0
-52 -80 0
-52 -79 0
-52 -66 0
-51 -104 0
-51 -103 0
-51 -91 0
-51 -90 0
-51 -75 0
-51 -69 0
-50 -100 0
-50 -96 0
-50 -92 0
-50 -89 0
-50 -78 0
-50 -76 0
-50 -74 0
-50 -73 0
-50 -69 0
-50 -67 0
-50 -59 0
-50 -53 0
-49 -104 0
-49 -101 0
-49 -98 0
-49 -90 0
-49 -89 0
-49 -85 0
-49 -75 0
-49 -70 0
-49 -69 0
-49 -64 0
-49 -63 0
-49 -54 0
-49 -51 0
-48 -103 0
-48 -97 0
-48 -96 0
-48 -78 0
-48 -77 0
-48 -76 0
-48 -74 0
-48 -72 0
-48 -69 0
-48 -68 0
-48 -63 0
-48 -59 0
-48 -53 0
-48 -50 0
-47 -107 0
-47 -104 0
-47 -96 0
-47 -91 0
-47 -88 0
-47 -87 0
-47 -84 0
-47 -77 0
-47 -70 0
-47 -61 0
-47 -58 0
-47 -57 0
-46 -104 0
-46 -99 0
-46 -98 0
-46 -88 0
-46 -80 0
-46 -77 0
-46 -66 0
-46 -61 0
-46 -58 0
-46 -52 0
-46 -47 0
-45 -107 0
-45 -94 0
-45 -85 0
-45 -81 0
-45 -76 0
-45 -75 0
-45 -68 0
-45 -60 0
-45 -55 0
-44 -107 0
-44 -86 0
-44 -79 0
-44 -78 0
-44 -75 0
-44 -71 0
-44 -68 0
-44 -64 0
-44 -58 0
-44 -56 0
-44 -55 0
-44 -45 0
-43 -110 0
-43 -103 0
-43 -102 0
-43 -93 0
-43 -91 0
-43 -65 0
-43 -51 0
-42 -110 0
-42 -105 0
-42 -104 0
-42 -90 0
-42 -84 0
-42 -82 0
-42 -75 0
-42 -69 0
-42 -67 0
-42 -66 0
-42 -60 0
-42 -56 0
-42 -51 0
-42 -49 0
-41 -110 0
-41 -107 0
-41 -102 0
-41 -93 0
-41 -75 0
-41 -68 0
-41 -65 0
-41 -55 0
-41 -45 0
-41 -44 0
-41 -43 0
-40 -107 0
-40 -106 0
-40 -88 0
-40 -82 0
-40 -75 0
-40 -74 0
-40 -68 0
-40 -62 0
-40 -55 0
-40 -54 0
-40 -45 0
-40 -44 0
-40 -41 0
-39 -103 0
-39 -102 0
-39 -100 0
-39 -97 0
-39 -83 0
-39 -81 0
-39 -77 0
-39 -72 0
-39 -68 0
-39 -63 0
-39 -48 0
-38 -103 0
-38 -100 0
-38 -92 0
-38 -91 0
-38 -89 0
-38 -73 0
-38 -67 0
-38 -51 0
-38 -50 0
-38 -43 0
-37 -95 0
-37 -94 0
-37 -83 0
-37 -80 0
-37 -71 0
-37 -65 0
-37 -61 0
-37 -57 0
-37 -55 0
-37 -53 0
-36 -103 0
-36 -95 0
-36 -91 0
-36 -83 0
-36 -61 0
-36 -55 0
-36 -53 0
-36 -51 0
-36 -43 0
-36 -38 0
-36 -37 0
-35 -103 0
-35 -94 0
-35 -91 0
-35 -85 0
-35 -81 0
-35 -76 0
-35 -60 0
-35 -51 0
-35 -45 0
-35 -43 0
-35 -38 0
-35 -36 0
-34 -101 0
-34 -98 0
-34 -95 0
-34 -89 0
-34 -85 0
-34 -83 0
-34 -70 0
-34 -64 0
-34 -63 0
-34 -61 0
-34 -55 0
-34 -54 0
-34 -53 0
-34 -49 0
-34 -37 0
-34 -36 0
-33 -108 0
-33 -106 0
-33 -97 0
-33 -94 0
-33 -92 0
-33 -87 0
-33 -85 0
-33 -81 0
-33 -79 0
-33 -76 0
-33 -60 0
-33 -52 0
-33 -45 0
-33 -35 0
-32 -104 0
-32 -94 0
-32 -88 0
-32 -85 0
-32 -81 0
-32 -77 0
-32 -76 0
-32 -61 0
-32 -60 0
-32 -58 0
-32 -47 0
-32 -46 0
-32 -45 0
-32 -35 0
-32 -33 0
-31 -104 0
-31 -102 0
-31 -100 0
-31 -90 0
-31 -83 0
-31 -81 0
-31 -75 0
-31 -69 0
-31 -51 0
-31 -49 0
-31 -42 0
-31 -39 0
-30 -110 0
-30 -105 0
-30 -103 0
-30 -97 0
-30 -84 0
-30 -82 0
-30 -77 0
-30 -72 0
-30 -68 0
-30 -67 0
-30 -66 0
-30 -63 0
-30 -60 0
-30 -56 0
-30 -48 0
-30 -42 0
-30 -39 0
-29 -109 0
-29 -108 0
-29 -105 0
-29 -104 0
-29 -101 0
-29 -88 0
-29 -77 0
-29 -61 0
-29 -59 0
-29 -58 0
-29 -47 0
-29 -46 0
-29 -32 0
-28 -109 0
-28 -107 0
-28 -99 0
-28 -96 0
-28 -95 0
-28 -93 0
-28 -91 0
-28 -90 0
-28 -87 0
-28 -86 0
-28 -84 0
-28 -73 0
-28 -72 0
-28 -70 0
-28 -62 0
-28 -57 0
-28 -47 0
-27 -104 0
-27 -100 0
-27 -92 0
-27 -89 0
-27 -88 0
-27 -77 0
-27 -73 0
-27 -67 0
-27 -61 0
-27 -58 0
-27 -50 0
-27 -47 0
-27 -46 0
-27 -38 0
-27 -32 0
-27 -29 0
-26 -108 0
-26 -106 0
-26 -104 0
-26 -97 0
-26 -92 0
-26 -90 0
-26 -87 0
-26 -79 0
-26 -75 0
-26 -69 0
-26 -52 0
-26 -51 0
-26 -49 0
-26 -42 0
-26 -33 0
-26 -31 0
-25 -108 0
-25 -106 0
-25 -97 0
-25 -95 0
-25 -92 0
-25 -87 0
-25 -83 0
-25 -79 0
-25 -61 0
-25 -55 0
-25 -53 0
-25 -52 0
-25 -37 0
-25 -36 0
-25 -34 0
-25 -33 0
-25 -26 0
-24 -103 0
-24 -99 0
-24 -98 0
-24 -91 0
-24 -80 0
-24 -66 0
-24 -52 0
-24 -51 0
-24 -46 0
-24 -43 0
-24 -38 0
-24 -36 0
-24 -35 0
-23 -107 0
-23 -99 0
-23 -98 0
-23 -80 0
-23 -75 0
-23 -68 0
-23 -66 0
-23 -55 0
-23 -52 0
-23 -46 0
-23 -45 0
-23 -44 0
-23 -41 0
-23 -40 0
-23 -24 0
-22 -103 0
-22 -91 0
-22 -86 0
-22 -79 0
-22 -78 0
-22 -71 0
-22 -64 0
-22 -58 0
-22 -56 0
-22 -51 0
-22 -44 0
-22 -43 0
-22 -38 0
-22 -36 0
-22 -35 0
-22 -24 0
-21 -106 0
-21 -102 0
-21 -100 0
-21 -88 0
-21 -83 0
-21 -82 0
-21 -81 0
-21 -74 0
-21 -62 0
-21 -54 0
-21 -40 0
-21 -39 0
-21 -31 0
-20 -107 0
-20 -102 0
-20 -100 0
-20 -96 0
-20 -91 0
-20 -87 0
-20 -84 0
-20 -83 0
-20 -81 0
-20 -70 0
-20 -57 0
-20 -47 0
-20 -39 0
-20 -31 0
-20 -28 0
-20 -21 0
-19 -102 0
-19 -100 0
-19 -99 0
-19 -98 0
-19 -83 0
-19 -81 0
-19 -80 0
-19 -66 0
-19 -52 0
-19 -46 0
-19 -39 0
-19 -31 0
-19 -24 0
-19 -23 0
-19 -21 0
-19 -20 0
-18 -109 0
-18 -108 0
-18 -105 0
-18 -101 0
-18 -94 0
-18 -80 0
-18 -71 0
-18 -65 0
-18 -59 0
-18 -57 0
-18 -37 0
-18 -29 0
-17 -110 0
-17 -104 0
-17 -102 0
-17 -93 0
-17 -88 0
-17 -77 0
-17 -65 0
-17 -61 0
-17 -58 0
-17 -47 0
-17 -46 0
-17 -43 0
-17 -41 0
-17 -32 0
-17 -29 0
-17 -27 0
-16 -106 0
-16 -94 0
-16 -88 0
-16 -82 0
-16 -80 0
-16 -74 0
-16 -71 0
-16 -65 0
-16 -62 0
-16 -57 0
-16 -54 0
-16 -40 0
-16 -37 0
-16 -21 0
-16 -18 0
-15 -109 0
-15 -108 0
-15 -107 0
-15 -105 0
-15 -101 0
-15 -75 0
-15 -68 0
-15 -59 0
-15 -55 0
-15 -45 0
-15 -44 0
-15 -41 0
-15 -40 0
-15 -29 0
-15 -23 0
-15 -18 0
-14 -107 0
-14 -100 0
-14 -92 0
-14 -89 0
-14 -75 0
-14 -73 0
-14 -68 0
-14 -67 0
-14 -55 0
-14 -50 0
-14 -45 0
-14 -44 0
-14 -41 0
-14 -40 0
-14 -38 0
-14 -27 0
-14 -23 0
-14 -15 0
-13 -110 0
-13 -102 0
-13 -101 0
-13 -98 0
-13 -93 0
-13 -89 0
-13 -85 0
-13 -70 0
-13 -65 0
-13 -64 0
-13 -63 0
-13 -54 0
-13 -49 0
-13 -43 0
-13 -41 0
-13 -34 0
-13 -17 0
-12 -103 0
-12 -97 0
-12 -94 0
-12 -80 0
-12 -77 0
-12 -72 0
-12 -71 0
-12 -68 0
-12 -65 0
-12 -63 0
-12 -57 0
-12 -48 0
-12 -39 0
-12 -37 0
-12 -30 0
-12 -18 0
-12 -16 0
-11 -109 0
-11 -108 0
-11 -105 0
-11 -103 0
-11 -101 0
-11 -91 0
-11 -59 0
-11 -51 0
-11 -43 0
-11 -38 0
-11 -36 0
-11 -35 0
-11 -29 0
-11 -24 0
-11 -22 0
-11 -18 0
-11 -15 0
-10 -102 0
-10 -100 0
-10 -86 0
-10 -83 0
-10 -81 0
-10 -79 0
-10 -78 0
-10 -71 0
-10 -64 0
-10 -58 0
-10 -56 0
-10 -44 0
-10 -39 0
-10 -31 0
-10 -22 0
-10 -21 0
-10 -20 0
-10 -19 0
-9 -104 0
-9 -94 0
-9 -90 0
-9 -80 0
-9 -75 0
-9 -71 0
-9 -69 0
-9 -65 0
-9 -57 0
-9 -51 0
-9 -49 0
-9 -42 0
-9 -37 0
-9 -31 0
-9 -26 0
-9 -18 0
-9 -16 0
-9 -12 0
-8 -100 0
-8 -94 0
-8 -92 0
-8 -89 0
-8 -80 0
-8 -73 0
-8 -71 0
-8 -67 0
-8 -65 0
-8 -57 0
-8 -50 0
-8 -38 0
-8 -37 0
-8 -27 0
-8 -18 0
-8 -16 0
-8 -14 0
-8 -12 0
-8 -9 0
-7 -106 0
-7 -103 0
-7 -91 0
-7 -88 0
-7 -82 0
-7 -74 0
-7 -62 0
-7 -54 0
-7 -51 0
-7 -43 0
-7 -40 0
-7 -38 0
-7 -36 0
-7 -35 0
-7 -24 0
-7 -22 0
-7 -21 0
-7 -16 0
-7 -11 0
-6 -110 0
-6 -102 0
-6 -96 0
-6 -93 0
-6 -78 0
-6 -76 0
-6 -74 0
-6 -69 0
-6 -65 0
-6 -59 0
-6 -53 0
-6 -50 0
-6 -48 0
-6 -43 0
-6 -41 0
-6 -17 0
-6 -13 0
-5 -110 0
-5 -105 0
-5 -95 0
-5 -84 0
-5 -83 0
-5 -82 0
-5 -67 0
-5 -66 0
-5 -61 0
-5 -60 0
-5 -56 0
-5 -55 0
-5 -53 0
-5 -42 0
-5 -37 0
-5 -36 0
-5 -34 0
-5 -30 0
-5 -25 0
-4 -99 0
-4 -98 0
-4 -96 0
-4 -80 0
-4 -78 0
-4 -76 0
-4 -74 0
-4 -69 0
-4 -66 0
-4 -59 0
-4 -53 0
-4 -52 0
-4 -50 0
-4 -48 0
-4 -46 0
-4 -24 0
-4 -23 0
-4 -19 0
-4 -6 0
-3 -110 0
-3 -108 0
-3 -106 0
-3 -102 0
-3 -97 0
-3 -93 0
-3 -92 0
-3 -87 0
-3 -79 0
-3 -65 0
-3 -52 0
-3 -43 0
-3 -41 0
-3 -33 0
-3 -26 0
-3 -25 0
-3 -17 0
-3 -13 0
-3 -6 0
-2 -109 0
-2 -99 0
-2 -95 0
-2 -94 0
-2 -93 0
-2 -90 0
-2 -86 0
-2 -85 0
-2 -81 0
-2 -76 0
-2 -73 0
-2 -72 0
-2 -62 0
-2 -60 0
-2 -45 0
-2 -35 0
-2 -33 0
-2 -32 0
-2 -28 0
-1 -109 0
-1 -108 0
-1 -105 0
-1 -102 0
-1 -101 0
-1 -100 0
-1 -83 0
-1 -81 0
-1 -59 0
-1 -39 0
-1 -31 0
-1 -29 0
-1 -21 0
-1 -20 0
-1 -19 0
-1 -18 0
-1 -15 0
-1 -11 0
-1 -10 0
1 11 15 18 29 59 101 105 108 109 0
2 32 33 35 45 60 76 81 85 94 0
3 6 13 17 41 43 65 93 102 110 0
4 19 23 24 46 52 66 80 98 99 0
5 25 34 36 37 53 55 61 83 95 0
7 16 21 40 54 62 74 82 88 106 0
8 14 27 38 50 67 73 89 92 100 0
9 26 31 42 49 51 69 75 90 104 0
10 22 44 56 58 64 71 78 79 86 0
12 30 39 48 63 68 72 77 97 103 0
20 28 47 57 70 84 87 91 96 107 0
