p cnf 72 549
-69 -71 0
-68 -70 0
-67 -71 0
-66 -70 0
-65 -72 0
-64 -68 0
-63 -70 0
-63 -66 0
-62 -72 0
-62 -70 0
-62 -66 0
-62 -63 0
-61 -72 0
-61 -68 0
-61 -64 0
-61 -62 0
-60 -72 0
-60 -62 0
-60 -61 0
-59 -69 0
-59 -66 0
-58 -70 0
-58 -68 0
-57 -71 0
-57 -69 0
-57 -68 0
-57 -64 0
-57 -61 0
-56 -63 0
-56 -60 0
-55 -67 0
-55 -58 0
-54 -63 0
-54 -58 0
-54 -56 0
-54 -55 0
-53 -68 0
-53 -67 0
-53 -64 0
-53 -61 0
-53 -57 0
-53 -55 0
-52 -69 0
-52 -65 0
-52 -59 0
-51 -72 0
-51 -70 0
-51 -68 0
-51 -65 0
-51 -58 0
-50 -64 0
-50 -60 0
-50 -56 0
-49 -65 0
-49 -60 0
-49 -56 0
-49 -52 0
-49 -50 0
-48 -68 0
-48 -65 0
-48 -64 0
-48 -61 0
-48 -57 0
-48 -53 0
-48 -52 0
-48 -49 0
-47 -72 0
-47 -62 0
-47 -61 0
-47 -60 0
-46 -72 0
-46 -71 0
-46 -69 0
-46 -65 0
-46 -57 0
-46 -51 0
-45 -67 0
-45 -60 0
-45 -56 0
-45 -55 0
-45 -53 0
-45 -50 0
-45 -49 0
-44 -71 0
-44 -69 0
-44 -58 0
-44 -57 0
-44 -55 0
-44 -54 0
-44 -46 0
-43 -69 0
-43 -64 0
-43 -59 0
-43 -52 0
-43 -50 0
-42 -68 0
-42 -64 0
-42 -63 0
-42 -61 0
-42 -57 0
-42 -56 0
-42 -54 0
-42 -53 0
-42 -48 0
-41 -71 0
-41 -67 0
-41 -63 0
-41 -56 0
-41 -54 0
-41 -42 0
-40 -69 0
-40 -67 0
-40 -59 0
-40 -55 0
-40 -53 0
-40 -52 0
-40 -45 0
-40 -43 0
-39 -63 0
-39 -56 0
-39 -54 0
-39 -47 0
-39 -42 0
-39 -41 0
-38 -71 0
-38 -69 0
-38 -57 0
-38 -46 0
-38 -44 0
-37 -71 0
-37 -67 0
-37 -65 0
-37 -52 0
-37 -49 0
-37 -48 0
-37 -41 0
-36 -72 0
-36 -67 0
-36 -65 0
-36 -55 0
-36 -53 0
-36 -51 0
-36 -46 0
-36 -45 0
-36 -40 0
-35 -66 0
-35 -59 0
-35 -47 0
-35 -39 0
-34 -71 0
-34 -67 0
-34 -64 0
-34 -50 0
-34 -43 0
-34 -41 0
-34 -37 0
-33 -70 0
-33 -68 0
-33 -60 0
-33 -58 0
-33 -56 0
-33 -51 0
-33 -50 0
-33 -49 0
-33 -45 0
-32 -72 0
-32 -69 0
-32 -62 0
-32 -61 0
-32 -60 0
-32 -59 0
-32 -52 0
-32 -47 0
-32 -43 0
-32 -40 0
-31 -66 0
-31 -59 0
-31 -58 0
-31 -55 0
-31 -54 0
-31 -44 0
-31 -35 0
-30 -66 0
-30 -60 0
-30 -59 0
-30 -56 0
-30 -50 0
-30 -49 0
-30 -45 0
-30 -35 0
-30 -33 0
-30 -31 0
-29 -72 0
-29 -71 0
-29 -67 0
-29 -62 0
-29 -61 0
-29 -60 0
-29 -47 0
-29 -41 0
-29 -37 0
-29 -34 0
-29 -32 0
-28 -71 0
-28 -67 0
-28 -66 0
-28 -59 0
-28 -41 0
-28 -37 0
-28 -35 0
-28 -34 0
-28 -31 0
-28 -30 0
-28 -29 0
-27 -72 0
-27 -65 0
-27 -63 0
-27 -56 0
-27 -54 0
-27 -51 0
-27 -46 0
-27 -42 0
-27 -41 0
-27 -39 0
-27 -36 0
-26 -70 0
-26 -66 0
-26 -65 0
-26 -63 0
-26 -62 0
-26 -52 0
-26 -49 0
-26 -48 0
-26 -37 0
-25 -68 0
-25 -66 0
-25 -64 0
-25 -61 0
-25 -59 0
-25 -57 0
-25 -53 0
-25 -48 0
-25 -42 0
-25 -35 0
-25 -31 0
-25 -30 0
-25 -28 0
-24 -70 0
-24 -67 0
-24 -66 0
-24 -63 0
-24 -62 0
-24 -55 0
-24 -53 0
-24 -45 0
-24 -40 0
-24 -36 0
-24 -26 0
-23 -71 0
-23 -70 0
-23 -69 0
-23 -66 0
-23 -63 0
-23 -62 0
-23 -57 0
-23 -46 0
-23 -44 0
-23 -38 0
-23 -26 0
-23 -24 0
-22 -65 0
-22 -58 0
-22 -55 0
-22 -54 0
-22 -52 0
-22 -49 0
-22 -48 0
-22 -44 0
-22 -37 0
-22 -31 0
-22 -26 0
-21 -70 0
-21 -66 0
-21 -64 0
-21 -63 0
-21 -62 0
-21 -50 0
-21 -43 0
-21 -34 0
-21 -26 0
-21 -24 0
-21 -23 0
-20 -63 0
-20 -56 0
-20 -54 0
-20 -42 0
-20 -41 0
-20 -39 0
-20 -38 0
-20 -27 0
-19 -69 0
-19 -63 0
-19 -59 0
-19 -56 0
-19 -54 0
-19 -52 0
-19 -43 0
-19 -42 0
-19 -41 0
-19 -40 0
-19 -39 0
-19 -32 0
-19 -27 0
-19 -20 0
-18 -64 0
-18 -50 0
-18 -43 0
-18 -38 0
-18 -34 0
-18 -21 0
-18 -20 0
-17 -72 0
-17 -62 0
-17 -61 0
-17 -60 0
-17 -58 0
-17 -55 0
-17 -54 0
-17 -47 0
-17 -44 0
-17 -32 0
-17 -31 0
-17 -29 0
-17 -22 0
-16 -70 0
-16 -69 0
-16 -68 0
-16 -59 0
-16 -58 0
-16 -52 0
-16 -51 0
-16 -43 0
-16 -40 0
-16 -33 0
-16 -32 0
-16 -19 0
-15 -67 0
-15 -55 0
-15 -53 0
-15 -45 0
-15 -40 0
-15 -38 0
-15 -36 0
-15 -24 0
-15 -20 0
-15 -18 0
-14 -72 0
-14 -65 0
-14 -64 0
-14 -51 0
-14 -50 0
-14 -46 0
-14 -43 0
-14 -36 0
-14 -34 0
-14 -27 0
-14 -21 0
-14 -18 0
-13 -70 0
-13 -68 0
-13 -58 0
-13 -51 0
-13 -47 0
-13 -39 0
-13 -35 0
-13 -33 0
-13 -16 0
-12 -72 0
-12 -66 0
-12 -65 0
-12 -59 0
-12 -51 0
-12 -46 0
-12 -36 0
-12 -35 0
-12 -31 0
-12 -30 0
-12 -28 0
-12 -27 0
-12 -25 0
-12 -14 0
-11 -65 0
-11 -52 0
-11 -49 0
-11 -48 0
-11 -38 0
-11 -37 0
-11 -26 0
-11 -22 0
-11 -20 0
-11 -18 0
-11 -15 0
-10 -64 0
-10 -50 0
-10 -47 0
-10 -43 0
-10 -39 0
-10 -35 0
-10 -34 0
-10 -21 0
-10 -18 0
-10 -14 0
-10 -13 0
-9 -66 0
-9 -59 0
-9 -38 0
-9 -35 0
-9 -31 0
-9 -30 0
-9 -28 0
-9 -25 0
-9 -20 0
-9 -18 0
-9 -15 0
-9 -12 0
-9 -11 0
-8 -65 0
-8 -52 0
-8 -49 0
-8 -48 0
-8 -47 0
-8 -39 0
-8 -37 0
-8 -35 0
-8 -26 0
-8 -22 0
-8 -13 0
-8 -11 0
-8 -10 0
-7 -71 0
-7 -70 0
-7 -68 0
-7 -67 0
-7 -58 0
-7 -51 0
-7 -41 0
-7 -37 0
-7 -34 0
-7 -33 0
-7 -29 0
-7 -28 0
-7 -16 0
-7 -13 0
-6 -67 0
-6 -55 0
-6 -53 0
-6 -47 0
-6 -45 0
-6 -40 0
-6 -39 0
-6 -36 0
-6 -35 0
-6 -24 0
-6 -15 0
-6 -13 0
-6 -10 0
-6 -8 0
-5 -70 0
-5 -68 0
-5 -58 0
-5 -51 0
-5 -38 0
-5 -33 0
-5 -20 0
-5 -18 0
-5 -16 0
-5 -15 0
-5 -13 0
-5 -11 0
-5 -9 0
-5 -7 0
-4 -71 0
-4 -69 0
-4 -57 0
-4 -47 0
-4 -46 0
-4 -44 0
-4 -39 0
-4 -38 0
-4 -35 0
-4 -23 0
-4 -13 0
-4 -10 0
-4 -8 0
-4 -6 0
-3 -64 0
-3 -58 0
-3 -55 0
-3 -54 0
-3 -50 0
-3 -44 0
-3 -43 0
-3 -34 0
-3 -31 0
-3 -22 0
-3 -21 0
-3 -18 0
-3 -17 0
-3 -14 0
-3 -10 0
-2 -72 0
-2 -62 0
-2 -61 0
-2 -60 0
-2 -47 0
-2 -38 0
-2 -32 0
-2 -29 0
-2 -20 0
-2 -18 0
-2 -17 0
-2 -15 0
-2 -11 0
-2 -9 0
-2 -5 0
-1 -71 0
-1 -69 0
-1 -60 0
-1 -57 0
-1 -56 0
-1 -50 0
-1 -49 0
-1 -46 0
-1 -45 0
-1 -44 0
-1 -38 0
-1 -33 0
-1 -30 0
-1 -23 0
-1 -4 0
1 30 33 45 49 50 56 60 0
2 5 9 11 15 18 20 38 0
3 17 22 31 44 54 55 58 0
4 6 8 10 13 35 39 47 0
7 28 29 34 37 41 67 71 0
12 14 27 36 46 51 65 72 0
16 19 32 40 43 52 59 69 0
21 23 24 26 62 63 66 70 0
25 42 48 53 57 61 64 68 0
