p cnf 90 775
-87 -90 0
-87 -88 0
-86 -89 0
-83 -89 0
-83 -86 0
-81 -83 0
-80 -90 0
-80 -87 0
-80 -85 0
-79 -90 0
-79 -89 0
-78 -83 0
-78 -82 0
-78 -81 0
-77 -89 0
-77 -86 0
-77 -85 0
-77 -83 0
-76 -88 0
-75 -89 0
-75 -84 0
-75 -79 0
-74 -88 0
-74 -85 0
-74 -80 0
-74 -76 0
-73 -84 0
-73 -83 0
-73 -81 0
-73 -78 0
-73 -75 0
-72 -89 0
-72 -79 0
-72 -76 0
-72 -75 0
-71 -90 0
-71 -86 0
-71 -79 0
-70 -84 0
-70 -81 0
-69 -82 0
-69 -78 0
-68 -89 0
-68 -85 0
-68 -80 0
-68 -79 0
-68 -75 0
-68 -74 0
-68 -72 0
-67 -88 0
-67 -84 0
-67 -76 0
-67 -75 0
-67 -74 0
-67 -73 0
-66 -85 0
-66 -83 0
-66 -81 0
-66 -80 0
-66 -78 0
-66 -74 0
-66 -73 0
-66 -68 0
-65 -85 0
-65 -80 0
-65 -74 0
-65 -69 0
-65 -68 0
-65 -66 0
-64 -85 0
-64 -81 0
-64 -77 0
-64 -70 0
-63 -88 0
-63 -87 0
-63 -69 0
-63 -65 0
-62 -89 0
-62 -82 0
-62 -79 0
-62 -78 0
-62 -75 0
-62 -72 0
-62 -69 0
-62 -68 0
-61 -89 0
-61 -86 0
-61 -83 0
-61 -77 0
-61 -69 0
-61 -65 0
-61 -63 0
-60 -88 0
-60 -76 0
-60 -74 0
-60 -67 0
-59 -82 0
-59 -78 0
-59 -69 0
-59 -62 0
-58 -82 0
-58 -76 0
-58 -72 0
-57 -89 0
-57 -79 0
-57 -75 0
-57 -72 0
-57 -68 0
-57 -62 0
-57 -60 0
-56 -86 0
-56 -82 0
-56 -78 0
-56 -71 0
-56 -69 0
-56 -62 0
-56 -59 0
-55 -85 0
-55 -82 0
-55 -80 0
-55 -74 0
-55 -68 0
-55 -66 0
-55 -65 0
-55 -58 0
-54 -82 0
-54 -60 0
-54 -58 0
-54 -57 0
-54 -55 0
-53 -76 0
-53 -72 0
-53 -59 0
-53 -58 0
-52 -88 0
-52 -82 0
-52 -78 0
-52 -76 0
-52 -74 0
-52 -69 0
-52 -67 0
-52 -62 0
-52 -60 0
-52 -59 0
-52 -56 0
-51 -90 0
-51 -79 0
-51 -71 0
-51 -69 0
-51 -65 0
-51 -63 0
-51 -61 0
-50 -90 0
-50 -83 0
-50 -81 0
-50 -79 0
-50 -78 0
-50 -73 0
-50 -71 0
-50 -66 0
-50 -51 0
-49 -86 0
-49 -76 0
-49 -72 0
-49 -71 0
-49 -58 0
-49 -56 0
-49 -53 0
-48 -84 0
-48 -75 0
-48 -73 0
-48 -67 0
-48 -59 0
-48 -53 0
-47 -90 0
-47 -88 0
-47 -79 0
-47 -76 0
-47 -74 0
-47 -71 0
-47 -67 0
-47 -60 0
-47 -52 0
-47 -51 0
-47 -50 0
-46 -89 0
-46 -81 0
-46 -79 0
-46 -75 0
-46 -72 0
-46 -70 0
-46 -68 0
-46 -64 0
-46 -62 0
-46 -57 0
-45 -84 0
-45 -82 0
-45 -78 0
-45 -70 0
-45 -69 0
-45 -62 0
-45 -59 0
-45 -56 0
-45 -52 0
-44 -86 0
-44 -85 0
-44 -80 0
-44 -74 0
-44 -71 0
-44 -68 0
-44 -66 0
-44 -65 0
-44 -56 0
-44 -55 0
-44 -49 0
-43 -83 0
-43 -81 0
-43 -78 0
-43 -73 0
-43 -66 0
-43 -60 0
-43 -57 0
-43 -54 0
-43 -50 0
-42 -90 0
-42 -82 0
-42 -79 0
-42 -71 0
-42 -58 0
-42 -55 0
-42 -54 0
-42 -51 0
-42 -50 0
-42 -47 0
-41 -86 0
-41 -71 0
-41 -60 0
-41 -57 0
-41 -56 0
-41 -54 0
-41 -49 0
-41 -44 0
-41 -43 0
-40 -90 0
-40 -87 0
-40 -80 0
-40 -60 0
-40 -57 0
-40 -54 0
-40 -43 0
-40 -41 0
-39 -84 0
-39 -76 0
-39 -72 0
-39 -70 0
-39 -58 0
-39 -53 0
-39 -49 0
-39 -45 0
-38 -90 0
-38 -87 0
-38 -81 0
-38 -80 0
-38 -70 0
-38 -64 0
-38 -46 0
-38 -40 0
-37 -81 0
-37 -70 0
-37 -64 0
-37 -59 0
-37 -53 0
-37 -48 0
-37 -46 0
-37 -38 0
-36 -69 0
-36 -65 0
-36 -63 0
-36 -61 0
-36 -60 0
-36 -57 0
-36 -54 0
-36 -51 0
-36 -43 0
-36 -41 0
-36 -40 0
-35 -88 0
-35 -81 0
-35 -76 0
-35 -74 0
-35 -70 0
-35 -67 0
-35 -64 0
-35 -60 0
-35 -52 0
-35 -47 0
-35 -46 0
-35 -38 0
-35 -37 0
-34 -90 0
-34 -84 0
-34 -79 0
-34 -71 0
-34 -70 0
-34 -51 0
-34 -50 0
-34 -47 0
-34 -45 0
-34 -42 0
-34 -39 0
-33 -84 0
-33 -70 0
-33 -60 0
-33 -57 0
-33 -54 0
-33 -45 0
-33 -43 0
-33 -41 0
-33 -40 0
-33 -39 0
-33 -36 0
-33 -34 0
-32 -85 0
-32 -82 0
-32 -78 0
-32 -77 0
-32 -69 0
-32 -64 0
-32 -62 0
-32 -59 0
-32 -56 0
-32 -52 0
-32 -45 0
-31 -88 0
-31 -87 0
-31 -83 0
-31 -81 0
-31 -78 0
-31 -73 0
-31 -66 0
-31 -63 0
-31 -50 0
-31 -43 0
-30 -86 0
-30 -81 0
-30 -71 0
-30 -70 0
-30 -64 0
-30 -56 0
-30 -49 0
-30 -46 0
-30 -44 0
-30 -41 0
-30 -38 0
-30 -37 0
-30 -35 0
-29 -82 0
-29 -81 0
-29 -70 0
-29 -64 0
-29 -58 0
-29 -55 0
-29 -54 0
-29 -46 0
-29 -42 0
-29 -38 0
-29 -37 0
-29 -35 0
-29 -30 0
-28 -84 0
-28 -75 0
-28 -73 0
-28 -69 0
-28 -67 0
-28 -65 0
-28 -63 0
-28 -61 0
-28 -51 0
-28 -48 0
-28 -36 0
-27 -89 0
-27 -86 0
-27 -83 0
-27 -82 0
-27 -77 0
-27 -61 0
-27 -58 0
-27 -55 0
-27 -54 0
-27 -42 0
-27 -29 0
-26 -88 0
-26 -87 0
-26 -84 0
-26 -70 0
-26 -63 0
-26 -45 0
-26 -39 0
-26 -34 0
-26 -33 0
-26 -31 0
-25 -90 0
-25 -87 0
-25 -80 0
-25 -76 0
-25 -72 0
-25 -58 0
-25 -53 0
-25 -49 0
-25 -40 0
-25 -39 0
-25 -38 0
-24 -84 0
-24 -82 0
-24 -75 0
-24 -73 0
-24 -67 0
-24 -58 0
-24 -55 0
-24 -54 0
-24 -48 0
-24 -42 0
-24 -29 0
-24 -28 0
-24 -27 0
-23 -60 0
-23 -59 0
-23 -57 0
-23 -54 0
-23 -53 0
-23 -48 0
-23 -43 0
-23 -41 0
-23 -40 0
-23 -37 0
-23 -36 0
-23 -33 0
-22 -85 0
-22 -84 0
-22 -77 0
-22 -75 0
-22 -73 0
-22 -67 0
-22 -64 0
-22 -48 0
-22 -32 0
-22 -28 0
-22 -24 0
-21 -89 0
-21 -86 0
-21 -83 0
-21 -77 0
-21 -61 0
-21 -59 0
-21 -53 0
-21 -48 0
-21 -37 0
-21 -27 0
-21 -23 0
-20 -88 0
-20 -87 0
-20 -82 0
-20 -63 0
-20 -58 0
-20 -55 0
-20 -54 0
-20 -42 0
-20 -31 0
-20 -29 0
-20 -27 0
-20 -26 0
-20 -24 0
-19 -89 0
-19 -88 0
-19 -87 0
-19 -79 0
-19 -75 0
-19 -72 0
-19 -68 0
-19 -63 0
-19 -62 0
-19 -57 0
-19 -46 0
-19 -31 0
-19 -26 0
-19 -20 0
-18 -90 0
-18 -89 0
-18 -87 0
-18 -86 0
-18 -83 0
-18 -80 0
-18 -77 0
-18 -61 0
-18 -40 0
-18 -38 0
-18 -27 0
-18 -25 0
-18 -21 0
-17 -85 0
-17 -84 0
-17 -80 0
-17 -74 0
-17 -70 0
-17 -68 0
-17 -66 0
-17 -65 0
-17 -55 0
-17 -45 0
-17 -44 0
-17 -39 0
-17 -34 0
-17 -33 0
-17 -26 0
-16 -88 0
-16 -87 0
-16 -85 0
-16 -77 0
-16 -64 0
-16 -63 0
-16 -32 0
-16 -31 0
-16 -26 0
-16 -22 0
-16 -20 0
-16 -19 0
-15 -90 0
-15 -87 0
-15 -84 0
-15 -80 0
-15 -75 0
-15 -73 0
-15 -67 0
-15 -48 0
-15 -40 0
-15 -38 0
-15 -28 0
-15 -25 0
-15 -24 0
-15 -22 0
-15 -18 0
-14 -85 0
-14 -77 0
-14 -76 0
-14 -72 0
-14 -64 0
-14 -58 0
-14 -53 0
-14 -49 0
-14 -39 0
-14 -32 0
-14 -25 0
-14 -22 0
-14 -16 0
-13 -88 0
-13 -87 0
-13 -63 0
-13 -59 0
-13 -53 0
-13 -48 0
-13 -37 0
-13 -31 0
-13 -26 0
-13 -23 0
-13 -21 0
-13 -20 0
-13 -19 0
-13 -16 0
-12 -90 0
-12 -87 0
-12 -82 0
-12 -80 0
-12 -78 0
-12 -69 0
-12 -62 0
-12 -59 0
-12 -56 0
-12 -52 0
-12 -45 0
-12 -40 0
-12 -38 0
-12 -32 0
-12 -25 0
-12 -18 0
-12 -15 0
-11 -88 0
-11 -87 0
-11 -86 0
-11 -71 0
-11 -63 0
-11 -56 0
-11 -49 0
-11 -44 0
-11 -41 0
-11 -31 0
-11 -30 0
-11 -26 0
-11 -20 0
-11 -19 0
-11 -16 0
-11 -13 0
-10 -90 0
-10 -85 0
-10 -79 0
-10 -77 0
-10 -71 0
-10 -64 0
-10 -51 0
-10 -50 0
-10 -47 0
-10 -42 0
-10 -34 0
-10 -32 0
-10 -22 0
-10 -16 0
-10 -14 0
-9 -89 0
-9 -86 0
-9 -84 0
-9 -83 0
-9 -77 0
-9 -70 0
-9 -61 0
-9 -45 0
-9 -39 0
-9 -34 0
-9 -33 0
-9 -27 0
-9 -26 0
-9 -21 0
-9 -18 0
-9 -17 0
-8 -90 0
-8 -79 0
-8 -71 0
-8 -59 0
-8 -53 0
-8 -51 0
-8 -50 0
-8 -48 0
-8 -47 0
-8 -42 0
-8 -37 0
-8 -34 0
-8 -23 0
-8 -21 0
-8 -13 0
-8 -10 0
-7 -85 0
-7 -80 0
-7 -74 0
-7 -68 0
-7 -66 0
-7 -65 0
-7 -59 0
-7 -55 0
-7 -53 0
-7 -48 0
-7 -44 0
-7 -37 0
-7 -23 0
-7 -21 0
-7 -17 0
-7 -13 0
-7 -8 0
-6 -76 0
-6 -72 0
-6 -69 0
-6 -65 0
-6 -63 0
-6 -61 0
-6 -58 0
-6 -53 0
-6 -51 0
-6 -49 0
-6 -39 0
-6 -36 0
-6 -28 0
-6 -25 0
-6 -14 0
-5 -86 0
-5 -84 0
-5 -75 0
-5 -73 0
-5 -71 0
-5 -67 0
-5 -56 0
-5 -49 0
-5 -48 0
-5 -44 0
-5 -41 0
-5 -30 0
-5 -28 0
-5 -24 0
-5 -22 0
-5 -15 0
-5 -11 0
-4 -89 0
-4 -88 0
-4 -86 0
-4 -83 0
-4 -77 0
-4 -76 0
-4 -74 0
-4 -67 0
-4 -61 0
-4 -60 0
-4 -52 0
-4 -47 0
-4 -35 0
-4 -27 0
-4 -21 0
-4 -18 0
-4 -9 0
-3 -85 0
-3 -77 0
-3 -64 0
-3 -60 0
-3 -57 0
-3 -54 0
-3 -43 0
-3 -41 0
-3 -40 0
-3 -36 0
-3 -33 0
-3 -32 0
-3 -23 0
-3 -22 0
-3 -16 0
-3 -14 0
-3 -10 0
-2 -83 0
-2 -81 0
-2 -78 0
-2 -76 0
-2 -73 0
-2 -72 0
-2 -66 0
-2 -58 0
-2 -53 0
-2 -50 0
-2 -49 0
-2 -43 0
-2 -39 0
-2 -31 0
-2 -25 0
-2 -14 0
-2 -6 0
-1 -81 0
-1 -70 0
-1 -69 0
-1 -65 0
-1 -64 0
-1 -63 0
-1 -61 0
-1 -51 0
-1 -46 0
-1 -38 0
-1 -37 0
-1 -36 0
-1 -35 0
-1 -30 0
-1 -29 0
-1 -28 0
-1 -6 0
1 6 28 36 51 61 63 65 69 0
2 31 43 50 66 73 78 81 83 0
3 10 14 16 22 32 64 77 85 0
4 35 47 52 60 67 74 76 88 0
5 11 30 41 44 49 56 71 86 0
7 8 13 21 23 37 48 53 59 0
9 17 26 33 34 39 45 70 84 0
12 15 18 25 38 40 80 87 90 0
19 46 57 62 68 72 75 79 89 0
20 24 27 29 42 54 55 58 82 0
