p cnf 56 372
-54 -55 0
-52 -53 0
-50 -52 0
-49 -55 0
-49 -53 0
-49 -52 0
-48 -55 0
-48 -51 0
-48 -49 0
-47 -55 0
-47 -54 0
-47 -53 0
-46 -56 0
-45 -53 0
-45 -47 0
-44 -55 0
-44 -49 0
-44 -48 0
-44 -45 0
-43 -55 0
-43 -49 0
-43 -48 0
-43 -44 0
-42 -54 0
-42 -46 0
-41 -53 0
-41 -52 0
-41 -51 0
-41 -49 0
-40 -56 0
-40 -46 0
-40 -45 0
-40 -44 0
-39 -54 0
-39 -51 0
-39 -48 0
-39 -42 0
-38 -51 0
-38 -43 0
-38 -41 0
-37 -53 0
-37 -51 0
-37 -48 0
-37 -47 0
-37 -45 0
-37 -39 0
-36 -45 0
-36 -44 0
-36 -40 0
-35 -50 0
-35 -36 0
-34 -56 0
-34 -51 0
-34 -41 0
-34 -38 0
-33 -54 0
-33 -53 0
-33 -52 0
-33 -49 0
-33 -42 0
-33 -41 0
-33 -39 0
-32 -56 0
-32 -55 0
-32 -49 0
-32 -48 0
-32 -44 0
-32 -43 0
-32 -34 0
-31 -56 0
-31 -55 0
-31 -54 0
-31 -47 0
-31 -46 0
-31 -40 0
-30 -55 0
-30 -54 0
-30 -47 0
-30 -36 0
-30 -35 0
-30 -31 0
-29 -55 0
-29 -49 0
-29 -48 0
-29 -46 0
-29 -44 0
-29 -43 0
-29 -42 0
-29 -32 0
-28 -54 0
-28 -45 0
-28 -44 0
-28 -42 0
-28 -40 0
-28 -39 0
-28 -36 0
-28 -33 0
-27 -54 0
-27 -43 0
-27 -42 0
-27 -39 0
-27 -38 0
-27 -33 0
-27 -28 0
-26 -51 0
-26 -48 0
-26 -39 0
-26 -37 0
-26 -36 0
-26 -35 0
-26 -30 0
-25 -52 0
-25 -50 0
-25 -43 0
-25 -38 0
-25 -27 0
-24 -56 0
-24 -53 0
-24 -52 0
-24 -49 0
-24 -46 0
-24 -41 0
-24 -40 0
-24 -33 0
-24 -31 0
-23 -51 0
-23 -45 0
-23 -44 0
-23 -41 0
-23 -40 0
-23 -38 0
-23 -36 0
-23 -34 0
-23 -28 0
-22 -56 0
-22 -46 0
-22 -43 0
-22 -40 0
-22 -38 0
-22 -31 0
-22 -27 0
-22 -25 0
-22 -24 0
-21 -54 0
-21 -50 0
-21 -42 0
-21 -39 0
-21 -35 0
-21 -33 0
-21 -28 0
-21 -27 0
-20 -51 0
-20 -46 0
-20 -42 0
-20 -41 0
-20 -38 0
-20 -34 0
-20 -29 0
-20 -23 0
-19 -56 0
-19 -52 0
-19 -50 0
-19 -34 0
-19 -32 0
-19 -25 0
-18 -53 0
-18 -47 0
-18 -45 0
-18 -43 0
-18 -38 0
-18 -37 0
-18 -27 0
-18 -25 0
-18 -22 0
-17 -46 0
-17 -42 0
-17 -36 0
-17 -35 0
-17 -30 0
-17 -29 0
-17 -26 0
-17 -20 0
-16 -43 0
-16 -38 0
-16 -36 0
-16 -35 0
-16 -30 0
-16 -27 0
-16 -26 0
-16 -25 0
-16 -22 0
-16 -18 0
-16 -17 0
-15 -56 0
-15 -36 0
-15 -35 0
-15 -34 0
-15 -32 0
-15 -30 0
-15 -26 0
-15 -19 0
-15 -17 0
-15 -16 0
-14 -56 0
-14 -51 0
-14 -48 0
-14 -46 0
-14 -40 0
-14 -39 0
-14 -37 0
-14 -31 0
-14 -26 0
-14 -24 0
-14 -22 0
-13 -52 0
-13 -51 0
-13 -50 0
-13 -48 0
-13 -39 0
-13 -37 0
-13 -26 0
-13 -25 0
-13 -19 0
-13 -14 0
-12 -53 0
-12 -47 0
-12 -46 0
-12 -45 0
-12 -42 0
-12 -37 0
-12 -29 0
-12 -20 0
-12 -18 0
-12 -17 0
-11 -56 0
-11 -53 0
-11 -47 0
-11 -45 0
-11 -37 0
-11 -34 0
-11 -32 0
-11 -19 0
-11 -18 0
-11 -15 0
-11 -12 0
-10 -52 0
-10 -50 0
-10 -45 0
-10 -44 0
-10 -40 0
-10 -36 0
-10 -28 0
-10 -25 0
-10 -23 0
-10 -19 0
-10 -13 0
-9 -52 0
-9 -50 0
-9 -46 0
-9 -42 0
-9 -29 0
-9 -25 0
-9 -20 0
-9 -19 0
-9 -17 0
-9 -13 0
-9 -12 0
-9 -10 0
-8 -55 0
-8 -54 0
-8 -51 0
-8 -47 0
-8 -41 0
-8 -38 0
-8 -34 0
-8 -31 0
-8 -30 0
-8 -23 0
-8 -20 0
-7 -55 0
-7 -50 0
-7 -49 0
-7 -48 0
-7 -44 0
-7 -43 0
-7 -35 0
-7 -32 0
-7 -29 0
-7 -21 0
-6 -53 0
-6 -52 0
-6 -49 0
-6 -41 0
-6 -36 0
-6 -35 0
-6 -33 0
-6 -30 0
-6 -26 0
-6 -24 0
-6 -17 0
-6 -16 0
-6 -15 0
-5 -53 0
-5 -50 0
-5 -47 0
-5 -45 0
-5 -37 0
-5 -35 0
-5 -21 0
-5 -18 0
-5 -12 0
-5 -11 0
-5 -7 0
-4 -55 0
-4 -54 0
-4 -52 0
-4 -50 0
-4 -47 0
-4 -31 0
-4 -30 0
-4 -25 0
-4 -19 0
-4 -13 0
-4 -10 0
-4 -9 0
-4 -8 0
-3 -56 0
-3 -50 0
-3 -46 0
-3 -40 0
-3 -35 0
-3 -31 0
-3 -24 0
-3 -22 0
-3 -21 0
-3 -14 0
-3 -7 0
-3 -5 0
-2 -56 0
-2 -54 0
-2 -42 0
-2 -39 0
-2 -34 0
-2 -33 0
-2 -32 0
-2 -28 0
-2 -27 0
-2 -21 0
-2 -19 0
-2 -15 0
-2 -11 0
-1 -51 0
-1 -50 0
-1 -41 0
-1 -38 0
-1 -35 0
-1 -34 0
-1 -23 0
-1 -21 0
-1 -20 0
-1 -8 0
-1 -7 0
-1 -5 0
-1 -3 0
1 3 5 7 21 35 50 0
2 11 15 19 32 34 56 0
4 8 30 31 47 54 55 0
6 24 33 41 49 52 53 0
9 12 17 20 29 42 46 0
10 23 28 36 40 44 45 0
13 14 26 37 39 48 51 0
16 18 22 25 27 38 43 0
