p cnf 132 1398
-127 -128 0
-126 -131 0
-123 -131 0
-123 -126 0
-122 -130 0
-122 -128 0
-122 -127 0
-121 -127 0
-120 -124 0
-119 -130 0
-119 -124 0
-119 -120 0
-118 -129 0
-118 -124 0
-117 -130 0
-117 -119 0
-116 -130 0
-116 -124 0
-116 -122 0
-116 -118 0
-115 -131 0
-115 -128 0
-115 -126 0
-115 -123 0
-114 -129 0
-114 -125 0
-114 -118 0
-113 -129 0
-113 -126 0
-112 -132 0
-112 -125 0
-112 -114 0
-111 -125 0
-110 -129 0
-110 -123 0
-110 -113 0
-109 -123 0
-109 -120 0
-109 -110 0
-108 -125 0
-108 -120 0
-108 -111 0
-108 -109 0
-107 -132 0
-107 -127 0
-107 -121 0
-106 -126 0
-106 -121 0
-106 -113 0
-105 -130 0
-105 -122 0
-105 -116 0
-104 -130 0
-104 -123 0
-104 -119 0
-104 -117 0
-104 -110 0
-104 -109 0
-103 -128 0
-103 -115 0
-103 -111 0
-102 -124 0
-102 -118 0
-102 -117 0
-102 -116 0
-101 -124 0
-101 -120 0
-101 -119 0
-101 -111 0
-101 -103 0
-100 -131 0
-100 -129 0
-100 -113 0
-100 -110 0
-99 -131 0
-99 -125 0
-99 -114 0
-99 -112 0
-99 -100 0
-98 -131 0
-98 -124 0
-98 -118 0
-98 -116 0
-98 -102 0
-98 -100 0
-98 -99 0
-97 -131 0
-97 -105 0
-97 -100 0
-97 -99 0
-97 -98 0
-96 -117 0
-96 -105 0
-96 -102 0
-96 -97 0
-95 -130 0
-95 -122 0
-95 -116 0
-95 -105 0
-94 -128 0
-94 -127 0
-94 -125 0
-94 -122 0
-94 -111 0
-94 -108 0
-93 -124 0
-93 -123 0
-93 -118 0
-93 -116 0
-93 -110 0
-93 -109 0
-93 -104 0
-93 -102 0
-93 -98 0
-92 -127 0
-92 -121 0
-92 -111 0
-92 -107 0
-92 -103 0
-92 -101 0
-91 -132 0
-91 -128 0
-91 -127 0
-91 -122 0
-91 -112 0
-91 -94 0
-90 -128 0
-90 -127 0
-90 -122 0
-90 -117 0
-90 -102 0
-90 -96 0
-90 -94 0
-90 -91 0
-89 -125 0
-89 -117 0
-89 -114 0
-89 -112 0
-89 -102 0
-89 -99 0
-89 -96 0
-89 -90 0
-88 -132 0
-88 -112 0
-88 -95 0
-88 -91 0
-87 -129 0
-87 -118 0
-87 -114 0
-87 -111 0
-87 -103 0
-87 -101 0
-87 -92 0
-86 -131 0
-86 -111 0
-86 -103 0
-86 -101 0
-86 -100 0
-86 -99 0
-86 -98 0
-86 -97 0
-86 -92 0
-86 -87 0
-85 -125 0
-85 -121 0
-85 -111 0
-85 -108 0
-85 -106 0
-85 -94 0
-84 -123 0
-84 -110 0
-84 -109 0
-84 -105 0
-84 -104 0
-84 -97 0
-84 -96 0
-84 -93 0
-83 -131 0
-83 -126 0
-83 -125 0
-83 -123 0
-83 -115 0
-83 -111 0
-83 -108 0
-83 -94 0
-83 -85 0
-82 -132 0
-82 -131 0
-82 -107 0
-82 -100 0
-82 -99 0
-82 -98 0
-82 -97 0
-82 -86 0
-81 -129 0
-81 -125 0
-81 -113 0
-81 -111 0
-81 -110 0
-81 -108 0
-81 -100 0
-81 -94 0
-81 -85 0
-81 -83 0
-80 -131 0
-80 -121 0
-80 -106 0
-80 -100 0
-80 -99 0
-80 -98 0
-80 -97 0
-80 -86 0
-80 -85 0
-80 -82 0
-79 -121 0
-79 -117 0
-79 -106 0
-79 -102 0
-79 -96 0
-79 -90 0
-79 -89 0
-79 -85 0
-79 -80 0
-78 -123 0
-78 -110 0
-78 -109 0
-78 -104 0
-78 -95 0
-78 -93 0
-78 -88 0
-78 -84 0
-77 -126 0
-77 -113 0
-77 -106 0
-77 -95 0
-77 -88 0
-77 -78 0
-76 -125 0
-76 -124 0
-76 -118 0
-76 -116 0
-76 -111 0
-76 -108 0
-76 -102 0
-76 -98 0
-76 -94 0
-76 -93 0
-76 -85 0
-76 -83 0
-76 -81 0
-75 -130 0
-75 -122 0
-75 -116 0
-75 -111 0
-75 -105 0
-75 -103 0
-75 -101 0
-75 -95 0
-75 -92 0
-75 -87 0
-75 -86 0
-74 -130 0
-74 -129 0
-74 -122 0
-74 -116 0
-74 -113 0
-74 -110 0
-74 -105 0
-74 -100 0
-74 -95 0
-74 -81 0
-74 -75 0
-73 -130 0
-73 -126 0
-73 -119 0
-73 -117 0
-73 -113 0
-73 -106 0
-73 -104 0
-73 -77 0
-72 -124 0
-72 -121 0
-72 -120 0
-72 -119 0
-72 -106 0
-72 -101 0
-72 -85 0
-72 -80 0
-72 -79 0
-71 -131 0
-71 -126 0
-71 -123 0
-71 -117 0
-71 -115 0
-71 -102 0
-71 -96 0
-71 -90 0
-71 -89 0
-71 -83 0
-71 -79 0
-70 -124 0
-70 -120 0
-70 -119 0
-70 -101 0
-70 -95 0
-70 -88 0
-70 -78 0
-70 -77 0
-70 -72 0
-69 -130 0
-69 -122 0
-69 -121 0
-69 -116 0
-69 -106 0
-69 -105 0
-69 -95 0
-69 -85 0
-69 -80 0
-69 -79 0
-69 -75 0
-69 -74 0
-69 -72 0
-68 -127 0
-68 -121 0
-68 -120 0
-68 -109 0
-68 -108 0
-68 -107 0
-68 -92 0
-67 -126 0
-67 -113 0
-67 -111 0
-67 -106 0
-67 -103 0
-67 -101 0
-67 -92 0
-67 -87 0
-67 -86 0
-67 -77 0
-67 -75 0
-67 -73 0
-66 -123 0
-66 -121 0
-66 -110 0
-66 -109 0
-66 -106 0
-66 -104 0
-66 -93 0
-66 -85 0
-66 -84 0
-66 -80 0
-66 -79 0
-66 -78 0
-66 -72 0
-66 -69 0
-65 -131 0
-65 -126 0
-65 -124 0
-65 -123 0
-65 -120 0
-65 -119 0
-65 -115 0
-65 -101 0
-65 -83 0
-65 -72 0
-65 -71 0
-65 -70 0
-64 -129 0
-64 -121 0
-64 -118 0
-64 -114 0
-64 -106 0
-64 -87 0
-64 -85 0
-64 -80 0
-64 -79 0
-64 -72 0
-64 -69 0
-64 -66 0
-63 -132 0
-63 -125 0
-63 -111 0
-63 -108 0
-63 -107 0
-63 -94 0
-63 -85 0
-63 -83 0
-63 -82 0
-63 -81 0
-63 -76 0
-62 -125 0
-62 -124 0
-62 -120 0
-62 -119 0
-62 -114 0
-62 -112 0
-62 -101 0
-62 -99 0
-62 -89 0
-62 -72 0
-62 -70 0
-62 -65 0
-61 -125 0
-61 -111 0
-61 -108 0
-61 -95 0
-61 -94 0
-61 -88 0
-61 -85 0
-61 -83 0
-61 -81 0
-61 -78 0
-61 -77 0
-61 -76 0
-61 -70 0
-61 -63 0
-60 -132 0
-60 -129 0
-60 -113 0
-60 -112 0
-60 -110 0
-60 -100 0
-60 -91 0
-60 -88 0
-60 -81 0
-60 -74 0
-59 -126 0
-59 -120 0
-59 -113 0
-59 -109 0
-59 -108 0
-59 -106 0
-59 -77 0
-59 -73 0
-59 -68 0
-59 -67 0
-58 -127 0
-58 -121 0
-58 -107 0
-58 -95 0
-58 -92 0
-58 -88 0
-58 -78 0
-58 -77 0
-58 -70 0
-58 -68 0
-58 -61 0
-57 -126 0
-57 -125 0
-57 -114 0
-57 -113 0
-57 -112 0
-57 -106 0
-57 -99 0
-57 -89 0
-57 -77 0
-57 -73 0
-57 -67 0
-57 -62 0
-57 -59 0
-56 -132 0
-56 -130 0
-56 -122 0
-56 -116 0
-56 -107 0
-56 -105 0
-56 -95 0
-56 -82 0
-56 -75 0
-56 -74 0
-56 -69 0
-56 -63 0
-55 -125 0
-55 -123 0
-55 -114 0
-55 -112 0
-55 -110 0
-55 -109 0
-55 -104 0
-55 -99 0
-55 -93 0
-55 -89 0
-55 -84 0
-55 -78 0
-55 -66 0
-55 -62 0
-55 -57 0
-54 -117 0
-54 -102 0
-54 -96 0
-54 -95 0
-54 -90 0
-54 -89 0
-54 -88 0
-54 -79 0
-54 -78 0
-54 -77 0
-54 -71 0
-54 -70 0
-54 -61 0
-54 -58 0
-53 -132 0
-53 -126 0
-53 -113 0
-53 -107 0
-53 -106 0
-53 -82 0
-53 -77 0
-53 -73 0
-53 -67 0
-53 -63 0
-53 -59 0
-53 -57 0
-53 -56 0
-52 -125 0
-52 -111 0
-52 -108 0
-52 -105 0
-52 -97 0
-52 -96 0
-52 -94 0
-52 -85 0
-52 -84 0
-52 -83 0
-52 -81 0
-52 -76 0
-52 -63 0
-52 -61 0
-51 -129 0
-51 -128 0
-51 -115 0
-51 -113 0
-51 -110 0
-51 -103 0
-51 -100 0
-51 -81 0
-51 -74 0
-51 -60 0
-50 -130 0
-50 -127 0
-50 -121 0
-50 -119 0
-50 -117 0
-50 -107 0
-50 -104 0
-50 -92 0
-50 -73 0
-50 -68 0
-50 -58 0
-49 -128 0
-49 -124 0
-49 -118 0
-49 -116 0
-49 -115 0
-49 -103 0
-49 -102 0
-49 -98 0
-49 -93 0
-49 -76 0
-49 -51 0
-48 -131 0
-48 -129 0
-48 -126 0
-48 -123 0
-48 -118 0
-48 -115 0
-48 -114 0
-48 -87 0
-48 -83 0
-48 -71 0
-48 -65 0
-48 -64 0
-47 -128 0
-47 -127 0
-47 -123 0
-47 -122 0
-47 -110 0
-47 -109 0
-47 -104 0
-47 -94 0
-47 -93 0
-47 -91 0
-47 -90 0
-47 -84 0
-47 -78 0
-47 -66 0
-47 -55 0
-46 -128 0
-46 -127 0
-46 -124 0
-46 -122 0
-46 -120 0
-46 -119 0
-46 -101 0
-46 -94 0
-46 -91 0
-46 -90 0
-46 -72 0
-46 -70 0
-46 -65 0
-46 -62 0
-46 -47 0
-45 -131 0
-45 -120 0
-45 -109 0
-45 -108 0
-45 -100 0
-45 -99 0
-45 -98 0
-45 -97 0
-45 -86 0
-45 -82 0
-45 -80 0
-45 -68 0
-45 -59 0
-44 -128 0
-44 -127 0
-44 -126 0
-44 -122 0
-44 -113 0
-44 -106 0
-44 -94 0
-44 -91 0
-44 -90 0
-44 -77 0
-44 -73 0
-44 -67 0
-44 -59 0
-44 -57 0
-44 -53 0
-44 -47 0
-44 -46 0
-43 -132 0
-43 -129 0
-43 -118 0
-43 -114 0
-43 -107 0
-43 -87 0
-43 -82 0
-43 -64 0
-43 -63 0
-43 -56 0
-43 -53 0
-43 -48 0
-42 -129 0
-42 -118 0
-42 -114 0
-42 -105 0
-42 -97 0
-42 -96 0
-42 -87 0
-42 -84 0
-42 -64 0
-42 -52 0
-42 -48 0
-42 -43 0
-41 -130 0
-41 -129 0
-41 -119 0
-41 -118 0
-41 -117 0
-41 -114 0
-41 -104 0
-41 -87 0
-41 -73 0
-41 -64 0
-41 -50 0
-41 -48 0
-41 -43 0
-41 -42 0
-40 -120 0
-40 -117 0
-40 -109 0
-40 -108 0
-40 -102 0
-40 -96 0
-40 -90 0
-40 -89 0
-40 -79 0
-40 -71 0
-40 -68 0
-40 -59 0
-40 -54 0
-40 -45 0
-39 -128 0
-39 -115 0
-39 -103 0
-39 -95 0
-39 -88 0
-39 -78 0
-39 -77 0
-39 -70 0
-39 -61 0
-39 -58 0
-39 -54 0
-39 -51 0
-39 -49 0
-38 -132 0
-38 -131 0
-38 -126 0
-38 -123 0
-38 -115 0
-38 -112 0
-38 -91 0
-38 -88 0
-38 -83 0
-38 -71 0
-38 -65 0
-38 -60 0
-38 -48 0
-37 -129 0
-37 -124 0
-37 -120 0
-37 -119 0
-37 -113 0
-37 -110 0
-37 -101 0
-37 -100 0
-37 -81 0
-37 -74 0
-37 -72 0
-37 -70 0
-37 -65 0
-37 -62 0
-37 -60 0
-37 -51 0
-37 -46 0
-36 -128 0
-36 -121 0
-36 -115 0
-36 -106 0
-36 -103 0
-36 -85 0
-36 -80 0
-36 -79 0
-36 -72 0
-36 -69 0
-36 -66 0
-36 -64 0
-36 -51 0
-36 -49 0
-36 -39 0
-35 -127 0
-35 -125 0
-35 -121 0
-35 -114 0
-35 -112 0
-35 -107 0
-35 -99 0
-35 -92 0
-35 -89 0
-35 -68 0
-35 -62 0
-35 -58 0
-35 -57 0
-35 -55 0
-35 -50 0
-34 -130 0
-34 -125 0
-34 -122 0
-34 -116 0
-34 -114 0
-34 -112 0
-34 -105 0
-34 -99 0
-34 -95 0
-34 -89 0
-34 -75 0
-34 -74 0
-34 -69 0
-34 -62 0
-34 -57 0
-34 -56 0
-34 -55 0
-34 -35 0
-33 -131 0
-33 -100 0
-33 -99 0
-33 -98 0
-33 -97 0
-33 -95 0
-33 -88 0
-33 -86 0
-33 -82 0
-33 -80 0
-33 -78 0
-33 -77 0
-33 -70 0
-33 -61 0
-33 -58 0
-33 -54 0
-33 -45 0
-33 -39 0
-32 -123 0
-32 -111 0
-32 -110 0
-32 -109 0
-32 -104 0
-32 -103 0
-32 -101 0
-32 -93 0
-32 -92 0
-32 -87 0
-32 -86 0
-32 -84 0
-32 -78 0
-32 -75 0
-32 -67 0
-32 -66 0
-32 -55 0
-32 -47 0
-31 -132 0
-31 -124 0
-31 -120 0
-31 -119 0
-31 -107 0
-31 -101 0
-31 -82 0
-31 -72 0
-31 -70 0
-31 -65 0
-31 -63 0
-31 -62 0
-31 -56 0
-31 -53 0
-31 -46 0
-31 -43 0
-31 -37 0
-30 -132 0
-30 -117 0
-30 -107 0
-30 -102 0
-30 -96 0
-30 -90 0
-30 -89 0
-30 -82 0
-30 -79 0
-30 -71 0
-30 -63 0
-30 -56 0
-30 -54 0
-30 -53 0
-30 -43 0
-30 -40 0
-30 -31 0
-29 -132 0
-29 -123 0
-29 -110 0
-29 -109 0
-29 -107 0
-29 -104 0
-29 -93 0
-29 -84 0
-29 -82 0
-29 -78 0
-29 -66 0
-29 -63 0
-29 -56 0
-29 -55 0
-29 -53 0
-29 -47 0
-29 -43 0
-29 -32 0
-29 -31 0
-29 -30 0
-28 -131 0
-28 -127 0
-28 -126 0
-28 -123 0
-28 -121 0
-28 -115 0
-28 -107 0
-28 -92 0
-28 -83 0
-28 -71 0
-28 -68 0
-28 -65 0
-28 -58 0
-28 -50 0
-28 -48 0
-28 -38 0
-28 -35 0
-27 -132 0
-27 -128 0
-27 -115 0
-27 -107 0
-27 -103 0
-27 -82 0
-27 -63 0
-27 -56 0
-27 -53 0
-27 -51 0
-27 -49 0
-27 -43 0
-27 -39 0
-27 -36 0
-27 -31 0
-27 -30 0
-27 -29 0
-26 -129 0
-26 -128 0
-26 -127 0
-26 -122 0
-26 -118 0
-26 -114 0
-26 -94 0
-26 -91 0
-26 -90 0
-26 -87 0
-26 -64 0
-26 -48 0
-26 -47 0
-26 -46 0
-26 -44 0
-26 -43 0
-26 -42 0
-26 -41 0
-25 -124 0
-25 -120 0
-25 -119 0
-25 -105 0
-25 -101 0
-25 -97 0
-25 -96 0
-25 -84 0
-25 -72 0
-25 -70 0
-25 -65 0
-25 -62 0
-25 -52 0
-25 -46 0
-25 -42 0
-25 -37 0
-25 -31 0
-24 -128 0
-24 -115 0
-24 -105 0
-24 -103 0
-24 -97 0
-24 -96 0
-24 -84 0
-24 -52 0
-24 -51 0
-24 -49 0
-24 -42 0
-24 -39 0
-24 -36 0
-24 -27 0
-24 -25 0
-23 -127 0
-23 -124 0
-23 -121 0
-23 -118 0
-23 -116 0
-23 -107 0
-23 -102 0
-23 -98 0
-23 -93 0
-23 -92 0
-23 -76 0
-23 -68 0
-23 -58 0
-23 -50 0
-23 -49 0
-23 -35 0
-23 -28 0
-22 -126 0
-22 -113 0
-22 -106 0
-22 -105 0
-22 -97 0
-22 -96 0
-22 -84 0
-22 -77 0
-22 -73 0
-22 -67 0
-22 -59 0
-22 -57 0
-22 -53 0
-22 -52 0
-22 -44 0
-22 -42 0
-22 -25 0
-22 -24 0
-21 -129 0
-21 -127 0
-21 -121 0
-21 -113 0
-21 -110 0
-21 -107 0
-21 -100 0
-21 -92 0
-21 -81 0
-21 -74 0
-21 -68 0
-21 -60 0
-21 -58 0
-21 -51 0
-21 -50 0
-21 -37 0
-21 -35 0
-21 -28 0
-21 -23 0
-20 -128 0
-20 -120 0
-20 -115 0
-20 -109 0
-20 -108 0
-20 -103 0
-20 -68 0
-20 -59 0
-20 -51 0
-20 -49 0
-20 -45 0
-20 -40 0
-20 -39 0
-20 -36 0
-20 -27 0
-20 -24 0
-19 -132 0
-19 -120 0
-19 -112 0
-19 -109 0
-19 -108 0
-19 -91 0
-19 -88 0
-19 -68 0
-19 -60 0
-19 -59 0
-19 -45 0
-19 -40 0
-19 -38 0
-19 -20 0
-18 -130 0
-18 -125 0
-18 -119 0
-18 -117 0
-18 -111 0
-18 -108 0
-18 -104 0
-18 -94 0
-18 -85 0
-18 -83 0
-18 -81 0
-18 -76 0
-18 -73 0
-18 -63 0
-18 -61 0
-18 -52 0
-18 -50 0
-18 -41 0
-17 -131 0
-17 -128 0
-17 -127 0
-17 -122 0
-17 -100 0
-17 -99 0
-17 -98 0
-17 -97 0
-17 -94 0
-17 -91 0
-17 -90 0
-17 -86 0
-17 -82 0
-17 -80 0
-17 -47 0
-17 -46 0
-17 -45 0
-17 -44 0
-17 -33 0
-17 -26 0
-16 -129 0
-16 -118 0
-16 -114 0
-16 -95 0
-16 -88 0
-16 -87 0
-16 -78 0
-16 -77 0
-16 -70 0
-16 -64 0
-16 -61 0
-16 -58 0
-16 -54 0
-16 -48 0
-16 -43 0
-16 -42 0
-16 -41 0
-16 -39 0
-16 -33 0
-16 -26 0
-15 -132 0
-15 -121 0
-15 -112 0
-15 -106 0
-15 -91 0
-15 -88 0
-15 -85 0
-15 -80 0
-15 -79 0
-15 -72 0
-15 -69 0
-15 -66 0
-15 -64 0
-15 -60 0
-15 -38 0
-15 -36 0
-15 -19 0
-14 -129 0
-14 -120 0
-14 -118 0
-14 -114 0
-14 -109 0
-14 -108 0
-14 -87 0
-14 -68 0
-14 -64 0
-14 -59 0
-14 -48 0
-14 -45 0
-14 -43 0
-14 -42 0
-14 -41 0
-14 -40 0
-14 -26 0
-14 -20 0
-14 -19 0
-14 -16 0
-13 -132 0
-13 -112 0
-13 -111 0
-13 -103 0
-13 -101 0
-13 -92 0
-13 -91 0
-13 -88 0
-13 -87 0
-13 -86 0
-13 -75 0
-13 -67 0
-13 -60 0
-13 -38 0
-13 -32 0
-13 -19 0
-13 -15 0
-12 -131 0
-12 -130 0
-12 -119 0
-12 -117 0
-12 -104 0
-12 -100 0
-12 -99 0
-12 -98 0
-12 -97 0
-12 -86 0
-12 -82 0
-12 -80 0
-12 -73 0
-12 -50 0
-12 -45 0
-12 -41 0
-12 -33 0
-12 -18 0
-12 -17 0
-11 -130 0
-11 -128 0
-11 -119 0
-11 -117 0
-11 -115 0
-11 -104 0
-11 -103 0
-11 -73 0
-11 -51 0
-11 -50 0
-11 -49 0
-11 -41 0
-11 -39 0
-11 -36 0
-11 -27 0
-11 -24 0
-11 -20 0
-11 -18 0
-11 -12 0
-10 -131 0
-10 -130 0
-10 -126 0
-10 -123 0
-10 -122 0
-10 -116 0
-10 -115 0
-10 -105 0
-10 -95 0
-10 -83 0
-10 -75 0
-10 -74 0
-10 -71 0
-10 -69 0
-10 -65 0
-10 -56 0
-10 -48 0
-10 -38 0
-10 -34 0
-10 -28 0
-9 -127 0
-9 -121 0
-9 -107 0
-9 -105 0
-9 -97 0
-9 -96 0
-9 -92 0
-9 -84 0
-9 -68 0
-9 -58 0
-9 -52 0
-9 -50 0
-9 -42 0
-9 -35 0
-9 -28 0
-9 -25 0
-9 -24 0
-9 -23 0
-9 -22 0
-9 -21 0
-8 -132 0
-8 -124 0
-8 -118 0
-8 -116 0
-8 -112 0
-8 -102 0
-8 -98 0
-8 -93 0
-8 -91 0
-8 -88 0
-8 -76 0
-8 -60 0
-8 -49 0
-8 -38 0
-8 -23 0
-8 -19 0
-8 -15 0
-8 -13 0
-7 -117 0
-7 -111 0
-7 -103 0
-7 -102 0
-7 -101 0
-7 -96 0
-7 -92 0
-7 -90 0
-7 -89 0
-7 -87 0
-7 -86 0
-7 -79 0
-7 -75 0
-7 -71 0
-7 -67 0
-7 -54 0
-7 -40 0
-7 -32 0
-7 -30 0
-7 -13 0
-6 -129 0
-6 -117 0
-6 -113 0
-6 -110 0
-6 -102 0
-6 -100 0
-6 -96 0
-6 -90 0
-6 -89 0
-6 -81 0
-6 -79 0
-6 -74 0
-6 -71 0
-6 -60 0
-6 -54 0
-6 -51 0
-6 -40 0
-6 -37 0
-6 -30 0
-6 -21 0
-6 -7 0
-5 -132 0
-5 -112 0
-5 -105 0
-5 -97 0
-5 -96 0
-5 -91 0
-5 -88 0
-5 -84 0
-5 -60 0
-5 -52 0
-5 -42 0
-5 -38 0
-5 -25 0
-5 -24 0
-5 -22 0
-5 -19 0
-5 -15 0
-5 -13 0
-5 -9 0
-5 -8 0
-4 -126 0
-4 -124 0
-4 -118 0
-4 -116 0
-4 -113 0
-4 -106 0
-4 -102 0
-4 -98 0
-4 -93 0
-4 -77 0
-4 -76 0
-4 -73 0
-4 -67 0
-4 -59 0
-4 -57 0
-4 -53 0
-4 -49 0
-4 -44 0
-4 -23 0
-4 -22 0
-4 -8 0
-3 -130 0
-3 -122 0
-3 -120 0
-3 -116 0
-3 -109 0
-3 -108 0
-3 -105 0
-3 -95 0
-3 -75 0
-3 -74 0
-3 -69 0
-3 -68 0
-3 -59 0
-3 -56 0
-3 -45 0
-3 -40 0
-3 -34 0
-3 -20 0
-3 -19 0
-3 -14 0
-3 -10 0
-2 -132 0
-2 -130 0
-2 -119 0
-2 -117 0
-2 -112 0
-2 -104 0
-2 -91 0
-2 -88 0
-2 -73 0
-2 -60 0
-2 -50 0
-2 -41 0
-2 -38 0
-2 -19 0
-2 -18 0
-2 -15 0
-2 -13 0
-2 -12 0
-2 -11 0
-2 -8 0
-2 -5 0
-1 -128 0
-1 -125 0
-1 -115 0
-1 -114 0
-1 -112 0
-1 -103 0
-1 -99 0
-1 -89 0
-1 -62 0
-1 -57 0
-1 -55 0
-1 -51 0
-1 -49 0
-1 -39 0
-1 -36 0
-1 -35 0
-1 -34 0
-1 -27 0
-1 -24 0
-1 -20 0
-1 -11 0
1 34 35 55 57 62 89 99 112 114 125 0
2 11 12 18 41 50 73 104 117 119 130 0
3 14 19 20 40 45 59 68 108 109 120 0
4 8 23 49 76 93 98 102 116 118 124 0
5 9 22 24 25 42 52 84 96 97 105 0
6 21 37 51 60 74 81 100 110 113 129 0
7 13 32 67 75 86 87 92 101 103 111 0
10 28 38 48 65 71 83 115 123 126 131 0
15 36 64 66 69 72 79 80 85 106 121 0
16 33 39 54 58 61 70 77 78 88 95 0
17 26 44 46 47 90 91 94 122 127 128 0
27 29 30 31 43 53 56 63 82 107 132 0
