p cnf 132 1398
-130 -131 0
-127 -130 0
-126 -129 0
-125 -126 0
-124 -131 0
-124 -130 0
-123 -128 0
-121 -128 0
-121 -123 0
-121 -122 0
-120 -128 0
-119 -130 0
-119 -127 0
-119 -122 0
-119 -121 0
-118 -129 0
-118 -127 0
-117 -131 0
-116 -128 0
-116 -123 0
-116 -121 0
-116 -117 0
-115 -131 0
-115 -130 0
-115 -124 0
-115 -122 0
-114 -128 0
-114 -122 0
-114 -120 0
-114 -115 0
-113 -126 0
-113 -125 0
-113 -122 0
-113 -121 0
-113 -119 0
-112 -126 0
-112 -125 0
-112 -113 0
-111 -132 0
-111 -123 0
-109 -127 0
-109 -118 0
-108 -131 0
-108 -128 0
-108 -120 0
-108 -117 0
-108 -114 0
-107 -112 0
-107 -110 0
-106 -130 0
-106 -127 0
-106 -125 0
-106 -119 0
-105 -129 0
-105 -126 0
-105 -124 0
-104 -132 0
-104 -120 0
-103 -129 0
-103 -126 0
-103 -105 0
-102 -129 0
-102 -118 0
-102 -110 0
-101 -123 0
-101 -111 0
-101 -110 0
-101 -107 0
-100 -126 0
-100 -125 0
-100 -113 0
-100 -112 0
-100 -110 0
-100 -102 0
-99 -129 0
-99 -118 0
-99 -117 0
-99 -116 0
-99 -102 0
-98 -131 0
-98 -130 0
-98 -124 0
-98 -115 0
-98 -103 0
-97 -117 0
-97 -116 0
-97 -110 0
-97 -107 0
-97 -101 0
-97 -99 0
-96 -130 0
-96 -127 0
-96 -119 0
-96 -110 0
-96 -106 0
-96 -102 0
-96 -100 0
-95 -123 0
-95 -111 0
-95 -109 0
-95 -101 0
-94 -120 0
-94 -110 0
-94 -104 0
-94 -102 0
-94 -100 0
-94 -96 0
-93 -131 0
-93 -130 0
-93 -124 0
-93 -115 0
-93 -110 0
-93 -107 0
-93 -101 0
-93 -98 0
-93 -97 0
-92 -132 0
-92 -109 0
-92 -104 0
-92 -95 0
-91 -117 0
-91 -116 0
-91 -103 0
-91 -99 0
-91 -98 0
-91 -97 0
-90 -132 0
-90 -110 0
-90 -107 0
-90 -104 0
-90 -101 0
-90 -97 0
-90 -93 0
-90 -92 0
-89 -128 0
-89 -124 0
-89 -120 0
-89 -114 0
-89 -108 0
-89 -105 0
-88 -132 0
-88 -112 0
-88 -111 0
-88 -107 0
-87 -124 0
-87 -123 0
-87 -111 0
-87 -105 0
-87 -101 0
-87 -95 0
-87 -89 0
-86 -127 0
-86 -118 0
-86 -110 0
-86 -109 0
-86 -107 0
-86 -101 0
-86 -97 0
-86 -93 0
-86 -90 0
-85 -130 0
-85 -127 0
-85 -119 0
-85 -117 0
-85 -116 0
-85 -106 0
-85 -99 0
-85 -97 0
-85 -96 0
-85 -91 0
-84 -131 0
-84 -129 0
-84 -126 0
-84 -117 0
-84 -108 0
-84 -105 0
-84 -103 0
-83 -132 0
-83 -130 0
-83 -127 0
-83 -119 0
-83 -106 0
-83 -104 0
-83 -96 0
-83 -92 0
-83 -90 0
-83 -85 0
-82 -129 0
-82 -126 0
-82 -120 0
-82 -105 0
-82 -104 0
-82 -103 0
-82 -94 0
-82 -84 0
-81 -122 0
-81 -121 0
-81 -119 0
-81 -113 0
-81 -103 0
-81 -98 0
-81 -91 0
-80 -125 0
-80 -109 0
-80 -106 0
-80 -95 0
-80 -92 0
-79 -128 0
-79 -127 0
-79 -123 0
-79 -121 0
-79 -118 0
-79 -116 0
-79 -109 0
-79 -86 0
-78 -132 0
-78 -111 0
-78 -110 0
-78 -102 0
-78 -100 0
-78 -96 0
-78 -94 0
-78 -88 0
-77 -132 0
-77 -128 0
-77 -120 0
-77 -114 0
-77 -111 0
-77 -108 0
-77 -89 0
-77 -88 0
-77 -78 0
-76 -122 0
-76 -121 0
-76 -119 0
-76 -113 0
-76 -109 0
-76 -95 0
-76 -92 0
-76 -81 0
-76 -80 0
-75 -132 0
-75 -128 0
-75 -123 0
-75 -121 0
-75 -116 0
-75 -104 0
-75 -92 0
-75 -90 0
-75 -83 0
-75 -79 0
-74 -122 0
-74 -115 0
-74 -114 0
-74 -110 0
-74 -102 0
-74 -100 0
-74 -96 0
-74 -94 0
-74 -78 0
-73 -130 0
-73 -129 0
-73 -127 0
-73 -126 0
-73 -119 0
-73 -106 0
-73 -105 0
-73 -103 0
-73 -96 0
-73 -85 0
-73 -84 0
-73 -83 0
-73 -82 0
-72 -128 0
-72 -125 0
-72 -123 0
-72 -121 0
-72 -116 0
-72 -106 0
-72 -80 0
-72 -79 0
-72 -75 0
-71 -110 0
-71 -109 0
-71 -102 0
-71 -100 0
-71 -96 0
-71 -95 0
-71 -94 0
-71 -92 0
-71 -80 0
-71 -78 0
-71 -76 0
-71 -74 0
-70 -129 0
-70 -126 0
-70 -122 0
-70 -115 0
-70 -114 0
-70 -105 0
-70 -103 0
-70 -84 0
-70 -82 0
-70 -74 0
-70 -73 0
-69 -132 0
-69 -129 0
-69 -126 0
-69 -111 0
-69 -105 0
-69 -103 0
-69 -88 0
-69 -84 0
-69 -82 0
-69 -78 0
-69 -77 0
-69 -73 0
-69 -70 0
-68 -125 0
-68 -106 0
-68 -103 0
-68 -98 0
-68 -91 0
-68 -81 0
-68 -80 0
-68 -72 0
-67 -130 0
-67 -127 0
-67 -123 0
-67 -119 0
-67 -111 0
-67 -106 0
-67 -101 0
-67 -96 0
-67 -95 0
-67 -87 0
-67 -85 0
-67 -83 0
-67 -73 0
-66 -127 0
-66 -124 0
-66 -118 0
-66 -109 0
-66 -105 0
-66 -89 0
-66 -87 0
-66 -86 0
-66 -79 0
-65 -132 0
-65 -125 0
-65 -111 0
-65 -106 0
-65 -88 0
-65 -80 0
-65 -78 0
-65 -77 0
-65 -72 0
-65 -69 0
-65 -68 0
-64 -132 0
-64 -131 0
-64 -130 0
-64 -124 0
-64 -115 0
-64 -111 0
-64 -98 0
-64 -93 0
-64 -88 0
-64 -78 0
-64 -77 0
-64 -69 0
-64 -65 0
-63 -125 0
-63 -122 0
-63 -115 0
-63 -114 0
-63 -106 0
-63 -80 0
-63 -74 0
-63 -72 0
-63 -70 0
-63 -68 0
-63 -65 0
-62 -131 0
-62 -130 0
-62 -128 0
-62 -124 0
-62 -123 0
-62 -121 0
-62 -116 0
-62 -115 0
-62 -98 0
-62 -93 0
-62 -79 0
-62 -75 0
-62 -72 0
-62 -64 0
-61 -112 0
-61 -109 0
-61 -107 0
-61 -95 0
-61 -92 0
-61 -88 0
-61 -80 0
-61 -76 0
-61 -71 0
-60 -124 0
-60 -122 0
-60 -121 0
-60 -119 0
-60 -113 0
-60 -105 0
-60 -89 0
-60 -87 0
-60 -81 0
-60 -76 0
-60 -66 0
-59 -127 0
-59 -120 0
-59 -118 0
-59 -109 0
-59 -104 0
-59 -94 0
-59 -86 0
-59 -82 0
-59 -79 0
-59 -66 0
-58 -127 0
-58 -126 0
-58 -125 0
-58 -118 0
-58 -113 0
-58 -112 0
-58 -109 0
-58 -100 0
-58 -86 0
-58 -79 0
-58 -66 0
-58 -59 0
-57 -128 0
-57 -123 0
-57 -121 0
-57 -116 0
-57 -110 0
-57 -102 0
-57 -100 0
-57 -96 0
-57 -94 0
-57 -79 0
-57 -78 0
-57 -75 0
-57 -74 0
-57 -72 0
-57 -71 0
-57 -62 0
-56 -129 0
-56 -126 0
-56 -109 0
-56 -105 0
-56 -103 0
-56 -95 0
-56 -92 0
-56 -84 0
-56 -82 0
-56 -80 0
-56 -76 0
-56 -73 0
-56 -71 0
-56 -70 0
-56 -69 0
-56 -61 0
-55 -117 0
-55 -116 0
-55 -109 0
-55 -99 0
-55 -97 0
-55 -95 0
-55 -92 0
-55 -91 0
-55 -85 0
-55 -80 0
-55 -76 0
-55 -71 0
-55 -61 0
-55 -56 0
-54 -131 0
-54 -130 0
-54 -124 0
-54 -120 0
-54 -115 0
-54 -104 0
-54 -98 0
-54 -94 0
-54 -93 0
-54 -82 0
-54 -64 0
-54 -62 0
-54 -59 0
-53 -132 0
-53 -117 0
-53 -116 0
-53 -111 0
-53 -99 0
-53 -97 0
-53 -91 0
-53 -88 0
-53 -85 0
-53 -78 0
-53 -77 0
-53 -69 0
-53 -65 0
-53 -64 0
-53 -55 0
-52 -131 0
-52 -117 0
-52 -112 0
-52 -108 0
-52 -107 0
-52 -88 0
-52 -84 0
-52 -61 0
-51 -131 0
-51 -127 0
-51 -118 0
-51 -117 0
-51 -109 0
-51 -108 0
-51 -86 0
-51 -84 0
-51 -79 0
-51 -66 0
-51 -59 0
-51 -58 0
-51 -52 0
-50 -126 0
-50 -125 0
-50 -117 0
-50 -116 0
-50 -113 0
-50 -112 0
-50 -100 0
-50 -99 0
-50 -97 0
-50 -91 0
-50 -85 0
-50 -58 0
-50 -55 0
-50 -53 0
-49 -127 0
-49 -118 0
-49 -109 0
-49 -103 0
-49 -98 0
-49 -91 0
-49 -86 0
-49 -81 0
-49 -79 0
-49 -68 0
-49 -66 0
-49 -59 0
-49 -58 0
-49 -51 0
-48 -120 0
-48 -117 0
-48 -116 0
-48 -104 0
-48 -99 0
-48 -97 0
-48 -94 0
-48 -91 0
-48 -85 0
-48 -82 0
-48 -59 0
-48 -55 0
-48 -54 0
-48 -53 0
-48 -50 0
-47 -123 0
-47 -111 0
-47 -103 0
-47 -101 0
-47 -98 0
-47 -95 0
-47 -91 0
-47 -87 0
-47 -81 0
-47 -68 0
-47 -67 0
-47 -49 0
-46 -125 0
-46 -120 0
-46 -106 0
-46 -104 0
-46 -94 0
-46 -82 0
-46 -80 0
-46 -72 0
-46 -68 0
-46 -65 0
-46 -63 0
-46 -59 0
-46 -54 0
-46 -48 0
-45 -129 0
-45 -123 0
-45 -118 0
-45 -111 0
-45 -102 0
-45 -101 0
-45 -99 0
-45 -95 0
-45 -87 0
-45 -67 0
-45 -47 0
-44 -132 0
-44 -127 0
-44 -118 0
-44 -111 0
-44 -109 0
-44 -88 0
-44 -86 0
-44 -79 0
-44 -78 0
-44 -77 0
-44 -69 0
-44 -66 0
-44 -65 0
-44 -64 0
-44 -59 0
-44 -58 0
-44 -53 0
-44 -51 0
-44 -49 0
-43 -112 0
-43 -107 0
-43 -103 0
-43 -98 0
-43 -91 0
-43 -88 0
-43 -81 0
-43 -68 0
-43 -61 0
-43 -52 0
-43 -49 0
-43 -47 0
-42 -123 0
-42 -122 0
-42 -115 0
-42 -114 0
-42 -111 0
-42 -101 0
-42 -95 0
-42 -87 0
-42 -74 0
-42 -70 0
-42 -67 0
-42 -63 0
-42 -47 0
-42 -45 0
-41 -128 0
-41 -126 0
-41 -125 0
-41 -120 0
-41 -114 0
-41 -113 0
-41 -112 0
-41 -108 0
-41 -100 0
-41 -89 0
-41 -77 0
-41 -58 0
-41 -50 0
-40 -122 0
-40 -121 0
-40 -119 0
-40 -113 0
-40 -110 0
-40 -107 0
-40 -101 0
-40 -97 0
-40 -93 0
-40 -90 0
-40 -86 0
-40 -81 0
-40 -76 0
-40 -60 0
-39 -131 0
-39 -130 0
-39 -129 0
-39 -124 0
-39 -118 0
-39 -115 0
-39 -102 0
-39 -99 0
-39 -98 0
-39 -93 0
-39 -64 0
-39 -62 0
-39 -54 0
-39 -45 0
-38 -129 0
-38 -126 0
-38 -110 0
-38 -107 0
-38 -105 0
-38 -103 0
-38 -101 0
-38 -97 0
-38 -93 0
-38 -90 0
-38 -86 0
-38 -84 0
-38 -82 0
-38 -73 0
-38 -70 0
-38 -69 0
-38 -56 0
-38 -40 0
-37 -125 0
-37 -124 0
-37 -106 0
-37 -105 0
-37 -89 0
-37 -87 0
-37 -80 0
-37 -72 0
-37 -68 0
-37 -66 0
-37 -65 0
-37 -63 0
-37 -60 0
-37 -46 0
-36 -130 0
-36 -127 0
-36 -119 0
-36 -112 0
-36 -107 0
-36 -106 0
-36 -96 0
-36 -88 0
-36 -85 0
-36 -83 0
-36 -73 0
-36 -67 0
-36 -61 0
-36 -52 0
-36 -43 0
-35 -122 0
-35 -115 0
-35 -114 0
-35 -112 0
-35 -107 0
-35 -88 0
-35 -74 0
-35 -70 0
-35 -63 0
-35 -61 0
-35 -52 0
-35 -43 0
-35 -42 0
-35 -36 0
-34 -127 0
-34 -122 0
-34 -118 0
-34 -115 0
-34 -114 0
-34 -109 0
-34 -86 0
-34 -79 0
-34 -74 0
-34 -70 0
-34 -66 0
-34 -63 0
-34 -59 0
-34 -58 0
-34 -51 0
-34 -49 0
-34 -44 0
-34 -42 0
-34 -35 0
-33 -132 0
-33 -122 0
-33 -121 0
-33 -119 0
-33 -113 0
-33 -111 0
-33 -88 0
-33 -81 0
-33 -78 0
-33 -77 0
-33 -76 0
-33 -69 0
-33 -65 0
-33 -64 0
-33 -60 0
-33 -53 0
-33 -44 0
-33 -40 0
-32 -124 0
-32 -117 0
-32 -116 0
-32 -105 0
-32 -99 0
-32 -97 0
-32 -91 0
-32 -89 0
-32 -87 0
-32 -85 0
-32 -66 0
-32 -60 0
-32 -55 0
-32 -53 0
-32 -50 0
-32 -48 0
-32 -37 0
-31 -129 0
-31 -128 0
-31 -126 0
-31 -123 0
-31 -121 0
-31 -116 0
-31 -105 0
-31 -103 0
-31 -84 0
-31 -82 0
-31 -79 0
-31 -75 0
-31 -73 0
-31 -72 0
-31 -70 0
-31 -69 0
-31 -62 0
-31 -57 0
-31 -56 0
-31 -38 0
-30 -129 0
-30 -122 0
-30 -121 0
-30 -119 0
-30 -118 0
-30 -113 0
-30 -102 0
-30 -99 0
-30 -81 0
-30 -76 0
-30 -60 0
-30 -45 0
-30 -40 0
-30 -39 0
-30 -33 0
-29 -122 0
-29 -117 0
-29 -116 0
-29 -115 0
-29 -114 0
-29 -99 0
-29 -97 0
-29 -91 0
-29 -85 0
-29 -74 0
-29 -70 0
-29 -63 0
-29 -55 0
-29 -53 0
-29 -50 0
-29 -48 0
-29 -42 0
-29 -35 0
-29 -34 0
-29 -32 0
-28 -129 0
-28 -128 0
-28 -120 0
-28 -118 0
-28 -114 0
-28 -108 0
-28 -102 0
-28 -99 0
-28 -89 0
-28 -77 0
-28 -45 0
-28 -41 0
-28 -39 0
-28 -30 0
-27 -132 0
-27 -104 0
-27 -103 0
-27 -98 0
-27 -92 0
-27 -91 0
-27 -90 0
-27 -83 0
-27 -81 0
-27 -75 0
-27 -68 0
-27 -49 0
-27 -47 0
-27 -43 0
-26 -132 0
-26 -122 0
-26 -115 0
-26 -114 0
-26 -104 0
-26 -92 0
-26 -90 0
-26 -83 0
-26 -75 0
-26 -74 0
-26 -70 0
-26 -63 0
-26 -42 0
-26 -35 0
-26 -34 0
-26 -29 0
-26 -27 0
-25 -122 0
-25 -121 0
-25 -120 0
-25 -119 0
-25 -113 0
-25 -104 0
-25 -94 0
-25 -82 0
-25 -81 0
-25 -76 0
-25 -60 0
-25 -59 0
-25 -54 0
-25 -48 0
-25 -46 0
-25 -40 0
-25 -33 0
-25 -30 0
-24 -131 0
-24 -123 0
-24 -117 0
-24 -111 0
-24 -108 0
-24 -101 0
-24 -95 0
-24 -87 0
-24 -84 0
-24 -67 0
-24 -52 0
-24 -51 0
-24 -47 0
-24 -45 0
-24 -42 0
-23 -125 0
-23 -110 0
-23 -107 0
-23 -106 0
-23 -101 0
-23 -97 0
-23 -93 0
-23 -90 0
-23 -86 0
-23 -80 0
-23 -72 0
-23 -68 0
-23 -65 0
-23 -63 0
-23 -46 0
-23 -40 0
-23 -38 0
-23 -37 0
-22 -131 0
-22 -130 0
-22 -126 0
-22 -125 0
-22 -124 0
-22 -115 0
-22 -113 0
-22 -112 0
-22 -100 0
-22 -98 0
-22 -93 0
-22 -64 0
-22 -62 0
-22 -58 0
-22 -54 0
-22 -50 0
-22 -41 0
-22 -39 0
-21 -128 0
-21 -120 0
-21 -114 0
-21 -108 0
-21 -103 0
-21 -98 0
-21 -91 0
-21 -89 0
-21 -81 0
-21 -77 0
-21 -68 0
-21 -49 0
-21 -47 0
-21 -43 0
-21 -41 0
-21 -28 0
-21 -27 0
-20 -131 0
-20 -130 0
-20 -124 0
-20 -115 0
-20 -109 0
-20 -98 0
-20 -95 0
-20 -93 0
-20 -92 0
-20 -80 0
-20 -76 0
-20 -71 0
-20 -64 0
-20 -62 0
-20 -61 0
-20 -56 0
-20 -55 0
-20 -54 0
-20 -39 0
-20 -22 0
-19 -124 0
-19 -110 0
-19 -105 0
-19 -102 0
-19 -100 0
-19 -96 0
-19 -94 0
-19 -89 0
-19 -87 0
-19 -78 0
-19 -74 0
-19 -71 0
-19 -66 0
-19 -60 0
-19 -57 0
-19 -37 0
-19 -32 0
-18 -131 0
-18 -122 0
-18 -121 0
-18 -119 0
-18 -117 0
-18 -113 0
-18 -108 0
-18 -84 0
-18 -81 0
-18 -76 0
-18 -60 0
-18 -52 0
-18 -51 0
-18 -40 0
-18 -33 0
-18 -30 0
-18 -25 0
-18 -24 0
-17 -128 0
-17 -120 0
-17 -114 0
-17 -110 0
-17 -108 0
-17 -107 0
-17 -101 0
-17 -97 0
-17 -93 0
-17 -90 0
-17 -89 0
-17 -86 0
-17 -77 0
-17 -41 0
-17 -40 0
-17 -38 0
-17 -28 0
-17 -23 0
-17 -21 0
-16 -124 0
-16 -112 0
-16 -107 0
-16 -105 0
-16 -89 0
-16 -88 0
-16 -87 0
-16 -66 0
-16 -61 0
-16 -60 0
-16 -52 0
-16 -43 0
-16 -37 0
-16 -36 0
-16 -35 0
-16 -32 0
-16 -19 0
-15 -132 0
-15 -129 0
-15 -118 0
-15 -104 0
-15 -102 0
-15 -99 0
-15 -92 0
-15 -90 0
-15 -83 0
-15 -75 0
-15 -45 0
-15 -39 0
-15 -30 0
-15 -28 0
-15 -27 0
-15 -26 0
-14 -128 0
-14 -123 0
-14 -121 0
-14 -116 0
-14 -112 0
-14 -107 0
-14 -88 0
-14 -79 0
-14 -75 0
-14 -72 0
-14 -62 0
-14 -61 0
-14 -57 0
-14 -52 0
-14 -43 0
-14 -36 0
-14 -35 0
-14 -31 0
-14 -16 0
-13 -131 0
-13 -117 0
-13 -110 0
-13 -108 0
-13 -102 0
-13 -100 0
-13 -96 0
-13 -94 0
-13 -84 0
-13 -78 0
-13 -74 0
-13 -71 0
-13 -57 0
-13 -52 0
-13 -51 0
-13 -24 0
-13 -19 0
-13 -18 0
-12 -129 0
-12 -118 0
-12 -112 0
-12 -107 0
-12 -102 0
-12 -99 0
-12 -88 0
-12 -61 0
-12 -52 0
-12 -45 0
-12 -43 0
-12 -39 0
-12 -36 0
-12 -35 0
-12 -30 0
-12 -28 0
-12 -16 0
-12 -15 0
-12 -14 0
-11 -120 0
-11 -112 0
-11 -107 0
-11 -104 0
-11 -94 0
-11 -88 0
-11 -82 0
-11 -61 0
-11 -59 0
-11 -54 0
-11 -52 0
-11 -48 0
-11 -46 0
-11 -43 0
-11 -36 0
-11 -35 0
-11 -25 0
-11 -16 0
-11 -14 0
-11 -12 0
-10 -132 0
-10 -126 0
-10 -125 0
-10 -113 0
-10 -112 0
-10 -104 0
-10 -100 0
-10 -92 0
-10 -90 0
-10 -83 0
-10 -75 0
-10 -58 0
-10 -50 0
-10 -41 0
-10 -27 0
-10 -26 0
-10 -22 0
-10 -15 0
-9 -110 0
-9 -103 0
-9 -102 0
-9 -100 0
-9 -98 0
-9 -96 0
-9 -94 0
-9 -91 0
-9 -81 0
-9 -78 0
-9 -74 0
-9 -71 0
-9 -68 0
-9 -57 0
-9 -49 0
-9 -47 0
-9 -43 0
-9 -27 0
-9 -21 0
-9 -19 0
-9 -13 0
-8 -126 0
-8 -125 0
-8 -123 0
-8 -113 0
-8 -112 0
-8 -111 0
-8 -101 0
-8 -100 0
-8 -95 0
-8 -87 0
-8 -67 0
-8 -58 0
-8 -50 0
-8 -47 0
-8 -45 0
-8 -42 0
-8 -41 0
-8 -24 0
-8 -22 0
-8 -10 0
-7 -123 0
-7 -120 0
-7 -111 0
-7 -104 0
-7 -101 0
-7 -95 0
-7 -94 0
-7 -87 0
-7 -82 0
-7 -67 0
-7 -59 0
-7 -54 0
-7 -48 0
-7 -47 0
-7 -46 0
-7 -45 0
-7 -42 0
-7 -25 0
-7 -24 0
-7 -11 0
-7 -8 0
-6 -130 0
-6 -128 0
-6 -127 0
-6 -120 0
-6 -119 0
-6 -114 0
-6 -108 0
-6 -106 0
-6 -96 0
-6 -89 0
-6 -85 0
-6 -83 0
-6 -77 0
-6 -73 0
-6 -67 0
-6 -41 0
-6 -36 0
-6 -28 0
-6 -21 0
-6 -17 0
-5 -132 0
-5 -131 0
-5 -117 0
-5 -108 0
-5 -104 0
-5 -92 0
-5 -90 0
-5 -84 0
-5 -83 0
-5 -75 0
-5 -52 0
-5 -51 0
-5 -27 0
-5 -26 0
-5 -24 0
-5 -18 0
-5 -15 0
-5 -13 0
-5 -10 0
-4 -131 0
-4 -125 0
-4 -117 0
-4 -108 0
-4 -106 0
-4 -84 0
-4 -80 0
-4 -72 0
-4 -68 0
-4 -65 0
-4 -63 0
-4 -52 0
-4 -51 0
-4 -46 0
-4 -37 0
-4 -24 0
-4 -23 0
-4 -18 0
-4 -13 0
-4 -5 0
-3 -128 0
-3 -120 0
-3 -114 0
-3 -109 0
-3 -108 0
-3 -95 0
-3 -92 0
-3 -89 0
-3 -80 0
-3 -77 0
-3 -76 0
-3 -71 0
-3 -61 0
-3 -56 0
-3 -55 0
-3 -41 0
-3 -28 0
-3 -21 0
-3 -20 0
-3 -17 0
-3 -6 0
-2 -132 0
-2 -124 0
-2 -105 0
-2 -104 0
-2 -92 0
-2 -90 0
-2 -89 0
-2 -87 0
-2 -83 0
-2 -75 0
-2 -66 0
-2 -60 0
-2 -37 0
-2 -32 0
-2 -27 0
-2 -26 0
-2 -19 0
-2 -16 0
-2 -15 0
-2 -10 0
-2 -5 0
-1 -129 0
-1 -125 0
-1 -118 0
-1 -106 0
-1 -102 0
-1 -99 0
-1 -80 0
-1 -72 0
-1 -68 0
-1 -65 0
-1 -63 0
-1 -46 0
-1 -45 0
-1 -39 0
-1 -37 0
-1 -30 0
-1 -28 0
-1 -23 0
-1 -15 0
-1 -12 0
-1 -4 0
1 12 15 28 30 39 45 99 102 118 129 0
2 16 19 32 37 60 66 87 89 105 124 0
3 20 55 56 61 71 76 80 92 95 109 0
4 5 13 18 24 51 52 84 108 117 131 0
6 36 67 73 83 85 96 106 119 127 130 0
7 11 25 46 48 54 59 82 94 104 120 0
8 10 22 41 50 58 100 112 113 125 126 0
9 21 27 43 47 49 68 81 91 98 103 0
14 31 57 62 72 75 79 116 121 123 128 0
17 23 38 40 86 90 93 97 101 107 110 0
26 29 34 35 42 63 70 74 114 115 122 0
33 44 53 64 65 69 77 78 88 111 132 0
