p cnf 56 372
-52 -56 0
-52 -54 0
-51 -56 0
-50 -55 0
-49 -53 0
-47 -51 0
-46 -55 0
-45 -54 0
-45 -52 0
-45 -49 0
-44 -50 0
-44 -46 0
-43 -50 0
-43 -49 0
-43 -45 0
-43 -44 0
-42 -55 0
-42 -53 0
-42 -46 0
-41 -48 0
-41 -46 0
-41 -44 0
-40 -56 0
-40 -53 0
-40 -51 0
-40 -42 0
-39 -54 0
-39 -50 0
-39 -44 0
-39 -43 0
-38 -55 0
-38 -54 0
-38 -46 0
-38 -42 0
-38 -39 0
-37 -56 0
-37 -53 0
-37 -52 0
-37 -49 0
-36 -54 0
-36 -52 0
-36 -48 0
-36 -45 0
-35 -51 0
-35 -48 0
-35 -47 0
-35 -41 0
-34 -55 0
-34 -48 0
-34 -46 0
-34 -42 0
-34 -38 0
-34 -36 0
-33 -53 0
-33 -50 0
-33 -44 0
-33 -43 0
-33 -42 0
-33 -40 0
-33 -39 0
-32 -55 0
-32 -54 0
-32 -52 0
-32 -50 0
-32 -45 0
-32 -36 0
-31 -56 0
-31 -54 0
-31 -51 0
-31 -40 0
-31 -39 0
-31 -38 0
-30 -49 0
-30 -47 0
-30 -45 0
-30 -43 0
-29 -53 0
-29 -51 0
-29 -49 0
-29 -47 0
-29 -37 0
-29 -35 0
-28 -55 0
-28 -50 0
-28 -48 0
-28 -41 0
-28 -35 0
-28 -32 0
-27 -50 0
-27 -48 0
-27 -44 0
-27 -43 0
-27 -39 0
-27 -36 0
-27 -34 0
-27 -33 0
-26 -56 0
-26 -52 0
-26 -47 0
-26 -37 0
-26 -30 0
-25 -47 0
-25 -46 0
-25 -44 0
-25 -41 0
-25 -30 0
-25 -26 0
-24 -56 0
-24 -51 0
-24 -49 0
-24 -45 0
-24 -43 0
-24 -40 0
-24 -31 0
-24 -30 0
-23 -55 0
-23 -49 0
-23 -46 0
-23 -45 0
-23 -43 0
-23 -42 0
-23 -38 0
-23 -34 0
-23 -30 0
-23 -24 0
-22 -54 0
-22 -47 0
-22 -39 0
-22 -38 0
-22 -31 0
-22 -30 0
-22 -26 0
-22 -25 0
-21 -56 0
-21 -51 0
-21 -48 0
-21 -40 0
-21 -36 0
-21 -34 0
-21 -31 0
-21 -27 0
-21 -24 0
-20 -53 0
-20 -48 0
-20 -42 0
-20 -41 0
-20 -40 0
-20 -35 0
-20 -33 0
-20 -28 0
-19 -53 0
-19 -47 0
-19 -42 0
-19 -40 0
-19 -33 0
-19 -30 0
-19 -26 0
-19 -25 0
-19 -22 0
-19 -20 0
-18 -54 0
-18 -53 0
-18 -52 0
-18 -45 0
-18 -42 0
-18 -40 0
-18 -36 0
-18 -33 0
-18 -32 0
-18 -20 0
-18 -19 0
-17 -51 0
-17 -50 0
-17 -47 0
-17 -44 0
-17 -43 0
-17 -39 0
-17 -35 0
-17 -33 0
-17 -29 0
-17 -27 0
-16 -56 0
-16 -52 0
-16 -48 0
-16 -41 0
-16 -37 0
-16 -35 0
-16 -28 0
-16 -26 0
-16 -20 0
-15 -48 0
-15 -47 0
-15 -36 0
-15 -34 0
-15 -30 0
-15 -27 0
-15 -26 0
-15 -25 0
-15 -22 0
-15 -21 0
-15 -19 0
-14 -55 0
-14 -53 0
-14 -50 0
-14 -49 0
-14 -37 0
-14 -32 0
-14 -29 0
-14 -28 0
-13 -54 0
-13 -48 0
-13 -41 0
-13 -39 0
-13 -38 0
-13 -35 0
-13 -31 0
-13 -28 0
-13 -22 0
-13 -20 0
-13 -16 0
-12 -56 0
-12 -55 0
-12 -51 0
-12 -50 0
-12 -40 0
-12 -32 0
-12 -31 0
-12 -28 0
-12 -24 0
-12 -21 0
-12 -14 0
-11 -56 0
-11 -51 0
-11 -46 0
-11 -44 0
-11 -41 0
-11 -40 0
-11 -31 0
-11 -25 0
-11 -24 0
-11 -21 0
-11 -12 0
-10 -55 0
-10 -50 0
-10 -47 0
-10 -32 0
-10 -30 0
-10 -28 0
-10 -26 0
-10 -25 0
-10 -22 0
-10 -19 0
-10 -15 0
-10 -14 0
-10 -12 0
-9 -53 0
-9 -49 0
-9 -46 0
-9 -44 0
-9 -41 0
-9 -37 0
-9 -29 0
-9 -25 0
-9 -14 0
-9 -11 0
-8 -53 0
-8 -49 0
-8 -48 0
-8 -37 0
-8 -36 0
-8 -34 0
-8 -29 0
-8 -27 0
-8 -21 0
-8 -15 0
-8 -14 0
-8 -9 0
-7 -54 0
-7 -53 0
-7 -49 0
-7 -39 0
-7 -38 0
-7 -37 0
-7 -31 0
-7 -29 0
-7 -22 0
-7 -14 0
-7 -13 0
-7 -9 0
-7 -8 0
-6 -54 0
-6 -52 0
-6 -46 0
-6 -45 0
-6 -44 0
-6 -41 0
-6 -36 0
-6 -32 0
-6 -25 0
-6 -18 0
-6 -11 0
-6 -9 0
-5 -49 0
-5 -48 0
-5 -45 0
-5 -43 0
-5 -41 0
-5 -35 0
-5 -30 0
-5 -28 0
-5 -24 0
-5 -23 0
-5 -20 0
-5 -16 0
-5 -13 0
-4 -56 0
-4 -52 0
-4 -50 0
-4 -44 0
-4 -43 0
-4 -39 0
-4 -37 0
-4 -33 0
-4 -27 0
-4 -26 0
-4 -17 0
-4 -16 0
-3 -56 0
-3 -55 0
-3 -52 0
-3 -46 0
-3 -42 0
-3 -38 0
-3 -37 0
-3 -34 0
-3 -26 0
-3 -23 0
-3 -16 0
-3 -4 0
-2 -55 0
-2 -51 0
-2 -47 0
-2 -46 0
-2 -42 0
-2 -38 0
-2 -35 0
-2 -34 0
-2 -29 0
-2 -23 0
-2 -17 0
-2 -3 0
-1 -54 0
-1 -52 0
-1 -51 0
-1 -47 0
-1 -45 0
-1 -36 0
-1 -35 0
-1 -32 0
-1 -29 0
-1 -18 0
-1 -17 0
-1 -6 0
-1 -2 0
1 2 17 29 35 47 51 0
3 4 16 26 37 52 56 0
5 23 24 30 43 45 49 0
6 9 11 25 41 44 46 0
7 13 22 31 38 39 54 0
8 15 21 27 34 36 48 0
10 12 14 28 32 50 55 0
18 19 20 33 40 42 53 0
