p cnf 42 238
-38 -42 0
-37 -42 0
-36 -40 0
-35 -39 0
-34 -42 0
-34 -39 0
-34 -38 0
-34 -35 0
-33 -39 0
-33 -37 0
-33 -35 0
-33 -34 0
-32 -39 0
-32 -36 0
-32 -35 0
-32 -34 0
-32 -33 0
-31 -41 0
-31 -39 0
-30 -40 0
-30 -37 0
-30 -36 0
-30 -33 0
-29 -40 0
-29 -38 0
-28 -42 0
-28 -41 0
-28 -37 0
-27 -39 0
-27 -31 0
-26 -38 0
-26 -37 0
-26 -33 0
-26 -30 0
-26 -29 0
-25 -42 0
-25 -41 0
-25 -38 0
-25 -34 0
-25 -31 0
-24 -36 0
-24 -32 0
-24 -27 0
-23 -42 0
-23 -38 0
-23 -34 0
-23 -27 0
-23 -25 0
-23 -24 0
-22 -40 0
-22 -29 0
-22 -27 0
-22 -24 0
-22 -23 0
-21 -42 0
-21 -37 0
-21 -36 0
-21 -32 0
-21 -28 0
-21 -24 0
-20 -42 0
-20 -39 0
-20 -37 0
-20 -31 0
-20 -28 0
-20 -27 0
-20 -21 0
-19 -41 0
-19 -40 0
-19 -36 0
-19 -30 0
-19 -28 0
-18 -41 0
-18 -36 0
-18 -32 0
-18 -31 0
-18 -25 0
-18 -24 0
-18 -21 0
-17 -41 0
-17 -28 0
-17 -27 0
-17 -24 0
-17 -23 0
-17 -22 0
-17 -19 0
-16 -37 0
-16 -33 0
-16 -30 0
-16 -27 0
-16 -26 0
-16 -24 0
-16 -23 0
-16 -22 0
-16 -17 0
-15 -38 0
-15 -36 0
-15 -32 0
-15 -29 0
-15 -26 0
-15 -24 0
-15 -21 0
-15 -18 0
-14 -40 0
-14 -36 0
-14 -35 0
-14 -30 0
-14 -19 0
-13 -41 0
-13 -37 0
-13 -33 0
-13 -31 0
-13 -30 0
-13 -26 0
-13 -25 0
-13 -18 0
-13 -16 0
-12 -42 0
-12 -37 0
-12 -35 0
-12 -28 0
-12 -21 0
-12 -20 0
-12 -14 0
-11 -39 0
-11 -38 0
-11 -31 0
-11 -29 0
-11 -27 0
-11 -26 0
-11 -20 0
-11 -15 0
-10 -40 0
-10 -39 0
-10 -35 0
-10 -34 0
-10 -33 0
-10 -32 0
-10 -29 0
-10 -22 0
-9 -41 0
-9 -35 0
-9 -31 0
-9 -25 0
-9 -18 0
-9 -14 0
-9 -13 0
-9 -12 0
-8 -40 0
-8 -39 0
-8 -36 0
-8 -31 0
-8 -30 0
-8 -27 0
-8 -20 0
-8 -19 0
-8 -14 0
-8 -11 0
-7 -41 0
-7 -39 0
-7 -35 0
-7 -34 0
-7 -33 0
-7 -32 0
-7 -28 0
-7 -19 0
-7 -17 0
-7 -10 0
-6 -42 0
-6 -40 0
-6 -38 0
-6 -36 0
-6 -34 0
-6 -30 0
-6 -25 0
-6 -23 0
-6 -19 0
-6 -14 0
-6 -8 0
-5 -35 0
-5 -27 0
-5 -24 0
-5 -23 0
-5 -22 0
-5 -17 0
-5 -16 0
-5 -14 0
-5 -12 0
-5 -9 0
-4 -41 0
-4 -38 0
-4 -29 0
-4 -28 0
-4 -26 0
-4 -19 0
-4 -17 0
-4 -15 0
-4 -11 0
-4 -7 0
-3 -42 0
-3 -40 0
-3 -37 0
-3 -29 0
-3 -28 0
-3 -22 0
-3 -21 0
-3 -20 0
-3 -12 0
-3 -10 0
-2 -38 0
-2 -35 0
-2 -29 0
-2 -26 0
-2 -15 0
-2 -14 0
-2 -12 0
-2 -11 0
-2 -9 0
-2 -5 0
-2 -4 0
-1 -41 0
-1 -40 0
-1 -31 0
-1 -29 0
-1 -25 0
-1 -22 0
-1 -18 0
-1 -13 0
-1 -10 0
-1 -9 0
-1 -3 0
1 3 10 22 29 40 0
2 5 9 12 14 35 0
4 7 17 19 28 41 0
6 23 25 34 38 42 0
8 11 20 27 31 39 0
13 16 26 30 33 37 0
15 18 21 24 32 36 0
