p cnf 56 372
-53 -54 0
-52 -56 0
-52 -55 0
-50 -55 0
-50 -54 0
-49 -53 0
-48 -55 0
-48 -52 0
-48 -49 0
-47 -53 0
-47 -49 0
-46 -49 0
-46 -48 0
-45 -56 0
-45 -55 0
-45 -50 0
-44 -56 0
-44 -52 0
-44 -46 0
-42 -56 0
-42 -51 0
-42 -45 0
-41 -54 0
-41 -50 0
-41 -47 0
-40 -53 0
-40 -49 0
-40 -47 0
-40 -43 0
-39 -46 0
-39 -44 0
-39 -43 0
-39 -40 0
-38 -54 0
-38 -50 0
-38 -41 0
-37 -49 0
-37 -48 0
-37 -46 0
-37 -43 0
-36 -56 0
-36 -49 0
-36 -48 0
-36 -46 0
-36 -45 0
-36 -42 0
-36 -37 0
-35 -53 0
-35 -49 0
-35 -47 0
-35 -40 0
-35 -38 0
-34 -56 0
-34 -47 0
-34 -45 0
-34 -42 0
-34 -41 0
-34 -36 0
-33 -54 0
-33 -51 0
-33 -50 0
-33 -42 0
-33 -41 0
-33 -38 0
-32 -53 0
-32 -51 0
-32 -49 0
-32 -47 0
-32 -42 0
-32 -40 0
-32 -35 0
-32 -33 0
-31 -56 0
-31 -53 0
-31 -52 0
-31 -49 0
-31 -47 0
-31 -44 0
-31 -40 0
-31 -35 0
-31 -32 0
-30 -47 0
-30 -43 0
-30 -41 0
-30 -37 0
-30 -34 0
-29 -55 0
-29 -54 0
-29 -53 0
-29 -52 0
-29 -48 0
-28 -55 0
-28 -53 0
-28 -50 0
-28 -49 0
-28 -47 0
-28 -45 0
-28 -40 0
-28 -35 0
-28 -32 0
-28 -31 0
-27 -56 0
-27 -54 0
-27 -52 0
-27 -50 0
-27 -44 0
-27 -41 0
-27 -38 0
-27 -33 0
-27 -31 0
-26 -55 0
-26 -50 0
-26 -45 0
-26 -43 0
-26 -37 0
-26 -30 0
-26 -28 0
-25 -43 0
-25 -38 0
-25 -37 0
-25 -35 0
-25 -30 0
-25 -26 0
-24 -51 0
-24 -43 0
-24 -40 0
-24 -39 0
-23 -55 0
-23 -52 0
-23 -48 0
-23 -47 0
-23 -41 0
-23 -34 0
-23 -30 0
-23 -29 0
-22 -54 0
-22 -50 0
-22 -43 0
-22 -41 0
-22 -40 0
-22 -39 0
-22 -38 0
-22 -33 0
-22 -27 0
-22 -24 0
-21 -54 0
-21 -53 0
-21 -51 0
-21 -29 0
-21 -24 0
-20 -51 0
-20 -47 0
-20 -41 0
-20 -34 0
-20 -30 0
-20 -24 0
-20 -23 0
-20 -21 0
-19 -56 0
-19 -54 0
-19 -53 0
-19 -45 0
-19 -42 0
-19 -36 0
-19 -34 0
-19 -29 0
-19 -21 0
-18 -51 0
-18 -46 0
-18 -44 0
-18 -42 0
-18 -39 0
-18 -33 0
-18 -32 0
-17 -51 0
-17 -38 0
-17 -35 0
-17 -25 0
-17 -24 0
-17 -21 0
-17 -20 0
-16 -55 0
-16 -52 0
-16 -48 0
-16 -43 0
-16 -40 0
-16 -39 0
-16 -29 0
-16 -24 0
-16 -23 0
-16 -22 0
-15 -56 0
-15 -52 0
-15 -44 0
-15 -43 0
-15 -37 0
-15 -31 0
-15 -30 0
-15 -27 0
-15 -26 0
-15 -25 0
-14 -51 0
-14 -43 0
-14 -42 0
-14 -37 0
-14 -33 0
-14 -32 0
-14 -30 0
-14 -26 0
-14 -25 0
-14 -18 0
-14 -15 0
-13 -55 0
-13 -51 0
-13 -50 0
-13 -45 0
-13 -28 0
-13 -26 0
-13 -24 0
-13 -21 0
-13 -20 0
-13 -17 0
-12 -51 0
-12 -49 0
-12 -48 0
-12 -46 0
-12 -37 0
-12 -36 0
-12 -24 0
-12 -21 0
-12 -20 0
-12 -17 0
-12 -13 0
-11 -56 0
-11 -52 0
-11 -51 0
-11 -44 0
-11 -31 0
-11 -27 0
-11 -24 0
-11 -21 0
-11 -20 0
-11 -17 0
-11 -15 0
-11 -13 0
-11 -12 0
-10 -54 0
-10 -50 0
-10 -49 0
-10 -48 0
-10 -46 0
-10 -41 0
-10 -38 0
-10 -37 0
-10 -36 0
-10 -33 0
-10 -27 0
-10 -22 0
-10 -12 0
-9 -56 0
-9 -45 0
-9 -43 0
-9 -42 0
-9 -40 0
-9 -39 0
-9 -36 0
-9 -34 0
-9 -24 0
-9 -22 0
-9 -19 0
-9 -16 0
-8 -55 0
-8 -52 0
-8 -48 0
-8 -38 0
-8 -35 0
-8 -29 0
-8 -25 0
-8 -23 0
-8 -17 0
-8 -16 0
-7 -47 0
-7 -46 0
-7 -44 0
-7 -41 0
-7 -39 0
-7 -34 0
-7 -30 0
-7 -23 0
-7 -20 0
-7 -18 0
-6 -56 0
-6 -45 0
-6 -42 0
-6 -38 0
-6 -36 0
-6 -35 0
-6 -34 0
-6 -25 0
-6 -19 0
-6 -17 0
-6 -9 0
-6 -8 0
-5 -55 0
-5 -52 0
-5 -51 0
-5 -48 0
-5 -42 0
-5 -33 0
-5 -32 0
-5 -29 0
-5 -23 0
-5 -18 0
-5 -16 0
-5 -14 0
-5 -8 0
-4 -46 0
-4 -44 0
-4 -39 0
-4 -38 0
-4 -35 0
-4 -25 0
-4 -18 0
-4 -17 0
-4 -8 0
-4 -7 0
-4 -6 0
-3 -55 0
-3 -50 0
-3 -46 0
-3 -45 0
-3 -44 0
-3 -39 0
-3 -28 0
-3 -26 0
-3 -18 0
-3 -13 0
-3 -7 0
-3 -4 0
-2 -54 0
-2 -53 0
-2 -46 0
-2 -44 0
-2 -39 0
-2 -29 0
-2 -21 0
-2 -19 0
-2 -18 0
-2 -7 0
-2 -4 0
-2 -3 0
-1 -54 0
-1 -53 0
-1 -43 0
-1 -37 0
-1 -30 0
-1 -29 0
-1 -26 0
-1 -25 0
-1 -21 0
-1 -19 0
-1 -15 0
-1 -14 0
-1 -2 0
1 2 19 21 29 53 54 0
3 13 26 28 45 50 55 0
4 6 8 17 25 35 38 0
5 14 18 32 33 42 51 0
7 20 23 30 34 41 47 0
9 16 22 24 39 40 43 0
10 12 36 37 46 48 49 0
11 15 27 31 44 52 56 0
