p cnf 42 238
-41 -42 0
-40 -42 0
-40 -41 0
-38 -42 0
-37 -40 0
-37 -38 0
-35 -39 0
-34 -36 0
-34 -35 0
-33 -42 0
-33 -41 0
-33 -40 0
-33 -39 0
-33 -35 0
-32 -39 0
-31 -38 0
-31 -37 0
-30 -42 0
-30 -38 0
-30 -36 0
-29 -42 0
-29 -38 0
-29 -30 0
-28 -41 0
-28 -38 0
-28 -37 0
-28 -31 0
-27 -38 0
-27 -37 0
-27 -36 0
-27 -34 0
-27 -31 0
-27 -28 0
-26 -41 0
-26 -36 0
-26 -30 0
-26 -28 0
-25 -36 0
-25 -34 0
-25 -29 0
-25 -27 0
-24 -42 0
-24 -38 0
-24 -35 0
-24 -34 0
-24 -30 0
-24 -29 0
-23 -36 0
-23 -31 0
-23 -30 0
-23 -26 0
-22 -40 0
-22 -37 0
-22 -36 0
-22 -30 0
-22 -26 0
-22 -23 0
-21 -39 0
-21 -38 0
-21 -37 0
-21 -35 0
-21 -33 0
-21 -31 0
-21 -28 0
-21 -27 0
-20 -42 0
-20 -41 0
-20 -40 0
-20 -36 0
-20 -34 0
-20 -33 0
-20 -27 0
-20 -25 0
-19 -31 0
-19 -29 0
-19 -25 0
-19 -23 0
-18 -40 0
-18 -39 0
-18 -37 0
-18 -32 0
-18 -22 0
-17 -41 0
-17 -39 0
-17 -32 0
-17 -28 0
-17 -26 0
-17 -18 0
-16 -35 0
-16 -34 0
-16 -32 0
-16 -24 0
-15 -42 0
-15 -39 0
-15 -38 0
-15 -32 0
-15 -30 0
-15 -29 0
-15 -24 0
-15 -18 0
-15 -17 0
-14 -40 0
-14 -37 0
-14 -29 0
-14 -25 0
-14 -22 0
-14 -19 0
-14 -18 0
-13 -38 0
-13 -37 0
-13 -32 0
-13 -31 0
-13 -28 0
-13 -27 0
-13 -21 0
-13 -16 0
-12 -35 0
-12 -34 0
-12 -31 0
-12 -24 0
-12 -23 0
-12 -19 0
-12 -16 0
-11 -39 0
-11 -36 0
-11 -35 0
-11 -33 0
-11 -30 0
-11 -26 0
-11 -23 0
-11 -22 0
-11 -21 0
-10 -32 0
-10 -29 0
-10 -25 0
-10 -19 0
-10 -16 0
-10 -14 0
-10 -13 0
-9 -40 0
-9 -37 0
-9 -35 0
-9 -34 0
-9 -24 0
-9 -22 0
-9 -18 0
-9 -16 0
-9 -14 0
-9 -12 0
-8 -41 0
-8 -29 0
-8 -28 0
-8 -26 0
-8 -25 0
-8 -19 0
-8 -17 0
-8 -14 0
-8 -10 0
-7 -39 0
-7 -36 0
-7 -34 0
-7 -32 0
-7 -27 0
-7 -25 0
-7 -20 0
-7 -18 0
-7 -17 0
-7 -15 0
-6 -39 0
-6 -35 0
-6 -33 0
-6 -29 0
-6 -25 0
-6 -21 0
-6 -19 0
-6 -14 0
-6 -11 0
-6 -10 0
-6 -8 0
-5 -42 0
-5 -41 0
-5 -40 0
-5 -33 0
-5 -31 0
-5 -23 0
-5 -20 0
-5 -19 0
-5 -12 0
-4 -41 0
-4 -35 0
-4 -34 0
-4 -28 0
-4 -26 0
-4 -24 0
-4 -17 0
-4 -16 0
-4 -12 0
-4 -9 0
-4 -8 0
-3 -36 0
-3 -32 0
-3 -30 0
-3 -26 0
-3 -23 0
-3 -22 0
-3 -16 0
-3 -13 0
-3 -11 0
-3 -10 0
-2 -42 0
-2 -41 0
-2 -40 0
-2 -33 0
-2 -32 0
-2 -20 0
-2 -16 0
-2 -13 0
-2 -10 0
-2 -5 0
-2 -3 0
-1 -39 0
-1 -32 0
-1 -31 0
-1 -23 0
-1 -19 0
-1 -18 0
-1 -17 0
-1 -15 0
-1 -12 0
-1 -7 0
-1 -5 0
1 5 12 19 23 31 0
2 3 10 13 16 32 0
4 8 17 26 28 41 0
6 11 21 33 35 39 0
7 20 25 27 34 36 0
9 14 18 22 37 40 0
15 24 29 30 38 42 0
