p cnf 90 775
-87 -90 0
-86 -90 0
-86 -88 0
-86 -87 0
-85 -89 0
-84 -90 0
-84 -88 0
-83 -90 0
-83 -87 0
-83 -86 0
-82 -89 0
-81 -90 0
-81 -87 0
-81 -86 0
-81 -83 0
-80 -85 0
-78 -79 0
-77 -82 0
-77 -81 0
-76 -79 0
-75 -76 0
-74 -89 0
-74 -82 0
-73 -79 0
-73 -78 0
-73 -75 0
-72 -79 0
-72 -76 0
-72 -74 0
-71 -87 0
-71 -82 0
-71 -77 0
-70 -88 0
-70 -84 0
-70 -83 0
-69 -90 0
-69 -87 0
-69 -86 0
-69 -83 0
-69 -81 0
-69 -78 0
-68 -81 0
-68 -79 0
-68 -78 0
-68 -77 0
-68 -73 0
-67 -83 0
-67 -76 0
-67 -75 0
-67 -70 0
-66 -90 0
-66 -84 0
-66 -79 0
-66 -78 0
-66 -73 0
-66 -68 0
-65 -80 0
-65 -79 0
-65 -76 0
-65 -72 0
-64 -90 0
-64 -84 0
-64 -66 0
-63 -81 0
-63 -80 0
-63 -77 0
-63 -68 0
-63 -65 0
-62 -88 0
-62 -85 0
-62 -84 0
-62 -80 0
-62 -70 0
-61 -81 0
-61 -77 0
-61 -68 0
-61 -64 0
-61 -63 0
-60 -88 0
-60 -86 0
-60 -64 0
-60 -61 0
-59 -78 0
-59 -76 0
-59 -75 0
-59 -69 0
-59 -67 0
-58 -90 0
-58 -84 0
-58 -82 0
-58 -77 0
-58 -71 0
-58 -66 0
-58 -64 0
-57 -87 0
-57 -76 0
-57 -75 0
-57 -71 0
-57 -67 0
-57 -59 0
-56 -88 0
-56 -86 0
-56 -76 0
-56 -75 0
-56 -67 0
-56 -60 0
-56 -59 0
-56 -57 0
-55 -89 0
-55 -85 0
-55 -79 0
-55 -76 0
-55 -72 0
-55 -65 0
-54 -88 0
-54 -86 0
-54 -82 0
-54 -77 0
-54 -71 0
-54 -60 0
-54 -58 0
-54 -56 0
-53 -83 0
-53 -82 0
-53 -77 0
-53 -71 0
-53 -70 0
-53 -67 0
-53 -58 0
-53 -54 0
-52 -89 0
-52 -85 0
-52 -78 0
-52 -69 0
-52 -59 0
-52 -55 0
-51 -85 0
-51 -80 0
-51 -76 0
-51 -75 0
-51 -67 0
-51 -62 0
-51 -59 0
-51 -57 0
-51 -56 0
-50 -89 0
-50 -85 0
-50 -81 0
-50 -77 0
-50 -68 0
-50 -63 0
-50 -61 0
-50 -55 0
-50 -52 0
-49 -81 0
-49 -77 0
-49 -74 0
-49 -72 0
-49 -68 0
-49 -63 0
-49 -61 0
-49 -50 0
-48 -83 0
-48 -74 0
-48 -72 0
-48 -70 0
-48 -67 0
-48 -53 0
-48 -49 0
-47 -85 0
-47 -82 0
-47 -80 0
-47 -77 0
-47 -71 0
-47 -62 0
-47 -58 0
-47 -54 0
-47 -53 0
-47 -51 0
-46 -90 0
-46 -87 0
-46 -86 0
-46 -85 0
-46 -83 0
-46 -81 0
-46 -80 0
-46 -69 0
-46 -62 0
-46 -51 0
-46 -47 0
-45 -82 0
-45 -79 0
-45 -77 0
-45 -76 0
-45 -72 0
-45 -71 0
-45 -65 0
-45 -58 0
-45 -55 0
-45 -54 0
-45 -53 0
-45 -47 0
-44 -87 0
-44 -80 0
-44 -71 0
-44 -65 0
-44 -63 0
-44 -57 0
-43 -78 0
-43 -69 0
-43 -64 0
-43 -61 0
-43 -60 0
-43 -59 0
-43 -52 0
-42 -85 0
-42 -80 0
-42 -64 0
-42 -62 0
-42 -61 0
-42 -60 0
-42 -51 0
-42 -47 0
-42 -46 0
-42 -43 0
-41 -89 0
-41 -82 0
-41 -76 0
-41 -75 0
-41 -74 0
-41 -67 0
-41 -59 0
-41 -57 0
-41 -56 0
-41 -51 0
-40 -82 0
-40 -78 0
-40 -77 0
-40 -71 0
-40 -69 0
-40 -59 0
-40 -58 0
-40 -54 0
-40 -53 0
-40 -52 0
-40 -47 0
-40 -45 0
-40 -43 0
-39 -75 0
-39 -73 0
-39 -64 0
-39 -61 0
-39 -60 0
-39 -43 0
-39 -42 0
-38 -83 0
-38 -70 0
-38 -67 0
-38 -64 0
-38 -61 0
-38 -60 0
-38 -53 0
-38 -48 0
-38 -43 0
-38 -42 0
-38 -39 0
-37 -89 0
-37 -82 0
-37 -74 0
-37 -64 0
-37 -61 0
-37 -60 0
-37 -43 0
-37 -42 0
-37 -41 0
-37 -39 0
-37 -38 0
-36 -90 0
-36 -87 0
-36 -86 0
-36 -83 0
-36 -81 0
-36 -79 0
-36 -76 0
-36 -72 0
-36 -69 0
-36 -65 0
-36 -55 0
-36 -46 0
-36 -45 0
-35 -80 0
-35 -75 0
-35 -73 0
-35 -65 0
-35 -63 0
-35 -44 0
-35 -39 0
-34 -89 0
-34 -87 0
-34 -85 0
-34 -71 0
-34 -57 0
-34 -55 0
-34 -52 0
-34 -50 0
-34 -44 0
-33 -89 0
-33 -85 0
-33 -75 0
-33 -73 0
-33 -55 0
-33 -52 0
-33 -50 0
-33 -39 0
-33 -35 0
-33 -34 0
-32 -88 0
-32 -84 0
-32 -78 0
-32 -70 0
-32 -69 0
-32 -62 0
-32 -59 0
-32 -52 0
-32 -43 0
-32 -40 0
-31 -83 0
-31 -80 0
-31 -70 0
-31 -67 0
-31 -65 0
-31 -63 0
-31 -53 0
-31 -48 0
-31 -44 0
-31 -38 0
-31 -35 0
-30 -88 0
-30 -84 0
-30 -75 0
-30 -73 0
-30 -70 0
-30 -62 0
-30 -39 0
-30 -35 0
-30 -33 0
-30 -32 0
-29 -90 0
-29 -89 0
-29 -87 0
-29 -86 0
-29 -83 0
-29 -82 0
-29 -81 0
-29 -74 0
-29 -69 0
-29 -46 0
-29 -41 0
-29 -37 0
-29 -36 0
-28 -88 0
-28 -86 0
-28 -79 0
-28 -78 0
-28 -73 0
-28 -68 0
-28 -66 0
-28 -60 0
-28 -56 0
-28 -54 0
-27 -90 0
-27 -84 0
-27 -76 0
-27 -75 0
-27 -67 0
-27 -66 0
-27 -64 0
-27 -59 0
-27 -58 0
-27 -57 0
-27 -56 0
-27 -51 0
-27 -41 0
-26 -87 0
-26 -74 0
-26 -72 0
-26 -71 0
-26 -57 0
-26 -49 0
-26 -48 0
-26 -44 0
-26 -34 0
-25 -89 0
-25 -88 0
-25 -84 0
-25 -82 0
-25 -74 0
-25 -70 0
-25 -62 0
-25 -41 0
-25 -37 0
-25 -32 0
-25 -30 0
-25 -29 0
-24 -88 0
-24 -87 0
-24 -84 0
-24 -71 0
-24 -70 0
-24 -62 0
-24 -57 0
-24 -44 0
-24 -34 0
-24 -32 0
-24 -30 0
-24 -26 0
-24 -25 0
-23 -90 0
-23 -84 0
-23 -74 0
-23 -72 0
-23 -66 0
-23 -64 0
-23 -58 0
-23 -49 0
-23 -48 0
-23 -27 0
-23 -26 0
-22 -90 0
-22 -87 0
-22 -86 0
-22 -83 0
-22 -81 0
-22 -75 0
-22 -73 0
-22 -69 0
-22 -46 0
-22 -39 0
-22 -36 0
-22 -35 0
-22 -33 0
-22 -30 0
-22 -29 0
-21 -89 0
-21 -85 0
-21 -83 0
-21 -70 0
-21 -67 0
-21 -55 0
-21 -53 0
-21 -52 0
-21 -50 0
-21 -48 0
-21 -38 0
-21 -34 0
-21 -33 0
-21 -31 0
-20 -79 0
-20 -76 0
-20 -72 0
-20 -65 0
-20 -64 0
-20 -61 0
-20 -60 0
-20 -55 0
-20 -45 0
-20 -43 0
-20 -42 0
-20 -39 0
-20 -38 0
-20 -37 0
-20 -36 0
-19 -78 0
-19 -74 0
-19 -72 0
-19 -69 0
-19 -59 0
-19 -52 0
-19 -49 0
-19 -48 0
-19 -43 0
-19 -40 0
-19 -32 0
-19 -26 0
-19 -23 0
-18 -82 0
-18 -77 0
-18 -75 0
-18 -73 0
-18 -71 0
-18 -58 0
-18 -54 0
-18 -53 0
-18 -47 0
-18 -45 0
-18 -40 0
-18 -39 0
-18 -35 0
-18 -33 0
-18 -30 0
-18 -22 0
-17 -90 0
-17 -89 0
-17 -85 0
-17 -84 0
-17 -66 0
-17 -64 0
-17 -58 0
-17 -55 0
-17 -52 0
-17 -50 0
-17 -34 0
-17 -33 0
-17 -27 0
-17 -23 0
-17 -21 0
-16 -80 0
-16 -78 0
-16 -69 0
-16 -65 0
-16 -63 0
-16 -59 0
-16 -52 0
-16 -44 0
-16 -43 0
-16 -40 0
-16 -35 0
-16 -32 0
-16 -31 0
-16 -19 0
-15 -81 0
-15 -77 0
-15 -76 0
-15 -75 0
-15 -68 0
-15 -67 0
-15 -63 0
-15 -61 0
-15 -59 0
-15 -57 0
-15 -56 0
-15 -51 0
-15 -50 0
-15 -49 0
-15 -41 0
-15 -27 0
-14 -89 0
-14 -88 0
-14 -86 0
-14 -85 0
-14 -60 0
-14 -56 0
-14 -55 0
-14 -54 0
-14 -52 0
-14 -50 0
-14 -34 0
-14 -33 0
-14 -28 0
-14 -21 0
-14 -17 0
-13 -88 0
-13 -86 0
-13 -80 0
-13 -65 0
-13 -63 0
-13 -60 0
-13 -56 0
-13 -54 0
-13 -44 0
-13 -35 0
-13 -31 0
-13 -28 0
-13 -16 0
-13 -14 0
-12 -88 0
-12 -86 0
-12 -74 0
-12 -72 0
-12 -60 0
-12 -56 0
-12 -54 0
-12 -49 0
-12 -48 0
-12 -28 0
-12 -26 0
-12 -23 0
-12 -19 0
-12 -14 0
-12 -13 0
-11 -87 0
-11 -79 0
-11 -78 0
-11 -73 0
-11 -71 0
-11 -68 0
-11 -66 0
-11 -57 0
-11 -44 0
-11 -34 0
-11 -28 0
-11 -26 0
-11 -24 0
-10 -88 0
-10 -84 0
-10 -81 0
-10 -77 0
-10 -70 0
-10 -68 0
-10 -63 0
-10 -62 0
-10 -61 0
-10 -50 0
-10 -49 0
-10 -32 0
-10 -30 0
-10 -25 0
-10 -24 0
-10 -15 0
-9 -85 0
-9 -80 0
-9 -74 0
-9 -72 0
-9 -62 0
-9 -51 0
-9 -49 0
-9 -48 0
-9 -47 0
-9 -46 0
-9 -42 0
-9 -26 0
-9 -23 0
-9 -19 0
-9 -12 0
-8 -87 0
-8 -71 0
-8 -64 0
-8 -61 0
-8 -60 0
-8 -57 0
-8 -44 0
-8 -43 0
-8 -42 0
-8 -39 0
-8 -38 0
-8 -37 0
-8 -34 0
-8 -26 0
-8 -24 0
-8 -20 0
-8 -11 0
-7 -89 0
-7 -82 0
-7 -80 0
-7 -74 0
-7 -65 0
-7 -63 0
-7 -44 0
-7 -41 0
-7 -37 0
-7 -35 0
-7 -31 0
-7 -29 0
-7 -25 0
-7 -16 0
-7 -13 0
-6 -75 0
-6 -74 0
-6 -73 0
-6 -72 0
-6 -49 0
-6 -48 0
-6 -39 0
-6 -35 0
-6 -33 0
-6 -30 0
-6 -26 0
-6 -23 0
-6 -22 0
-6 -19 0
-6 -18 0
-6 -12 0
-6 -9 0
-5 -88 0
-5 -84 0
-5 -79 0
-5 -76 0
-5 -72 0
-5 -70 0
-5 -65 0
-5 -62 0
-5 -55 0
-5 -45 0
-5 -36 0
-5 -32 0
-5 -30 0
-5 -25 0
-5 -24 0
-5 -20 0
-5 -10 0
-4 -89 0
-4 -82 0
-4 -79 0
-4 -78 0
-4 -74 0
-4 -73 0
-4 -68 0
-4 -66 0
-4 -41 0
-4 -37 0
-4 -29 0
-4 -28 0
-4 -25 0
-4 -11 0
-4 -7 0
-3 -85 0
-3 -80 0
-3 -79 0
-3 -78 0
-3 -73 0
-3 -68 0
-3 -66 0
-3 -62 0
-3 -51 0
-3 -47 0
-3 -46 0
-3 -42 0
-3 -28 0
-3 -11 0
-3 -9 0
-3 -4 0
-2 -90 0
-2 -84 0
-2 -80 0
-2 -66 0
-2 -65 0
-2 -64 0
-2 -63 0
-2 -58 0
-2 -44 0
-2 -35 0
-2 -31 0
-2 -27 0
-2 -23 0
-2 -17 0
-2 -16 0
-2 -13 0
-2 -7 0
-1 -83 0
-1 -79 0
-1 -78 0
-1 -73 0
-1 -70 0
-1 -68 0
-1 -67 0
-1 -66 0
-1 -53 0
-1 -48 0
-1 -38 0
-1 -31 0
-1 -28 0
-1 -21 0
-1 -11 0
-1 -4 0
-1 -3 0
1 21 31 38 48 53 67 70 83 0
2 17 23 27 58 64 66 84 90 0
3 9 42 46 47 51 62 80 85 0
4 7 25 29 37 41 74 82 89 0
5 20 36 45 55 65 72 76 79 0
6 18 22 30 33 35 39 73 75 0
8 11 24 26 34 44 57 71 87 0
10 15 49 50 61 63 68 77 81 0
12 13 14 28 54 56 60 86 88 0
16 19 32 40 43 52 59 69 78 0
