p cnf 72 549
-68 -72 0
-66 -71 0
-65 -70 0
-65 -67 0
-64 -72 0
-64 -68 0
-63 -70 0
-63 -67 0
-62 -69 0
-61 -69 0
-61 -62 0
-60 -72 0
-60 -69 0
-59 -72 0
-59 -71 0
-59 -66 0
-59 -60 0
-58 -68 0
-58 -61 0
-57 -71 0
-57 -67 0
-57 -66 0
-57 -63 0
-57 -59 0
-56 -67 0
-56 -66 0
-56 -65 0
-55 -72 0
-55 -67 0
-55 -65 0
-55 -60 0
-55 -59 0
-55 -56 0
-54 -70 0
-54 -69 0
-54 -63 0
-54 -62 0
-54 -61 0
-53 -61 0
-53 -58 0
-52 -72 0
-52 -61 0
-52 -60 0
-52 -59 0
-52 -58 0
-52 -55 0
-52 -53 0
-51 -64 0
-51 -61 0
-51 -58 0
-51 -53 0
-51 -52 0
-50 -64 0
-50 -62 0
-50 -51 0
-49 -67 0
-49 -63 0
-49 -62 0
-49 -57 0
-49 -50 0
-48 -70 0
-48 -65 0
-48 -61 0
-48 -58 0
-48 -53 0
-48 -52 0
-48 -51 0
-47 -69 0
-47 -60 0
-47 -53 0
-46 -71 0
-46 -70 0
-46 -66 0
-46 -65 0
-46 -59 0
-46 -57 0
-46 -48 0
-45 -72 0
-45 -62 0
-45 -60 0
-45 -59 0
-45 -55 0
-45 -52 0
-45 -50 0
-45 -49 0
-44 -66 0
-44 -62 0
-44 -56 0
-44 -50 0
-44 -49 0
-44 -45 0
-43 -70 0
-43 -65 0
-43 -62 0
-43 -50 0
-43 -49 0
-43 -48 0
-43 -46 0
-43 -45 0
-43 -44 0
-42 -72 0
-42 -68 0
-42 -67 0
-42 -64 0
-42 -63 0
-42 -57 0
-42 -49 0
-41 -68 0
-41 -62 0
-41 -58 0
-41 -50 0
-41 -49 0
-41 -45 0
-41 -44 0
-41 -43 0
-40 -69 0
-40 -62 0
-40 -61 0
-40 -54 0
-39 -70 0
-39 -69 0
-39 -65 0
-39 -60 0
-39 -48 0
-39 -47 0
-39 -46 0
-39 -43 0
-38 -68 0
-38 -67 0
-38 -65 0
-38 -58 0
-38 -56 0
-38 -55 0
-38 -41 0
-37 -72 0
-37 -71 0
-37 -68 0
-37 -64 0
-37 -42 0
-36 -71 0
-36 -68 0
-36 -66 0
-36 -59 0
-36 -58 0
-36 -57 0
-36 -46 0
-36 -41 0
-36 -38 0
-35 -53 0
-35 -47 0
-35 -40 0
-34 -72 0
-34 -70 0
-34 -68 0
-34 -65 0
-34 -64 0
-34 -48 0
-34 -46 0
-34 -43 0
-34 -42 0
-34 -39 0
-34 -37 0
-33 -72 0
-33 -68 0
-33 -66 0
-33 -64 0
-33 -56 0
-33 -44 0
-33 -42 0
-33 -37 0
-33 -34 0
-32 -68 0
-32 -58 0
-32 -41 0
-32 -40 0
-32 -38 0
-32 -36 0
-32 -35 0
-31 -71 0
-31 -66 0
-31 -64 0
-31 -59 0
-31 -57 0
-31 -51 0
-31 -50 0
-31 -46 0
-31 -36 0
-30 -69 0
-30 -64 0
-30 -60 0
-30 -51 0
-30 -50 0
-30 -47 0
-30 -39 0
-30 -31 0
-29 -70 0
-29 -63 0
-29 -54 0
-29 -53 0
-29 -47 0
-29 -35 0
-28 -71 0
-28 -70 0
-28 -63 0
-28 -54 0
-28 -37 0
-28 -29 0
-27 -71 0
-27 -61 0
-27 -58 0
-27 -53 0
-27 -52 0
-27 -51 0
-27 -48 0
-27 -37 0
-27 -28 0
-26 -66 0
-26 -61 0
-26 -58 0
-26 -56 0
-26 -53 0
-26 -52 0
-26 -51 0
-26 -48 0
-26 -44 0
-26 -33 0
-26 -27 0
-25 -72 0
-25 -70 0
-25 -63 0
-25 -60 0
-25 -59 0
-25 -55 0
-25 -54 0
-25 -52 0
-25 -45 0
-25 -29 0
-25 -28 0
-24 -62 0
-24 -53 0
-24 -50 0
-24 -49 0
-24 -47 0
-24 -45 0
-24 -44 0
-24 -43 0
-24 -41 0
-24 -35 0
-24 -29 0
-23 -69 0
-23 -66 0
-23 -60 0
-23 -56 0
-23 -47 0
-23 -44 0
-23 -39 0
-23 -33 0
-23 -30 0
-23 -26 0
-22 -70 0
-22 -68 0
-22 -63 0
-22 -58 0
-22 -54 0
-22 -41 0
-22 -38 0
-22 -36 0
-22 -32 0
-22 -29 0
-22 -28 0
-22 -25 0
-21 -72 0
-21 -69 0
-21 -68 0
-21 -64 0
-21 -62 0
-21 -61 0
-21 -54 0
-21 -42 0
-21 -40 0
-21 -37 0
-21 -34 0
-21 -33 0
-20 -70 0
-20 -64 0
-20 -63 0
-20 -54 0
-20 -51 0
-20 -50 0
-20 -31 0
-20 -30 0
-20 -29 0
-20 -28 0
-20 -25 0
-20 -22 0
-19 -69 0
-19 -68 0
-19 -60 0
-19 -58 0
-19 -47 0
-19 -41 0
-19 -39 0
-19 -38 0
-19 -36 0
-19 -32 0
-19 -30 0
-19 -23 0
-19 -22 0
-18 -71 0
-18 -67 0
-18 -65 0
-18 -56 0
-18 -55 0
-18 -38 0
-18 -37 0
-18 -28 0
-18 -27 0
-17 -71 0
-17 -62 0
-17 -50 0
-17 -49 0
-17 -45 0
-17 -44 0
-17 -43 0
-17 -41 0
-17 -37 0
-17 -28 0
-17 -27 0
-17 -24 0
-17 -18 0
-16 -71 0
-16 -69 0
-16 -66 0
-16 -62 0
-16 -61 0
-16 -59 0
-16 -57 0
-16 -54 0
-16 -46 0
-16 -40 0
-16 -36 0
-16 -31 0
-16 -21 0
-15 -69 0
-15 -67 0
-15 -63 0
-15 -60 0
-15 -57 0
-15 -49 0
-15 -47 0
-15 -42 0
-15 -39 0
-15 -30 0
-15 -23 0
-15 -19 0
-14 -71 0
-14 -66 0
-14 -59 0
-14 -57 0
-14 -53 0
-14 -47 0
-14 -46 0
-14 -36 0
-14 -35 0
-14 -31 0
-14 -29 0
-14 -24 0
-14 -16 0
-13 -71 0
-13 -40 0
-13 -37 0
-13 -35 0
-13 -32 0
-13 -28 0
-13 -27 0
-13 -18 0
-13 -17 0
-12 -66 0
-12 -56 0
-12 -44 0
-12 -40 0
-12 -35 0
-12 -33 0
-12 -32 0
-12 -26 0
-12 -23 0
-12 -13 0
-11 -70 0
-11 -65 0
-11 -48 0
-11 -46 0
-11 -43 0
-11 -40 0
-11 -39 0
-11 -35 0
-11 -34 0
-11 -32 0
-11 -13 0
-11 -12 0
-10 -72 0
-10 -68 0
-10 -64 0
-10 -53 0
-10 -47 0
-10 -42 0
-10 -37 0
-10 -35 0
-10 -34 0
-10 -33 0
-10 -29 0
-10 -24 0
-10 -21 0
-10 -14 0
-9 -67 0
-9 -63 0
-9 -61 0
-9 -58 0
-9 -57 0
-9 -53 0
-9 -52 0
-9 -51 0
-9 -49 0
-9 -48 0
-9 -42 0
-9 -27 0
-9 -26 0
-9 -15 0
-8 -67 0
-8 -65 0
-8 -56 0
-8 -55 0
-8 -53 0
-8 -47 0
-8 -38 0
-8 -35 0
-8 -29 0
-8 -24 0
-8 -18 0
-8 -14 0
-8 -10 0
-7 -69 0
-7 -67 0
-7 -65 0
-7 -62 0
-7 -61 0
-7 -56 0
-7 -55 0
-7 -54 0
-7 -40 0
-7 -38 0
-7 -21 0
-7 -18 0
-7 -16 0
-7 -8 0
-6 -64 0
-6 -51 0
-6 -50 0
-6 -40 0
-6 -35 0
-6 -32 0
-6 -31 0
-6 -30 0
-6 -20 0
-6 -13 0
-6 -12 0
-6 -11 0
-5 -67 0
-5 -65 0
-5 -64 0
-5 -56 0
-5 -55 0
-5 -51 0
-5 -50 0
-5 -38 0
-5 -31 0
-5 -30 0
-5 -20 0
-5 -18 0
-5 -8 0
-5 -7 0
-5 -6 0
-4 -70 0
-4 -66 0
-4 -63 0
-4 -56 0
-4 -54 0
-4 -44 0
-4 -33 0
-4 -29 0
-4 -28 0
-4 -26 0
-4 -25 0
-4 -23 0
-4 -22 0
-4 -20 0
-4 -12 0
-3 -71 0
-3 -69 0
-3 -60 0
-3 -47 0
-3 -39 0
-3 -37 0
-3 -30 0
-3 -28 0
-3 -27 0
-3 -23 0
-3 -19 0
-3 -18 0
-3 -17 0
-3 -15 0
-3 -13 0
-2 -72 0
-2 -60 0
-2 -59 0
-2 -55 0
-2 -52 0
-2 -45 0
-2 -40 0
-2 -35 0
-2 -32 0
-2 -25 0
-2 -13 0
-2 -12 0
-2 -11 0
-2 -6 0
-1 -67 0
-1 -63 0
-1 -57 0
-1 -49 0
-1 -42 0
-1 -40 0
-1 -35 0
-1 -32 0
-1 -15 0
-1 -13 0
-1 -12 0
-1 -11 0
-1 -9 0
-1 -6 0
-1 -2 0
1 9 15 42 49 57 63 67 0
2 25 45 52 55 59 60 72 0
3 13 17 18 27 28 37 71 0
4 12 23 26 33 44 56 66 0
5 6 20 30 31 50 51 64 0
7 16 21 40 54 61 62 69 0
8 10 14 24 29 35 47 53 0
11 34 39 43 46 48 65 70 0
19 22 32 36 38 41 58 68 0
