p cnf 42 238
-40 -41 0
-39 -42 0
-37 -42 0
-37 -38 0
-36 -42 0
-36 -39 0
-35 -42 0
-35 -41 0
-35 -40 0
-35 -39 0
-35 -36 0
-34 -42 0
-34 -40 0
-34 -37 0
-33 -38 0
-32 -42 0
-32 -39 0
-32 -36 0
-32 -35 0
-31 -33 0
-30 -41 0
-30 -38 0
-30 -33 0
-29 -38 0
-29 -37 0
-29 -36 0
-28 -38 0
-28 -33 0
-28 -30 0
-27 -39 0
-27 -28 0
-26 -42 0
-26 -39 0
-26 -36 0
-26 -35 0
-26 -32 0
-26 -31 0
-25 -36 0
-25 -29 0
-25 -28 0
-25 -27 0
-24 -40 0
-24 -36 0
-24 -34 0
-24 -29 0
-24 -25 0
-23 -42 0
-23 -37 0
-23 -34 0
-23 -28 0
-23 -27 0
-23 -25 0
-22 -38 0
-22 -37 0
-22 -31 0
-22 -29 0
-22 -26 0
-21 -36 0
-21 -33 0
-21 -31 0
-21 -29 0
-21 -25 0
-21 -24 0
-20 -40 0
-20 -38 0
-20 -34 0
-20 -33 0
-20 -30 0
-20 -28 0
-20 -24 0
-19 -41 0
-19 -40 0
-19 -35 0
-19 -33 0
-19 -31 0
-19 -21 0
-18 -42 0
-18 -39 0
-18 -38 0
-18 -36 0
-18 -35 0
-18 -33 0
-18 -32 0
-18 -30 0
-18 -28 0
-18 -26 0
-18 -20 0
-17 -41 0
-17 -31 0
-17 -30 0
-17 -26 0
-17 -22 0
-16 -38 0
-16 -37 0
-16 -32 0
-16 -29 0
-16 -22 0
-15 -41 0
-15 -36 0
-15 -30 0
-15 -29 0
-15 -25 0
-15 -24 0
-15 -21 0
-15 -17 0
-14 -40 0
-14 -39 0
-14 -34 0
-14 -27 0
-14 -24 0
-14 -20 0
-13 -41 0
-13 -40 0
-13 -38 0
-13 -37 0
-13 -35 0
-13 -29 0
-13 -22 0
-13 -19 0
-13 -16 0
-12 -41 0
-12 -39 0
-12 -30 0
-12 -27 0
-12 -17 0
-12 -15 0
-12 -14 0
-11 -41 0
-11 -32 0
-11 -30 0
-11 -17 0
-11 -16 0
-11 -15 0
-11 -12 0
-10 -42 0
-10 -37 0
-10 -34 0
-10 -33 0
-10 -31 0
-10 -23 0
-10 -21 0
-10 -19 0
-9 -40 0
-9 -34 0
-9 -31 0
-9 -26 0
-9 -24 0
-9 -22 0
-9 -20 0
-9 -17 0
-9 -14 0
-8 -33 0
-8 -32 0
-8 -31 0
-8 -21 0
-8 -19 0
-8 -16 0
-8 -11 0
-8 -10 0
-7 -40 0
-7 -34 0
-7 -32 0
-7 -24 0
-7 -20 0
-7 -16 0
-7 -14 0
-7 -11 0
-7 -9 0
-7 -8 0
-6 -39 0
-6 -33 0
-6 -31 0
-6 -27 0
-6 -21 0
-6 -19 0
-6 -14 0
-6 -12 0
-6 -10 0
-6 -8 0
-5 -32 0
-5 -28 0
-5 -27 0
-5 -25 0
-5 -23 0
-5 -16 0
-5 -11 0
-5 -8 0
-5 -7 0
-4 -39 0
-4 -38 0
-4 -37 0
-4 -29 0
-4 -27 0
-4 -22 0
-4 -16 0
-4 -14 0
-4 -13 0
-4 -12 0
-4 -6 0
-3 -31 0
-3 -28 0
-3 -27 0
-3 -26 0
-3 -25 0
-3 -23 0
-3 -22 0
-3 -17 0
-3 -9 0
-3 -5 0
-2 -42 0
-2 -41 0
-2 -37 0
-2 -34 0
-2 -30 0
-2 -23 0
-2 -17 0
-2 -15 0
-2 -12 0
-2 -11 0
-2 -10 0
-1 -41 0
-1 -40 0
-1 -35 0
-1 -28 0
-1 -27 0
-1 -25 0
-1 -23 0
-1 -19 0
-1 -13 0
-1 -5 0
-1 -3 0
1 13 19 35 40 41 0
2 10 23 34 37 42 0
3 9 17 22 26 31 0
4 6 12 14 27 39 0
5 7 8 11 16 32 0
15 21 24 25 29 36 0
18 20 28 30 33 38 0
