p cnf 72 549
-68 -69 0
-66 -69 0
-65 -71 0
-64 -71 0
-64 -68 0
-63 -72 0
-63 -71 0
-63 -64 0
-62 -70 0
-62 -67 0
-61 -72 0
-61 -71 0
-61 -65 0
-60 -69 0
-60 -68 0
-59 -69 0
-59 -68 0
-59 -60 0
-58 -69 0
-58 -68 0
-58 -60 0
-58 -59 0
-57 -72 0
-57 -65 0
-57 -63 0
-56 -72 0
-56 -69 0
-56 -66 0
-56 -61 0
-55 -72 0
-55 -61 0
-55 -60 0
-55 -56 0
-54 -70 0
-54 -68 0
-54 -64 0
-54 -62 0
-53 -70 0
-53 -66 0
-52 -65 0
-52 -60 0
-52 -57 0
-52 -55 0
-51 -66 0
-51 -60 0
-51 -55 0
-51 -53 0
-51 -52 0
-50 -70 0
-50 -67 0
-50 -53 0
-49 -65 0
-49 -59 0
-49 -57 0
-49 -52 0
-48 -71 0
-48 -69 0
-48 -68 0
-48 -65 0
-48 -61 0
-48 -60 0
-48 -59 0
-48 -58 0
-47 -67 0
-47 -65 0
-47 -62 0
-47 -57 0
-47 -52 0
-47 -49 0
-46 -70 0
-46 -65 0
-46 -57 0
-46 -53 0
-46 -52 0
-46 -50 0
-46 -49 0
-46 -47 0
-45 -72 0
-45 -70 0
-45 -63 0
-45 -62 0
-45 -57 0
-45 -54 0
-44 -59 0
-44 -49 0
-43 -68 0
-43 -66 0
-43 -64 0
-43 -54 0
-43 -53 0
-43 -51 0
-42 -68 0
-42 -64 0
-42 -54 0
-42 -44 0
-42 -43 0
-41 -72 0
-41 -61 0
-41 -59 0
-41 -56 0
-41 -55 0
-41 -49 0
-41 -44 0
-40 -69 0
-40 -66 0
-40 -56 0
-40 -44 0
-40 -42 0
-39 -71 0
-39 -69 0
-39 -66 0
-39 -64 0
-39 -63 0
-39 -56 0
-39 -40 0
-38 -71 0
-38 -64 0
-38 -63 0
-38 -59 0
-38 -49 0
-38 -44 0
-38 -41 0
-38 -39 0
-37 -72 0
-37 -61 0
-37 -58 0
-37 -56 0
-37 -55 0
-37 -41 0
-36 -67 0
-36 -59 0
-36 -50 0
-36 -49 0
-36 -44 0
-36 -41 0
-36 -38 0
-35 -71 0
-35 -70 0
-35 -64 0
-35 -63 0
-35 -53 0
-35 -50 0
-35 -46 0
-35 -39 0
-35 -38 0
-34 -69 0
-34 -68 0
-34 -67 0
-34 -62 0
-34 -60 0
-34 -59 0
-34 -58 0
-34 -48 0
-34 -47 0
-33 -71 0
-33 -64 0
-33 -63 0
-33 -60 0
-33 -55 0
-33 -52 0
-33 -51 0
-33 -39 0
-33 -38 0
-33 -35 0
-32 -71 0
-32 -66 0
-32 -65 0
-32 -61 0
-32 -53 0
-32 -51 0
-32 -48 0
-32 -43 0
-31 -72 0
-31 -70 0
-31 -61 0
-31 -56 0
-31 -55 0
-31 -53 0
-31 -50 0
-31 -46 0
-31 -41 0
-31 -37 0
-31 -35 0
-30 -72 0
-30 -63 0
-30 -57 0
-30 -45 0
-30 -44 0
-30 -42 0
-30 -40 0
-29 -72 0
-29 -66 0
-29 -63 0
-29 -57 0
-29 -53 0
-29 -51 0
-29 -45 0
-29 -43 0
-29 -32 0
-29 -30 0
-28 -67 0
-28 -62 0
-28 -47 0
-28 -44 0
-28 -42 0
-28 -40 0
-28 -34 0
-28 -30 0
-27 -68 0
-27 -67 0
-27 -64 0
-27 -54 0
-27 -50 0
-27 -43 0
-27 -42 0
-27 -36 0
-26 -67 0
-26 -58 0
-26 -50 0
-26 -37 0
-26 -36 0
-26 -27 0
-25 -71 0
-25 -67 0
-25 -64 0
-25 -63 0
-25 -62 0
-25 -47 0
-25 -39 0
-25 -38 0
-25 -35 0
-25 -34 0
-25 -33 0
-25 -28 0
-24 -72 0
-24 -67 0
-24 -63 0
-24 -57 0
-24 -50 0
-24 -45 0
-24 -36 0
-24 -30 0
-24 -29 0
-24 -27 0
-24 -26 0
-23 -66 0
-23 -58 0
-23 -53 0
-23 -51 0
-23 -43 0
-23 -37 0
-23 -32 0
-23 -29 0
-23 -26 0
-22 -70 0
-22 -69 0
-22 -68 0
-22 -60 0
-22 -59 0
-22 -58 0
-22 -53 0
-22 -50 0
-22 -48 0
-22 -46 0
-22 -35 0
-22 -34 0
-22 -31 0
-21 -70 0
-21 -53 0
-21 -50 0
-21 -46 0
-21 -44 0
-21 -42 0
-21 -40 0
-21 -35 0
-21 -31 0
-21 -30 0
-21 -28 0
-21 -22 0
-20 -71 0
-20 -70 0
-20 -65 0
-20 -62 0
-20 -61 0
-20 -54 0
-20 -48 0
-20 -45 0
-20 -32 0
-19 -70 0
-19 -62 0
-19 -58 0
-19 -54 0
-19 -45 0
-19 -37 0
-19 -26 0
-19 -23 0
-19 -20 0
-18 -66 0
-18 -59 0
-18 -53 0
-18 -51 0
-18 -49 0
-18 -44 0
-18 -43 0
-18 -41 0
-18 -38 0
-18 -36 0
-18 -32 0
-18 -29 0
-18 -23 0
-17 -67 0
-17 -66 0
-17 -62 0
-17 -53 0
-17 -51 0
-17 -47 0
-17 -43 0
-17 -34 0
-17 -32 0
-17 -29 0
-17 -28 0
-17 -25 0
-17 -23 0
-17 -18 0
-16 -72 0
-16 -67 0
-16 -62 0
-16 -61 0
-16 -56 0
-16 -55 0
-16 -47 0
-16 -41 0
-16 -37 0
-16 -34 0
-16 -31 0
-16 -28 0
-16 -25 0
-16 -17 0
-15 -67 0
-15 -60 0
-15 -55 0
-15 -52 0
-15 -51 0
-15 -50 0
-15 -36 0
-15 -33 0
-15 -27 0
-15 -26 0
-15 -24 0
-14 -71 0
-14 -67 0
-14 -65 0
-14 -61 0
-14 -50 0
-14 -48 0
-14 -36 0
-14 -32 0
-14 -27 0
-14 -26 0
-14 -24 0
-14 -20 0
-14 -15 0
-13 -69 0
-13 -66 0
-13 -65 0
-13 -57 0
-13 -56 0
-13 -52 0
-13 -49 0
-13 -47 0
-13 -46 0
-13 -40 0
-13 -39 0
-12 -72 0
-12 -68 0
-12 -64 0
-12 -61 0
-12 -56 0
-12 -55 0
-12 -54 0
-12 -43 0
-12 -42 0
-12 -41 0
-12 -37 0
-12 -31 0
-12 -27 0
-12 -16 0
-11 -68 0
-11 -65 0
-11 -64 0
-11 -57 0
-11 -54 0
-11 -52 0
-11 -49 0
-11 -47 0
-11 -46 0
-11 -43 0
-11 -42 0
-11 -27 0
-11 -13 0
-11 -12 0
-10 -72 0
-10 -69 0
-10 -68 0
-10 -63 0
-10 -60 0
-10 -59 0
-10 -58 0
-10 -57 0
-10 -48 0
-10 -45 0
-10 -34 0
-10 -30 0
-10 -29 0
-10 -24 0
-10 -22 0
-9 -71 0
-9 -65 0
-9 -61 0
-9 -48 0
-9 -44 0
-9 -42 0
-9 -40 0
-9 -32 0
-9 -30 0
-9 -28 0
-9 -21 0
-9 -20 0
-9 -14 0
-8 -60 0
-8 -55 0
-8 -52 0
-8 -51 0
-8 -44 0
-8 -42 0
-8 -40 0
-8 -33 0
-8 -30 0
-8 -28 0
-8 -21 0
-8 -15 0
-8 -9 0
-7 -70 0
-7 -62 0
-7 -60 0
-7 -55 0
-7 -54 0
-7 -52 0
-7 -51 0
-7 -45 0
-7 -33 0
-7 -20 0
-7 -19 0
-7 -15 0
-7 -8 0
-6 -58 0
-6 -44 0
-6 -42 0
-6 -40 0
-6 -37 0
-6 -30 0
-6 -28 0
-6 -26 0
-6 -23 0
-6 -21 0
-6 -19 0
-6 -9 0
-6 -8 0
-5 -70 0
-5 -62 0
-5 -59 0
-5 -54 0
-5 -49 0
-5 -45 0
-5 -44 0
-5 -41 0
-5 -38 0
-5 -36 0
-5 -20 0
-5 -19 0
-5 -18 0
-5 -7 0
-4 -71 0
-4 -64 0
-4 -63 0
-4 -58 0
-4 -39 0
-4 -38 0
-4 -37 0
-4 -35 0
-4 -33 0
-4 -26 0
-4 -25 0
-4 -23 0
-4 -19 0
-4 -6 0
-3 -69 0
-3 -67 0
-3 -66 0
-3 -56 0
-3 -50 0
-3 -40 0
-3 -39 0
-3 -36 0
-3 -27 0
-3 -26 0
-3 -24 0
-3 -15 0
-3 -14 0
-3 -13 0
-2 -65 0
-2 -58 0
-2 -57 0
-2 -52 0
-2 -49 0
-2 -47 0
-2 -46 0
-2 -37 0
-2 -26 0
-2 -23 0
-2 -19 0
-2 -13 0
-2 -11 0
-2 -6 0
-2 -4 0
-1 -70 0
-1 -69 0
-1 -66 0
-1 -62 0
-1 -56 0
-1 -54 0
-1 -45 0
-1 -40 0
-1 -39 0
-1 -20 0
-1 -19 0
-1 -13 0
-1 -7 0
-1 -5 0
-1 -3 0
1 3 13 39 40 56 66 69 0
2 4 6 19 23 26 37 58 0
5 18 36 38 41 44 49 59 0
7 8 15 33 51 52 55 60 0
9 14 20 32 48 61 65 71 0
10 24 29 30 45 57 63 72 0
11 12 27 42 43 54 64 68 0
16 17 25 28 34 47 62 67 0
21 22 31 35 46 50 53 70 0
