p cnf 132 1398
-131 -132 0
-129 -132 0
-126 -130 0
-125 -131 0
-124 -126 0
-123 -132 0
-123 -131 0
-123 -124 0
-122 -126 0
-122 -124 0
-121 -128 0
-120 -132 0
-120 -129 0
-120 -125 0
-119 -127 0
-119 -126 0
-119 -124 0
-119 -122 0
-117 -128 0
-117 -121 0
-117 -118 0
-116 -130 0
-116 -126 0
-116 -118 0
-115 -126 0
-115 -124 0
-115 -122 0
-115 -119 0
-115 -118 0
-115 -117 0
-114 -126 0
-114 -124 0
-114 -122 0
-114 -119 0
-114 -115 0
-113 -118 0
-113 -116 0
-112 -132 0
-112 -129 0
-112 -120 0
-112 -118 0
-112 -116 0
-112 -113 0
-111 -127 0
-111 -119 0
-110 -130 0
-110 -126 0
-110 -116 0
-110 -111 0
-108 -128 0
-107 -132 0
-107 -131 0
-107 -123 0
-107 -113 0
-106 -128 0
-106 -118 0
-106 -116 0
-106 -113 0
-106 -112 0
-106 -108 0
-105 -130 0
-105 -128 0
-105 -126 0
-105 -121 0
-105 -117 0
-105 -116 0
-105 -110 0
-104 -132 0
-104 -131 0
-104 -123 0
-104 -121 0
-104 -107 0
-103 -121 0
-103 -111 0
-103 -110 0
-103 -104 0
-102 -131 0
-102 -125 0
-102 -118 0
-102 -116 0
-102 -113 0
-102 -112 0
-102 -106 0
-101 -130 0
-101 -126 0
-101 -116 0
-101 -110 0
-101 -108 0
-101 -105 0
-100 -113 0
-100 -111 0
-100 -110 0
-100 -107 0
-100 -103 0
-99 -127 0
-99 -125 0
-99 -120 0
-99 -119 0
-99 -111 0
-98 -114 0
-98 -108 0
-98 -101 0
-97 -130 0
-97 -129 0
-97 -126 0
-97 -116 0
-97 -110 0
-97 -105 0
-97 -101 0
-96 -124 0
-96 -123 0
-96 -111 0
-96 -110 0
-96 -103 0
-96 -100 0
-95 -129 0
-95 -113 0
-95 -107 0
-95 -100 0
-95 -97 0
-94 -128 0
-94 -125 0
-94 -120 0
-94 -108 0
-94 -106 0
-94 -99 0
-93 -127 0
-93 -119 0
-93 -118 0
-93 -116 0
-93 -113 0
-93 -112 0
-93 -111 0
-93 -106 0
-93 -102 0
-93 -99 0
-92 -130 0
-92 -128 0
-92 -108 0
-92 -106 0
-92 -94 0
-91 -130 0
-91 -127 0
-91 -126 0
-91 -116 0
-91 -110 0
-91 -105 0
-91 -101 0
-91 -97 0
-90 -124 0
-90 -123 0
-90 -118 0
-90 -116 0
-90 -113 0
-90 -112 0
-90 -106 0
-90 -102 0
-90 -96 0
-90 -93 0
-89 -132 0
-89 -131 0
-89 -123 0
-89 -118 0
-89 -117 0
-89 -115 0
-89 -107 0
-89 -104 0
-88 -129 0
-88 -128 0
-88 -108 0
-88 -106 0
-88 -97 0
-88 -95 0
-88 -94 0
-88 -92 0
-87 -127 0
-87 -109 0
-87 -91 0
-86 -132 0
-86 -131 0
-86 -130 0
-86 -126 0
-86 -123 0
-86 -116 0
-86 -110 0
-86 -107 0
-86 -105 0
-86 -104 0
-86 -101 0
-86 -97 0
-86 -91 0
-86 -89 0
-85 -125 0
-85 -120 0
-85 -113 0
-85 -107 0
-85 -100 0
-85 -99 0
-85 -95 0
-85 -94 0
-84 -129 0
-84 -127 0
-84 -119 0
-84 -111 0
-84 -99 0
-84 -97 0
-84 -95 0
-84 -93 0
-84 -88 0
-83 -114 0
-83 -109 0
-83 -98 0
-82 -109 0
-82 -108 0
-82 -101 0
-82 -98 0
-82 -87 0
-81 -126 0
-81 -124 0
-81 -122 0
-81 -119 0
-81 -115 0
-81 -114 0
-81 -113 0
-81 -107 0
-81 -100 0
-81 -95 0
-81 -85 0
-80 -129 0
-80 -114 0
-80 -98 0
-80 -97 0
-80 -95 0
-80 -88 0
-80 -84 0
-80 -83 0
-79 -131 0
-79 -128 0
-79 -125 0
-79 -121 0
-79 -117 0
-79 -105 0
-79 -102 0
-78 -132 0
-78 -131 0
-78 -127 0
-78 -123 0
-78 -119 0
-78 -111 0
-78 -107 0
-78 -104 0
-78 -99 0
-78 -93 0
-78 -89 0
-78 -86 0
-78 -84 0
-77 -128 0
-77 -111 0
-77 -110 0
-77 -108 0
-77 -106 0
-77 -103 0
-77 -100 0
-77 -96 0
-77 -94 0
-77 -92 0
-77 -88 0
-76 -128 0
-76 -121 0
-76 -117 0
-76 -114 0
-76 -105 0
-76 -98 0
-76 -83 0
-76 -80 0
-76 -79 0
-75 -132 0
-75 -129 0
-75 -120 0
-75 -112 0
-75 -109 0
-75 -83 0
-74 -132 0
-74 -129 0
-74 -128 0
-74 -121 0
-74 -120 0
-74 -117 0
-74 -112 0
-74 -105 0
-74 -79 0
-74 -76 0
-74 -75 0
-73 -131 0
-73 -125 0
-73 -111 0
-73 -110 0
-73 -103 0
-73 -102 0
-73 -100 0
-73 -96 0
-73 -79 0
-73 -77 0
-72 -132 0
-72 -131 0
-72 -128 0
-72 -123 0
-72 -108 0
-72 -107 0
-72 -106 0
-72 -104 0
-72 -94 0
-72 -92 0
-72 -89 0
-72 -88 0
-72 -86 0
-72 -78 0
-72 -77 0
-71 -131 0
-71 -125 0
-71 -109 0
-71 -102 0
-71 -83 0
-71 -79 0
-71 -75 0
-71 -73 0
-70 -113 0
-70 -108 0
-70 -107 0
-70 -101 0
-70 -100 0
-70 -98 0
-70 -95 0
-70 -85 0
-70 -82 0
-70 -81 0
-69 -127 0
-69 -118 0
-69 -117 0
-69 -115 0
-69 -91 0
-69 -89 0
-69 -87 0
-68 -130 0
-68 -127 0
-68 -119 0
-68 -111 0
-68 -99 0
-68 -93 0
-68 -92 0
-68 -84 0
-68 -78 0
-67 -127 0
-67 -122 0
-67 -91 0
-67 -87 0
-67 -69 0
-66 -128 0
-66 -121 0
-66 -117 0
-66 -109 0
-66 -105 0
-66 -87 0
-66 -82 0
-66 -79 0
-66 -76 0
-66 -74 0
-65 -127 0
-65 -114 0
-65 -98 0
-65 -91 0
-65 -87 0
-65 -83 0
-65 -80 0
-65 -76 0
-65 -69 0
-65 -67 0
-64 -111 0
-64 -110 0
-64 -109 0
-64 -103 0
-64 -100 0
-64 -96 0
-64 -87 0
-64 -82 0
-64 -77 0
-64 -73 0
-64 -66 0
-63 -118 0
-63 -117 0
-63 -115 0
-63 -108 0
-63 -101 0
-63 -98 0
-63 -89 0
-63 -82 0
-63 -70 0
-63 -69 0
-62 -127 0
-62 -119 0
-62 -111 0
-62 -108 0
-62 -101 0
-62 -99 0
-62 -98 0
-62 -93 0
-62 -84 0
-62 -82 0
-62 -78 0
-62 -70 0
-62 -68 0
-62 -63 0
-61 -128 0
-61 -121 0
-61 -117 0
-61 -113 0
-61 -107 0
-61 -105 0
-61 -100 0
-61 -95 0
-61 -85 0
-61 -81 0
-61 -79 0
-61 -76 0
-61 -74 0
-61 -70 0
-61 -66 0
-60 -127 0
-60 -121 0
-60 -104 0
-60 -103 0
-60 -91 0
-60 -87 0
-60 -69 0
-60 -67 0
-60 -65 0
-59 -118 0
-59 -117 0
-59 -115 0
-59 -109 0
-59 -89 0
-59 -83 0
-59 -75 0
-59 -71 0
-59 -69 0
-59 -63 0
-58 -122 0
-58 -118 0
-58 -116 0
-58 -113 0
-58 -112 0
-58 -106 0
-58 -102 0
-58 -93 0
-58 -90 0
-58 -67 0
-57 -128 0
-57 -124 0
-57 -123 0
-57 -121 0
-57 -117 0
-57 -105 0
-57 -96 0
-57 -90 0
-57 -79 0
-57 -76 0
-57 -74 0
-57 -66 0
-57 -61 0
-56 -130 0
-56 -124 0
-56 -123 0
-56 -96 0
-56 -92 0
-56 -90 0
-56 -68 0
-56 -57 0
-55 -130 0
-55 -114 0
-55 -98 0
-55 -92 0
-55 -83 0
-55 -80 0
-55 -76 0
-55 -68 0
-55 -65 0
-55 -56 0
-54 -129 0
-54 -122 0
-54 -97 0
-54 -95 0
-54 -88 0
-54 -84 0
-54 -80 0
-54 -67 0
-54 -58 0
-53 -130 0
-53 -122 0
-53 -92 0
-53 -68 0
-53 -67 0
-53 -58 0
-53 -56 0
-53 -55 0
-53 -54 0
-52 -126 0
-52 -124 0
-52 -122 0
-52 -121 0
-52 -119 0
-52 -115 0
-52 -114 0
-52 -104 0
-52 -103 0
-52 -81 0
-52 -60 0
-51 -118 0
-51 -116 0
-51 -114 0
-51 -113 0
-51 -112 0
-51 -106 0
-51 -102 0
-51 -98 0
-51 -93 0
-51 -90 0
-51 -83 0
-51 -80 0
-51 -76 0
-51 -65 0
-51 -58 0
-51 -55 0
-50 -121 0
-50 -109 0
-50 -104 0
-50 -103 0
-50 -83 0
-50 -75 0
-50 -71 0
-50 -60 0
-50 -59 0
-50 -52 0
-49 -118 0
-49 -117 0
-49 -115 0
-49 -111 0
-49 -110 0
-49 -103 0
-49 -100 0
-49 -96 0
-49 -89 0
-49 -77 0
-49 -73 0
-49 -69 0
-49 -64 0
-49 -63 0
-49 -59 0
-48 -128 0
-48 -127 0
-48 -121 0
-48 -119 0
-48 -117 0
-48 -111 0
-48 -105 0
-48 -99 0
-48 -93 0
-48 -84 0
-48 -79 0
-48 -78 0
-48 -76 0
-48 -74 0
-48 -68 0
-48 -66 0
-48 -62 0
-48 -61 0
-48 -57 0
-47 -132 0
-47 -129 0
-47 -126 0
-47 -124 0
-47 -122 0
-47 -120 0
-47 -119 0
-47 -115 0
-47 -114 0
-47 -112 0
-47 -81 0
-47 -75 0
-47 -74 0
-47 -52 0
-46 -131 0
-46 -127 0
-46 -125 0
-46 -102 0
-46 -91 0
-46 -87 0
-46 -79 0
-46 -73 0
-46 -71 0
-46 -69 0
-46 -67 0
-46 -65 0
-46 -60 0
-45 -128 0
-45 -109 0
-45 -108 0
-45 -106 0
-45 -94 0
-45 -92 0
-45 -88 0
-45 -83 0
-45 -77 0
-45 -75 0
-45 -72 0
-45 -71 0
-45 -59 0
-45 -50 0
-44 -130 0
-44 -113 0
-44 -107 0
-44 -100 0
-44 -95 0
-44 -92 0
-44 -85 0
-44 -81 0
-44 -70 0
-44 -68 0
-44 -61 0
-44 -56 0
-44 -55 0
-44 -53 0
-43 -129 0
-43 -118 0
-43 -117 0
-43 -115 0
-43 -97 0
-43 -95 0
-43 -89 0
-43 -88 0
-43 -84 0
-43 -80 0
-43 -69 0
-43 -63 0
-43 -59 0
-43 -54 0
-43 -49 0
-42 -131 0
-42 -125 0
-42 -108 0
-42 -102 0
-42 -101 0
-42 -98 0
-42 -82 0
-42 -79 0
-42 -73 0
-42 -71 0
-42 -70 0
-42 -63 0
-42 -62 0
-42 -46 0
-41 -130 0
-41 -121 0
-41 -104 0
-41 -103 0
-41 -92 0
-41 -68 0
-41 -60 0
-41 -56 0
-41 -55 0
-41 -53 0
-41 -52 0
-41 -50 0
-41 -44 0
-40 -114 0
-40 -111 0
-40 -110 0
-40 -103 0
-40 -100 0
-40 -98 0
-40 -96 0
-40 -83 0
-40 -80 0
-40 -77 0
-40 -76 0
-40 -73 0
-40 -65 0
-40 -64 0
-40 -55 0
-40 -51 0
-40 -49 0
-39 -128 0
-39 -126 0
-39 -124 0
-39 -122 0
-39 -119 0
-39 -115 0
-39 -114 0
-39 -108 0
-39 -106 0
-39 -94 0
-39 -92 0
-39 -88 0
-39 -81 0
-39 -77 0
-39 -72 0
-39 -52 0
-39 -47 0
-39 -45 0
-38 -129 0
-38 -124 0
-38 -123 0
-38 -97 0
-38 -96 0
-38 -95 0
-38 -90 0
-38 -88 0
-38 -84 0
-38 -80 0
-38 -57 0
-38 -56 0
-38 -54 0
-38 -43 0
-37 -132 0
-37 -131 0
-37 -123 0
-37 -122 0
-37 -107 0
-37 -104 0
-37 -89 0
-37 -86 0
-37 -78 0
-37 -72 0
-37 -67 0
-37 -58 0
-37 -54 0
-37 -53 0
-36 -131 0
-36 -129 0
-36 -125 0
-36 -102 0
-36 -97 0
-36 -95 0
-36 -88 0
-36 -84 0
-36 -80 0
-36 -79 0
-36 -73 0
-36 -71 0
-36 -54 0
-36 -46 0
-36 -43 0
-36 -42 0
-36 -38 0
-35 -122 0
-35 -111 0
-35 -110 0
-35 -103 0
-35 -100 0
-35 -96 0
-35 -77 0
-35 -73 0
-35 -67 0
-35 -64 0
-35 -58 0
-35 -54 0
-35 -53 0
-35 -49 0
-35 -40 0
-35 -37 0
-34 -131 0
-34 -130 0
-34 -125 0
-34 -102 0
-34 -92 0
-34 -79 0
-34 -73 0
-34 -71 0
-34 -68 0
-34 -56 0
-34 -55 0
-34 -53 0
-34 -46 0
-34 -44 0
-34 -42 0
-34 -41 0
-34 -36 0
-33 -113 0
-33 -109 0
-33 -107 0
-33 -100 0
-33 -95 0
-33 -85 0
-33 -83 0
-33 -81 0
-33 -75 0
-33 -71 0
-33 -70 0
-33 -61 0
-33 -59 0
-33 -50 0
-33 -45 0
-33 -44 0
-32 -132 0
-32 -131 0
-32 -123 0
-32 -109 0
-32 -107 0
-32 -104 0
-32 -89 0
-32 -87 0
-32 -86 0
-32 -82 0
-32 -78 0
-32 -72 0
-32 -66 0
-32 -64 0
-32 -37 0
-31 -128 0
-31 -127 0
-31 -108 0
-31 -106 0
-31 -94 0
-31 -92 0
-31 -91 0
-31 -88 0
-31 -87 0
-31 -77 0
-31 -72 0
-31 -69 0
-31 -67 0
-31 -65 0
-31 -60 0
-31 -46 0
-31 -45 0
-31 -39 0
-30 -129 0
-30 -109 0
-30 -97 0
-30 -95 0
-30 -88 0
-30 -87 0
-30 -84 0
-30 -82 0
-30 -80 0
-30 -66 0
-30 -64 0
-30 -54 0
-30 -43 0
-30 -38 0
-30 -36 0
-30 -32 0
-29 -124 0
-29 -123 0
-29 -108 0
-29 -101 0
-29 -98 0
-29 -96 0
-29 -90 0
-29 -82 0
-29 -70 0
-29 -63 0
-29 -62 0
-29 -57 0
-29 -56 0
-29 -42 0
-29 -38 0
-28 -132 0
-28 -130 0
-28 -129 0
-28 -120 0
-28 -112 0
-28 -92 0
-28 -75 0
-28 -74 0
-28 -68 0
-28 -56 0
-28 -55 0
-28 -53 0
-28 -47 0
-28 -44 0
-28 -41 0
-28 -34 0
-27 -128 0
-27 -122 0
-27 -121 0
-27 -117 0
-27 -105 0
-27 -79 0
-27 -76 0
-27 -74 0
-27 -67 0
-27 -66 0
-27 -61 0
-27 -58 0
-27 -57 0
-27 -54 0
-27 -53 0
-27 -48 0
-27 -37 0
-27 -35 0
-26 -132 0
-26 -129 0
-26 -120 0
-26 -112 0
-26 -111 0
-26 -110 0
-26 -103 0
-26 -100 0
-26 -96 0
-26 -77 0
-26 -75 0
-26 -74 0
-26 -73 0
-26 -64 0
-26 -49 0
-26 -47 0
-26 -40 0
-26 -35 0
-26 -28 0
-25 -132 0
-25 -131 0
-25 -123 0
-25 -114 0
-25 -107 0
-25 -104 0
-25 -98 0
-25 -89 0
-25 -86 0
-25 -83 0
-25 -80 0
-25 -78 0
-25 -76 0
-25 -72 0
-25 -65 0
-25 -55 0
-25 -51 0
-25 -40 0
-25 -37 0
-25 -32 0
-24 -125 0
-24 -120 0
-24 -118 0
-24 -117 0
-24 -115 0
-24 -99 0
-24 -94 0
-24 -89 0
-24 -85 0
-24 -69 0
-24 -63 0
-24 -59 0
-24 -49 0
-24 -43 0
-23 -132 0
-23 -129 0
-23 -127 0
-23 -120 0
-23 -112 0
-23 -91 0
-23 -87 0
-23 -75 0
-23 -74 0
-23 -69 0
-23 -67 0
-23 -65 0
-23 -60 0
-23 -47 0
-23 -46 0
-23 -31 0
-23 -28 0
-23 -26 0
-22 -125 0
-22 -120 0
-22 -114 0
-22 -99 0
-22 -98 0
-22 -94 0
-22 -85 0
-22 -83 0
-22 -80 0
-22 -76 0
-22 -65 0
-22 -55 0
-22 -51 0
-22 -40 0
-22 -25 0
-22 -24 0
-21 -130 0
-21 -126 0
-21 -116 0
-21 -110 0
-21 -109 0
-21 -105 0
-21 -101 0
-21 -97 0
-21 -91 0
-21 -86 0
-21 -83 0
-21 -75 0
-21 -71 0
-21 -59 0
-21 -50 0
-21 -45 0
-21 -33 0
-20 -130 0
-20 -126 0
-20 -125 0
-20 -120 0
-20 -116 0
-20 -110 0
-20 -105 0
-20 -101 0
-20 -99 0
-20 -97 0
-20 -94 0
-20 -91 0
-20 -86 0
-20 -85 0
-20 -24 0
-20 -22 0
-20 -21 0
-19 -130 0
-19 -118 0
-19 -117 0
-19 -115 0
-19 -92 0
-19 -89 0
-19 -69 0
-19 -68 0
-19 -63 0
-19 -59 0
-19 -56 0
-19 -55 0
-19 -53 0
-19 -49 0
-19 -44 0
-19 -43 0
-19 -41 0
-19 -34 0
-19 -28 0
-19 -24 0
-18 -122 0
-18 -109 0
-18 -83 0
-18 -75 0
-18 -71 0
-18 -67 0
-18 -59 0
-18 -58 0
-18 -54 0
-18 -53 0
-18 -50 0
-18 -45 0
-18 -37 0
-18 -35 0
-18 -33 0
-18 -27 0
-18 -21 0
-17 -121 0
-17 -118 0
-17 -116 0
-17 -113 0
-17 -112 0
-17 -106 0
-17 -104 0
-17 -103 0
-17 -102 0
-17 -93 0
-17 -90 0
-17 -60 0
-17 -58 0
-17 -52 0
-17 -51 0
-17 -50 0
-17 -41 0
-16 -132 0
-16 -129 0
-16 -120 0
-16 -112 0
-16 -108 0
-16 -101 0
-16 -98 0
-16 -82 0
-16 -75 0
-16 -74 0
-16 -70 0
-16 -63 0
-16 -62 0
-16 -47 0
-16 -42 0
-16 -29 0
-16 -28 0
-16 -26 0
-16 -23 0
-15 -125 0
-15 -124 0
-15 -123 0
-15 -120 0
-15 -99 0
-15 -96 0
-15 -94 0
-15 -90 0
-15 -85 0
-15 -57 0
-15 -56 0
-15 -38 0
-15 -29 0
-15 -24 0
-15 -22 0
-15 -20 0
-14 -126 0
-14 -124 0
-14 -122 0
-14 -119 0
-14 -115 0
-14 -114 0
-14 -109 0
-14 -87 0
-14 -82 0
-14 -81 0
-14 -66 0
-14 -64 0
-14 -52 0
-14 -47 0
-14 -39 0
-14 -32 0
-14 -30 0
-13 -131 0
-13 -126 0
-13 -125 0
-13 -124 0
-13 -122 0
-13 -119 0
-13 -115 0
-13 -114 0
-13 -102 0
-13 -81 0
-13 -79 0
-13 -73 0
-13 -71 0
-13 -52 0
-13 -47 0
-13 -46 0
-13 -42 0
-13 -39 0
-13 -36 0
-13 -34 0
-13 -14 0
-12 -122 0
-12 -108 0
-12 -101 0
-12 -98 0
-12 -82 0
-12 -70 0
-12 -67 0
-12 -63 0
-12 -62 0
-12 -58 0
-12 -54 0
-12 -53 0
-12 -42 0
-12 -37 0
-12 -35 0
-12 -29 0
-12 -27 0
-12 -18 0
-12 -16 0
-11 -127 0
-11 -119 0
-11 -111 0
-11 -109 0
-11 -99 0
-11 -93 0
-11 -84 0
-11 -83 0
-11 -78 0
-11 -75 0
-11 -71 0
-11 -68 0
-11 -62 0
-11 -59 0
-11 -50 0
-11 -48 0
-11 -45 0
-11 -33 0
-11 -21 0
-11 -18 0
-10 -127 0
-10 -124 0
-10 -123 0
-10 -96 0
-10 -91 0
-10 -90 0
-10 -87 0
-10 -69 0
-10 -67 0
-10 -65 0
-10 -60 0
-10 -57 0
-10 -56 0
-10 -46 0
-10 -38 0
-10 -31 0
-10 -29 0
-10 -23 0
-10 -15 0
-9 -130 0
-9 -109 0
-9 -92 0
-9 -87 0
-9 -82 0
-9 -68 0
-9 -66 0
-9 -64 0
-9 -56 0
-9 -55 0
-9 -53 0
-9 -44 0
-9 -41 0
-9 -34 0
-9 -32 0
-9 -30 0
-9 -28 0
-9 -19 0
-9 -14 0
-8 -118 0
-8 -116 0
-8 -113 0
-8 -112 0
-8 -109 0
-8 -106 0
-8 -102 0
-8 -93 0
-8 -90 0
-8 -87 0
-8 -82 0
-8 -66 0
-8 -64 0
-8 -58 0
-8 -51 0
-8 -32 0
-8 -30 0
-8 -17 0
-8 -14 0
-8 -9 0
-7 -129 0
-7 -121 0
-7 -104 0
-7 -103 0
-7 -97 0
-7 -95 0
-7 -88 0
-7 -84 0
-7 -80 0
-7 -60 0
-7 -54 0
-7 -52 0
-7 -50 0
-7 -43 0
-7 -41 0
-7 -38 0
-7 -36 0
-7 -30 0
-7 -17 0
-6 -127 0
-6 -113 0
-6 -107 0
-6 -100 0
-6 -95 0
-6 -91 0
-6 -87 0
-6 -85 0
-6 -81 0
-6 -70 0
-6 -69 0
-6 -67 0
-6 -65 0
-6 -61 0
-6 -60 0
-6 -46 0
-6 -44 0
-6 -33 0
-6 -31 0
-6 -23 0
-6 -10 0
-5 -125 0
-5 -120 0
-5 -109 0
-5 -99 0
-5 -94 0
-5 -87 0
-5 -85 0
-5 -82 0
-5 -66 0
-5 -64 0
-5 -32 0
-5 -30 0
-5 -24 0
-5 -22 0
-5 -20 0
-5 -15 0
-5 -14 0
-5 -9 0
-5 -8 0
-4 -125 0
-4 -121 0
-4 -120 0
-4 -104 0
-4 -103 0
-4 -99 0
-4 -94 0
-4 -85 0
-4 -60 0
-4 -52 0
-4 -50 0
-4 -41 0
-4 -24 0
-4 -22 0
-4 -20 0
-4 -17 0
-4 -15 0
-4 -7 0
-4 -5 0
-3 -121 0
-3 -108 0
-3 -104 0
-3 -103 0
-3 -101 0
-3 -98 0
-3 -82 0
-3 -70 0
-3 -63 0
-3 -62 0
-3 -60 0
-3 -52 0
-3 -50 0
-3 -42 0
-3 -41 0
-3 -29 0
-3 -17 0
-3 -16 0
-3 -12 0
-3 -7 0
-3 -4 0
-2 -124 0
-2 -123 0
-2 -109 0
-2 -96 0
-2 -90 0
-2 -83 0
-2 -75 0
-2 -71 0
-2 -59 0
-2 -57 0
-2 -56 0
-2 -50 0
-2 -45 0
-2 -38 0
-2 -33 0
-2 -29 0
-2 -21 0
-2 -18 0
-2 -15 0
-2 -11 0
-2 -10 0
-1 -125 0
-1 -122 0
-1 -120 0
-1 -99 0
-1 -94 0
-1 -85 0
-1 -67 0
-1 -58 0
-1 -54 0
-1 -53 0
-1 -37 0
-1 -35 0
-1 -27 0
-1 -24 0
-1 -22 0
-1 -20 0
-1 -18 0
-1 -15 0
-1 -12 0
-1 -5 0
-1 -4 0
1 12 18 27 35 37 53 54 58 67 122 0
2 10 15 29 38 56 57 90 96 123 124 0
3 4 7 17 41 50 52 60 103 104 121 0
5 8 9 14 30 32 64 66 82 87 109 0
6 33 44 61 70 81 85 95 100 107 113 0
11 48 62 68 78 84 93 99 111 119 127 0
13 34 36 42 46 71 73 79 102 125 131 0
16 23 26 28 47 74 75 112 120 129 132 0
19 24 43 49 59 63 69 89 115 117 118 0
20 21 86 91 97 101 105 110 116 126 130 0
22 25 40 51 55 65 76 80 83 98 114 0
31 39 45 72 77 88 92 94 106 108 128 0
