p cnf 30 141
-29 -30 0
-27 -30 0
-25 -30 0
-25 -27 0
-24 -28 0
-24 -26 0
-23 -27 0
-22 -30 0
-22 -29 0
-22 -26 0
-22 -24 0
-21 -29 0
-21 -27 0
-21 -23 0
-20 -26 0
-19 -30 0
-19 -28 0
-19 -27 0
-19 -25 0
-19 -24 0
-18 -26 0
-18 -23 0
-18 -20 0
-17 -25 0
-17 -20 0
-16 -28 0
-16 -25 0
-16 -17 0
-15 -28 0
-15 -24 0
-15 -20 0
-15 -19 0
-15 -17 0
-14 -25 0
-14 -23 0
-14 -18 0
-14 -17 0
-14 -16 0
-13 -28 0
-13 -27 0
-13 -23 0
-13 -21 0
-13 -16 0
-12 -30 0
-12 -29 0
-12 -23 0
-12 -22 0
-12 -18 0
-12 -14 0
-11 -28 0
-11 -24 0
-11 -23 0
-11 -19 0
-11 -18 0
-11 -15 0
-11 -14 0
-11 -12 0
-10 -27 0
-10 -23 0
-10 -21 0
-10 -20 0
-10 -17 0
-10 -15 0
-10 -13 0
-9 -30 0
-9 -27 0
-9 -26 0
-9 -25 0
-9 -20 0
-9 -19 0
-9 -18 0
-8 -28 0
-8 -26 0
-8 -20 0
-8 -18 0
-8 -16 0
-8 -13 0
-8 -9 0
-7 -30 0
-7 -29 0
-7 -22 0
-7 -20 0
-7 -17 0
-7 -15 0
-7 -12 0
-7 -10 0
-6 -27 0
-6 -26 0
-6 -24 0
-6 -23 0
-6 -22 0
-6 -21 0
-6 -13 0
-6 -10 0
-5 -30 0
-5 -29 0
-5 -28 0
-5 -22 0
-5 -16 0
-5 -13 0
-5 -12 0
-5 -8 0
-5 -7 0
-4 -29 0
-4 -25 0
-4 -21 0
-4 -17 0
-4 -16 0
-4 -14 0
-3 -26 0
-3 -25 0
-3 -24 0
-3 -22 0
-3 -17 0
-3 -16 0
-3 -14 0
-3 -6 0
-3 -4 0
-2 -29 0
-2 -28 0
-2 -24 0
-2 -21 0
-2 -19 0
-2 -15 0
-2 -11 0
-2 -4 0
-1 -29 0
-1 -26 0
-1 -21 0
-1 -20 0
-1 -18 0
-1 -9 0
-1 -8 0
-1 -4 0
-1 -2 0
1 2 4 21 29 0
3 6 22 24 26 0
5 8 13 16 28 0
7 10 15 17 20 0
9 19 25 27 30 0
11 12 14 18 23 0
