p cnf 132 1398
-129 -130 0
-127 -130 0
-127 -129 0
-127 -128 0
-126 -132 0
-125 -130 0
-125 -128 0
-122 -131 0
-122 -128 0
-122 -125 0
-121 -123 0
-120 -131 0
-120 -124 0
-120 -122 0
-119 -126 0
-119 -123 0
-118 -131 0
-118 -122 0
-118 -120 0
-117 -128 0
-117 -127 0
-116 -128 0
-116 -127 0
-116 -123 0
-116 -119 0
-116 -117 0
-115 -132 0
-115 -131 0
-115 -126 0
-115 -122 0
-115 -120 0
-115 -118 0
-114 -132 0
-114 -121 0
-113 -132 0
-113 -118 0
-113 -114 0
-112 -121 0
-112 -114 0
-111 -121 0
-111 -114 0
-111 -112 0
-110 -124 0
-109 -121 0
-109 -114 0
-109 -112 0
-109 -111 0
-108 -129 0
-108 -121 0
-108 -114 0
-108 -112 0
-108 -111 0
-108 -109 0
-107 -130 0
-107 -129 0
-107 -127 0
-107 -124 0
-107 -110 0
-106 -132 0
-106 -114 0
-106 -113 0
-106 -110 0
-105 -123 0
-105 -121 0
-104 -130 0
-104 -125 0
-104 -105 0
-103 -130 0
-103 -129 0
-103 -127 0
-103 -126 0
-103 -119 0
-103 -107 0
-102 -131 0
-102 -109 0
-101 -112 0
-101 -110 0
-101 -106 0
-100 -128 0
-100 -125 0
-100 -124 0
-100 -122 0
-100 -110 0
-100 -107 0
-99 -132 0
-99 -130 0
-99 -129 0
-99 -127 0
-99 -114 0
-99 -113 0
-99 -107 0
-99 -106 0
-99 -103 0
-98 -131 0
-98 -111 0
-98 -102 0
-97 -128 0
-97 -126 0
-97 -125 0
-97 -122 0
-97 -119 0
-97 -103 0
-97 -100 0
-96 -124 0
-96 -117 0
-96 -110 0
-96 -107 0
-96 -100 0
-95 -130 0
-95 -129 0
-95 -127 0
-95 -109 0
-95 -107 0
-95 -103 0
-95 -102 0
-95 -99 0
-94 -132 0
-94 -114 0
-94 -113 0
-94 -106 0
-94 -105 0
-94 -104 0
-94 -99 0
-93 -111 0
-93 -98 0
-92 -129 0
-92 -108 0
-92 -93 0
-91 -126 0
-91 -124 0
-91 -120 0
-91 -119 0
-91 -103 0
-91 -97 0
-90 -124 0
-90 -120 0
-90 -111 0
-90 -98 0
-90 -93 0
-90 -91 0
-89 -126 0
-89 -121 0
-89 -119 0
-89 -114 0
-89 -112 0
-89 -111 0
-89 -109 0
-89 -108 0
-89 -103 0
-89 -97 0
-89 -91 0
-88 -132 0
-88 -130 0
-88 -126 0
-88 -125 0
-88 -115 0
-88 -104 0
-87 -131 0
-87 -122 0
-87 -121 0
-87 -120 0
-87 -118 0
-87 -115 0
-87 -114 0
-87 -112 0
-87 -111 0
-87 -109 0
-87 -108 0
-87 -89 0
-86 -131 0
-86 -130 0
-86 -129 0
-86 -127 0
-86 -122 0
-86 -120 0
-86 -118 0
-86 -115 0
-86 -107 0
-86 -103 0
-86 -99 0
-86 -95 0
-86 -87 0
-85 -118 0
-85 -113 0
-85 -111 0
-85 -98 0
-85 -93 0
-85 -90 0
-84 -128 0
-84 -125 0
-84 -122 0
-84 -112 0
-84 -101 0
-84 -100 0
-84 -97 0
-83 -132 0
-83 -128 0
-83 -125 0
-83 -122 0
-83 -114 0
-83 -113 0
-83 -106 0
-83 -100 0
-83 -99 0
-83 -97 0
-83 -94 0
-83 -84 0
-82 -130 0
-82 -125 0
-82 -118 0
-82 -113 0
-82 -104 0
-82 -88 0
-82 -85 0
-81 -131 0
-81 -129 0
-81 -108 0
-81 -102 0
-81 -98 0
-81 -92 0
-80 -126 0
-80 -119 0
-80 -110 0
-80 -106 0
-80 -103 0
-80 -101 0
-80 -97 0
-80 -91 0
-80 -89 0
-79 -129 0
-79 -110 0
-79 -108 0
-79 -106 0
-79 -101 0
-79 -92 0
-79 -81 0
-79 -80 0
-78 -124 0
-78 -110 0
-78 -107 0
-78 -105 0
-78 -104 0
-78 -100 0
-78 -96 0
-78 -94 0
-77 -128 0
-77 -127 0
-77 -118 0
-77 -117 0
-77 -116 0
-77 -113 0
-77 -85 0
-77 -82 0
-76 -128 0
-76 -127 0
-76 -124 0
-76 -120 0
-76 -117 0
-76 -116 0
-76 -91 0
-76 -90 0
-76 -77 0
-75 -128 0
-75 -125 0
-75 -122 0
-75 -109 0
-75 -102 0
-75 -100 0
-75 -97 0
-75 -95 0
-75 -84 0
-75 -83 0
-74 -132 0
-74 -117 0
-74 -114 0
-74 -113 0
-74 -106 0
-74 -99 0
-74 -96 0
-74 -94 0
-74 -83 0
-73 -123 0
-73 -121 0
-73 -110 0
-73 -106 0
-73 -105 0
-73 -101 0
-73 -80 0
-73 -79 0
-72 -132 0
-72 -126 0
-72 -124 0
-72 -115 0
-72 -110 0
-72 -107 0
-72 -100 0
-72 -96 0
-72 -88 0
-72 -78 0
-71 -110 0
-71 -109 0
-71 -106 0
-71 -102 0
-71 -101 0
-71 -95 0
-71 -80 0
-71 -79 0
-71 -75 0
-71 -73 0
-70 -118 0
-70 -113 0
-70 -112 0
-70 -101 0
-70 -85 0
-70 -84 0
-70 -82 0
-70 -77 0
-69 -123 0
-69 -121 0
-69 -117 0
-69 -105 0
-69 -96 0
-69 -74 0
-69 -73 0
-68 -129 0
-68 -108 0
-68 -105 0
-68 -104 0
-68 -94 0
-68 -92 0
-68 -81 0
-68 -79 0
-68 -78 0
-67 -124 0
-67 -110 0
-67 -107 0
-67 -100 0
-67 -96 0
-67 -93 0
-67 -92 0
-67 -78 0
-67 -72 0
-66 -131 0
-66 -130 0
-66 -125 0
-66 -104 0
-66 -102 0
-66 -98 0
-66 -88 0
-66 -82 0
-66 -81 0
-65 -128 0
-65 -125 0
-65 -122 0
-65 -111 0
-65 -100 0
-65 -98 0
-65 -97 0
-65 -93 0
-65 -90 0
-65 -85 0
-65 -84 0
-65 -83 0
-65 -75 0
-64 -131 0
-64 -124 0
-64 -110 0
-64 -107 0
-64 -102 0
-64 -100 0
-64 -98 0
-64 -96 0
-64 -81 0
-64 -78 0
-64 -72 0
-64 -67 0
-64 -66 0
-63 -123 0
-63 -121 0
-63 -105 0
-63 -93 0
-63 -92 0
-63 -73 0
-63 -69 0
-63 -67 0
-62 -123 0
-62 -121 0
-62 -118 0
-62 -113 0
-62 -105 0
-62 -85 0
-62 -82 0
-62 -77 0
-62 -73 0
-62 -70 0
-62 -69 0
-62 -63 0
-61 -124 0
-61 -118 0
-61 -113 0
-61 -110 0
-61 -107 0
-61 -100 0
-61 -96 0
-61 -85 0
-61 -82 0
-61 -78 0
-61 -77 0
-61 -72 0
-61 -70 0
-61 -67 0
-61 -64 0
-61 -62 0
-60 -131 0
-60 -122 0
-60 -120 0
-60 -118 0
-60 -115 0
-60 -93 0
-60 -92 0
-60 -87 0
-60 -86 0
-60 -67 0
-60 -63 0
-59 -131 0
-59 -122 0
-59 -120 0
-59 -118 0
-59 -115 0
-59 -105 0
-59 -104 0
-59 -94 0
-59 -87 0
-59 -86 0
-59 -78 0
-59 -68 0
-59 -60 0
-58 -128 0
-58 -125 0
-58 -123 0
-58 -122 0
-58 -121 0
-58 -105 0
-58 -100 0
-58 -97 0
-58 -84 0
-58 -83 0
-58 -75 0
-58 -73 0
-58 -69 0
-58 -65 0
-58 -63 0
-58 -62 0
-57 -124 0
-57 -121 0
-57 -114 0
-57 -112 0
-57 -111 0
-57 -110 0
-57 -109 0
-57 -108 0
-57 -107 0
-57 -100 0
-57 -96 0
-57 -89 0
-57 -87 0
-57 -78 0
-57 -72 0
-57 -67 0
-57 -64 0
-57 -61 0
-56 -132 0
-56 -126 0
-56 -123 0
-56 -121 0
-56 -115 0
-56 -105 0
-56 -88 0
-56 -73 0
-56 -72 0
-56 -69 0
-56 -63 0
-56 -62 0
-56 -58 0
-55 -132 0
-55 -123 0
-55 -119 0
-55 -116 0
-55 -114 0
-55 -113 0
-55 -106 0
-55 -99 0
-55 -94 0
-55 -83 0
-55 -74 0
-54 -131 0
-54 -122 0
-54 -120 0
-54 -118 0
-54 -117 0
-54 -115 0
-54 -96 0
-54 -87 0
-54 -86 0
-54 -74 0
-54 -69 0
-54 -60 0
-54 -59 0
-53 -131 0
-53 -123 0
-53 -121 0
-53 -105 0
-53 -102 0
-53 -98 0
-53 -81 0
-53 -73 0
-53 -69 0
-53 -66 0
-53 -64 0
-53 -63 0
-53 -62 0
-53 -58 0
-53 -56 0
-52 -130 0
-52 -129 0
-52 -127 0
-52 -112 0
-52 -107 0
-52 -103 0
-52 -101 0
-52 -99 0
-52 -95 0
-52 -86 0
-52 -84 0
-52 -70 0
-51 -124 0
-51 -120 0
-51 -109 0
-51 -102 0
-51 -95 0
-51 -91 0
-51 -90 0
-51 -76 0
-51 -75 0
-51 -71 0
-50 -117 0
-50 -112 0
-50 -101 0
-50 -96 0
-50 -84 0
-50 -74 0
-50 -70 0
-50 -69 0
-50 -54 0
-50 -52 0
-49 -129 0
-49 -118 0
-49 -113 0
-49 -108 0
-49 -92 0
-49 -85 0
-49 -82 0
-49 -81 0
-49 -79 0
-49 -77 0
-49 -70 0
-49 -68 0
-49 -62 0
-49 -61 0
-48 -124 0
-48 -120 0
-48 -112 0
-48 -101 0
-48 -91 0
-48 -90 0
-48 -84 0
-48 -76 0
-48 -70 0
-48 -52 0
-48 -51 0
-48 -50 0
-47 -123 0
-47 -119 0
-47 -116 0
-47 -112 0
-47 -101 0
-47 -84 0
-47 -70 0
-47 -55 0
-47 -52 0
-47 -50 0
-47 -48 0
-46 -124 0
-46 -123 0
-46 -121 0
-46 -120 0
-46 -105 0
-46 -91 0
-46 -90 0
-46 -76 0
-46 -73 0
-46 -69 0
-46 -63 0
-46 -62 0
-46 -58 0
-46 -56 0
-46 -53 0
-46 -51 0
-46 -48 0
-45 -109 0
-45 -102 0
-45 -95 0
-45 -93 0
-45 -92 0
-45 -75 0
-45 -71 0
-45 -67 0
-45 -63 0
-45 -60 0
-45 -51 0
-44 -130 0
-44 -125 0
-44 -121 0
-44 -114 0
-44 -112 0
-44 -111 0
-44 -109 0
-44 -108 0
-44 -104 0
-44 -89 0
-44 -88 0
-44 -87 0
-44 -82 0
-44 -66 0
-44 -57 0
-43 -112 0
-43 -105 0
-43 -104 0
-43 -101 0
-43 -94 0
-43 -84 0
-43 -78 0
-43 -70 0
-43 -68 0
-43 -59 0
-43 -52 0
-43 -50 0
-43 -48 0
-43 -47 0
-42 -132 0
-42 -131 0
-42 -114 0
-42 -113 0
-42 -106 0
-42 -102 0
-42 -99 0
-42 -98 0
-42 -94 0
-42 -83 0
-42 -81 0
-42 -74 0
-42 -66 0
-42 -64 0
-42 -55 0
-42 -53 0
-41 -117 0
-41 -111 0
-41 -98 0
-41 -96 0
-41 -93 0
-41 -90 0
-41 -85 0
-41 -74 0
-41 -69 0
-41 -65 0
-41 -54 0
-41 -50 0
-40 -126 0
-40 -119 0
-40 -118 0
-40 -113 0
-40 -103 0
-40 -97 0
-40 -91 0
-40 -89 0
-40 -85 0
-40 -82 0
-40 -80 0
-40 -77 0
-40 -70 0
-40 -62 0
-40 -61 0
-40 -49 0
-39 -128 0
-39 -127 0
-39 -121 0
-39 -117 0
-39 -116 0
-39 -114 0
-39 -112 0
-39 -111 0
-39 -109 0
-39 -108 0
-39 -89 0
-39 -87 0
-39 -77 0
-39 -76 0
-39 -57 0
-39 -44 0
-38 -117 0
-38 -109 0
-38 -102 0
-38 -96 0
-38 -95 0
-38 -75 0
-38 -74 0
-38 -71 0
-38 -69 0
-38 -54 0
-38 -51 0
-38 -50 0
-38 -45 0
-38 -41 0
-37 -132 0
-37 -114 0
-37 -113 0
-37 -106 0
-37 -99 0
-37 -94 0
-37 -93 0
-37 -92 0
-37 -83 0
-37 -74 0
-37 -67 0
-37 -63 0
-37 -60 0
-37 -55 0
-37 -45 0
-37 -42 0
-36 -118 0
-36 -113 0
-36 -109 0
-36 -102 0
-36 -95 0
-36 -85 0
-36 -82 0
-36 -77 0
-36 -75 0
-36 -71 0
-36 -70 0
-36 -62 0
-36 -61 0
-36 -51 0
-36 -49 0
-36 -45 0
-36 -40 0
-36 -38 0
-35 -132 0
-35 -126 0
-35 -115 0
-35 -112 0
-35 -101 0
-35 -88 0
-35 -84 0
-35 -72 0
-35 -70 0
-35 -56 0
-35 -52 0
-35 -50 0
-35 -48 0
-35 -47 0
-35 -43 0
-34 -131 0
-34 -112 0
-34 -102 0
-34 -101 0
-34 -98 0
-34 -84 0
-34 -81 0
-34 -70 0
-34 -66 0
-34 -64 0
-34 -53 0
-34 -52 0
-34 -50 0
-34 -48 0
-34 -47 0
-34 -43 0
-34 -42 0
-34 -35 0
-33 -132 0
-33 -126 0
-33 -115 0
-33 -109 0
-33 -102 0
-33 -95 0
-33 -88 0
-33 -75 0
-33 -72 0
-33 -71 0
-33 -56 0
-33 -51 0
-33 -45 0
-33 -38 0
-33 -36 0
-33 -35 0
-32 -126 0
-32 -119 0
-32 -105 0
-32 -104 0
-32 -103 0
-32 -97 0
-32 -94 0
-32 -91 0
-32 -89 0
-32 -80 0
-32 -78 0
-32 -68 0
-32 -59 0
-32 -43 0
-32 -40 0
-31 -128 0
-31 -127 0
-31 -117 0
-31 -116 0
-31 -105 0
-31 -104 0
-31 -94 0
-31 -78 0
-31 -77 0
-31 -76 0
-31 -68 0
-31 -59 0
-31 -43 0
-31 -39 0
-31 -32 0
-30 -132 0
-30 -129 0
-30 -126 0
-30 -115 0
-30 -108 0
-30 -92 0
-30 -88 0
-30 -81 0
-30 -79 0
-30 -72 0
-30 -68 0
-30 -56 0
-30 -49 0
-30 -35 0
-30 -33 0
-29 -131 0
-29 -122 0
-29 -120 0
-29 -118 0
-29 -115 0
-29 -110 0
-29 -106 0
-29 -101 0
-29 -87 0
-29 -86 0
-29 -80 0
-29 -79 0
-29 -73 0
-29 -71 0
-29 -60 0
-29 -59 0
-29 -54 0
-28 -130 0
-28 -125 0
-28 -104 0
-28 -93 0
-28 -92 0
-28 -88 0
-28 -82 0
-28 -67 0
-28 -66 0
-28 -63 0
-28 -60 0
-28 -45 0
-28 -44 0
-28 -37 0
-27 -123 0
-27 -119 0
-27 -116 0
-27 -111 0
-27 -98 0
-27 -93 0
-27 -90 0
-27 -85 0
-27 -65 0
-27 -55 0
-27 -47 0
-27 -41 0
-26 -132 0
-26 -128 0
-26 -127 0
-26 -126 0
-26 -117 0
-26 -116 0
-26 -115 0
-26 -88 0
-26 -77 0
-26 -76 0
-26 -72 0
-26 -56 0
-26 -39 0
-26 -35 0
-26 -33 0
-26 -31 0
-26 -30 0
-25 -130 0
-25 -125 0
-25 -117 0
-25 -104 0
-25 -96 0
-25 -88 0
-25 -82 0
-25 -74 0
-25 -69 0
-25 -66 0
-25 -54 0
-25 -50 0
-25 -44 0
-25 -41 0
-25 -38 0
-25 -28 0
-24 -126 0
-24 -119 0
-24 -117 0
-24 -103 0
-24 -97 0
-24 -96 0
-24 -91 0
-24 -89 0
-24 -80 0
-24 -74 0
-24 -69 0
-24 -54 0
-24 -50 0
-24 -41 0
-24 -40 0
-24 -38 0
-24 -32 0
-24 -25 0
-23 -128 0
-23 -127 0
-23 -117 0
-23 -116 0
-23 -93 0
-23 -92 0
-23 -77 0
-23 -76 0
-23 -67 0
-23 -63 0
-23 -60 0
-23 -45 0
-23 -39 0
-23 -37 0
-23 -31 0
-23 -28 0
-23 -26 0
-22 -123 0
-22 -119 0
-22 -116 0
-22 -109 0
-22 -102 0
-22 -95 0
-22 -75 0
-22 -71 0
-22 -55 0
-22 -51 0
-22 -47 0
-22 -45 0
-22 -38 0
-22 -36 0
-22 -33 0
-22 -27 0
-21 -129 0
-21 -128 0
-21 -125 0
-21 -122 0
-21 -108 0
-21 -100 0
-21 -97 0
-21 -92 0
-21 -84 0
-21 -83 0
-21 -81 0
-21 -79 0
-21 -75 0
-21 -68 0
-21 -65 0
-21 -58 0
-21 -49 0
-21 -30 0
-20 -130 0
-20 -125 0
-20 -124 0
-20 -120 0
-20 -104 0
-20 -91 0
-20 -90 0
-20 -88 0
-20 -82 0
-20 -76 0
-20 -66 0
-20 -51 0
-20 -48 0
-20 -46 0
-20 -44 0
-20 -28 0
-20 -25 0
-19 -130 0
-19 -129 0
-19 -127 0
-19 -111 0
-19 -107 0
-19 -103 0
-19 -99 0
-19 -98 0
-19 -95 0
-19 -93 0
-19 -90 0
-19 -86 0
-19 -85 0
-19 -65 0
-19 -52 0
-19 -41 0
-19 -27 0
-18 -131 0
-18 -126 0
-18 -119 0
-18 -103 0
-18 -102 0
-18 -98 0
-18 -97 0
-18 -91 0
-18 -89 0
-18 -81 0
-18 -80 0
-18 -66 0
-18 -64 0
-18 -53 0
-18 -42 0
-18 -40 0
-18 -34 0
-18 -32 0
-18 -24 0
-17 -111 0
-17 -110 0
-17 -106 0
-17 -101 0
-17 -98 0
-17 -93 0
-17 -90 0
-17 -85 0
-17 -80 0
-17 -79 0
-17 -73 0
-17 -71 0
-17 -65 0
-17 -41 0
-17 -29 0
-17 -27 0
-17 -19 0
-16 -130 0
-16 -125 0
-16 -110 0
-16 -106 0
-16 -104 0
-16 -101 0
-16 -88 0
-16 -82 0
-16 -80 0
-16 -79 0
-16 -73 0
-16 -71 0
-16 -66 0
-16 -44 0
-16 -29 0
-16 -28 0
-16 -25 0
-16 -20 0
-16 -17 0
-15 -111 0
-15 -105 0
-15 -104 0
-15 -98 0
-15 -94 0
-15 -93 0
-15 -90 0
-15 -85 0
-15 -78 0
-15 -68 0
-15 -65 0
-15 -59 0
-15 -43 0
-15 -41 0
-15 -32 0
-15 -31 0
-15 -27 0
-15 -19 0
-15 -17 0
-14 -132 0
-14 -124 0
-14 -120 0
-14 -114 0
-14 -113 0
-14 -106 0
-14 -99 0
-14 -94 0
-14 -91 0
-14 -90 0
-14 -83 0
-14 -76 0
-14 -74 0
-14 -55 0
-14 -51 0
-14 -48 0
-14 -46 0
-14 -42 0
-14 -37 0
-14 -20 0
-13 -124 0
-13 -123 0
-13 -119 0
-13 -116 0
-13 -110 0
-13 -107 0
-13 -100 0
-13 -96 0
-13 -78 0
-13 -72 0
-13 -67 0
-13 -64 0
-13 -61 0
-13 -57 0
-13 -55 0
-13 -47 0
-13 -27 0
-13 -22 0
-12 -131 0
-12 -123 0
-12 -122 0
-12 -120 0
-12 -119 0
-12 -118 0
-12 -116 0
-12 -115 0
-12 -87 0
-12 -86 0
-12 -60 0
-12 -59 0
-12 -55 0
-12 -54 0
-12 -47 0
-12 -29 0
-12 -27 0
-12 -22 0
-12 -13 0
-11 -131 0
-11 -128 0
-11 -127 0
-11 -117 0
-11 -116 0
-11 -102 0
-11 -98 0
-11 -81 0
-11 -77 0
-11 -76 0
-11 -66 0
-11 -64 0
-11 -53 0
-11 -42 0
-11 -39 0
-11 -34 0
-11 -31 0
-11 -26 0
-11 -23 0
-11 -18 0
-10 -129 0
-10 -123 0
-10 -119 0
-10 -116 0
-10 -108 0
-10 -92 0
-10 -81 0
-10 -79 0
-10 -68 0
-10 -55 0
-10 -49 0
-10 -47 0
-10 -30 0
-10 -27 0
-10 -22 0
-10 -21 0
-10 -13 0
-10 -12 0
-9 -112 0
-9 -101 0
-9 -93 0
-9 -92 0
-9 -84 0
-9 -70 0
-9 -67 0
-9 -63 0
-9 -60 0
-9 -52 0
-9 -50 0
-9 -48 0
-9 -47 0
-9 -45 0
-9 -43 0
-9 -37 0
-9 -35 0
-9 -34 0
-9 -28 0
-9 -23 0
-8 -126 0
-8 -119 0
-8 -103 0
-8 -97 0
-8 -93 0
-8 -92 0
-8 -91 0
-8 -89 0
-8 -80 0
-8 -67 0
-8 -63 0
-8 -60 0
-8 -45 0
-8 -40 0
-8 -37 0
-8 -32 0
-8 -28 0
-8 -24 0
-8 -23 0
-8 -18 0
-8 -9 0
-7 -129 0
-7 -124 0
-7 -120 0
-7 -108 0
-7 -92 0
-7 -91 0
-7 -90 0
-7 -81 0
-7 -79 0
-7 -76 0
-7 -68 0
-7 -51 0
-7 -49 0
-7 -48 0
-7 -46 0
-7 -30 0
-7 -21 0
-7 -20 0
-7 -14 0
-7 -10 0
-6 -128 0
-6 -127 0
-6 -117 0
-6 -116 0
-6 -110 0
-6 -106 0
-6 -101 0
-6 -80 0
-6 -79 0
-6 -77 0
-6 -76 0
-6 -73 0
-6 -71 0
-6 -39 0
-6 -31 0
-6 -29 0
-6 -26 0
-6 -23 0
-6 -17 0
-6 -16 0
-6 -11 0
-5 -130 0
-5 -129 0
-5 -127 0
-5 -123 0
-5 -121 0
-5 -107 0
-5 -105 0
-5 -103 0
-5 -99 0
-5 -95 0
-5 -86 0
-5 -73 0
-5 -69 0
-5 -63 0
-5 -62 0
-5 -58 0
-5 -56 0
-5 -53 0
-5 -52 0
-5 -46 0
-5 -19 0
-4 -130 0
-4 -125 0
-4 -123 0
-4 -119 0
-4 -116 0
-4 -104 0
-4 -88 0
-4 -82 0
-4 -66 0
-4 -55 0
-4 -47 0
-4 -44 0
-4 -28 0
-4 -27 0
-4 -25 0
-4 -22 0
-4 -20 0
-4 -16 0
-4 -13 0
-4 -12 0
-4 -10 0
-3 -109 0
-3 -105 0
-3 -104 0
-3 -102 0
-3 -95 0
-3 -94 0
-3 -78 0
-3 -75 0
-3 -71 0
-3 -68 0
-3 -59 0
-3 -51 0
-3 -45 0
-3 -43 0
-3 -38 0
-3 -36 0
-3 -33 0
-3 -32 0
-3 -31 0
-3 -22 0
-3 -15 0
-2 -129 0
-2 -117 0
-2 -108 0
-2 -96 0
-2 -92 0
-2 -81 0
-2 -79 0
-2 -74 0
-2 -69 0
-2 -68 0
-2 -54 0
-2 -50 0
-2 -49 0
-2 -41 0
-2 -38 0
-2 -30 0
-2 -25 0
-2 -24 0
-2 -21 0
-2 -10 0
-2 -7 0
-1 -132 0
-1 -126 0
-1 -115 0
-1 -111 0
-1 -98 0
-1 -93 0
-1 -90 0
-1 -88 0
-1 -85 0
-1 -72 0
-1 -65 0
-1 -56 0
-1 -41 0
-1 -35 0
-1 -33 0
-1 -30 0
-1 -27 0
-1 -26 0
-1 -19 0
-1 -17 0
-1 -15 0
1 26 30 33 35 56 72 88 115 126 132 0
2 24 25 38 41 50 54 69 74 96 117 0
3 15 31 32 43 59 68 78 94 104 105 0
4 10 12 13 22 27 47 55 116 119 123 0
5 19 52 86 95 99 103 107 127 129 130 0
6 16 17 29 71 73 79 80 101 106 110 0
7 14 20 46 48 51 76 90 91 120 124 0
8 9 23 28 37 45 60 63 67 92 93 0
11 18 34 42 53 64 66 81 98 102 131 0
21 58 65 75 83 84 97 100 122 125 128 0
36 40 49 61 62 70 77 82 85 113 118 0
39 44 57 87 89 108 109 111 112 114 121 0
