p cnf 72 549
-70 -72 0
-69 -71 0
-65 -66 0
-64 -69 0
-64 -68 0
-63 -68 0
-63 -64 0
-62 -70 0
-62 -63 0
-61 -66 0
-60 -69 0
-60 -64 0
-59 -70 0
-59 -68 0
-59 -62 0
-58 -61 0
-57 -72 0
-57 -71 0
-57 -70 0
-57 -69 0
-56 -71 0
-56 -69 0
-56 -63 0
-56 -62 0
-56 -57 0
-55 -72 0
-55 -71 0
-54 -72 0
-54 -63 0
-54 -62 0
-54 -56 0
-54 -55 0
-53 -71 0
-53 -70 0
-53 -62 0
-53 -59 0
-53 -55 0
-52 -67 0
-52 -58 0
-51 -65 0
-51 -63 0
-51 -62 0
-51 -56 0
-51 -54 0
-50 -72 0
-50 -66 0
-50 -65 0
-50 -55 0
-50 -54 0
-49 -68 0
-49 -66 0
-49 -65 0
-49 -64 0
-49 -63 0
-49 -50 0
-48 -70 0
-48 -66 0
-48 -65 0
-48 -62 0
-48 -59 0
-48 -53 0
-48 -50 0
-48 -49 0
-47 -72 0
-47 -61 0
-47 -58 0
-47 -55 0
-47 -54 0
-47 -50 0
-46 -67 0
-46 -61 0
-46 -58 0
-46 -47 0
-45 -72 0
-45 -70 0
-45 -68 0
-45 -64 0
-45 -63 0
-45 -57 0
-45 -49 0
-44 -71 0
-44 -66 0
-44 -61 0
-44 -55 0
-44 -53 0
-43 -71 0
-43 -69 0
-43 -67 0
-43 -57 0
-43 -56 0
-43 -52 0
-42 -67 0
-42 -66 0
-42 -61 0
-42 -52 0
-42 -44 0
-42 -43 0
-41 -65 0
-41 -61 0
-41 -58 0
-41 -51 0
-41 -47 0
-41 -46 0
-40 -72 0
-40 -70 0
-40 -66 0
-40 -61 0
-40 -57 0
-40 -45 0
-40 -44 0
-40 -42 0
-39 -72 0
-39 -67 0
-39 -55 0
-39 -54 0
-39 -52 0
-39 -50 0
-39 -47 0
-39 -43 0
-39 -42 0
-38 -72 0
-38 -70 0
-38 -58 0
-38 -57 0
-38 -52 0
-38 -45 0
-38 -40 0
-37 -67 0
-37 -63 0
-37 -62 0
-37 -56 0
-37 -54 0
-37 -51 0
-37 -46 0
-36 -66 0
-36 -63 0
-36 -62 0
-36 -61 0
-36 -56 0
-36 -54 0
-36 -51 0
-36 -44 0
-36 -42 0
-36 -40 0
-36 -37 0
-35 -68 0
-35 -67 0
-35 -59 0
-35 -46 0
-35 -37 0
-34 -71 0
-34 -69 0
-34 -66 0
-34 -65 0
-34 -57 0
-34 -56 0
-34 -50 0
-34 -49 0
-34 -48 0
-34 -43 0
-33 -72 0
-33 -68 0
-33 -59 0
-33 -55 0
-33 -54 0
-33 -50 0
-33 -47 0
-33 -39 0
-33 -35 0
-32 -72 0
-32 -69 0
-32 -64 0
-32 -60 0
-32 -55 0
-32 -54 0
-32 -50 0
-32 -47 0
-32 -39 0
-32 -33 0
-31 -66 0
-31 -65 0
-31 -60 0
-31 -50 0
-31 -49 0
-31 -48 0
-31 -34 0
-30 -68 0
-30 -66 0
-30 -61 0
-30 -59 0
-30 -44 0
-30 -42 0
-30 -40 0
-30 -36 0
-30 -35 0
-30 -33 0
-29 -71 0
-29 -65 0
-29 -55 0
-29 -53 0
-29 -51 0
-29 -44 0
-29 -41 0
-28 -67 0
-28 -60 0
-28 -52 0
-28 -43 0
-28 -42 0
-28 -39 0
-28 -31 0
-27 -69 0
-27 -66 0
-27 -64 0
-27 -61 0
-27 -60 0
-27 -44 0
-27 -42 0
-27 -40 0
-27 -36 0
-27 -32 0
-27 -30 0
-26 -71 0
-26 -69 0
-26 -68 0
-26 -59 0
-26 -57 0
-26 -56 0
-26 -43 0
-26 -35 0
-26 -34 0
-26 -33 0
-26 -30 0
-25 -61 0
-25 -60 0
-25 -58 0
-25 -47 0
-25 -46 0
-25 -41 0
-25 -31 0
-25 -28 0
-24 -71 0
-24 -67 0
-24 -55 0
-24 -53 0
-24 -46 0
-24 -44 0
-24 -37 0
-24 -35 0
-24 -29 0
-23 -68 0
-23 -65 0
-23 -59 0
-23 -51 0
-23 -41 0
-23 -35 0
-23 -33 0
-23 -30 0
-23 -29 0
-23 -26 0
-22 -68 0
-22 -67 0
-22 -64 0
-22 -63 0
-22 -52 0
-22 -49 0
-22 -45 0
-22 -43 0
-22 -42 0
-22 -39 0
-22 -28 0
-21 -69 0
-21 -64 0
-21 -60 0
-21 -58 0
-21 -52 0
-21 -38 0
-21 -32 0
-21 -27 0
-20 -70 0
-20 -69 0
-20 -64 0
-20 -62 0
-20 -60 0
-20 -59 0
-20 -53 0
-20 -48 0
-20 -32 0
-20 -27 0
-20 -21 0
-19 -68 0
-19 -60 0
-19 -59 0
-19 -35 0
-19 -33 0
-19 -31 0
-19 -30 0
-19 -28 0
-19 -26 0
-19 -25 0
-19 -23 0
-18 -71 0
-18 -58 0
-18 -55 0
-18 -53 0
-18 -52 0
-18 -44 0
-18 -38 0
-18 -29 0
-18 -24 0
-18 -21 0
-17 -71 0
-17 -60 0
-17 -55 0
-17 -53 0
-17 -44 0
-17 -31 0
-17 -29 0
-17 -28 0
-17 -25 0
-17 -24 0
-17 -19 0
-17 -18 0
-16 -66 0
-16 -65 0
-16 -58 0
-16 -52 0
-16 -50 0
-16 -49 0
-16 -48 0
-16 -38 0
-16 -34 0
-16 -31 0
-16 -21 0
-16 -18 0
-15 -63 0
-15 -62 0
-15 -60 0
-15 -56 0
-15 -54 0
-15 -51 0
-15 -37 0
-15 -36 0
-15 -31 0
-15 -28 0
-15 -25 0
-15 -19 0
-15 -17 0
-14 -71 0
-14 -69 0
-14 -61 0
-14 -58 0
-14 -57 0
-14 -56 0
-14 -47 0
-14 -46 0
-14 -43 0
-14 -41 0
-14 -34 0
-14 -26 0
-14 -25 0
-13 -69 0
-13 -67 0
-13 -64 0
-13 -60 0
-13 -46 0
-13 -37 0
-13 -35 0
-13 -32 0
-13 -27 0
-13 -24 0
-13 -21 0
-13 -20 0
-12 -63 0
-12 -62 0
-12 -58 0
-12 -56 0
-12 -54 0
-12 -52 0
-12 -51 0
-12 -38 0
-12 -37 0
-12 -36 0
-12 -21 0
-12 -18 0
-12 -16 0
-12 -15 0
-11 -71 0
-11 -68 0
-11 -64 0
-11 -63 0
-11 -55 0
-11 -53 0
-11 -49 0
-11 -45 0
-11 -44 0
-11 -29 0
-11 -24 0
-11 -22 0
-11 -18 0
-11 -17 0
-10 -67 0
-10 -65 0
-10 -52 0
-10 -51 0
-10 -43 0
-10 -42 0
-10 -41 0
-10 -39 0
-10 -29 0
-10 -28 0
-10 -23 0
-10 -22 0
-9 -72 0
-9 -70 0
-9 -60 0
-9 -57 0
-9 -45 0
-9 -40 0
-9 -38 0
-9 -31 0
-9 -28 0
-9 -25 0
-9 -19 0
-9 -17 0
-9 -15 0
-8 -67 0
-8 -66 0
-8 -65 0
-8 -50 0
-8 -49 0
-8 -48 0
-8 -46 0
-8 -37 0
-8 -35 0
-8 -34 0
-8 -31 0
-8 -24 0
-8 -16 0
-8 -13 0
-7 -70 0
-7 -62 0
-7 -61 0
-7 -59 0
-7 -58 0
-7 -53 0
-7 -48 0
-7 -47 0
-7 -46 0
-7 -41 0
-7 -25 0
-7 -20 0
-7 -14 0
-6 -70 0
-6 -67 0
-6 -62 0
-6 -59 0
-6 -53 0
-6 -52 0
-6 -48 0
-6 -43 0
-6 -42 0
-6 -39 0
-6 -28 0
-6 -22 0
-6 -20 0
-6 -10 0
-6 -7 0
-5 -68 0
-5 -59 0
-5 -58 0
-5 -52 0
-5 -38 0
-5 -35 0
-5 -33 0
-5 -30 0
-5 -26 0
-5 -23 0
-5 -21 0
-5 -19 0
-5 -18 0
-5 -16 0
-5 -12 0
-4 -68 0
-4 -64 0
-4 -63 0
-4 -61 0
-4 -58 0
-4 -49 0
-4 -47 0
-4 -46 0
-4 -45 0
-4 -41 0
-4 -25 0
-4 -22 0
-4 -14 0
-4 -11 0
-4 -7 0
-3 -72 0
-3 -70 0
-3 -67 0
-3 -57 0
-3 -46 0
-3 -45 0
-3 -40 0
-3 -38 0
-3 -37 0
-3 -35 0
-3 -24 0
-3 -13 0
-3 -9 0
-3 -8 0
-2 -72 0
-2 -70 0
-2 -65 0
-2 -57 0
-2 -51 0
-2 -45 0
-2 -41 0
-2 -40 0
-2 -38 0
-2 -29 0
-2 -23 0
-2 -10 0
-2 -9 0
-2 -3 0
-1 -69 0
-1 -65 0
-1 -64 0
-1 -60 0
-1 -51 0
-1 -41 0
-1 -32 0
-1 -29 0
-1 -27 0
-1 -23 0
-1 -21 0
-1 -20 0
-1 -13 0
-1 -10 0
-1 -2 0
1 2 10 23 29 41 51 65 0
3 8 13 24 35 37 46 67 0
4 11 22 45 49 63 64 68 0
5 12 16 18 21 38 52 58 0
6 7 20 48 53 59 62 70 0
9 15 17 19 25 28 31 60 0
14 26 34 43 56 57 69 71 0
27 30 36 40 42 44 61 66 0
32 33 39 47 50 54 55 72 0
