p cnf 56 372
-54 -55 0
-53 -56 0
-52 -53 0
-50 -52 0
-48 -54 0
-48 -50 0
-47 -56 0
-47 -52 0
-47 -50 0
-46 -54 0
-46 -48 0
-45 -52 0
-45 -51 0
-45 -50 0
-45 -47 0
-44 -56 0
-44 -53 0
-44 -49 0
-43 -55 0
-43 -50 0
-43 -48 0
-42 -56 0
-42 -54 0
-42 -48 0
-42 -47 0
-42 -46 0
-41 -52 0
-41 -50 0
-41 -47 0
-41 -46 0
-41 -45 0
-40 -51 0
-39 -49 0
-39 -40 0
-38 -56 0
-38 -55 0
-38 -47 0
-38 -43 0
-38 -42 0
-37 -56 0
-37 -53 0
-37 -46 0
-37 -44 0
-37 -41 0
-36 -51 0
-36 -46 0
-36 -41 0
-36 -40 0
-36 -37 0
-35 -51 0
-35 -49 0
-35 -45 0
-35 -39 0
-34 -56 0
-34 -49 0
-34 -47 0
-34 -42 0
-34 -39 0
-34 -38 0
-34 -35 0
-33 -54 0
-33 -53 0
-33 -52 0
-33 -48 0
-33 -46 0
-33 -42 0
-32 -55 0
-32 -54 0
-31 -54 0
-31 -48 0
-31 -46 0
-31 -42 0
-31 -40 0
-31 -39 0
-31 -33 0
-30 -55 0
-30 -43 0
-30 -40 0
-30 -39 0
-30 -38 0
-30 -31 0
-29 -50 0
-29 -49 0
-29 -48 0
-29 -43 0
-29 -39 0
-29 -35 0
-29 -34 0
-28 -49 0
-28 -46 0
-28 -41 0
-28 -39 0
-28 -37 0
-28 -36 0
-28 -35 0
-28 -34 0
-28 -29 0
-27 -56 0
-27 -55 0
-27 -54 0
-27 -53 0
-27 -44 0
-27 -37 0
-27 -32 0
-26 -40 0
-26 -39 0
-26 -32 0
-26 -31 0
-26 -30 0
-25 -50 0
-25 -48 0
-25 -43 0
-25 -32 0
-25 -29 0
-25 -26 0
-24 -49 0
-24 -44 0
-24 -32 0
-24 -26 0
-24 -25 0
-23 -52 0
-23 -50 0
-23 -47 0
-23 -45 0
-23 -41 0
-23 -40 0
-23 -39 0
-23 -31 0
-23 -30 0
-23 -26 0
-22 -54 0
-22 -51 0
-22 -48 0
-22 -46 0
-22 -45 0
-22 -42 0
-22 -35 0
-22 -33 0
-22 -31 0
-21 -55 0
-21 -49 0
-21 -44 0
-21 -43 0
-21 -38 0
-21 -30 0
-21 -24 0
-20 -56 0
-20 -53 0
-20 -51 0
-20 -45 0
-20 -44 0
-20 -37 0
-20 -35 0
-20 -27 0
-20 -22 0
-19 -56 0
-19 -51 0
-19 -47 0
-19 -42 0
-19 -40 0
-19 -38 0
-19 -36 0
-19 -34 0
-18 -53 0
-18 -52 0
-18 -33 0
-18 -32 0
-18 -26 0
-18 -25 0
-18 -24 0
-17 -46 0
-17 -41 0
-17 -37 0
-17 -36 0
-17 -32 0
-17 -28 0
-17 -26 0
-17 -25 0
-17 -24 0
-17 -18 0
-16 -51 0
-16 -45 0
-16 -35 0
-16 -32 0
-16 -26 0
-16 -25 0
-16 -24 0
-16 -22 0
-16 -20 0
-16 -18 0
-16 -17 0
-15 -52 0
-15 -50 0
-15 -49 0
-15 -47 0
-15 -45 0
-15 -44 0
-15 -41 0
-15 -24 0
-15 -23 0
-15 -21 0
-14 -51 0
-14 -50 0
-14 -48 0
-14 -43 0
-14 -40 0
-14 -36 0
-14 -29 0
-14 -25 0
-14 -19 0
-13 -53 0
-13 -52 0
-13 -51 0
-13 -40 0
-13 -36 0
-13 -33 0
-13 -19 0
-13 -18 0
-13 -14 0
-12 -55 0
-12 -54 0
-12 -52 0
-12 -50 0
-12 -47 0
-12 -45 0
-12 -41 0
-12 -32 0
-12 -27 0
-12 -23 0
-12 -15 0
-11 -55 0
-11 -53 0
-11 -52 0
-11 -43 0
-11 -38 0
-11 -33 0
-11 -30 0
-11 -21 0
-11 -18 0
-11 -13 0
-10 -56 0
-10 -53 0
-10 -44 0
-10 -40 0
-10 -39 0
-10 -37 0
-10 -31 0
-10 -30 0
-10 -27 0
-10 -26 0
-10 -23 0
-10 -20 0
-9 -53 0
-9 -52 0
-9 -49 0
-9 -39 0
-9 -35 0
-9 -34 0
-9 -33 0
-9 -29 0
-9 -28 0
-9 -18 0
-9 -13 0
-9 -11 0
-8 -55 0
-8 -51 0
-8 -45 0
-8 -43 0
-8 -38 0
-8 -35 0
-8 -30 0
-8 -22 0
-8 -21 0
-8 -20 0
-8 -16 0
-8 -11 0
-7 -55 0
-7 -54 0
-7 -51 0
-7 -40 0
-7 -36 0
-7 -32 0
-7 -27 0
-7 -19 0
-7 -14 0
-7 -13 0
-7 -12 0
-6 -55 0
-6 -54 0
-6 -49 0
-6 -39 0
-6 -35 0
-6 -34 0
-6 -32 0
-6 -29 0
-6 -28 0
-6 -27 0
-6 -12 0
-6 -9 0
-6 -7 0
-5 -51 0
-5 -49 0
-5 -44 0
-5 -40 0
-5 -36 0
-5 -24 0
-5 -21 0
-5 -19 0
-5 -15 0
-5 -14 0
-5 -13 0
-5 -7 0
-4 -56 0
-4 -53 0
-4 -50 0
-4 -48 0
-4 -44 0
-4 -43 0
-4 -37 0
-4 -29 0
-4 -27 0
-4 -25 0
-4 -20 0
-4 -14 0
-4 -10 0
-3 -56 0
-3 -47 0
-3 -42 0
-3 -38 0
-3 -34 0
-3 -32 0
-3 -26 0
-3 -25 0
-3 -24 0
-3 -19 0
-3 -18 0
-3 -17 0
-3 -16 0
-2 -54 0
-2 -49 0
-2 -48 0
-2 -46 0
-2 -44 0
-2 -42 0
-2 -33 0
-2 -31 0
-2 -24 0
-2 -22 0
-2 -21 0
-2 -15 0
-2 -5 0
-1 -55 0
-1 -46 0
-1 -43 0
-1 -41 0
-1 -38 0
-1 -37 0
-1 -36 0
-1 -30 0
-1 -28 0
-1 -21 0
-1 -17 0
-1 -11 0
-1 -8 0
1 17 28 36 37 41 46 0
2 5 15 21 24 44 49 0
3 19 34 38 42 47 56 0
4 14 25 29 43 48 50 0
6 7 12 27 32 54 55 0
8 16 20 22 35 45 51 0
9 11 13 18 33 52 53 0
10 23 26 30 31 39 40 0
