p cnf 132 1398
-130 -131 0
-127 -131 0
-125 -130 0
-124 -132 0
-124 -130 0
-124 -125 0
-123 -128 0
-122 -128 0
-122 -123 0
-121 -128 0
-121 -123 0
-121 -122 0
-120 -130 0
-120 -125 0
-120 -124 0
-120 -121 0
-118 -121 0
-118 -120 0
-118 -119 0
-117 -129 0
-117 -126 0
-116 -125 0
-115 -129 0
-115 -117 0
-114 -129 0
-114 -127 0
-113 -130 0
-113 -125 0
-113 -124 0
-113 -123 0
-113 -120 0
-112 -125 0
-112 -116 0
-111 -119 0
-111 -115 0
-110 -126 0
-110 -116 0
-109 -128 0
-109 -112 0
-108 -126 0
-108 -112 0
-108 -110 0
-108 -109 0
-107 -132 0
-107 -129 0
-107 -124 0
-107 -114 0
-106 -129 0
-106 -119 0
-106 -114 0
-106 -111 0
-106 -107 0
-105 -131 0
-105 -129 0
-105 -127 0
-105 -117 0
-105 -115 0
-104 -122 0
-104 -116 0
-104 -110 0
-103 -112 0
-103 -109 0
-103 -108 0
-102 -132 0
-102 -125 0
-102 -116 0
-102 -112 0
-101 -122 0
-101 -112 0
-101 -109 0
-101 -108 0
-101 -104 0
-101 -103 0
-100 -126 0
-100 -115 0
-100 -111 0
-100 -110 0
-100 -108 0
-99 -132 0
-99 -121 0
-99 -120 0
-99 -118 0
-99 -102 0
-98 -131 0
-98 -130 0
-98 -128 0
-98 -123 0
-98 -122 0
-98 -121 0
-97 -129 0
-97 -125 0
-97 -116 0
-97 -114 0
-97 -112 0
-97 -107 0
-97 -106 0
-97 -102 0
-96 -121 0
-96 -120 0
-96 -118 0
-96 -112 0
-96 -109 0
-96 -108 0
-96 -103 0
-96 -101 0
-96 -99 0
-95 -131 0
-95 -128 0
-95 -127 0
-95 -109 0
-95 -105 0
-94 -130 0
-94 -127 0
-94 -125 0
-94 -124 0
-94 -120 0
-94 -114 0
-94 -113 0
-93 -125 0
-93 -116 0
-93 -112 0
-93 -102 0
-93 -97 0
-92 -128 0
-92 -125 0
-92 -123 0
-92 -122 0
-92 -121 0
-92 -116 0
-92 -112 0
-92 -102 0
-92 -98 0
-92 -97 0
-92 -93 0
-91 -132 0
-91 -129 0
-91 -117 0
-91 -115 0
-91 -105 0
-91 -102 0
-91 -99 0
-90 -132 0
-90 -124 0
-90 -119 0
-90 -118 0
-90 -107 0
-89 -131 0
-89 -127 0
-89 -122 0
-89 -105 0
-89 -104 0
-89 -101 0
-89 -95 0
-88 -131 0
-88 -130 0
-88 -112 0
-88 -109 0
-88 -108 0
-88 -103 0
-88 -101 0
-88 -98 0
-88 -96 0
-87 -126 0
-87 -119 0
-87 -118 0
-87 -110 0
-87 -108 0
-87 -100 0
-87 -90 0
-86 -119 0
-86 -112 0
-86 -111 0
-86 -109 0
-86 -108 0
-86 -106 0
-86 -103 0
-86 -101 0
-86 -96 0
-86 -88 0
-85 -125 0
-85 -119 0
-85 -118 0
-85 -116 0
-85 -112 0
-85 -102 0
-85 -97 0
-85 -93 0
-85 -92 0
-85 -90 0
-85 -87 0
-84 -130 0
-84 -126 0
-84 -125 0
-84 -124 0
-84 -120 0
-84 -113 0
-84 -110 0
-84 -108 0
-84 -100 0
-84 -94 0
-84 -87 0
-83 -123 0
-83 -119 0
-83 -118 0
-83 -113 0
-83 -90 0
-83 -87 0
-83 -85 0
-82 -129 0
-82 -122 0
-82 -114 0
-82 -107 0
-82 -106 0
-82 -104 0
-82 -101 0
-82 -97 0
-82 -89 0
-81 -130 0
-81 -125 0
-81 -124 0
-81 -120 0
-81 -119 0
-81 -113 0
-81 -111 0
-81 -106 0
-81 -94 0
-81 -86 0
-81 -84 0
-80 -132 0
-80 -131 0
-80 -130 0
-80 -102 0
-80 -99 0
-80 -98 0
-80 -91 0
-80 -88 0
-79 -122 0
-79 -115 0
-79 -111 0
-79 -104 0
-79 -101 0
-79 -100 0
-79 -89 0
-79 -82 0
-78 -131 0
-78 -130 0
-78 -98 0
-78 -93 0
-78 -88 0
-78 -80 0
-77 -119 0
-77 -116 0
-77 -111 0
-77 -110 0
-77 -106 0
-77 -104 0
-77 -86 0
-77 -81 0
-76 -126 0
-76 -110 0
-76 -108 0
-76 -100 0
-76 -93 0
-76 -87 0
-76 -84 0
-76 -78 0
-75 -132 0
-75 -122 0
-75 -104 0
-75 -102 0
-75 -101 0
-75 -99 0
-75 -91 0
-75 -89 0
-75 -82 0
-75 -80 0
-75 -79 0
-74 -123 0
-74 -115 0
-74 -113 0
-74 -111 0
-74 -100 0
-74 -83 0
-74 -79 0
-73 -126 0
-73 -117 0
-73 -103 0
-72 -131 0
-72 -127 0
-72 -119 0
-72 -111 0
-72 -106 0
-72 -105 0
-72 -95 0
-72 -89 0
-72 -86 0
-72 -81 0
-72 -77 0
-71 -127 0
-71 -116 0
-71 -114 0
-71 -110 0
-71 -104 0
-71 -94 0
-71 -77 0
-70 -128 0
-70 -109 0
-70 -95 0
-70 -93 0
-70 -78 0
-70 -76 0
-69 -128 0
-69 -119 0
-69 -118 0
-69 -109 0
-69 -95 0
-69 -90 0
-69 -87 0
-69 -85 0
-69 -83 0
-69 -70 0
-68 -132 0
-68 -103 0
-68 -102 0
-68 -99 0
-68 -91 0
-68 -80 0
-68 -75 0
-68 -73 0
-67 -129 0
-67 -117 0
-67 -116 0
-67 -115 0
-67 -110 0
-67 -105 0
-67 -104 0
-67 -91 0
-67 -77 0
-67 -71 0
-66 -127 0
-66 -114 0
-66 -112 0
-66 -109 0
-66 -108 0
-66 -103 0
-66 -101 0
-66 -96 0
-66 -94 0
-66 -88 0
-66 -86 0
-66 -71 0
-65 -130 0
-65 -125 0
-65 -124 0
-65 -122 0
-65 -120 0
-65 -113 0
-65 -104 0
-65 -101 0
-65 -94 0
-65 -89 0
-65 -84 0
-65 -82 0
-65 -81 0
-65 -79 0
-65 -75 0
-64 -131 0
-64 -127 0
-64 -105 0
-64 -103 0
-64 -95 0
-64 -89 0
-64 -73 0
-64 -72 0
-64 -68 0
-63 -131 0
-63 -127 0
-63 -125 0
-63 -116 0
-63 -112 0
-63 -105 0
-63 -102 0
-63 -97 0
-63 -95 0
-63 -93 0
-63 -92 0
-63 -89 0
-63 -85 0
-63 -72 0
-63 -64 0
-62 -128 0
-62 -123 0
-62 -122 0
-62 -121 0
-62 -119 0
-62 -111 0
-62 -106 0
-62 -98 0
-62 -92 0
-62 -86 0
-62 -81 0
-62 -77 0
-62 -72 0
-61 -130 0
-61 -128 0
-61 -125 0
-61 -124 0
-61 -120 0
-61 -113 0
-61 -109 0
-61 -95 0
-61 -94 0
-61 -84 0
-61 -81 0
-61 -70 0
-61 -69 0
-61 -65 0
-60 -132 0
-60 -124 0
-60 -107 0
-60 -93 0
-60 -90 0
-60 -78 0
-60 -76 0
-60 -70 0
-59 -130 0
-59 -125 0
-59 -124 0
-59 -120 0
-59 -113 0
-59 -103 0
-59 -94 0
-59 -84 0
-59 -81 0
-59 -73 0
-59 -68 0
-59 -65 0
-59 -64 0
-59 -61 0
-58 -132 0
-58 -131 0
-58 -127 0
-58 -124 0
-58 -107 0
-58 -105 0
-58 -95 0
-58 -90 0
-58 -89 0
-58 -72 0
-58 -64 0
-58 -63 0
-58 -60 0
-57 -129 0
-57 -123 0
-57 -114 0
-57 -113 0
-57 -107 0
-57 -106 0
-57 -97 0
-57 -83 0
-57 -82 0
-57 -74 0
-56 -132 0
-56 -119 0
-56 -111 0
-56 -106 0
-56 -102 0
-56 -99 0
-56 -91 0
-56 -86 0
-56 -81 0
-56 -80 0
-56 -77 0
-56 -75 0
-56 -72 0
-56 -68 0
-56 -62 0
-55 -131 0
-55 -130 0
-55 -129 0
-55 -114 0
-55 -107 0
-55 -106 0
-55 -98 0
-55 -97 0
-55 -88 0
-55 -82 0
-55 -80 0
-55 -78 0
-55 -57 0
-54 -115 0
-54 -111 0
-54 -103 0
-54 -100 0
-54 -79 0
-54 -74 0
-54 -73 0
-54 -68 0
-54 -64 0
-54 -59 0
-53 -132 0
-53 -128 0
-53 -109 0
-53 -102 0
-53 -99 0
-53 -95 0
-53 -91 0
-53 -80 0
-53 -75 0
-53 -70 0
-53 -69 0
-53 -68 0
-53 -61 0
-53 -56 0
-52 -129 0
-52 -119 0
-52 -118 0
-52 -117 0
-52 -115 0
-52 -105 0
-52 -91 0
-52 -90 0
-52 -87 0
-52 -85 0
-52 -83 0
-52 -69 0
-52 -67 0
-51 -128 0
-51 -126 0
-51 -117 0
-51 -109 0
-51 -95 0
-51 -73 0
-51 -70 0
-51 -69 0
-51 -61 0
-51 -53 0
-50 -128 0
-50 -123 0
-50 -122 0
-50 -121 0
-50 -103 0
-50 -98 0
-50 -92 0
-50 -73 0
-50 -68 0
-50 -64 0
-50 -62 0
-50 -59 0
-50 -54 0
-49 -132 0
-49 -127 0
-49 -114 0
-49 -102 0
-49 -99 0
-49 -94 0
-49 -91 0
-49 -80 0
-49 -75 0
-49 -71 0
-49 -68 0
-49 -66 0
-49 -56 0
-49 -53 0
-48 -121 0
-48 -120 0
-48 -118 0
-48 -116 0
-48 -110 0
-48 -104 0
-48 -99 0
-48 -96 0
-48 -77 0
-48 -71 0
-48 -67 0
-47 -129 0
-47 -128 0
-47 -114 0
-47 -109 0
-47 -107 0
-47 -106 0
-47 -97 0
-47 -95 0
-47 -82 0
-47 -70 0
-47 -69 0
-47 -61 0
-47 -57 0
-47 -55 0
-47 -53 0
-47 -51 0
-46 -132 0
-46 -126 0
-46 -124 0
-46 -117 0
-46 -107 0
-46 -90 0
-46 -73 0
-46 -60 0
-46 -58 0
-46 -51 0
-45 -116 0
-45 -110 0
-45 -104 0
-45 -103 0
-45 -77 0
-45 -73 0
-45 -71 0
-45 -68 0
-45 -67 0
-45 -64 0
-45 -59 0
-45 -54 0
-45 -50 0
-45 -48 0
-44 -131 0
-44 -127 0
-44 -126 0
-44 -110 0
-44 -108 0
-44 -105 0
-44 -100 0
-44 -95 0
-44 -89 0
-44 -87 0
-44 -84 0
-44 -76 0
-44 -72 0
-44 -64 0
-44 -63 0
-44 -58 0
-43 -129 0
-43 -117 0
-43 -115 0
-43 -105 0
-43 -93 0
-43 -91 0
-43 -78 0
-43 -76 0
-43 -70 0
-43 -67 0
-43 -60 0
-43 -52 0
-42 -103 0
-42 -93 0
-42 -78 0
-42 -76 0
-42 -73 0
-42 -70 0
-42 -68 0
-42 -64 0
-42 -60 0
-42 -59 0
-42 -54 0
-42 -50 0
-42 -45 0
-42 -43 0
-41 -131 0
-41 -127 0
-41 -121 0
-41 -120 0
-41 -118 0
-41 -105 0
-41 -99 0
-41 -96 0
-41 -95 0
-41 -89 0
-41 -72 0
-41 -64 0
-41 -63 0
-41 -58 0
-41 -48 0
-41 -44 0
-40 -119 0
-40 -111 0
-40 -106 0
-40 -93 0
-40 -86 0
-40 -81 0
-40 -78 0
-40 -77 0
-40 -76 0
-40 -72 0
-40 -70 0
-40 -62 0
-40 -60 0
-40 -56 0
-40 -43 0
-40 -42 0
-39 -128 0
-39 -126 0
-39 -123 0
-39 -122 0
-39 -121 0
-39 -110 0
-39 -108 0
-39 -100 0
-39 -98 0
-39 -92 0
-39 -87 0
-39 -84 0
-39 -76 0
-39 -62 0
-39 -50 0
-39 -44 0
-38 -129 0
-38 -121 0
-38 -120 0
-38 -118 0
-38 -114 0
-38 -107 0
-38 -106 0
-38 -99 0
-38 -97 0
-38 -96 0
-38 -82 0
-38 -57 0
-38 -55 0
-38 -48 0
-38 -47 0
-38 -41 0
-37 -132 0
-37 -124 0
-37 -112 0
-37 -109 0
-37 -108 0
-37 -107 0
-37 -103 0
-37 -101 0
-37 -96 0
-37 -90 0
-37 -88 0
-37 -86 0
-37 -66 0
-37 -60 0
-37 -58 0
-37 -46 0
-36 -129 0
-36 -128 0
-36 -123 0
-36 -122 0
-36 -121 0
-36 -117 0
-36 -115 0
-36 -105 0
-36 -98 0
-36 -92 0
-36 -91 0
-36 -67 0
-36 -62 0
-36 -52 0
-36 -50 0
-36 -43 0
-36 -39 0
-35 -131 0
-35 -130 0
-35 -126 0
-35 -117 0
-35 -98 0
-35 -88 0
-35 -80 0
-35 -78 0
-35 -73 0
-35 -55 0
-35 -51 0
-35 -46 0
-34 -121 0
-34 -120 0
-34 -118 0
-34 -115 0
-34 -111 0
-34 -100 0
-34 -99 0
-34 -96 0
-34 -79 0
-34 -74 0
-34 -54 0
-34 -48 0
-34 -41 0
-34 -38 0
-33 -127 0
-33 -114 0
-33 -94 0
-33 -93 0
-33 -78 0
-33 -76 0
-33 -71 0
-33 -70 0
-33 -66 0
-33 -60 0
-33 -49 0
-33 -43 0
-33 -42 0
-33 -40 0
-32 -131 0
-32 -130 0
-32 -119 0
-32 -118 0
-32 -98 0
-32 -90 0
-32 -88 0
-32 -87 0
-32 -85 0
-32 -83 0
-32 -80 0
-32 -78 0
-32 -69 0
-32 -55 0
-32 -52 0
-32 -35 0
-31 -129 0
-31 -117 0
-31 -115 0
-31 -112 0
-31 -109 0
-31 -108 0
-31 -105 0
-31 -103 0
-31 -101 0
-31 -96 0
-31 -91 0
-31 -88 0
-31 -86 0
-31 -67 0
-31 -66 0
-31 -52 0
-31 -43 0
-31 -37 0
-31 -36 0
-30 -126 0
-30 -121 0
-30 -120 0
-30 -118 0
-30 -117 0
-30 -99 0
-30 -96 0
-30 -73 0
-30 -51 0
-30 -48 0
-30 -46 0
-30 -41 0
-30 -38 0
-30 -35 0
-30 -34 0
-29 -129 0
-29 -114 0
-29 -107 0
-29 -106 0
-29 -103 0
-29 -97 0
-29 -82 0
-29 -73 0
-29 -68 0
-29 -64 0
-29 -59 0
-29 -57 0
-29 -55 0
-29 -54 0
-29 -50 0
-29 -47 0
-29 -45 0
-29 -42 0
-29 -38 0
-28 -130 0
-28 -129 0
-28 -125 0
-28 -124 0
-28 -120 0
-28 -117 0
-28 -115 0
-28 -113 0
-28 -105 0
-28 -94 0
-28 -91 0
-28 -84 0
-28 -81 0
-28 -67 0
-28 -65 0
-28 -61 0
-28 -59 0
-28 -52 0
-28 -43 0
-28 -36 0
-28 -31 0
-27 -123 0
-27 -113 0
-27 -93 0
-27 -83 0
-27 -78 0
-27 -76 0
-27 -74 0
-27 -70 0
-27 -60 0
-27 -57 0
-27 -43 0
-27 -42 0
-27 -40 0
-27 -33 0
-26 -131 0
-26 -130 0
-26 -115 0
-26 -111 0
-26 -100 0
-26 -98 0
-26 -88 0
-26 -80 0
-26 -79 0
-26 -78 0
-26 -74 0
-26 -55 0
-26 -54 0
-26 -35 0
-26 -34 0
-26 -32 0
-25 -123 0
-25 -116 0
-25 -113 0
-25 -110 0
-25 -104 0
-25 -83 0
-25 -77 0
-25 -74 0
-25 -71 0
-25 -67 0
-25 -57 0
-25 -48 0
-25 -45 0
-25 -27 0
-24 -131 0
-24 -127 0
-24 -123 0
-24 -113 0
-24 -105 0
-24 -95 0
-24 -89 0
-24 -83 0
-24 -74 0
-24 -72 0
-24 -64 0
-24 -63 0
-24 -58 0
-24 -57 0
-24 -44 0
-24 -41 0
-24 -27 0
-24 -25 0
-23 -126 0
-23 -123 0
-23 -117 0
-23 -113 0
-23 -83 0
-23 -74 0
-23 -73 0
-23 -57 0
-23 -51 0
-23 -46 0
-23 -35 0
-23 -30 0
-23 -27 0
-23 -25 0
-23 -24 0
-22 -132 0
-22 -123 0
-22 -113 0
-22 -102 0
-22 -99 0
-22 -91 0
-22 -83 0
-22 -80 0
-22 -75 0
-22 -74 0
-22 -68 0
-22 -57 0
-22 -56 0
-22 -53 0
-22 -49 0
-22 -27 0
-22 -25 0
-22 -24 0
-22 -23 0
-21 -127 0
-21 -119 0
-21 -118 0
-21 -114 0
-21 -94 0
-21 -90 0
-21 -87 0
-21 -85 0
-21 -83 0
-21 -71 0
-21 -69 0
-21 -66 0
-21 -52 0
-21 -49 0
-21 -33 0
-21 -32 0
-20 -129 0
-20 -126 0
-20 -114 0
-20 -110 0
-20 -108 0
-20 -107 0
-20 -106 0
-20 -100 0
-20 -97 0
-20 -87 0
-20 -84 0
-20 -82 0
-20 -76 0
-20 -57 0
-20 -55 0
-20 -47 0
-20 -44 0
-20 -39 0
-20 -38 0
-20 -29 0
-19 -122 0
-19 -104 0
-19 -101 0
-19 -93 0
-19 -89 0
-19 -82 0
-19 -79 0
-19 -78 0
-19 -76 0
-19 -75 0
-19 -70 0
-19 -65 0
-19 -60 0
-19 -43 0
-19 -42 0
-19 -40 0
-19 -33 0
-19 -27 0
-18 -126 0
-18 -125 0
-18 -117 0
-18 -116 0
-18 -112 0
-18 -102 0
-18 -97 0
-18 -93 0
-18 -92 0
-18 -85 0
-18 -73 0
-18 -63 0
-18 -51 0
-18 -46 0
-18 -35 0
-18 -30 0
-18 -23 0
-17 -125 0
-17 -116 0
-17 -115 0
-17 -112 0
-17 -111 0
-17 -102 0
-17 -100 0
-17 -97 0
-17 -93 0
-17 -92 0
-17 -85 0
-17 -79 0
-17 -74 0
-17 -63 0
-17 -54 0
-17 -34 0
-17 -26 0
-17 -18 0
-16 -126 0
-16 -122 0
-16 -117 0
-16 -104 0
-16 -101 0
-16 -89 0
-16 -82 0
-16 -79 0
-16 -75 0
-16 -73 0
-16 -65 0
-16 -51 0
-16 -46 0
-16 -35 0
-16 -30 0
-16 -23 0
-16 -19 0
-16 -18 0
-15 -126 0
-15 -119 0
-15 -117 0
-15 -111 0
-15 -106 0
-15 -86 0
-15 -81 0
-15 -77 0
-15 -73 0
-15 -72 0
-15 -62 0
-15 -56 0
-15 -51 0
-15 -46 0
-15 -40 0
-15 -35 0
-15 -30 0
-15 -23 0
-15 -18 0
-15 -16 0
-14 -131 0
-14 -130 0
-14 -116 0
-14 -110 0
-14 -104 0
-14 -98 0
-14 -88 0
-14 -80 0
-14 -78 0
-14 -77 0
-14 -71 0
-14 -67 0
-14 -55 0
-14 -48 0
-14 -45 0
-14 -35 0
-14 -32 0
-14 -26 0
-14 -25 0
-13 -123 0
-13 -113 0
-13 -112 0
-13 -109 0
-13 -108 0
-13 -103 0
-13 -101 0
-13 -96 0
-13 -88 0
-13 -86 0
-13 -83 0
-13 -74 0
-13 -66 0
-13 -57 0
-13 -37 0
-13 -31 0
-13 -27 0
-13 -25 0
-13 -24 0
-13 -23 0
-13 -22 0
-12 -127 0
-12 -115 0
-12 -114 0
-12 -111 0
-12 -100 0
-12 -94 0
-12 -79 0
-12 -74 0
-12 -71 0
-12 -66 0
-12 -54 0
-12 -49 0
-12 -34 0
-12 -33 0
-12 -26 0
-12 -21 0
-12 -17 0
-11 -132 0
-11 -124 0
-11 -116 0
-11 -110 0
-11 -107 0
-11 -104 0
-11 -90 0
-11 -77 0
-11 -71 0
-11 -67 0
-11 -60 0
-11 -58 0
-11 -48 0
-11 -46 0
-11 -45 0
-11 -37 0
-11 -25 0
-11 -14 0
-10 -132 0
-10 -128 0
-10 -124 0
-10 -123 0
-10 -122 0
-10 -121 0
-10 -107 0
-10 -98 0
-10 -92 0
-10 -90 0
-10 -62 0
-10 -60 0
-10 -58 0
-10 -50 0
-10 -46 0
-10 -39 0
-10 -37 0
-10 -36 0
-10 -11 0
-9 -122 0
-9 -119 0
-9 -118 0
-9 -104 0
-9 -101 0
-9 -90 0
-9 -89 0
-9 -87 0
-9 -85 0
-9 -83 0
-9 -82 0
-9 -79 0
-9 -75 0
-9 -69 0
-9 -65 0
-9 -52 0
-9 -32 0
-9 -21 0
-9 -19 0
-9 -16 0
-8 -128 0
-8 -127 0
-8 -123 0
-8 -122 0
-8 -121 0
-8 -114 0
-8 -98 0
-8 -94 0
-8 -92 0
-8 -71 0
-8 -66 0
-8 -62 0
-8 -50 0
-8 -49 0
-8 -39 0
-8 -36 0
-8 -33 0
-8 -21 0
-8 -12 0
-8 -10 0
-7 -132 0
-7 -124 0
-7 -115 0
-7 -111 0
-7 -107 0
-7 -100 0
-7 -90 0
-7 -79 0
-7 -74 0
-7 -60 0
-7 -58 0
-7 -54 0
-7 -46 0
-7 -37 0
-7 -34 0
-7 -26 0
-7 -17 0
-7 -12 0
-7 -11 0
-7 -10 0
-6 -119 0
-6 -118 0
-6 -103 0
-6 -90 0
-6 -87 0
-6 -85 0
-6 -83 0
-6 -73 0
-6 -69 0
-6 -68 0
-6 -64 0
-6 -59 0
-6 -54 0
-6 -52 0
-6 -50 0
-6 -45 0
-6 -42 0
-6 -32 0
-6 -29 0
-6 -21 0
-6 -9 0
-5 -132 0
-5 -126 0
-5 -110 0
-5 -108 0
-5 -102 0
-5 -100 0
-5 -99 0
-5 -91 0
-5 -87 0
-5 -84 0
-5 -80 0
-5 -76 0
-5 -75 0
-5 -68 0
-5 -56 0
-5 -53 0
-5 -49 0
-5 -44 0
-5 -39 0
-5 -22 0
-5 -20 0
-4 -128 0
-4 -116 0
-4 -110 0
-4 -109 0
-4 -104 0
-4 -95 0
-4 -77 0
-4 -71 0
-4 -70 0
-4 -69 0
-4 -67 0
-4 -61 0
-4 -53 0
-4 -51 0
-4 -48 0
-4 -47 0
-4 -45 0
-4 -25 0
-4 -14 0
-4 -11 0
-3 -128 0
-3 -115 0
-3 -111 0
-3 -109 0
-3 -100 0
-3 -95 0
-3 -79 0
-3 -74 0
-3 -70 0
-3 -69 0
-3 -61 0
-3 -54 0
-3 -53 0
-3 -51 0
-3 -47 0
-3 -34 0
-3 -26 0
-3 -17 0
-3 -12 0
-3 -7 0
-3 -4 0
-2 -127 0
-2 -126 0
-2 -117 0
-2 -114 0
-2 -94 0
-2 -73 0
-2 -71 0
-2 -66 0
-2 -51 0
-2 -49 0
-2 -46 0
-2 -35 0
-2 -33 0
-2 -30 0
-2 -23 0
-2 -21 0
-2 -18 0
-2 -16 0
-2 -15 0
-2 -12 0
-2 -8 0
-1 -121 0
-1 -120 0
-1 -118 0
-1 -99 0
-1 -96 0
-1 -93 0
-1 -78 0
-1 -76 0
-1 -70 0
-1 -60 0
-1 -48 0
-1 -43 0
-1 -42 0
-1 -41 0
-1 -40 0
-1 -38 0
-1 -34 0
-1 -33 0
-1 -30 0
-1 -27 0
-1 -19 0
1 30 34 38 41 48 96 99 118 120 121 0
2 8 12 21 33 49 66 71 94 114 127 0
3 4 47 51 53 61 69 70 95 109 128 0
5 20 39 44 76 84 87 100 108 110 126 0
6 29 42 45 50 54 59 64 68 73 103 0
7 10 11 37 46 58 60 90 107 124 132 0
9 16 19 65 75 79 82 89 101 104 122 0
13 22 23 24 25 27 57 74 83 113 123 0
14 26 32 35 55 78 80 88 98 130 131 0
15 40 56 62 72 77 81 86 106 111 119 0
17 18 63 85 92 93 97 102 112 116 125 0
28 31 36 43 52 67 91 105 115 117 129 0
