p cnf 110 1056
-109 -110 0
-104 -107 0
-103 -110 0
-103 -109 0
-102 -106 0
-100 -104 0
-99 -109 0
-99 -105 0
-98 -109 0
-98 -107 0
-98 -104 0
-98 -99 0
-97 -105 0
-97 -101 0
-97 -99 0
-96 -110 0
-96 -109 0
-96 -103 0
-95 -105 0
-95 -99 0
-95 -97 0
-94 -95 0
-93 -107 0
-93 -106 0
-93 -104 0
-93 -102 0
-93 -98 0
-92 -104 0
-92 -102 0
-92 -100 0
-91 -108 0
-91 -105 0
-90 -108 0
-90 -96 0
-90 -91 0
-89 -108 0
-89 -94 0
-88 -103 0
-88 -102 0
-88 -92 0
-87 -100 0
-87 -95 0
-87 -94 0
-86 -110 0
-86 -109 0
-86 -103 0
-86 -101 0
-86 -97 0
-86 -96 0
-85 -102 0
-85 -95 0
-85 -94 0
-85 -92 0
-85 -88 0
-85 -87 0
-84 -106 0
-84 -102 0
-84 -100 0
-84 -93 0
-84 -87 0
-83 -106 0
-83 -102 0
-83 -94 0
-83 -93 0
-83 -89 0
-83 -84 0
-82 -107 0
-82 -106 0
-81 -102 0
-81 -96 0
-81 -92 0
-81 -90 0
-81 -88 0
-81 -85 0
-80 -106 0
-80 -96 0
-80 -90 0
-80 -82 0
-80 -81 0
-79 -110 0
-79 -105 0
-79 -99 0
-79 -97 0
-79 -95 0
-78 -108 0
-78 -106 0
-78 -102 0
-78 -93 0
-78 -91 0
-78 -90 0
-78 -84 0
-78 -83 0
-77 -107 0
-77 -105 0
-77 -99 0
-77 -97 0
-77 -95 0
-77 -82 0
-77 -79 0
-76 -106 0
-76 -105 0
-76 -102 0
-76 -99 0
-76 -97 0
-76 -95 0
-76 -93 0
-76 -84 0
-76 -83 0
-76 -79 0
-76 -78 0
-76 -77 0
-75 -105 0
-75 -102 0
-75 -92 0
-75 -91 0
-75 -88 0
-75 -85 0
-75 -81 0
-74 -101 0
-74 -97 0
-74 -86 0
-73 -110 0
-73 -102 0
-73 -92 0
-73 -88 0
-73 -85 0
-73 -81 0
-73 -79 0
-73 -75 0
-72 -108 0
-72 -95 0
-72 -94 0
-72 -91 0
-72 -90 0
-72 -87 0
-72 -85 0
-72 -78 0
-71 -108 0
-71 -104 0
-71 -100 0
-71 -92 0
-71 -91 0
-71 -90 0
-71 -78 0
-71 -72 0
-70 -103 0
-70 -100 0
-70 -88 0
-70 -87 0
-70 -84 0
-69 -107 0
-69 -105 0
-69 -104 0
-69 -98 0
-69 -93 0
-69 -91 0
-69 -75 0
-68 -110 0
-68 -106 0
-68 -82 0
-68 -80 0
-68 -79 0
-68 -73 0
-67 -110 0
-67 -109 0
-67 -103 0
-67 -96 0
-67 -95 0
-67 -94 0
-67 -87 0
-67 -86 0
-67 -85 0
-67 -72 0
-66 -102 0
-66 -101 0
-66 -97 0
-66 -92 0
-66 -88 0
-66 -86 0
-66 -85 0
-66 -81 0
-66 -75 0
-66 -74 0
-66 -73 0
-65 -108 0
-65 -89 0
-65 -74 0
-64 -106 0
-64 -103 0
-64 -88 0
-64 -82 0
-64 -80 0
-64 -70 0
-64 -68 0
-63 -95 0
-63 -94 0
-63 -87 0
-63 -85 0
-63 -74 0
-63 -72 0
-63 -67 0
-63 -65 0
-62 -109 0
-62 -99 0
-62 -98 0
-62 -94 0
-62 -89 0
-62 -83 0
-61 -108 0
-61 -101 0
-61 -97 0
-61 -91 0
-61 -90 0
-61 -86 0
-61 -78 0
-61 -74 0
-61 -72 0
-61 -71 0
-61 -66 0
-60 -96 0
-60 -94 0
-60 -90 0
-60 -89 0
-60 -83 0
-60 -81 0
-60 -80 0
-60 -62 0
-59 -101 0
-59 -95 0
-59 -94 0
-59 -87 0
-59 -85 0
-59 -72 0
-59 -67 0
-59 -63 0
-58 -101 0
-58 -97 0
-58 -94 0
-58 -89 0
-58 -86 0
-58 -83 0
-58 -74 0
-58 -66 0
-58 -62 0
-58 -61 0
-58 -60 0
-57 -110 0
-57 -101 0
-57 -79 0
-57 -73 0
-57 -68 0
-57 -59 0
-56 -109 0
-56 -100 0
-56 -99 0
-56 -98 0
-56 -87 0
-56 -84 0
-56 -70 0
-56 -62 0
-55 -107 0
-55 -104 0
-55 -98 0
-55 -95 0
-55 -94 0
-55 -93 0
-55 -87 0
-55 -85 0
-55 -72 0
-55 -69 0
-55 -67 0
-55 -63 0
-55 -59 0
-54 -108 0
-54 -100 0
-54 -89 0
-54 -87 0
-54 -84 0
-54 -70 0
-54 -65 0
-54 -56 0
-53 -106 0
-53 -101 0
-53 -97 0
-53 -86 0
-53 -82 0
-53 -80 0
-53 -74 0
-53 -68 0
-53 -66 0
-53 -64 0
-53 -61 0
-53 -58 0
-52 -105 0
-52 -99 0
-52 -97 0
-52 -96 0
-52 -95 0
-52 -90 0
-52 -81 0
-52 -80 0
-52 -79 0
-52 -77 0
-52 -76 0
-52 -60 0
-51 -105 0
-51 -101 0
-51 -91 0
-51 -75 0
-51 -69 0
-51 -59 0
-51 -57 0
-50 -107 0
-50 -100 0
-50 -87 0
-50 -84 0
-50 -82 0
-50 -77 0
-50 -70 0
-50 -56 0
-50 -54 0
-49 -107 0
-49 -101 0
-49 -82 0
-49 -77 0
-49 -59 0
-49 -57 0
-49 -51 0
-49 -50 0
-48 -106 0
-48 -102 0
-48 -93 0
-48 -84 0
-48 -83 0
-48 -78 0
-48 -76 0
-48 -74 0
-48 -65 0
-48 -63 0
-47 -108 0
-47 -105 0
-47 -99 0
-47 -97 0
-47 -95 0
-47 -89 0
-47 -79 0
-47 -77 0
-47 -76 0
-47 -65 0
-47 -54 0
-47 -52 0
-46 -106 0
-46 -104 0
-46 -100 0
-46 -92 0
-46 -82 0
-46 -80 0
-46 -71 0
-46 -68 0
-46 -64 0
-46 -53 0
-45 -107 0
-45 -104 0
-45 -101 0
-45 -98 0
-45 -97 0
-45 -93 0
-45 -86 0
-45 -74 0
-45 -69 0
-45 -66 0
-45 -61 0
-45 -58 0
-45 -55 0
-45 -53 0
-44 -100 0
-44 -96 0
-44 -90 0
-44 -87 0
-44 -84 0
-44 -81 0
-44 -80 0
-44 -70 0
-44 -60 0
-44 -56 0
-44 -54 0
-44 -52 0
-44 -50 0
-43 -107 0
-43 -82 0
-43 -77 0
-43 -74 0
-43 -65 0
-43 -63 0
-43 -50 0
-43 -49 0
-43 -48 0
-42 -110 0
-42 -109 0
-42 -104 0
-42 -103 0
-42 -100 0
-42 -96 0
-42 -92 0
-42 -86 0
-42 -71 0
-42 -67 0
-42 -46 0
-41 -110 0
-41 -109 0
-41 -105 0
-41 -103 0
-41 -96 0
-41 -91 0
-41 -86 0
-41 -75 0
-41 -69 0
-41 -67 0
-41 -51 0
-41 -42 0
-40 -110 0
-40 -94 0
-40 -89 0
-40 -83 0
-40 -79 0
-40 -73 0
-40 -68 0
-40 -62 0
-40 -60 0
-40 -58 0
-40 -57 0
-39 -105 0
-39 -100 0
-39 -91 0
-39 -87 0
-39 -84 0
-39 -75 0
-39 -70 0
-39 -69 0
-39 -56 0
-39 -54 0
-39 -51 0
-39 -50 0
-39 -44 0
-39 -41 0
-38 -109 0
-38 -101 0
-38 -99 0
-38 -98 0
-38 -62 0
-38 -59 0
-38 -57 0
-38 -56 0
-38 -51 0
-38 -49 0
-37 -96 0
-37 -90 0
-37 -81 0
-37 -80 0
-37 -74 0
-37 -65 0
-37 -63 0
-37 -60 0
-37 -52 0
-37 -48 0
-37 -44 0
-37 -43 0
-36 -104 0
-36 -100 0
-36 -94 0
-36 -92 0
-36 -89 0
-36 -83 0
-36 -71 0
-36 -62 0
-36 -60 0
-36 -58 0
-36 -46 0
-36 -42 0
-36 -40 0
-35 -106 0
-35 -95 0
-35 -94 0
-35 -87 0
-35 -85 0
-35 -82 0
-35 -80 0
-35 -72 0
-35 -68 0
-35 -67 0
-35 -64 0
-35 -63 0
-35 -59 0
-35 -55 0
-35 -53 0
-35 -46 0
-34 -105 0
-34 -104 0
-34 -100 0
-34 -99 0
-34 -97 0
-34 -95 0
-34 -92 0
-34 -79 0
-34 -77 0
-34 -76 0
-34 -71 0
-34 -52 0
-34 -47 0
-34 -46 0
-34 -42 0
-34 -36 0
-33 -110 0
-33 -108 0
-33 -91 0
-33 -90 0
-33 -79 0
-33 -78 0
-33 -73 0
-33 -72 0
-33 -71 0
-33 -68 0
-33 -61 0
-33 -57 0
-33 -40 0
-32 -107 0
-32 -104 0
-32 -103 0
-32 -98 0
-32 -93 0
-32 -88 0
-32 -70 0
-32 -69 0
-32 -64 0
-32 -55 0
-32 -45 0
-31 -108 0
-31 -101 0
-31 -89 0
-31 -65 0
-31 -59 0
-31 -57 0
-31 -54 0
-31 -51 0
-31 -49 0
-31 -47 0
-31 -38 0
-30 -104 0
-30 -100 0
-30 -92 0
-30 -74 0
-30 -71 0
-30 -65 0
-30 -63 0
-30 -48 0
-30 -46 0
-30 -43 0
-30 -42 0
-30 -37 0
-30 -36 0
-30 -34 0
-29 -109 0
-29 -99 0
-29 -98 0
-29 -74 0
-29 -65 0
-29 -63 0
-29 -62 0
-29 -56 0
-29 -48 0
-29 -43 0
-29 -38 0
-29 -37 0
-29 -30 0
-28 -110 0
-28 -100 0
-28 -87 0
-28 -84 0
-28 -79 0
-28 -73 0
-28 -70 0
-28 -68 0
-28 -57 0
-28 -56 0
-28 -54 0
-28 -50 0
-28 -44 0
-28 -40 0
-28 -39 0
-28 -33 0
-27 -108 0
-27 -106 0
-27 -89 0
-27 -82 0
-27 -80 0
-27 -68 0
-27 -65 0
-27 -64 0
-27 -54 0
-27 -53 0
-27 -47 0
-27 -46 0
-27 -35 0
-27 -31 0
-26 -110 0
-26 -107 0
-26 -104 0
-26 -98 0
-26 -93 0
-26 -79 0
-26 -73 0
-26 -69 0
-26 -68 0
-26 -57 0
-26 -55 0
-26 -45 0
-26 -40 0
-26 -33 0
-26 -32 0
-26 -28 0
-25 -110 0
-25 -79 0
-25 -74 0
-25 -73 0
-25 -68 0
-25 -65 0
-25 -63 0
-25 -57 0
-25 -48 0
-25 -43 0
-25 -40 0
-25 -37 0
-25 -33 0
-25 -30 0
-25 -29 0
-25 -28 0
-25 -26 0
-24 -101 0
-24 -96 0
-24 -90 0
-24 -81 0
-24 -80 0
-24 -60 0
-24 -59 0
-24 -57 0
-24 -52 0
-24 -51 0
-24 -49 0
-24 -44 0
-24 -38 0
-24 -37 0
-24 -31 0
-23 -107 0
-23 -94 0
-23 -89 0
-23 -83 0
-23 -82 0
-23 -77 0
-23 -62 0
-23 -60 0
-23 -58 0
-23 -50 0
-23 -49 0
-23 -43 0
-23 -40 0
-23 -36 0
-22 -106 0
-22 -102 0
-22 -101 0
-22 -93 0
-22 -84 0
-22 -83 0
-22 -78 0
-22 -76 0
-22 -59 0
-22 -57 0
-22 -51 0
-22 -49 0
-22 -48 0
-22 -38 0
-22 -31 0
-22 -24 0
-21 -106 0
-21 -105 0
-21 -91 0
-21 -82 0
-21 -80 0
-21 -75 0
-21 -69 0
-21 -68 0
-21 -64 0
-21 -53 0
-21 -51 0
-21 -46 0
-21 -41 0
-21 -39 0
-21 -35 0
-21 -27 0
-20 -107 0
-20 -102 0
-20 -92 0
-20 -88 0
-20 -85 0
-20 -82 0
-20 -81 0
-20 -77 0
-20 -75 0
-20 -73 0
-20 -66 0
-20 -50 0
-20 -49 0
-20 -43 0
-20 -23 0
-19 -110 0
-19 -109 0
-19 -108 0
-19 -103 0
-19 -96 0
-19 -89 0
-19 -86 0
-19 -67 0
-19 -65 0
-19 -54 0
-19 -47 0
-19 -42 0
-19 -41 0
-19 -31 0
-19 -27 0
-18 -108 0
-18 -107 0
-18 -91 0
-18 -90 0
-18 -82 0
-18 -78 0
-18 -77 0
-18 -72 0
-18 -71 0
-18 -61 0
-18 -50 0
-18 -49 0
-18 -43 0
-18 -33 0
-18 -23 0
-18 -20 0
-17 -108 0
-17 -107 0
-17 -104 0
-17 -98 0
-17 -93 0
-17 -89 0
-17 -69 0
-17 -65 0
-17 -55 0
-17 -54 0
-17 -47 0
-17 -45 0
-17 -32 0
-17 -31 0
-17 -27 0
-17 -26 0
-17 -19 0
-16 -103 0
-16 -88 0
-16 -74 0
-16 -70 0
-16 -65 0
-16 -64 0
-16 -63 0
-16 -48 0
-16 -43 0
-16 -37 0
-16 -32 0
-16 -30 0
-16 -29 0
-16 -25 0
-15 -109 0
-15 -108 0
-15 -99 0
-15 -98 0
-15 -91 0
-15 -90 0
-15 -78 0
-15 -72 0
-15 -71 0
-15 -62 0
-15 -61 0
-15 -56 0
-15 -38 0
-15 -33 0
-15 -29 0
-15 -18 0
-14 -103 0
-14 -94 0
-14 -89 0
-14 -88 0
-14 -83 0
-14 -70 0
-14 -64 0
-14 -62 0
-14 -60 0
-14 -58 0
-14 -40 0
-14 -36 0
-14 -32 0
-14 -23 0
-14 -16 0
-13 -104 0
-13 -101 0
-13 -100 0
-13 -92 0
-13 -71 0
-13 -59 0
-13 -57 0
-13 -51 0
-13 -49 0
-13 -46 0
-13 -42 0
-13 -38 0
-13 -36 0
-13 -34 0
-13 -31 0
-13 -30 0
-13 -24 0
-13 -22 0
-12 -108 0
-12 -102 0
-12 -92 0
-12 -89 0
-12 -88 0
-12 -85 0
-12 -81 0
-12 -75 0
-12 -73 0
-12 -66 0
-12 -65 0
-12 -54 0
-12 -47 0
-12 -31 0
-12 -27 0
-12 -20 0
-12 -19 0
-12 -17 0
-11 -110 0
-11 -109 0
-11 -106 0
-11 -103 0
-11 -102 0
-11 -96 0
-11 -93 0
-11 -86 0
-11 -84 0
-11 -83 0
-11 -78 0
-11 -76 0
-11 -67 0
-11 -48 0
-11 -42 0
-11 -41 0
-11 -22 0
-11 -19 0
-10 -109 0
-10 -106 0
-10 -99 0
-10 -98 0
-10 -82 0
-10 -80 0
-10 -68 0
-10 -64 0
-10 -62 0
-10 -56 0
-10 -53 0
-10 -46 0
-10 -38 0
-10 -35 0
-10 -29 0
-10 -27 0
-10 -21 0
-10 -15 0
-9 -103 0
-9 -101 0
-9 -88 0
-9 -70 0
-9 -64 0
-9 -59 0
-9 -57 0
-9 -51 0
-9 -49 0
-9 -38 0
-9 -32 0
-9 -31 0
-9 -24 0
-9 -22 0
-9 -16 0
-9 -14 0
-9 -13 0
-8 -105 0
-8 -103 0
-8 -99 0
-8 -97 0
-8 -95 0
-8 -88 0
-8 -79 0
-8 -77 0
-8 -76 0
-8 -70 0
-8 -64 0
-8 -52 0
-8 -47 0
-8 -34 0
-8 -32 0
-8 -16 0
-8 -14 0
-8 -9 0
-7 -101 0
-7 -100 0
-7 -97 0
-7 -87 0
-7 -86 0
-7 -84 0
-7 -74 0
-7 -70 0
-7 -66 0
-7 -61 0
-7 -58 0
-7 -56 0
-7 -54 0
-7 -53 0
-7 -50 0
-7 -45 0
-7 -44 0
-7 -39 0
-7 -28 0
-6 -107 0
-6 -104 0
-6 -98 0
-6 -96 0
-6 -93 0
-6 -90 0
-6 -81 0
-6 -80 0
-6 -69 0
-6 -60 0
-6 -55 0
-6 -52 0
-6 -45 0
-6 -44 0
-6 -37 0
-6 -32 0
-6 -26 0
-6 -24 0
-6 -17 0
-5 -110 0
-5 -109 0
-5 -107 0
-5 -103 0
-5 -96 0
-5 -86 0
-5 -82 0
-5 -77 0
-5 -67 0
-5 -50 0
-5 -49 0
-5 -43 0
-5 -42 0
-5 -41 0
-5 -23 0
-5 -20 0
-5 -19 0
-5 -18 0
-5 -11 0
-4 -105 0
-4 -94 0
-4 -91 0
-4 -89 0
-4 -83 0
-4 -75 0
-4 -69 0
-4 -62 0
-4 -60 0
-4 -58 0
-4 -51 0
-4 -41 0
-4 -40 0
-4 -39 0
-4 -36 0
-4 -23 0
-4 -21 0
-4 -14 0
-3 -108 0
-3 -103 0
-3 -91 0
-3 -90 0
-3 -88 0
-3 -78 0
-3 -72 0
-3 -71 0
-3 -70 0
-3 -64 0
-3 -61 0
-3 -33 0
-3 -32 0
-3 -18 0
-3 -16 0
-3 -15 0
-3 -14 0
-3 -9 0
-3 -8 0
-2 -109 0
-2 -102 0
-2 -99 0
-2 -98 0
-2 -92 0
-2 -88 0
-2 -85 0
-2 -81 0
-2 -75 0
-2 -73 0
-2 -66 0
-2 -62 0
-2 -56 0
-2 -38 0
-2 -29 0
-2 -20 0
-2 -15 0
-2 -12 0
-2 -10 0
-1 -105 0
-1 -91 0
-1 -75 0
-1 -74 0
-1 -69 0
-1 -65 0
-1 -63 0
-1 -51 0
-1 -48 0
-1 -43 0
-1 -41 0
-1 -39 0
-1 -37 0
-1 -30 0
-1 -29 0
-1 -25 0
-1 -21 0
-1 -16 0
-1 -4 0
1 4 21 39 41 51 69 75 91 105 0
2 10 15 29 38 56 62 98 99 109 0
3 8 9 14 16 32 64 70 88 103 0
5 18 20 23 43 49 50 77 82 107 0
6 24 37 44 52 60 80 81 90 96 0
7 45 53 58 61 66 74 86 97 101 0
11 22 48 76 78 83 84 93 102 106 0
12 17 19 27 31 47 54 65 89 108 0
13 30 34 36 42 46 71 92 100 104 0
25 26 28 33 40 57 68 73 79 110 0
35 55 59 63 67 72 85 87 94 95 0
