p cnf 30 141
-26 -29 0
-26 -28 0
-25 -29 0
-24 -29 0
-24 -28 0
-24 -25 0
-23 -29 0
-23 -27 0
-23 -25 0
-23 -24 0
-22 -30 0
-21 -22 0
-20 -28 0
-20 -24 0
-20 -22 0
-20 -21 0
-19 -30 0
-19 -27 0
-19 -23 0
-18 -28 0
-18 -27 0
-18 -24 0
-18 -20 0
-17 -27 0
-17 -23 0
-17 -22 0
-17 -21 0
-17 -20 0
-17 -19 0
-16 -29 0
-16 -27 0
-16 -26 0
-16 -18 0
-15 -30 0
-15 -29 0
-15 -26 0
-15 -19 0
-15 -16 0
-14 -30 0
-14 -28 0
-14 -24 0
-14 -20 0
-14 -19 0
-14 -18 0
-14 -15 0
-13 -27 0
-13 -21 0
-13 -18 0
-13 -16 0
-12 -30 0
-12 -28 0
-12 -26 0
-12 -22 0
-11 -27 0
-11 -25 0
-11 -18 0
-11 -16 0
-11 -13 0
-10 -30 0
-10 -27 0
-10 -22 0
-10 -18 0
-10 -16 0
-10 -13 0
-10 -12 0
-10 -11 0
-9 -28 0
-9 -26 0
-9 -21 0
-9 -13 0
-9 -12 0
-8 -30 0
-8 -29 0
-8 -25 0
-8 -24 0
-8 -23 0
-8 -22 0
-8 -12 0
-8 -10 0
-7 -29 0
-7 -25 0
-7 -24 0
-7 -23 0
-7 -21 0
-7 -13 0
-7 -9 0
-7 -8 0
-6 -28 0
-6 -27 0
-6 -26 0
-6 -23 0
-6 -19 0
-6 -17 0
-6 -12 0
-6 -9 0
-5 -28 0
-5 -26 0
-5 -25 0
-5 -12 0
-5 -11 0
-5 -9 0
-5 -6 0
-4 -29 0
-4 -26 0
-4 -22 0
-4 -21 0
-4 -20 0
-4 -17 0
-4 -16 0
-4 -15 0
-3 -30 0
-3 -25 0
-3 -19 0
-3 -15 0
-3 -14 0
-3 -11 0
-3 -5 0
-2 -30 0
-2 -21 0
-2 -19 0
-2 -15 0
-2 -14 0
-2 -13 0
-2 -9 0
-2 -7 0
-2 -3 0
-1 -25 0
-1 -22 0
-1 -21 0
-1 -20 0
-1 -17 0
-1 -11 0
-1 -5 0
-1 -4 0
-1 -3 0
1 3 5 11 25 0
2 7 9 13 21 0
4 15 16 26 29 0
6 17 19 23 27 0
8 10 12 22 30 0
14 18 20 24 28 0
