p cnf 42 238
-39 -41 0
-37 -41 0
-37 -39 0
-37 -38 0
-36 -42 0
-36 -38 0
-36 -37 0
-35 -42 0
-35 -41 0
-35 -39 0
-35 -37 0
-33 -39 0
-33 -38 0
-32 -40 0
-32 -34 0
-31 -41 0
-30 -41 0
-30 -38 0
-30 -33 0
-30 -31 0
-29 -42 0
-29 -35 0
-28 -42 0
-28 -40 0
-28 -35 0
-28 -32 0
-28 -29 0
-27 -40 0
-27 -39 0
-27 -33 0
-27 -32 0
-27 -28 0
-26 -39 0
-26 -33 0
-26 -29 0
-26 -27 0
-25 -41 0
-25 -40 0
-25 -32 0
-25 -31 0
-25 -30 0
-25 -28 0
-25 -27 0
-24 -34 0
-24 -32 0
-24 -31 0
-23 -40 0
-23 -34 0
-22 -38 0
-22 -37 0
-22 -36 0
-22 -31 0
-22 -24 0
-21 -40 0
-21 -38 0
-21 -33 0
-21 -30 0
-21 -23 0
-20 -40 0
-20 -29 0
-20 -26 0
-20 -23 0
-20 -21 0
-19 -34 0
-19 -32 0
-19 -29 0
-19 -26 0
-19 -24 0
-19 -20 0
-18 -42 0
-18 -36 0
-18 -34 0
-18 -32 0
-18 -24 0
-18 -19 0
-17 -38 0
-17 -37 0
-17 -36 0
-17 -29 0
-17 -26 0
-17 -22 0
-17 -20 0
-17 -19 0
-16 -41 0
-16 -31 0
-16 -30 0
-16 -29 0
-16 -26 0
-16 -25 0
-16 -20 0
-16 -19 0
-16 -17 0
-15 -41 0
-15 -39 0
-15 -37 0
-15 -35 0
-15 -34 0
-15 -32 0
-15 -24 0
-15 -19 0
-15 -18 0
-14 -41 0
-14 -40 0
-14 -39 0
-14 -37 0
-14 -35 0
-14 -23 0
-14 -21 0
-14 -20 0
-14 -15 0
-13 -42 0
-13 -41 0
-13 -36 0
-13 -31 0
-13 -30 0
-13 -25 0
-13 -18 0
-13 -16 0
-12 -42 0
-12 -40 0
-12 -36 0
-12 -23 0
-12 -21 0
-12 -20 0
-12 -18 0
-12 -14 0
-12 -13 0
-11 -38 0
-11 -37 0
-11 -36 0
-11 -34 0
-11 -23 0
-11 -22 0
-11 -17 0
-10 -42 0
-10 -35 0
-10 -34 0
-10 -29 0
-10 -28 0
-10 -23 0
-10 -11 0
-9 -40 0
-9 -38 0
-9 -37 0
-9 -36 0
-9 -32 0
-9 -28 0
-9 -27 0
-9 -25 0
-9 -22 0
-9 -17 0
-9 -11 0
-8 -40 0
-8 -31 0
-8 -24 0
-8 -23 0
-8 -22 0
-8 -21 0
-8 -20 0
-8 -14 0
-8 -12 0
-7 -38 0
-7 -34 0
-7 -33 0
-7 -32 0
-7 -30 0
-7 -24 0
-7 -21 0
-7 -19 0
-7 -18 0
-7 -15 0
-6 -42 0
-6 -38 0
-6 -35 0
-6 -33 0
-6 -30 0
-6 -29 0
-6 -28 0
-6 -21 0
-6 -10 0
-6 -7 0
-5 -42 0
-5 -35 0
-5 -31 0
-5 -29 0
-5 -28 0
-5 -24 0
-5 -22 0
-5 -10 0
-5 -8 0
-5 -6 0
-4 -41 0
-4 -34 0
-4 -31 0
-4 -30 0
-4 -25 0
-4 -23 0
-4 -16 0
-4 -13 0
-4 -11 0
-4 -10 0
-3 -39 0
-3 -34 0
-3 -33 0
-3 -27 0
-3 -26 0
-3 -23 0
-3 -11 0
-3 -10 0
-3 -4 0
-2 -42 0
-2 -39 0
-2 -36 0
-2 -33 0
-2 -27 0
-2 -26 0
-2 -18 0
-2 -13 0
-2 -12 0
-2 -3 0
-1 -39 0
-1 -33 0
-1 -31 0
-1 -27 0
-1 -26 0
-1 -24 0
-1 -22 0
-1 -8 0
-1 -5 0
-1 -3 0
-1 -2 0
1 5 8 22 24 31 0
2 12 13 18 36 42 0
3 4 10 11 23 34 0
6 7 21 30 33 38 0
9 25 27 28 32 40 0
14 15 35 37 39 41 0
16 17 19 20 26 29 0
