p cnf 30 141
-27 -29 0
-25 -30 0
-25 -26 0
-24 -26 0
-24 -25 0
-23 -30 0
-23 -28 0
-22 -28 0
-22 -23 0
-21 -28 0
-21 -27 0
-21 -23 0
-21 -22 0
-20 -26 0
-20 -22 0
-19 -28 0
-19 -24 0
-18 -29 0
-18 -28 0
-18 -27 0
-18 -19 0
-17 -28 0
-17 -26 0
-17 -25 0
-17 -24 0
-17 -23 0
-17 -22 0
-17 -21 0
-16 -29 0
-16 -27 0
-16 -26 0
-16 -25 0
-16 -24 0
-16 -18 0
-16 -17 0
-15 -28 0
-15 -26 0
-15 -20 0
-15 -19 0
-15 -18 0
-14 -30 0
-14 -26 0
-14 -23 0
-14 -20 0
-14 -15 0
-13 -29 0
-13 -26 0
-13 -20 0
-13 -15 0
-13 -14 0
-12 -27 0
-12 -26 0
-12 -21 0
-12 -20 0
-12 -15 0
-12 -14 0
-12 -13 0
-11 -29 0
-11 -28 0
-11 -23 0
-11 -22 0
-11 -21 0
-11 -17 0
-11 -13 0
-10 -30 0
-10 -25 0
-10 -22 0
-10 -20 0
-9 -24 0
-9 -22 0
-9 -20 0
-9 -19 0
-9 -10 0
-8 -30 0
-8 -24 0
-8 -23 0
-8 -19 0
-8 -14 0
-8 -9 0
-7 -30 0
-7 -28 0
-7 -25 0
-7 -19 0
-7 -18 0
-7 -15 0
-7 -10 0
-6 -29 0
-6 -24 0
-6 -19 0
-6 -13 0
-6 -11 0
-6 -9 0
-6 -8 0
-5 -29 0
-5 -27 0
-5 -22 0
-5 -20 0
-5 -18 0
-5 -16 0
-5 -10 0
-5 -9 0
-4 -30 0
-4 -29 0
-4 -25 0
-4 -13 0
-4 -11 0
-4 -10 0
-4 -7 0
-4 -6 0
-3 -30 0
-3 -27 0
-3 -25 0
-3 -21 0
-3 -12 0
-3 -10 0
-3 -7 0
-3 -4 0
-2 -30 0
-2 -29 0
-2 -27 0
-2 -23 0
-2 -18 0
-2 -16 0
-2 -14 0
-2 -8 0
-2 -5 0
-1 -27 0
-1 -24 0
-1 -21 0
-1 -19 0
-1 -12 0
-1 -9 0
-1 -8 0
-1 -6 0
-1 -3 0
1 3 12 21 27 0
2 8 14 23 30 0
4 6 11 13 29 0
5 9 10 20 22 0
7 15 18 19 28 0
16 17 24 25 26 0
