p cnf 20 75
-18 -20 0
-17 -20 0
-17 -18 0
-16 -20 0
-15 -20 0
-15 -18 0
-15 -17 0
-14 -20 0
-14 -19 0
-14 -18 0
-14 -17 0
-14 -15 0
-13 -19 0
-13 -16 0
-13 -14 0
-12 -18 0
-12 -16 0
-12 -13 0
-11 -19 0
-11 -17 0
-10 -19 0
-10 -15 0
-10 -11 0
-9 -19 0
-9 -18 0
-9 -12 0
-9 -11 0
-9 -10 0
-8 -20 0
-8 -16 0
-7 -17 0
-7 -16 0
-7 -13 0
-7 -12 0
-7 -11 0
-6 -17 0
-6 -11 0
-6 -8 0
-6 -7 0
-5 -20 0
-5 -19 0
-5 -16 0
-5 -11 0
-5 -10 0
-5 -9 0
-5 -8 0
-4 -16 0
-4 -15 0
-4 -13 0
-4 -12 0
-4 -10 0
-4 -7 0
-3 -18 0
-3 -12 0
-3 -9 0
-3 -8 0
-3 -6 0
-2 -19 0
-2 -14 0
-2 -13 0
-2 -8 0
-2 -6 0
-2 -3 0
-1 -15 0
-1 -10 0
-1 -8 0
-1 -6 0
-1 -4 0
-1 -3 0
-1 -2 0
1 4 10 15 0
2 13 14 19 0
3 9 12 18 0
5 8 16 20 0
6 7 11 17 0
