p cnf 90 775
-89 -90 0
-88 -90 0
-88 -89 0
-86 -90 0
-85 -89 0
-83 -89 0
-83 -87 0
-83 -85 0
-82 -89 0
-82 -85 0
-82 -83 0
-81 -87 0
-81 -83 0
-80 -82 0
-80 -81 0
-79 -86 0
-79 -81 0
-79 -80 0
-78 -88 0
-77 -89 0
-77 -85 0
-77 -83 0
-77 -82 0
-75 -84 0
-74 -84 0
-74 -81 0
-74 -80 0
-74 -79 0
-73 -87 0
-73 -77 0
-72 -87 0
-72 -86 0
-72 -79 0
-72 -73 0
-71 -90 0
-71 -86 0
-71 -85 0
-70 -84 0
-70 -77 0
-70 -75 0
-70 -73 0
-69 -90 0
-69 -89 0
-69 -88 0
-68 -84 0
-68 -74 0
-67 -89 0
-67 -85 0
-67 -83 0
-67 -82 0
-67 -78 0
-67 -77 0
-66 -85 0
-66 -84 0
-66 -75 0
-66 -71 0
-66 -70 0
-65 -81 0
-65 -80 0
-65 -79 0
-65 -75 0
-65 -74 0
-64 -90 0
-64 -86 0
-64 -76 0
-64 -71 0
-63 -88 0
-63 -78 0
-63 -76 0
-63 -64 0
-62 -88 0
-62 -82 0
-62 -80 0
-62 -78 0
-62 -63 0
-61 -75 0
-61 -68 0
-61 -65 0
-60 -89 0
-60 -86 0
-60 -85 0
-60 -83 0
-60 -82 0
-60 -79 0
-60 -77 0
-60 -72 0
-60 -67 0
-59 -90 0
-59 -89 0
-59 -88 0
-59 -84 0
-59 -75 0
-59 -70 0
-59 -69 0
-59 -66 0
-58 -89 0
-58 -85 0
-58 -84 0
-58 -83 0
-58 -82 0
-58 -77 0
-58 -74 0
-58 -68 0
-58 -67 0
-58 -60 0
-57 -77 0
-57 -73 0
-57 -70 0
-57 -68 0
-57 -61 0
-56 -84 0
-56 -74 0
-56 -69 0
-56 -68 0
-56 -58 0
-55 -87 0
-55 -83 0
-55 -81 0
-55 -69 0
-55 -56 0
-54 -87 0
-54 -84 0
-54 -74 0
-54 -73 0
-54 -72 0
-54 -68 0
-54 -58 0
-54 -56 0
-53 -82 0
-53 -80 0
-53 -69 0
-53 -62 0
-53 -56 0
-53 -55 0
-52 -78 0
-52 -69 0
-52 -67 0
-52 -56 0
-52 -55 0
-52 -53 0
-51 -88 0
-51 -86 0
-51 -79 0
-51 -78 0
-51 -72 0
-51 -63 0
-51 -62 0
-51 -60 0
-50 -81 0
-50 -80 0
-50 -79 0
-50 -76 0
-50 -74 0
-50 -65 0
-50 -64 0
-50 -63 0
-49 -85 0
-49 -76 0
-49 -71 0
-49 -66 0
-48 -77 0
-48 -73 0
-48 -70 0
-48 -69 0
-48 -57 0
-48 -56 0
-48 -55 0
-48 -53 0
-48 -52 0
-47 -78 0
-47 -76 0
-47 -67 0
-47 -52 0
-47 -49 0
-46 -76 0
-46 -69 0
-46 -64 0
-46 -63 0
-46 -56 0
-46 -55 0
-46 -53 0
-46 -52 0
-46 -50 0
-46 -48 0
-45 -87 0
-45 -75 0
-45 -73 0
-45 -72 0
-45 -65 0
-45 -61 0
-45 -54 0
-44 -76 0
-44 -68 0
-44 -64 0
-44 -63 0
-44 -61 0
-44 -57 0
-44 -50 0
-44 -46 0
-43 -90 0
-43 -86 0
-43 -78 0
-43 -71 0
-43 -67 0
-43 -64 0
-43 -52 0
-43 -47 0
-42 -90 0
-42 -89 0
-42 -88 0
-42 -81 0
-42 -80 0
-42 -79 0
-42 -74 0
-42 -69 0
-42 -65 0
-42 -59 0
-42 -50 0
-41 -88 0
-41 -78 0
-41 -75 0
-41 -65 0
-41 -63 0
-41 -62 0
-41 -61 0
-41 -51 0
-41 -45 0
-40 -89 0
-40 -85 0
-40 -83 0
-40 -82 0
-40 -77 0
-40 -75 0
-40 -67 0
-40 -65 0
-40 -61 0
-40 -60 0
-40 -58 0
-40 -45 0
-40 -41 0
-39 -84 0
-39 -76 0
-39 -74 0
-39 -68 0
-39 -58 0
-39 -56 0
-39 -54 0
-39 -49 0
-39 -47 0
-38 -84 0
-38 -82 0
-38 -80 0
-38 -75 0
-38 -70 0
-38 -66 0
-38 -62 0
-38 -59 0
-38 -53 0
-37 -90 0
-37 -89 0
-37 -88 0
-37 -69 0
-37 -68 0
-37 -61 0
-37 -59 0
-37 -57 0
-37 -44 0
-37 -42 0
-36 -78 0
-36 -68 0
-36 -67 0
-36 -61 0
-36 -57 0
-36 -52 0
-36 -47 0
-36 -44 0
-36 -43 0
-36 -37 0
-35 -90 0
-35 -86 0
-35 -77 0
-35 -73 0
-35 -71 0
-35 -70 0
-35 -64 0
-35 -57 0
-35 -48 0
-35 -43 0
-34 -82 0
-34 -80 0
-34 -68 0
-34 -62 0
-34 -61 0
-34 -57 0
-34 -53 0
-34 -44 0
-34 -38 0
-34 -37 0
-34 -36 0
-33 -85 0
-33 -81 0
-33 -80 0
-33 -79 0
-33 -74 0
-33 -71 0
-33 -66 0
-33 -65 0
-33 -50 0
-33 -49 0
-33 -42 0
-32 -82 0
-32 -80 0
-32 -76 0
-32 -62 0
-32 -53 0
-32 -49 0
-32 -47 0
-32 -39 0
-32 -38 0
-32 -34 0
-31 -81 0
-31 -80 0
-31 -79 0
-31 -78 0
-31 -74 0
-31 -67 0
-31 -65 0
-31 -52 0
-31 -50 0
-31 -47 0
-31 -43 0
-31 -42 0
-31 -36 0
-31 -33 0
-30 -90 0
-30 -89 0
-30 -88 0
-30 -87 0
-30 -73 0
-30 -72 0
-30 -69 0
-30 -59 0
-30 -54 0
-30 -45 0
-30 -42 0
-30 -37 0
-29 -86 0
-29 -84 0
-29 -79 0
-29 -75 0
-29 -72 0
-29 -70 0
-29 -66 0
-29 -60 0
-29 -59 0
-29 -51 0
-29 -38 0
-28 -87 0
-28 -78 0
-28 -73 0
-28 -72 0
-28 -67 0
-28 -54 0
-28 -52 0
-28 -47 0
-28 -45 0
-28 -43 0
-28 -36 0
-28 -31 0
-28 -30 0
-27 -81 0
-27 -80 0
-27 -79 0
-27 -77 0
-27 -74 0
-27 -73 0
-27 -70 0
-27 -65 0
-27 -57 0
-27 -50 0
-27 -48 0
-27 -42 0
-27 -35 0
-27 -33 0
-27 -31 0
-26 -88 0
-26 -78 0
-26 -77 0
-26 -73 0
-26 -70 0
-26 -63 0
-26 -62 0
-26 -57 0
-26 -51 0
-26 -48 0
-26 -41 0
-26 -35 0
-26 -27 0
-25 -90 0
-25 -86 0
-25 -82 0
-25 -80 0
-25 -71 0
-25 -64 0
-25 -62 0
-25 -53 0
-25 -43 0
-25 -38 0
-25 -35 0
-25 -34 0
-25 -32 0
-24 -87 0
-24 -84 0
-24 -83 0
-24 -81 0
-24 -75 0
-24 -70 0
-24 -66 0
-24 -59 0
-24 -55 0
-24 -38 0
-24 -29 0
-23 -90 0
-23 -89 0
-23 -88 0
-23 -76 0
-23 -69 0
-23 -59 0
-23 -49 0
-23 -47 0
-23 -42 0
-23 -39 0
-23 -37 0
-23 -32 0
-23 -30 0
-22 -87 0
-22 -82 0
-22 -80 0
-22 -73 0
-22 -72 0
-22 -62 0
-22 -54 0
-22 -53 0
-22 -45 0
-22 -38 0
-22 -34 0
-22 -32 0
-22 -30 0
-22 -28 0
-22 -25 0
-21 -85 0
-21 -71 0
-21 -69 0
-21 -66 0
-21 -56 0
-21 -55 0
-21 -53 0
-21 -52 0
-21 -49 0
-21 -48 0
-21 -46 0
-21 -33 0
-20 -87 0
-20 -76 0
-20 -73 0
-20 -72 0
-20 -64 0
-20 -63 0
-20 -54 0
-20 -50 0
-20 -46 0
-20 -45 0
-20 -44 0
-20 -30 0
-20 -28 0
-20 -22 0
-19 -76 0
-19 -75 0
-19 -65 0
-19 -61 0
-19 -49 0
-19 -47 0
-19 -45 0
-19 -41 0
-19 -40 0
-19 -39 0
-19 -32 0
-19 -23 0
-18 -77 0
-18 -76 0
-18 -73 0
-18 -70 0
-18 -57 0
-18 -49 0
-18 -48 0
-18 -47 0
-18 -39 0
-18 -35 0
-18 -32 0
-18 -27 0
-18 -26 0
-18 -23 0
-18 -19 0
-17 -90 0
-17 -87 0
-17 -86 0
-17 -83 0
-17 -81 0
-17 -71 0
-17 -64 0
-17 -55 0
-17 -43 0
-17 -35 0
-17 -25 0
-17 -24 0
-16 -90 0
-16 -86 0
-16 -75 0
-16 -71 0
-16 -65 0
-16 -64 0
-16 -61 0
-16 -45 0
-16 -43 0
-16 -41 0
-16 -40 0
-16 -35 0
-16 -25 0
-16 -19 0
-16 -17 0
-15 -87 0
-15 -83 0
-15 -81 0
-15 -76 0
-15 -55 0
-15 -49 0
-15 -47 0
-15 -39 0
-15 -32 0
-15 -24 0
-15 -23 0
-15 -19 0
-15 -18 0
-15 -17 0
-14 -84 0
-14 -76 0
-14 -75 0
-14 -70 0
-14 -66 0
-14 -64 0
-14 -63 0
-14 -59 0
-14 -50 0
-14 -46 0
-14 -44 0
-14 -38 0
-14 -29 0
-14 -24 0
-14 -20 0
-13 -88 0
-13 -84 0
-13 -78 0
-13 -74 0
-13 -68 0
-13 -63 0
-13 -62 0
-13 -58 0
-13 -56 0
-13 -54 0
-13 -51 0
-13 -41 0
-13 -39 0
-13 -26 0
-12 -88 0
-12 -85 0
-12 -78 0
-12 -71 0
-12 -66 0
-12 -63 0
-12 -62 0
-12 -51 0
-12 -49 0
-12 -41 0
-12 -33 0
-12 -26 0
-12 -21 0
-12 -13 0
-11 -88 0
-11 -87 0
-11 -83 0
-11 -81 0
-11 -78 0
-11 -63 0
-11 -62 0
-11 -55 0
-11 -51 0
-11 -41 0
-11 -26 0
-11 -24 0
-11 -17 0
-11 -15 0
-11 -13 0
-11 -12 0
-10 -89 0
-10 -85 0
-10 -83 0
-10 -82 0
-10 -77 0
-10 -76 0
-10 -67 0
-10 -64 0
-10 -63 0
-10 -60 0
-10 -58 0
-10 -50 0
-10 -46 0
-10 -44 0
-10 -40 0
-10 -20 0
-10 -14 0
-9 -86 0
-9 -79 0
-9 -76 0
-9 -72 0
-9 -60 0
-9 -51 0
-9 -49 0
-9 -47 0
-9 -39 0
-9 -32 0
-9 -29 0
-9 -23 0
-9 -19 0
-9 -18 0
-9 -15 0
-8 -85 0
-8 -71 0
-8 -68 0
-8 -66 0
-8 -61 0
-8 -57 0
-8 -49 0
-8 -44 0
-8 -37 0
-8 -36 0
-8 -34 0
-8 -33 0
-8 -21 0
-8 -12 0
-7 -90 0
-7 -86 0
-7 -84 0
-7 -74 0
-7 -71 0
-7 -68 0
-7 -64 0
-7 -58 0
-7 -56 0
-7 -54 0
-7 -43 0
-7 -39 0
-7 -35 0
-7 -25 0
-7 -17 0
-7 -16 0
-7 -13 0
-6 -87 0
-6 -83 0
-6 -81 0
-6 -68 0
-6 -61 0
-6 -57 0
-6 -55 0
-6 -44 0
-6 -37 0
-6 -36 0
-6 -34 0
-6 -24 0
-6 -17 0
-6 -15 0
-6 -11 0
-6 -8 0
-5 -75 0
-5 -69 0
-5 -65 0
-5 -61 0
-5 -56 0
-5 -55 0
-5 -53 0
-5 -52 0
-5 -48 0
-5 -46 0
-5 -45 0
-5 -41 0
-5 -40 0
-5 -21 0
-5 -19 0
-5 -16 0
-4 -86 0
-4 -79 0
-4 -72 0
-4 -69 0
-4 -60 0
-4 -56 0
-4 -55 0
-4 -53 0
-4 -52 0
-4 -51 0
-4 -48 0
-4 -46 0
-4 -29 0
-4 -21 0
-4 -9 0
-4 -5 0
-3 -84 0
-3 -78 0
-3 -75 0
-3 -70 0
-3 -67 0
-3 -66 0
-3 -59 0
-3 -52 0
-3 -47 0
-3 -43 0
-3 -38 0
-3 -36 0
-3 -31 0
-3 -29 0
-3 -28 0
-3 -24 0
-3 -14 0
-2 -87 0
-2 -85 0
-2 -73 0
-2 -72 0
-2 -71 0
-2 -66 0
-2 -54 0
-2 -49 0
-2 -45 0
-2 -33 0
-2 -30 0
-2 -28 0
-2 -22 0
-2 -21 0
-2 -20 0
-2 -12 0
-2 -8 0
-1 -86 0
-1 -79 0
-1 -72 0
-1 -68 0
-1 -61 0
-1 -60 0
-1 -57 0
-1 -51 0
-1 -44 0
-1 -37 0
-1 -36 0
-1 -34 0
-1 -29 0
-1 -9 0
-1 -8 0
-1 -6 0
-1 -4 0
1 4 9 29 51 60 72 79 86 0
2 8 12 21 33 49 66 71 85 0
3 28 31 36 43 47 52 67 78 0
5 16 19 40 41 45 61 65 75 0
6 11 15 17 24 55 81 83 87 0
7 13 39 54 56 58 68 74 84 0
10 14 20 44 46 50 63 64 76 0
18 26 27 35 48 57 70 73 77 0
22 25 32 34 38 53 62 80 82 0
23 30 37 42 59 69 88 89 90 0
