p cnf 132 1398
-131 -132 0
-128 -129 0
-125 -130 0
-125 -128 0
-124 -132 0
-122 -128 0
-122 -125 0
-121 -129 0
-121 -128 0
-120 -130 0
-120 -125 0
-120 -124 0
-119 -129 0
-118 -129 0
-118 -127 0
-118 -119 0
-117 -131 0
-117 -121 0
-116 -132 0
-116 -131 0
-116 -127 0
-116 -118 0
-115 -131 0
-115 -127 0
-115 -117 0
-114 -131 0
-114 -117 0
-114 -115 0
-113 -127 0
-113 -115 0
-112 -127 0
-112 -123 0
-112 -115 0
-112 -113 0
-111 -127 0
-111 -126 0
-111 -115 0
-111 -113 0
-111 -112 0
-110 -126 0
-110 -122 0
-109 -127 0
-109 -124 0
-109 -120 0
-109 -118 0
-109 -116 0
-108 -127 0
-108 -115 0
-108 -113 0
-108 -112 0
-108 -111 0
-107 -127 0
-107 -118 0
-107 -116 0
-107 -109 0
-106 -119 0
-106 -107 0
-105 -130 0
-105 -126 0
-105 -125 0
-105 -120 0
-105 -110 0
-104 -124 0
-104 -120 0
-104 -113 0
-104 -109 0
-103 -126 0
-103 -114 0
-103 -111 0
-102 -132 0
-102 -131 0
-102 -119 0
-102 -116 0
-102 -106 0
-101 -131 0
-101 -126 0
-101 -117 0
-101 -115 0
-101 -114 0
-101 -110 0
-101 -105 0
-100 -129 0
-100 -128 0
-100 -126 0
-100 -121 0
-100 -110 0
-100 -105 0
-100 -101 0
-99 -132 0
-99 -131 0
-99 -116 0
-99 -113 0
-99 -104 0
-99 -102 0
-98 -132 0
-98 -131 0
-98 -129 0
-98 -128 0
-98 -121 0
-98 -116 0
-98 -102 0
-98 -100 0
-98 -99 0
-97 -123 0
-97 -108 0
-96 -126 0
-96 -110 0
-96 -108 0
-96 -105 0
-96 -101 0
-96 -100 0
-96 -97 0
-95 -129 0
-95 -128 0
-95 -121 0
-95 -107 0
-95 -106 0
-95 -100 0
-95 -98 0
-94 -131 0
-94 -128 0
-94 -125 0
-94 -122 0
-94 -117 0
-94 -115 0
-94 -114 0
-94 -101 0
-93 -124 0
-93 -123 0
-93 -120 0
-93 -112 0
-93 -109 0
-93 -104 0
-92 -132 0
-92 -130 0
-92 -124 0
-91 -130 0
-91 -122 0
-91 -110 0
-91 -92 0
-90 -132 0
-90 -129 0
-90 -124 0
-90 -119 0
-90 -118 0
-90 -92 0
-89 -126 0
-89 -119 0
-89 -110 0
-89 -106 0
-89 -105 0
-89 -102 0
-89 -101 0
-89 -100 0
-89 -96 0
-88 -123 0
-88 -119 0
-88 -106 0
-88 -102 0
-88 -97 0
-88 -89 0
-87 -129 0
-87 -128 0
-87 -127 0
-87 -121 0
-87 -115 0
-87 -113 0
-87 -112 0
-87 -111 0
-87 -108 0
-87 -100 0
-87 -98 0
-87 -95 0
-86 -113 0
-86 -104 0
-86 -99 0
-85 -130 0
-85 -113 0
-85 -104 0
-85 -99 0
-85 -92 0
-85 -91 0
-85 -86 0
-84 -132 0
-84 -131 0
-84 -116 0
-84 -108 0
-84 -102 0
-84 -99 0
-84 -98 0
-84 -97 0
-84 -96 0
-83 -128 0
-83 -127 0
-83 -125 0
-83 -122 0
-83 -118 0
-83 -116 0
-83 -109 0
-83 -107 0
-83 -94 0
-82 -130 0
-82 -125 0
-82 -123 0
-82 -120 0
-82 -105 0
-82 -97 0
-82 -88 0
-81 -129 0
-81 -128 0
-81 -123 0
-81 -121 0
-81 -100 0
-81 -98 0
-81 -97 0
-81 -95 0
-81 -88 0
-81 -87 0
-81 -82 0
-80 -129 0
-80 -122 0
-80 -119 0
-80 -118 0
-80 -110 0
-80 -91 0
-80 -90 0
-79 -126 0
-79 -111 0
-79 -103 0
-79 -86 0
-78 -126 0
-78 -124 0
-78 -120 0
-78 -111 0
-78 -109 0
-78 -104 0
-78 -103 0
-78 -93 0
-78 -79 0
-77 -130 0
-77 -125 0
-77 -121 0
-77 -120 0
-77 -117 0
-77 -105 0
-77 -82 0
-76 -130 0
-76 -108 0
-76 -97 0
-76 -96 0
-76 -92 0
-76 -91 0
-76 -85 0
-76 -84 0
-75 -121 0
-75 -119 0
-75 -117 0
-75 -106 0
-75 -102 0
-75 -89 0
-75 -88 0
-75 -77 0
-74 -130 0
-74 -127 0
-74 -118 0
-74 -116 0
-74 -109 0
-74 -107 0
-74 -92 0
-74 -91 0
-74 -85 0
-74 -83 0
-74 -76 0
-73 -128 0
-73 -125 0
-73 -122 0
-73 -119 0
-73 -106 0
-73 -102 0
-73 -94 0
-73 -89 0
-73 -88 0
-73 -83 0
-73 -75 0
-72 -131 0
-72 -123 0
-72 -117 0
-72 -115 0
-72 -114 0
-72 -101 0
-72 -97 0
-72 -94 0
-72 -88 0
-72 -82 0
-72 -81 0
-71 -132 0
-71 -131 0
-71 -126 0
-71 -116 0
-71 -111 0
-71 -103 0
-71 -102 0
-71 -99 0
-71 -98 0
-71 -84 0
-71 -79 0
-71 -78 0
-70 -132 0
-70 -124 0
-70 -121 0
-70 -117 0
-70 -92 0
-70 -90 0
-70 -77 0
-70 -75 0
-69 -123 0
-69 -122 0
-69 -110 0
-69 -97 0
-69 -91 0
-69 -88 0
-69 -82 0
-69 -81 0
-69 -80 0
-69 -72 0
-68 -113 0
-68 -107 0
-68 -106 0
-68 -104 0
-68 -99 0
-68 -95 0
-68 -86 0
-68 -85 0
-67 -128 0
-67 -125 0
-67 -123 0
-67 -122 0
-67 -112 0
-67 -94 0
-67 -93 0
-67 -83 0
-67 -73 0
-66 -132 0
-66 -124 0
-66 -123 0
-66 -97 0
-66 -92 0
-66 -90 0
-66 -88 0
-66 -82 0
-66 -81 0
-66 -72 0
-66 -70 0
-66 -69 0
-65 -126 0
-65 -121 0
-65 -117 0
-65 -111 0
-65 -103 0
-65 -79 0
-65 -78 0
-65 -77 0
-65 -75 0
-65 -71 0
-65 -70 0
-64 -131 0
-64 -130 0
-64 -117 0
-64 -115 0
-64 -114 0
-64 -101 0
-64 -94 0
-64 -92 0
-64 -91 0
-64 -85 0
-64 -76 0
-64 -74 0
-64 -72 0
-63 -129 0
-63 -128 0
-63 -121 0
-63 -100 0
-63 -98 0
-63 -95 0
-63 -87 0
-63 -86 0
-63 -81 0
-63 -79 0
-62 -128 0
-62 -125 0
-62 -122 0
-62 -108 0
-62 -97 0
-62 -96 0
-62 -94 0
-62 -84 0
-62 -83 0
-62 -76 0
-62 -73 0
-62 -67 0
-61 -130 0
-61 -123 0
-61 -112 0
-61 -93 0
-61 -92 0
-61 -91 0
-61 -85 0
-61 -76 0
-61 -74 0
-61 -67 0
-61 -64 0
-60 -126 0
-60 -123 0
-60 -112 0
-60 -110 0
-60 -105 0
-60 -101 0
-60 -100 0
-60 -96 0
-60 -93 0
-60 -89 0
-60 -67 0
-60 -61 0
-59 -126 0
-59 -123 0
-59 -111 0
-59 -103 0
-59 -97 0
-59 -88 0
-59 -82 0
-59 -81 0
-59 -79 0
-59 -78 0
-59 -72 0
-59 -71 0
-59 -69 0
-59 -66 0
-59 -65 0
-58 -119 0
-58 -106 0
-58 -102 0
-58 -89 0
-58 -88 0
-58 -86 0
-58 -79 0
-58 -75 0
-58 -73 0
-58 -63 0
-57 -130 0
-57 -125 0
-57 -120 0
-57 -105 0
-57 -86 0
-57 -82 0
-57 -79 0
-57 -77 0
-57 -63 0
-57 -58 0
-56 -132 0
-56 -127 0
-56 -124 0
-56 -115 0
-56 -113 0
-56 -112 0
-56 -111 0
-56 -108 0
-56 -92 0
-56 -90 0
-56 -87 0
-56 -70 0
-56 -66 0
-55 -108 0
-55 -97 0
-55 -96 0
-55 -86 0
-55 -84 0
-55 -79 0
-55 -76 0
-55 -63 0
-55 -62 0
-55 -58 0
-55 -57 0
-54 -132 0
-54 -124 0
-54 -114 0
-54 -103 0
-54 -92 0
-54 -90 0
-54 -70 0
-54 -66 0
-54 -56 0
-53 -131 0
-53 -117 0
-53 -115 0
-53 -114 0
-53 -107 0
-53 -106 0
-53 -101 0
-53 -95 0
-53 -94 0
-53 -72 0
-53 -68 0
-53 -64 0
-52 -129 0
-52 -128 0
-52 -124 0
-52 -121 0
-52 -120 0
-52 -109 0
-52 -104 0
-52 -100 0
-52 -98 0
-52 -95 0
-52 -93 0
-52 -87 0
-52 -81 0
-52 -78 0
-52 -63 0
-51 -130 0
-51 -126 0
-51 -111 0
-51 -103 0
-51 -92 0
-51 -91 0
-51 -85 0
-51 -79 0
-51 -78 0
-51 -76 0
-51 -74 0
-51 -71 0
-51 -65 0
-51 -64 0
-51 -61 0
-51 -59 0
-50 -132 0
-50 -131 0
-50 -123 0
-50 -116 0
-50 -112 0
-50 -102 0
-50 -99 0
-50 -98 0
-50 -93 0
-50 -84 0
-50 -71 0
-50 -67 0
-50 -61 0
-50 -60 0
-49 -121 0
-49 -117 0
-49 -113 0
-49 -104 0
-49 -99 0
-49 -86 0
-49 -85 0
-49 -77 0
-49 -75 0
-49 -70 0
-49 -68 0
-49 -65 0
-48 -123 0
-48 -112 0
-48 -107 0
-48 -106 0
-48 -95 0
-48 -93 0
-48 -68 0
-48 -67 0
-48 -61 0
-48 -60 0
-48 -53 0
-48 -50 0
-47 -129 0
-47 -119 0
-47 -118 0
-47 -108 0
-47 -97 0
-47 -96 0
-47 -90 0
-47 -84 0
-47 -80 0
-47 -76 0
-47 -62 0
-47 -55 0
-46 -126 0
-46 -113 0
-46 -110 0
-46 -105 0
-46 -104 0
-46 -101 0
-46 -100 0
-46 -99 0
-46 -96 0
-46 -89 0
-46 -86 0
-46 -85 0
-46 -68 0
-46 -60 0
-46 -49 0
-45 -129 0
-45 -119 0
-45 -118 0
-45 -113 0
-45 -104 0
-45 -99 0
-45 -90 0
-45 -86 0
-45 -85 0
-45 -80 0
-45 -68 0
-45 -49 0
-45 -47 0
-45 -46 0
-44 -122 0
-44 -121 0
-44 -117 0
-44 -110 0
-44 -91 0
-44 -80 0
-44 -77 0
-44 -75 0
-44 -70 0
-44 -69 0
-44 -65 0
-44 -49 0
-43 -131 0
-43 -117 0
-43 -115 0
-43 -114 0
-43 -101 0
-43 -94 0
-43 -86 0
-43 -79 0
-43 -72 0
-43 -64 0
-43 -63 0
-43 -58 0
-43 -57 0
-43 -55 0
-43 -53 0
-42 -130 0
-42 -127 0
-42 -125 0
-42 -120 0
-42 -115 0
-42 -113 0
-42 -112 0
-42 -111 0
-42 -108 0
-42 -105 0
-42 -87 0
-42 -82 0
-42 -77 0
-42 -57 0
-42 -56 0
-41 -132 0
-41 -124 0
-41 -107 0
-41 -106 0
-41 -95 0
-41 -92 0
-41 -90 0
-41 -70 0
-41 -68 0
-41 -66 0
-41 -56 0
-41 -54 0
-41 -53 0
-41 -48 0
-40 -114 0
-40 -113 0
-40 -104 0
-40 -103 0
-40 -99 0
-40 -86 0
-40 -85 0
-40 -68 0
-40 -54 0
-40 -49 0
-40 -46 0
-40 -45 0
-39 -130 0
-39 -129 0
-39 -128 0
-39 -121 0
-39 -100 0
-39 -98 0
-39 -95 0
-39 -92 0
-39 -91 0
-39 -87 0
-39 -85 0
-39 -81 0
-39 -76 0
-39 -74 0
-39 -64 0
-39 -63 0
-39 -61 0
-39 -52 0
-39 -51 0
-38 -127 0
-38 -126 0
-38 -118 0
-38 -116 0
-38 -110 0
-38 -109 0
-38 -107 0
-38 -105 0
-38 -101 0
-38 -100 0
-38 -96 0
-38 -89 0
-38 -83 0
-38 -74 0
-38 -60 0
-38 -46 0
-37 -128 0
-37 -125 0
-37 -122 0
-37 -113 0
-37 -104 0
-37 -99 0
-37 -94 0
-37 -86 0
-37 -85 0
-37 -83 0
-37 -73 0
-37 -68 0
-37 -67 0
-37 -62 0
-37 -49 0
-37 -46 0
-37 -45 0
-37 -40 0
-36 -127 0
-36 -122 0
-36 -115 0
-36 -113 0
-36 -112 0
-36 -111 0
-36 -110 0
-36 -108 0
-36 -91 0
-36 -87 0
-36 -80 0
-36 -69 0
-36 -56 0
-36 -44 0
-36 -42 0
-35 -131 0
-35 -129 0
-35 -119 0
-35 -118 0
-35 -117 0
-35 -115 0
-35 -114 0
-35 -101 0
-35 -94 0
-35 -90 0
-35 -80 0
-35 -72 0
-35 -64 0
-35 -53 0
-35 -47 0
-35 -45 0
-35 -43 0
-34 -132 0
-34 -131 0
-34 -130 0
-34 -125 0
-34 -120 0
-34 -116 0
-34 -105 0
-34 -102 0
-34 -99 0
-34 -98 0
-34 -84 0
-34 -82 0
-34 -77 0
-34 -71 0
-34 -57 0
-34 -50 0
-34 -42 0
-33 -130 0
-33 -129 0
-33 -125 0
-33 -120 0
-33 -119 0
-33 -118 0
-33 -105 0
-33 -90 0
-33 -82 0
-33 -80 0
-33 -77 0
-33 -57 0
-33 -47 0
-33 -45 0
-33 -42 0
-33 -35 0
-33 -34 0
-32 -127 0
-32 -118 0
-32 -116 0
-32 -114 0
-32 -109 0
-32 -107 0
-32 -103 0
-32 -83 0
-32 -74 0
-32 -54 0
-32 -40 0
-32 -38 0
-31 -123 0
-31 -112 0
-31 -93 0
-31 -86 0
-31 -79 0
-31 -67 0
-31 -63 0
-31 -61 0
-31 -60 0
-31 -58 0
-31 -57 0
-31 -55 0
-31 -50 0
-31 -48 0
-31 -43 0
-30 -124 0
-30 -120 0
-30 -119 0
-30 -109 0
-30 -106 0
-30 -104 0
-30 -102 0
-30 -93 0
-30 -89 0
-30 -88 0
-30 -78 0
-30 -75 0
-30 -73 0
-30 -58 0
-30 -52 0
-29 -124 0
-29 -120 0
-29 -109 0
-29 -108 0
-29 -104 0
-29 -97 0
-29 -96 0
-29 -93 0
-29 -84 0
-29 -78 0
-29 -76 0
-29 -62 0
-29 -55 0
-29 -52 0
-29 -47 0
-29 -30 0
-28 -124 0
-28 -122 0
-28 -120 0
-28 -110 0
-28 -109 0
-28 -104 0
-28 -93 0
-28 -91 0
-28 -80 0
-28 -78 0
-28 -69 0
-28 -52 0
-28 -44 0
-28 -36 0
-28 -30 0
-28 -29 0
-27 -126 0
-27 -111 0
-27 -107 0
-27 -106 0
-27 -103 0
-27 -95 0
-27 -79 0
-27 -78 0
-27 -71 0
-27 -68 0
-27 -65 0
-27 -59 0
-27 -53 0
-27 -51 0
-27 -48 0
-27 -41 0
-26 -122 0
-26 -110 0
-26 -91 0
-26 -86 0
-26 -80 0
-26 -79 0
-26 -69 0
-26 -63 0
-26 -58 0
-26 -57 0
-26 -55 0
-26 -44 0
-26 -43 0
-26 -36 0
-26 -31 0
-26 -28 0
-25 -132 0
-25 -128 0
-25 -125 0
-25 -124 0
-25 -122 0
-25 -94 0
-25 -92 0
-25 -90 0
-25 -83 0
-25 -73 0
-25 -70 0
-25 -67 0
-25 -66 0
-25 -62 0
-25 -56 0
-25 -54 0
-25 -41 0
-25 -37 0
-24 -129 0
-24 -123 0
-24 -119 0
-24 -118 0
-24 -112 0
-24 -93 0
-24 -90 0
-24 -80 0
-24 -67 0
-24 -61 0
-24 -60 0
-24 -50 0
-24 -48 0
-24 -47 0
-24 -45 0
-24 -35 0
-24 -33 0
-24 -31 0
-23 -108 0
-23 -107 0
-23 -106 0
-23 -97 0
-23 -96 0
-23 -95 0
-23 -84 0
-23 -76 0
-23 -68 0
-23 -62 0
-23 -55 0
-23 -53 0
-23 -48 0
-23 -47 0
-23 -41 0
-23 -29 0
-23 -27 0
-22 -130 0
-22 -119 0
-22 -106 0
-22 -102 0
-22 -92 0
-22 -91 0
-22 -89 0
-22 -88 0
-22 -85 0
-22 -76 0
-22 -75 0
-22 -74 0
-22 -73 0
-22 -64 0
-22 -61 0
-22 -58 0
-22 -51 0
-22 -39 0
-22 -30 0
-21 -132 0
-21 -126 0
-21 -124 0
-21 -110 0
-21 -105 0
-21 -101 0
-21 -100 0
-21 -96 0
-21 -92 0
-21 -90 0
-21 -89 0
-21 -70 0
-21 -66 0
-21 -60 0
-21 -56 0
-21 -54 0
-21 -46 0
-21 -41 0
-21 -38 0
-21 -25 0
-20 -121 0
-20 -117 0
-20 -108 0
-20 -97 0
-20 -96 0
-20 -84 0
-20 -77 0
-20 -76 0
-20 -75 0
-20 -70 0
-20 -65 0
-20 -62 0
-20 -55 0
-20 -49 0
-20 -47 0
-20 -44 0
-20 -29 0
-20 -23 0
-19 -127 0
-19 -121 0
-19 -118 0
-19 -117 0
-19 -116 0
-19 -109 0
-19 -107 0
-19 -83 0
-19 -77 0
-19 -75 0
-19 -74 0
-19 -70 0
-19 -65 0
-19 -49 0
-19 -44 0
-19 -38 0
-19 -32 0
-19 -20 0
-18 -122 0
-18 -114 0
-18 -110 0
-18 -103 0
-18 -91 0
-18 -80 0
-18 -69 0
-18 -54 0
-18 -44 0
-18 -40 0
-18 -36 0
-18 -32 0
-18 -28 0
-18 -26 0
-17 -123 0
-17 -114 0
-17 -112 0
-17 -103 0
-17 -93 0
-17 -67 0
-17 -61 0
-17 -60 0
-17 -54 0
-17 -50 0
-17 -48 0
-17 -40 0
-17 -32 0
-17 -31 0
-17 -24 0
-17 -18 0
-16 -131 0
-16 -124 0
-16 -120 0
-16 -117 0
-16 -115 0
-16 -114 0
-16 -109 0
-16 -104 0
-16 -101 0
-16 -94 0
-16 -93 0
-16 -78 0
-16 -72 0
-16 -64 0
-16 -53 0
-16 -52 0
-16 -43 0
-16 -35 0
-16 -30 0
-16 -29 0
-16 -28 0
-15 -122 0
-15 -110 0
-15 -107 0
-15 -106 0
-15 -95 0
-15 -91 0
-15 -80 0
-15 -69 0
-15 -68 0
-15 -53 0
-15 -48 0
-15 -44 0
-15 -41 0
-15 -36 0
-15 -28 0
-15 -27 0
-15 -26 0
-15 -23 0
-15 -18 0
-14 -132 0
-14 -131 0
-14 -122 0
-14 -116 0
-14 -110 0
-14 -102 0
-14 -99 0
-14 -98 0
-14 -91 0
-14 -84 0
-14 -80 0
-14 -71 0
-14 -69 0
-14 -50 0
-14 -44 0
-14 -36 0
-14 -34 0
-14 -28 0
-14 -26 0
-14 -18 0
-14 -15 0
-13 -127 0
-13 -119 0
-13 -115 0
-13 -113 0
-13 -112 0
-13 -111 0
-13 -108 0
-13 -106 0
-13 -102 0
-13 -89 0
-13 -88 0
-13 -87 0
-13 -75 0
-13 -73 0
-13 -58 0
-13 -56 0
-13 -42 0
-13 -36 0
-13 -30 0
-13 -22 0
-12 -119 0
-12 -114 0
-12 -106 0
-12 -103 0
-12 -102 0
-12 -89 0
-12 -88 0
-12 -75 0
-12 -73 0
-12 -58 0
-12 -54 0
-12 -40 0
-12 -32 0
-12 -30 0
-12 -22 0
-12 -18 0
-12 -17 0
-12 -13 0
-11 -130 0
-11 -125 0
-11 -120 0
-11 -107 0
-11 -106 0
-11 -105 0
-11 -95 0
-11 -82 0
-11 -77 0
-11 -68 0
-11 -57 0
-11 -53 0
-11 -48 0
-11 -42 0
-11 -41 0
-11 -34 0
-11 -33 0
-11 -27 0
-11 -23 0
-11 -15 0
-10 -123 0
-10 -113 0
-10 -104 0
-10 -99 0
-10 -97 0
-10 -88 0
-10 -86 0
-10 -85 0
-10 -82 0
-10 -81 0
-10 -72 0
-10 -69 0
-10 -68 0
-10 -66 0
-10 -59 0
-10 -49 0
-10 -46 0
-10 -45 0
-10 -40 0
-10 -37 0
-9 -130 0
-9 -125 0
-9 -120 0
-9 -114 0
-9 -105 0
-9 -103 0
-9 -82 0
-9 -77 0
-9 -57 0
-9 -54 0
-9 -42 0
-9 -40 0
-9 -34 0
-9 -33 0
-9 -32 0
-9 -18 0
-9 -17 0
-9 -12 0
-9 -11 0
-8 -114 0
-8 -108 0
-8 -103 0
-8 -97 0
-8 -96 0
-8 -84 0
-8 -76 0
-8 -62 0
-8 -55 0
-8 -54 0
-8 -47 0
-8 -40 0
-8 -32 0
-8 -29 0
-8 -23 0
-8 -20 0
-8 -18 0
-8 -17 0
-8 -12 0
-8 -9 0
-7 -129 0
-7 -128 0
-7 -121 0
-7 -114 0
-7 -103 0
-7 -100 0
-7 -98 0
-7 -95 0
-7 -87 0
-7 -81 0
-7 -63 0
-7 -54 0
-7 -52 0
-7 -40 0
-7 -39 0
-7 -32 0
-7 -18 0
-7 -17 0
-7 -12 0
-7 -9 0
-7 -8 0
-6 -127 0
-6 -118 0
-6 -116 0
-6 -109 0
-6 -107 0
-6 -86 0
-6 -83 0
-6 -79 0
-6 -74 0
-6 -63 0
-6 -58 0
-6 -57 0
-6 -55 0
-6 -43 0
-6 -38 0
-6 -32 0
-6 -31 0
-6 -26 0
-6 -19 0
-5 -129 0
-5 -126 0
-5 -119 0
-5 -118 0
-5 -111 0
-5 -103 0
-5 -90 0
-5 -80 0
-5 -79 0
-5 -78 0
-5 -71 0
-5 -65 0
-5 -59 0
-5 -51 0
-5 -47 0
-5 -45 0
-5 -35 0
-5 -33 0
-5 -27 0
-5 -24 0
-4 -123 0
-4 -121 0
-4 -117 0
-4 -112 0
-4 -93 0
-4 -77 0
-4 -75 0
-4 -70 0
-4 -67 0
-4 -65 0
-4 -61 0
-4 -60 0
-4 -50 0
-4 -49 0
-4 -48 0
-4 -44 0
-4 -31 0
-4 -24 0
-4 -20 0
-4 -19 0
-4 -17 0
-3 -128 0
-3 -126 0
-3 -125 0
-3 -122 0
-3 -111 0
-3 -103 0
-3 -94 0
-3 -83 0
-3 -79 0
-3 -78 0
-3 -73 0
-3 -71 0
-3 -67 0
-3 -65 0
-3 -62 0
-3 -59 0
-3 -51 0
-3 -37 0
-3 -27 0
-3 -25 0
-3 -5 0
-2 -127 0
-2 -123 0
-2 -118 0
-2 -116 0
-2 -109 0
-2 -107 0
-2 -97 0
-2 -88 0
-2 -83 0
-2 -82 0
-2 -81 0
-2 -74 0
-2 -72 0
-2 -69 0
-2 -66 0
-2 -59 0
-2 -38 0
-2 -32 0
-2 -19 0
-2 -10 0
-2 -6 0
-1 -132 0
-1 -124 0
-1 -92 0
-1 -90 0
-1 -86 0
-1 -79 0
-1 -70 0
-1 -66 0
-1 -63 0
-1 -58 0
-1 -57 0
-1 -56 0
-1 -55 0
-1 -54 0
-1 -43 0
-1 -41 0
-1 -31 0
-1 -26 0
-1 -25 0
-1 -21 0
-1 -6 0
1 6 26 31 43 55 57 58 63 79 86 0
2 10 59 66 69 72 81 82 88 97 123 0
3 25 37 62 67 73 83 94 122 125 128 0
4 19 20 44 49 65 70 75 77 117 121 0
5 24 33 35 45 47 80 90 118 119 129 0
7 8 9 12 17 18 32 40 54 103 114 0
11 15 23 27 41 48 53 68 95 106 107 0
13 36 42 56 87 108 111 112 113 115 127 0
14 34 50 71 84 98 99 102 116 131 132 0
16 28 29 30 52 78 93 104 109 120 124 0
21 38 46 60 89 96 100 101 105 110 126 0
22 39 51 61 64 74 76 85 91 92 130 0
