p cnf 90 775
-86 -90 0
-85 -86 0
-84 -90 0
-83 -88 0
-83 -85 0
-82 -89 0
-82 -85 0
-82 -83 0
-81 -89 0
-81 -87 0
-80 -90 0
-80 -86 0
-79 -88 0
-78 -89 0
-78 -82 0
-77 -90 0
-77 -84 0
-77 -78 0
-76 -87 0
-76 -85 0
-76 -83 0
-76 -82 0
-76 -81 0
-75 -88 0
-75 -79 0
-74 -80 0
-73 -79 0
-73 -78 0
-73 -77 0
-72 -87 0
-72 -81 0
-72 -76 0
-71 -79 0
-71 -73 0
-71 -72 0
-70 -89 0
-70 -87 0
-70 -82 0
-70 -78 0
-69 -86 0
-69 -85 0
-69 -74 0
-68 -88 0
-68 -83 0
-68 -74 0
-68 -69 0
-67 -80 0
-67 -78 0
-67 -77 0
-67 -74 0
-67 -73 0
-66 -90 0
-66 -89 0
-66 -84 0
-66 -81 0
-66 -77 0
-65 -86 0
-65 -85 0
-65 -84 0
-65 -69 0
-64 -86 0
-64 -85 0
-64 -69 0
-64 -65 0
-63 -87 0
-63 -81 0
-63 -78 0
-63 -77 0
-63 -76 0
-63 -73 0
-63 -72 0
-63 -67 0
-62 -84 0
-62 -75 0
-62 -65 0
-61 -88 0
-61 -83 0
-61 -78 0
-61 -77 0
-61 -73 0
-61 -68 0
-61 -67 0
-61 -63 0
-60 -79 0
-60 -73 0
-60 -71 0
-60 -64 0
-59 -75 0
-59 -64 0
-59 -62 0
-59 -60 0
-58 -85 0
-58 -83 0
-58 -82 0
-58 -76 0
-57 -87 0
-57 -86 0
-57 -85 0
-57 -70 0
-57 -69 0
-57 -65 0
-57 -64 0
-56 -84 0
-56 -79 0
-56 -73 0
-56 -71 0
-56 -65 0
-56 -62 0
-56 -60 0
-55 -88 0
-55 -86 0
-55 -85 0
-55 -79 0
-55 -75 0
-55 -69 0
-55 -65 0
-55 -64 0
-55 -57 0
-54 -86 0
-54 -85 0
-54 -72 0
-54 -71 0
-54 -69 0
-54 -65 0
-54 -64 0
-54 -57 0
-54 -55 0
-53 -89 0
-53 -82 0
-53 -78 0
-53 -72 0
-53 -71 0
-53 -70 0
-53 -54 0
-52 -89 0
-52 -81 0
-52 -80 0
-52 -74 0
-52 -67 0
-52 -66 0
-51 -72 0
-51 -71 0
-51 -58 0
-51 -54 0
-51 -53 0
-50 -88 0
-50 -83 0
-50 -68 0
-50 -64 0
-50 -61 0
-50 -60 0
-50 -59 0
-49 -90 0
-49 -86 0
-49 -80 0
-49 -75 0
-49 -62 0
-49 -59 0
-48 -87 0
-48 -81 0
-48 -76 0
-48 -72 0
-48 -64 0
-48 -63 0
-48 -60 0
-48 -59 0
-48 -50 0
-47 -84 0
-47 -80 0
-47 -74 0
-47 -67 0
-47 -65 0
-47 -62 0
-47 -56 0
-47 -52 0
-46 -87 0
-46 -84 0
-46 -81 0
-46 -76 0
-46 -72 0
-46 -65 0
-46 -63 0
-46 -62 0
-46 -56 0
-46 -48 0
-46 -47 0
-45 -84 0
-45 -65 0
-45 -62 0
-45 -58 0
-45 -56 0
-45 -51 0
-45 -47 0
-45 -46 0
-44 -90 0
-44 -89 0
-44 -86 0
-44 -82 0
-44 -80 0
-44 -78 0
-44 -70 0
-44 -53 0
-44 -49 0
-43 -89 0
-43 -81 0
-43 -79 0
-43 -73 0
-43 -71 0
-43 -66 0
-43 -60 0
-43 -56 0
-43 -52 0
-42 -85 0
-42 -83 0
-42 -82 0
-42 -79 0
-42 -76 0
-42 -73 0
-42 -71 0
-42 -60 0
-42 -58 0
-42 -56 0
-42 -43 0
-41 -90 0
-41 -84 0
-41 -77 0
-41 -66 0
-41 -64 0
-41 -60 0
-41 -59 0
-41 -50 0
-41 -48 0
-40 -89 0
-40 -86 0
-40 -85 0
-40 -81 0
-40 -69 0
-40 -66 0
-40 -65 0
-40 -64 0
-40 -57 0
-40 -55 0
-40 -54 0
-40 -52 0
-40 -43 0
-39 -79 0
-39 -74 0
-39 -73 0
-39 -71 0
-39 -69 0
-39 -68 0
-39 -60 0
-39 -56 0
-39 -43 0
-39 -42 0
-38 -90 0
-38 -88 0
-38 -84 0
-38 -79 0
-38 -77 0
-38 -75 0
-38 -66 0
-38 -55 0
-38 -41 0
-37 -88 0
-37 -87 0
-37 -81 0
-37 -79 0
-37 -76 0
-37 -75 0
-37 -72 0
-37 -63 0
-37 -55 0
-37 -48 0
-37 -46 0
-37 -38 0
-36 -80 0
-36 -74 0
-36 -67 0
-36 -64 0
-36 -60 0
-36 -59 0
-36 -52 0
-36 -50 0
-36 -48 0
-36 -47 0
-36 -41 0
-35 -90 0
-35 -86 0
-35 -80 0
-35 -58 0
-35 -51 0
-35 -49 0
-35 -45 0
-35 -44 0
-34 -85 0
-34 -83 0
-34 -82 0
-34 -80 0
-34 -76 0
-34 -74 0
-34 -67 0
-34 -58 0
-34 -52 0
-34 -47 0
-34 -42 0
-34 -36 0
-33 -85 0
-33 -83 0
-33 -82 0
-33 -76 0
-33 -75 0
-33 -62 0
-33 -59 0
-33 -58 0
-33 -49 0
-33 -42 0
-33 -34 0
-32 -80 0
-32 -74 0
-32 -72 0
-32 -71 0
-32 -67 0
-32 -54 0
-32 -53 0
-32 -52 0
-32 -51 0
-32 -47 0
-32 -36 0
-32 -34 0
-31 -87 0
-31 -70 0
-31 -58 0
-31 -57 0
-31 -51 0
-31 -45 0
-31 -35 0
-30 -88 0
-30 -83 0
-30 -72 0
-30 -71 0
-30 -68 0
-30 -61 0
-30 -54 0
-30 -53 0
-30 -51 0
-30 -50 0
-30 -32 0
-29 -89 0
-29 -88 0
-29 -82 0
-29 -79 0
-29 -78 0
-29 -75 0
-29 -70 0
-29 -55 0
-29 -53 0
-29 -44 0
-29 -38 0
-29 -37 0
-28 -87 0
-28 -75 0
-28 -70 0
-28 -62 0
-28 -59 0
-28 -57 0
-28 -49 0
-28 -33 0
-28 -31 0
-27 -89 0
-27 -81 0
-27 -66 0
-27 -58 0
-27 -52 0
-27 -51 0
-27 -45 0
-27 -43 0
-27 -40 0
-27 -35 0
-27 -31 0
-26 -78 0
-26 -77 0
-26 -73 0
-26 -67 0
-26 -63 0
-26 -61 0
-26 -58 0
-26 -51 0
-26 -45 0
-26 -35 0
-26 -31 0
-26 -27 0
-25 -89 0
-25 -81 0
-25 -75 0
-25 -66 0
-25 -62 0
-25 -59 0
-25 -52 0
-25 -49 0
-25 -43 0
-25 -40 0
-25 -33 0
-25 -28 0
-25 -27 0
-24 -89 0
-24 -82 0
-24 -78 0
-24 -70 0
-24 -64 0
-24 -60 0
-24 -59 0
-24 -53 0
-24 -50 0
-24 -48 0
-24 -44 0
-24 -41 0
-24 -36 0
-24 -29 0
-23 -87 0
-23 -81 0
-23 -76 0
-23 -74 0
-23 -72 0
-23 -69 0
-23 -68 0
-23 -63 0
-23 -48 0
-23 -46 0
-23 -39 0
-23 -37 0
-22 -90 0
-22 -84 0
-22 -77 0
-22 -72 0
-22 -71 0
-22 -66 0
-22 -54 0
-22 -53 0
-22 -51 0
-22 -41 0
-22 -38 0
-22 -32 0
-22 -30 0
-21 -86 0
-21 -85 0
-21 -78 0
-21 -77 0
-21 -73 0
-21 -69 0
-21 -67 0
-21 -65 0
-21 -64 0
-21 -63 0
-21 -61 0
-21 -57 0
-21 -55 0
-21 -54 0
-21 -40 0
-21 -26 0
-20 -88 0
-20 -80 0
-20 -79 0
-20 -75 0
-20 -74 0
-20 -67 0
-20 -55 0
-20 -52 0
-20 -47 0
-20 -38 0
-20 -37 0
-20 -36 0
-20 -34 0
-20 -32 0
-20 -29 0
-19 -90 0
-19 -87 0
-19 -84 0
-19 -77 0
-19 -70 0
-19 -66 0
-19 -57 0
-19 -41 0
-19 -38 0
-19 -31 0
-19 -28 0
-19 -22 0
-18 -90 0
-18 -84 0
-18 -77 0
-18 -74 0
-18 -69 0
-18 -68 0
-18 -66 0
-18 -41 0
-18 -39 0
-18 -38 0
-18 -23 0
-18 -22 0
-18 -19 0
-17 -75 0
-17 -72 0
-17 -71 0
-17 -62 0
-17 -59 0
-17 -54 0
-17 -53 0
-17 -51 0
-17 -49 0
-17 -33 0
-17 -32 0
-17 -30 0
-17 -28 0
-17 -25 0
-17 -22 0
-16 -64 0
-16 -60 0
-16 -59 0
-16 -58 0
-16 -51 0
-16 -50 0
-16 -48 0
-16 -45 0
-16 -41 0
-16 -36 0
-16 -35 0
-16 -31 0
-16 -27 0
-16 -26 0
-16 -24 0
-15 -90 0
-15 -88 0
-15 -86 0
-15 -83 0
-15 -80 0
-15 -68 0
-15 -61 0
-15 -50 0
-15 -49 0
-15 -44 0
-15 -35 0
-15 -30 0
-14 -89 0
-14 -84 0
-14 -82 0
-14 -78 0
-14 -70 0
-14 -65 0
-14 -62 0
-14 -56 0
-14 -53 0
-14 -47 0
-14 -46 0
-14 -45 0
-14 -44 0
-14 -29 0
-14 -24 0
-13 -88 0
-13 -84 0
-13 -83 0
-13 -68 0
-13 -65 0
-13 -62 0
-13 -61 0
-13 -56 0
-13 -50 0
-13 -47 0
-13 -46 0
-13 -45 0
-13 -30 0
-13 -15 0
-13 -14 0
-12 -90 0
-12 -87 0
-12 -86 0
-12 -81 0
-12 -80 0
-12 -76 0
-12 -72 0
-12 -63 0
-12 -49 0
-12 -48 0
-12 -46 0
-12 -44 0
-12 -37 0
-12 -35 0
-12 -23 0
-12 -15 0
-11 -88 0
-11 -79 0
-11 -75 0
-11 -58 0
-11 -55 0
-11 -51 0
-11 -45 0
-11 -38 0
-11 -37 0
-11 -35 0
-11 -31 0
-11 -29 0
-11 -27 0
-11 -26 0
-11 -20 0
-11 -16 0
-10 -89 0
-10 -88 0
-10 -83 0
-10 -81 0
-10 -68 0
-10 -66 0
-10 -61 0
-10 -52 0
-10 -50 0
-10 -43 0
-10 -40 0
-10 -30 0
-10 -27 0
-10 -25 0
-10 -15 0
-10 -13 0
-9 -90 0
-9 -86 0
-9 -80 0
-9 -79 0
-9 -73 0
-9 -71 0
-9 -60 0
-9 -56 0
-9 -49 0
-9 -44 0
-9 -43 0
-9 -42 0
-9 -39 0
-9 -35 0
-9 -15 0
-9 -12 0
-8 -90 0
-8 -85 0
-8 -84 0
-8 -83 0
-8 -82 0
-8 -77 0
-8 -76 0
-8 -66 0
-8 -58 0
-8 -42 0
-8 -41 0
-8 -38 0
-8 -34 0
-8 -33 0
-8 -22 0
-8 -19 0
-8 -18 0
-7 -75 0
-7 -74 0
-7 -69 0
-7 -68 0
-7 -62 0
-7 -59 0
-7 -49 0
-7 -39 0
-7 -33 0
-7 -28 0
-7 -25 0
-7 -23 0
-7 -18 0
-7 -17 0
-6 -89 0
-6 -82 0
-6 -78 0
-6 -74 0
-6 -70 0
-6 -69 0
-6 -68 0
-6 -53 0
-6 -44 0
-6 -39 0
-6 -29 0
-6 -24 0
-6 -23 0
-6 -18 0
-6 -14 0
-6 -7 0
-5 -87 0
-5 -79 0
-5 -73 0
-5 -71 0
-5 -70 0
-5 -60 0
-5 -57 0
-5 -56 0
-5 -43 0
-5 -42 0
-5 -39 0
-5 -31 0
-5 -28 0
-5 -19 0
-5 -9 0
-4 -88 0
-4 -87 0
-4 -83 0
-4 -70 0
-4 -68 0
-4 -61 0
-4 -57 0
-4 -50 0
-4 -31 0
-4 -30 0
-4 -28 0
-4 -19 0
-4 -15 0
-4 -13 0
-4 -10 0
-4 -5 0
-3 -74 0
-3 -69 0
-3 -68 0
-3 -58 0
-3 -51 0
-3 -45 0
-3 -39 0
-3 -35 0
-3 -31 0
-3 -27 0
-3 -26 0
-3 -23 0
-3 -18 0
-3 -16 0
-3 -11 0
-3 -7 0
-3 -6 0
-2 -87 0
-2 -80 0
-2 -74 0
-2 -70 0
-2 -67 0
-2 -57 0
-2 -52 0
-2 -47 0
-2 -36 0
-2 -34 0
-2 -32 0
-2 -31 0
-2 -28 0
-2 -20 0
-2 -19 0
-2 -5 0
-2 -4 0
-1 -78 0
-1 -77 0
-1 -75 0
-1 -73 0
-1 -67 0
-1 -63 0
-1 -62 0
-1 -61 0
-1 -59 0
-1 -49 0
-1 -33 0
-1 -28 0
-1 -26 0
-1 -25 0
-1 -21 0
-1 -17 0
-1 -7 0
1 21 26 61 63 67 73 77 78 0
2 4 5 19 28 31 57 70 87 0
3 6 7 18 23 39 68 69 74 0
8 33 34 42 58 76 82 83 85 0
9 12 15 35 44 49 80 86 90 0
10 25 27 40 43 52 66 81 89 0
11 20 29 37 38 55 75 79 88 0
13 14 45 46 47 56 62 65 84 0
16 24 36 41 48 50 59 60 64 0
17 22 30 32 51 53 54 71 72 0
