p cnf 132 1398
-128 -131 0
-127 -130 0
-127 -129 0
-126 -129 0
-124 -130 0
-123 -125 0
-121 -132 0
-121 -130 0
-121 -127 0
-120 -131 0
-120 -130 0
-120 -128 0
-120 -127 0
-120 -121 0
-119 -132 0
-119 -125 0
-119 -123 0
-119 -121 0
-118 -132 0
-117 -125 0
-117 -123 0
-117 -119 0
-116 -131 0
-115 -129 0
-115 -126 0
-115 -125 0
-114 -122 0
-114 -116 0
-113 -129 0
-113 -126 0
-113 -123 0
-113 -115 0
-112 -132 0
-112 -130 0
-112 -124 0
-112 -118 0
-111 -125 0
-111 -124 0
-111 -115 0
-109 -132 0
-109 -125 0
-109 -118 0
-109 -115 0
-109 -112 0
-109 -111 0
-108 -131 0
-108 -122 0
-108 -116 0
-107 -132 0
-107 -121 0
-107 -119 0
-107 -110 0
-106 -128 0
-106 -110 0
-105 -124 0
-105 -116 0
-105 -114 0
-105 -111 0
-104 -130 0
-104 -127 0
-104 -121 0
-104 -120 0
-104 -110 0
-104 -106 0
-103 -117 0
-103 -110 0
-103 -107 0
-102 -129 0
-102 -126 0
-102 -115 0
-102 -113 0
-102 -110 0
-102 -106 0
-102 -104 0
-101 -126 0
-101 -125 0
-101 -123 0
-101 -119 0
-101 -117 0
-100 -130 0
-100 -127 0
-100 -121 0
-100 -120 0
-100 -116 0
-100 -114 0
-100 -105 0
-100 -104 0
-99 -130 0
-99 -128 0
-99 -124 0
-99 -112 0
-99 -106 0
-98 -130 0
-98 -125 0
-98 -124 0
-98 -123 0
-98 -119 0
-98 -117 0
-98 -112 0
-98 -101 0
-98 -99 0
-97 -132 0
-97 -122 0
-97 -121 0
-97 -119 0
-97 -114 0
-97 -107 0
-96 -122 0
-96 -117 0
-96 -114 0
-96 -103 0
-96 -97 0
-95 -131 0
-95 -126 0
-95 -116 0
-95 -108 0
-95 -101 0
-94 -131 0
-94 -116 0
-94 -110 0
-94 -108 0
-94 -106 0
-94 -104 0
-94 -102 0
-94 -95 0
-93 -130 0
-93 -124 0
-93 -112 0
-93 -110 0
-93 -107 0
-93 -103 0
-93 -99 0
-93 -98 0
-92 -128 0
-92 -126 0
-92 -106 0
-92 -101 0
-92 -99 0
-92 -95 0
-91 -129 0
-91 -127 0
-91 -124 0
-91 -111 0
-91 -105 0
-90 -132 0
-90 -123 0
-90 -118 0
-90 -113 0
-90 -112 0
-90 -109 0
-89 -126 0
-89 -122 0
-89 -114 0
-89 -101 0
-89 -97 0
-89 -96 0
-89 -95 0
-89 -92 0
-88 -132 0
-88 -122 0
-88 -118 0
-88 -112 0
-88 -109 0
-88 -108 0
-88 -90 0
-87 -131 0
-87 -128 0
-87 -125 0
-87 -123 0
-87 -120 0
-87 -119 0
-87 -117 0
-87 -101 0
-87 -98 0
-86 -128 0
-86 -117 0
-86 -106 0
-86 -103 0
-86 -99 0
-86 -96 0
-86 -92 0
-85 -130 0
-85 -127 0
-85 -125 0
-85 -121 0
-85 -120 0
-85 -115 0
-85 -111 0
-85 -109 0
-85 -104 0
-85 -100 0
-84 -130 0
-84 -127 0
-84 -122 0
-84 -121 0
-84 -120 0
-84 -108 0
-84 -104 0
-84 -100 0
-84 -88 0
-84 -85 0
-83 -122 0
-83 -110 0
-83 -108 0
-83 -107 0
-83 -103 0
-83 -93 0
-83 -88 0
-83 -84 0
-82 -131 0
-82 -128 0
-82 -124 0
-82 -120 0
-82 -111 0
-82 -105 0
-82 -91 0
-82 -87 0
-81 -129 0
-81 -127 0
-81 -91 0
-80 -131 0
-80 -125 0
-80 -116 0
-80 -115 0
-80 -111 0
-80 -109 0
-80 -108 0
-80 -95 0
-80 -94 0
-80 -85 0
-79 -132 0
-79 -131 0
-79 -128 0
-79 -120 0
-79 -118 0
-79 -112 0
-79 -109 0
-79 -90 0
-79 -88 0
-79 -87 0
-79 -82 0
-78 -132 0
-78 -121 0
-78 -119 0
-78 -107 0
-78 -97 0
-77 -131 0
-77 -129 0
-77 -127 0
-77 -116 0
-77 -108 0
-77 -95 0
-77 -94 0
-77 -91 0
-77 -81 0
-77 -80 0
-76 -125 0
-76 -122 0
-76 -115 0
-76 -114 0
-76 -111 0
-76 -109 0
-76 -97 0
-76 -96 0
-76 -89 0
-76 -85 0
-76 -80 0
-75 -129 0
-75 -127 0
-75 -125 0
-75 -123 0
-75 -119 0
-75 -117 0
-75 -101 0
-75 -98 0
-75 -91 0
-75 -87 0
-75 -81 0
-75 -77 0
-74 -128 0
-74 -123 0
-74 -113 0
-74 -106 0
-74 -99 0
-74 -92 0
-74 -90 0
-74 -86 0
-73 -131 0
-73 -130 0
-73 -124 0
-73 -116 0
-73 -112 0
-73 -108 0
-73 -99 0
-73 -98 0
-73 -95 0
-73 -94 0
-73 -93 0
-73 -80 0
-73 -77 0
-72 -131 0
-72 -129 0
-72 -128 0
-72 -126 0
-72 -120 0
-72 -115 0
-72 -113 0
-72 -102 0
-72 -87 0
-72 -82 0
-72 -79 0
-71 -125 0
-71 -115 0
-71 -111 0
-71 -109 0
-71 -85 0
-71 -80 0
-71 -78 0
-71 -76 0
-70 -132 0
-70 -118 0
-70 -116 0
-70 -114 0
-70 -112 0
-70 -109 0
-70 -105 0
-70 -100 0
-70 -90 0
-70 -88 0
-70 -79 0
-69 -118 0
-69 -110 0
-69 -107 0
-69 -103 0
-69 -93 0
-69 -83 0
-68 -125 0
-68 -115 0
-68 -111 0
-68 -109 0
-68 -85 0
-68 -81 0
-68 -80 0
-68 -76 0
-68 -71 0
-67 -132 0
-67 -131 0
-67 -121 0
-67 -119 0
-67 -116 0
-67 -108 0
-67 -107 0
-67 -97 0
-67 -95 0
-67 -94 0
-67 -80 0
-67 -78 0
-67 -77 0
-67 -73 0
-66 -128 0
-66 -122 0
-66 -108 0
-66 -106 0
-66 -99 0
-66 -92 0
-66 -88 0
-66 -86 0
-66 -84 0
-66 -83 0
-66 -74 0
-65 -132 0
-65 -128 0
-65 -121 0
-65 -119 0
-65 -107 0
-65 -106 0
-65 -99 0
-65 -97 0
-65 -92 0
-65 -86 0
-65 -78 0
-65 -74 0
-65 -67 0
-65 -66 0
-64 -131 0
-64 -117 0
-64 -116 0
-64 -108 0
-64 -103 0
-64 -96 0
-64 -95 0
-64 -94 0
-64 -86 0
-64 -80 0
-64 -77 0
-64 -73 0
-64 -67 0
-63 -122 0
-63 -118 0
-63 -114 0
-63 -97 0
-63 -96 0
-63 -89 0
-63 -76 0
-63 -69 0
-62 -132 0
-62 -126 0
-62 -118 0
-62 -112 0
-62 -109 0
-62 -101 0
-62 -95 0
-62 -92 0
-62 -90 0
-62 -89 0
-62 -88 0
-62 -79 0
-62 -70 0
-61 -118 0
-61 -81 0
-61 -69 0
-61 -68 0
-61 -63 0
-60 -110 0
-60 -106 0
-60 -104 0
-60 -102 0
-60 -94 0
-60 -78 0
-60 -71 0
-59 -131 0
-59 -128 0
-59 -120 0
-59 -87 0
-59 -82 0
-59 -79 0
-59 -78 0
-59 -72 0
-59 -71 0
-59 -60 0
-58 -123 0
-58 -122 0
-58 -114 0
-58 -113 0
-58 -97 0
-58 -96 0
-58 -90 0
-58 -89 0
-58 -76 0
-58 -74 0
-58 -63 0
-57 -123 0
-57 -113 0
-57 -110 0
-57 -107 0
-57 -103 0
-57 -93 0
-57 -90 0
-57 -83 0
-57 -74 0
-57 -69 0
-57 -58 0
-56 -131 0
-56 -128 0
-56 -120 0
-56 -87 0
-56 -82 0
-56 -81 0
-56 -79 0
-56 -72 0
-56 -68 0
-56 -61 0
-56 -59 0
-55 -110 0
-55 -106 0
-55 -104 0
-55 -102 0
-55 -94 0
-55 -81 0
-55 -68 0
-55 -61 0
-55 -60 0
-55 -56 0
-54 -128 0
-54 -125 0
-54 -115 0
-54 -111 0
-54 -109 0
-54 -106 0
-54 -99 0
-54 -92 0
-54 -86 0
-54 -85 0
-54 -80 0
-54 -76 0
-54 -74 0
-54 -71 0
-54 -68 0
-54 -66 0
-54 -65 0
-53 -130 0
-53 -124 0
-53 -122 0
-53 -114 0
-53 -112 0
-53 -99 0
-53 -98 0
-53 -97 0
-53 -96 0
-53 -93 0
-53 -89 0
-53 -76 0
-53 -73 0
-53 -63 0
-53 -58 0
-52 -126 0
-52 -124 0
-52 -111 0
-52 -105 0
-52 -101 0
-52 -95 0
-52 -92 0
-52 -91 0
-52 -89 0
-52 -82 0
-52 -62 0
-51 -123 0
-51 -113 0
-51 -90 0
-51 -81 0
-51 -74 0
-51 -68 0
-51 -61 0
-51 -58 0
-51 -57 0
-51 -56 0
-51 -55 0
-50 -117 0
-50 -103 0
-50 -96 0
-50 -86 0
-50 -78 0
-50 -71 0
-50 -64 0
-50 -60 0
-50 -59 0
-49 -125 0
-49 -115 0
-49 -111 0
-49 -110 0
-49 -109 0
-49 -107 0
-49 -103 0
-49 -93 0
-49 -85 0
-49 -83 0
-49 -80 0
-49 -76 0
-49 -71 0
-49 -69 0
-49 -68 0
-49 -57 0
-49 -54 0
-48 -130 0
-48 -127 0
-48 -123 0
-48 -121 0
-48 -120 0
-48 -113 0
-48 -104 0
-48 -100 0
-48 -90 0
-48 -85 0
-48 -84 0
-48 -74 0
-48 -58 0
-48 -57 0
-48 -51 0
-47 -125 0
-47 -123 0
-47 -119 0
-47 -118 0
-47 -117 0
-47 -101 0
-47 -98 0
-47 -87 0
-47 -75 0
-47 -69 0
-47 -63 0
-47 -61 0
-46 -131 0
-46 -123 0
-46 -116 0
-46 -113 0
-46 -108 0
-46 -95 0
-46 -94 0
-46 -90 0
-46 -80 0
-46 -77 0
-46 -74 0
-46 -73 0
-46 -67 0
-46 -64 0
-46 -58 0
-46 -57 0
-46 -51 0
-46 -48 0
-45 -130 0
-45 -127 0
-45 -121 0
-45 -120 0
-45 -117 0
-45 -104 0
-45 -103 0
-45 -100 0
-45 -96 0
-45 -86 0
-45 -85 0
-45 -84 0
-45 -64 0
-45 -50 0
-45 -48 0
-44 -132 0
-44 -121 0
-44 -119 0
-44 -107 0
-44 -97 0
-44 -81 0
-44 -78 0
-44 -68 0
-44 -67 0
-44 -65 0
-44 -61 0
-44 -56 0
-44 -55 0
-44 -51 0
-43 -130 0
-43 -127 0
-43 -121 0
-43 -120 0
-43 -118 0
-43 -104 0
-43 -100 0
-43 -85 0
-43 -84 0
-43 -69 0
-43 -63 0
-43 -61 0
-43 -48 0
-43 -47 0
-43 -45 0
-42 -124 0
-42 -117 0
-42 -111 0
-42 -105 0
-42 -103 0
-42 -96 0
-42 -91 0
-42 -86 0
-42 -82 0
-42 -64 0
-42 -52 0
-42 -50 0
-42 -45 0
-41 -126 0
-41 -101 0
-41 -95 0
-41 -92 0
-41 -89 0
-41 -81 0
-41 -68 0
-41 -62 0
-41 -61 0
-41 -56 0
-41 -55 0
-41 -52 0
-41 -51 0
-41 -44 0
-40 -116 0
-40 -114 0
-40 -110 0
-40 -107 0
-40 -105 0
-40 -103 0
-40 -100 0
-40 -93 0
-40 -83 0
-40 -70 0
-40 -69 0
-40 -57 0
-40 -49 0
-39 -118 0
-39 -78 0
-39 -71 0
-39 -69 0
-39 -63 0
-39 -61 0
-39 -60 0
-39 -59 0
-39 -50 0
-39 -47 0
-39 -43 0
-38 -126 0
-38 -101 0
-38 -95 0
-38 -92 0
-38 -89 0
-38 -78 0
-38 -71 0
-38 -62 0
-38 -60 0
-38 -59 0
-38 -52 0
-38 -50 0
-38 -41 0
-38 -39 0
-37 -130 0
-37 -127 0
-37 -126 0
-37 -121 0
-37 -120 0
-37 -104 0
-37 -101 0
-37 -100 0
-37 -95 0
-37 -92 0
-37 -89 0
-37 -85 0
-37 -84 0
-37 -62 0
-37 -52 0
-37 -48 0
-37 -45 0
-37 -43 0
-37 -41 0
-37 -38 0
-36 -130 0
-36 -124 0
-36 -112 0
-36 -99 0
-36 -98 0
-36 -93 0
-36 -81 0
-36 -73 0
-36 -68 0
-36 -61 0
-36 -56 0
-36 -55 0
-36 -53 0
-36 -51 0
-36 -44 0
-36 -41 0
-35 -130 0
-35 -124 0
-35 -112 0
-35 -99 0
-35 -98 0
-35 -93 0
-35 -78 0
-35 -73 0
-35 -71 0
-35 -60 0
-35 -59 0
-35 -53 0
-35 -50 0
-35 -39 0
-35 -38 0
-35 -36 0
-34 -132 0
-34 -129 0
-34 -127 0
-34 -118 0
-34 -112 0
-34 -109 0
-34 -91 0
-34 -90 0
-34 -88 0
-34 -81 0
-34 -79 0
-34 -77 0
-34 -75 0
-34 -70 0
-34 -62 0
-33 -132 0
-33 -118 0
-33 -112 0
-33 -110 0
-33 -109 0
-33 -106 0
-33 -104 0
-33 -102 0
-33 -94 0
-33 -90 0
-33 -88 0
-33 -79 0
-33 -70 0
-33 -62 0
-33 -60 0
-33 -55 0
-33 -34 0
-32 -129 0
-32 -126 0
-32 -122 0
-32 -115 0
-32 -113 0
-32 -108 0
-32 -102 0
-32 -88 0
-32 -84 0
-32 -83 0
-32 -72 0
-32 -66 0
-31 -128 0
-31 -116 0
-31 -114 0
-31 -106 0
-31 -105 0
-31 -100 0
-31 -99 0
-31 -92 0
-31 -86 0
-31 -74 0
-31 -70 0
-31 -66 0
-31 -65 0
-31 -54 0
-31 -40 0
-30 -125 0
-30 -123 0
-30 -119 0
-30 -117 0
-30 -110 0
-30 -106 0
-30 -104 0
-30 -102 0
-30 -101 0
-30 -98 0
-30 -94 0
-30 -87 0
-30 -75 0
-30 -60 0
-30 -55 0
-30 -47 0
-30 -33 0
-29 -132 0
-29 -124 0
-29 -121 0
-29 -119 0
-29 -111 0
-29 -107 0
-29 -105 0
-29 -97 0
-29 -91 0
-29 -82 0
-29 -78 0
-29 -67 0
-29 -65 0
-29 -52 0
-29 -44 0
-29 -42 0
-28 -124 0
-28 -118 0
-28 -111 0
-28 -105 0
-28 -91 0
-28 -82 0
-28 -69 0
-28 -63 0
-28 -61 0
-28 -52 0
-28 -47 0
-28 -43 0
-28 -42 0
-28 -39 0
-28 -29 0
-27 -130 0
-27 -129 0
-27 -126 0
-27 -124 0
-27 -115 0
-27 -113 0
-27 -112 0
-27 -102 0
-27 -99 0
-27 -98 0
-27 -93 0
-27 -73 0
-27 -72 0
-27 -53 0
-27 -36 0
-27 -35 0
-27 -32 0
-26 -122 0
-26 -108 0
-26 -88 0
-26 -84 0
-26 -83 0
-26 -78 0
-26 -71 0
-26 -66 0
-26 -60 0
-26 -59 0
-26 -50 0
-26 -39 0
-26 -38 0
-26 -35 0
-26 -32 0
-25 -132 0
-25 -129 0
-25 -126 0
-25 -121 0
-25 -119 0
-25 -115 0
-25 -113 0
-25 -107 0
-25 -102 0
-25 -97 0
-25 -78 0
-25 -72 0
-25 -67 0
-25 -65 0
-25 -44 0
-25 -32 0
-25 -29 0
-25 -27 0
-24 -129 0
-24 -127 0
-24 -122 0
-24 -114 0
-24 -97 0
-24 -96 0
-24 -91 0
-24 -89 0
-24 -81 0
-24 -77 0
-24 -76 0
-24 -75 0
-24 -63 0
-24 -58 0
-24 -53 0
-24 -34 0
-23 -131 0
-23 -128 0
-23 -120 0
-23 -110 0
-23 -107 0
-23 -103 0
-23 -93 0
-23 -87 0
-23 -83 0
-23 -82 0
-23 -79 0
-23 -72 0
-23 -69 0
-23 -59 0
-23 -57 0
-23 -56 0
-23 -49 0
-23 -40 0
-22 -117 0
-22 -103 0
-22 -96 0
-22 -86 0
-22 -81 0
-22 -68 0
-22 -64 0
-22 -61 0
-22 -56 0
-22 -55 0
-22 -51 0
-22 -50 0
-22 -45 0
-22 -44 0
-22 -42 0
-22 -41 0
-22 -36 0
-21 -125 0
-21 -123 0
-21 -122 0
-21 -119 0
-21 -117 0
-21 -108 0
-21 -101 0
-21 -98 0
-21 -88 0
-21 -87 0
-21 -84 0
-21 -83 0
-21 -75 0
-21 -66 0
-21 -47 0
-21 -32 0
-21 -30 0
-21 -26 0
-20 -129 0
-20 -126 0
-20 -117 0
-20 -115 0
-20 -113 0
-20 -103 0
-20 -102 0
-20 -96 0
-20 -86 0
-20 -72 0
-20 -64 0
-20 -50 0
-20 -45 0
-20 -42 0
-20 -32 0
-20 -27 0
-20 -25 0
-20 -22 0
-19 -124 0
-19 -123 0
-19 -113 0
-19 -111 0
-19 -105 0
-19 -91 0
-19 -90 0
-19 -82 0
-19 -74 0
-19 -58 0
-19 -57 0
-19 -52 0
-19 -51 0
-19 -48 0
-19 -46 0
-19 -42 0
-19 -29 0
-19 -28 0
-18 -128 0
-18 -118 0
-18 -106 0
-18 -99 0
-18 -92 0
-18 -86 0
-18 -74 0
-18 -69 0
-18 -66 0
-18 -65 0
-18 -63 0
-18 -61 0
-18 -54 0
-18 -47 0
-18 -43 0
-18 -39 0
-18 -31 0
-18 -28 0
-17 -122 0
-17 -108 0
-17 -88 0
-17 -84 0
-17 -83 0
-17 -81 0
-17 -68 0
-17 -66 0
-17 -61 0
-17 -56 0
-17 -55 0
-17 -51 0
-17 -44 0
-17 -41 0
-17 -36 0
-17 -32 0
-17 -26 0
-17 -22 0
-17 -21 0
-16 -129 0
-16 -127 0
-16 -91 0
-16 -81 0
-16 -78 0
-16 -77 0
-16 -75 0
-16 -71 0
-16 -60 0
-16 -59 0
-16 -50 0
-16 -39 0
-16 -38 0
-16 -35 0
-16 -34 0
-16 -26 0
-16 -24 0
-15 -122 0
-15 -114 0
-15 -110 0
-15 -106 0
-15 -104 0
-15 -102 0
-15 -97 0
-15 -96 0
-15 -94 0
-15 -89 0
-15 -76 0
-15 -63 0
-15 -60 0
-15 -58 0
-15 -55 0
-15 -53 0
-15 -33 0
-15 -30 0
-15 -24 0
-14 -129 0
-14 -126 0
-14 -116 0
-14 -115 0
-14 -114 0
-14 -113 0
-14 -105 0
-14 -102 0
-14 -100 0
-14 -72 0
-14 -70 0
-14 -40 0
-14 -32 0
-14 -31 0
-14 -27 0
-14 -25 0
-14 -20 0
-13 -124 0
-13 -122 0
-13 -111 0
-13 -108 0
-13 -105 0
-13 -91 0
-13 -88 0
-13 -84 0
-13 -83 0
-13 -82 0
-13 -66 0
-13 -52 0
-13 -42 0
-13 -32 0
-13 -29 0
-13 -28 0
-13 -26 0
-13 -21 0
-13 -19 0
-13 -17 0
-12 -129 0
-12 -126 0
-12 -118 0
-12 -115 0
-12 -113 0
-12 -102 0
-12 -72 0
-12 -69 0
-12 -63 0
-12 -61 0
-12 -47 0
-12 -43 0
-12 -39 0
-12 -32 0
-12 -28 0
-12 -27 0
-12 -25 0
-12 -20 0
-12 -18 0
-12 -14 0
-11 -126 0
-11 -110 0
-11 -107 0
-11 -103 0
-11 -101 0
-11 -95 0
-11 -93 0
-11 -92 0
-11 -89 0
-11 -83 0
-11 -69 0
-11 -62 0
-11 -57 0
-11 -52 0
-11 -49 0
-11 -41 0
-11 -40 0
-11 -38 0
-11 -37 0
-11 -23 0
-10 -129 0
-10 -127 0
-10 -110 0
-10 -107 0
-10 -103 0
-10 -93 0
-10 -91 0
-10 -83 0
-10 -81 0
-10 -77 0
-10 -75 0
-10 -69 0
-10 -57 0
-10 -49 0
-10 -40 0
-10 -34 0
-10 -24 0
-10 -23 0
-10 -16 0
-10 -11 0
-9 -129 0
-9 -128 0
-9 -127 0
-9 -106 0
-9 -99 0
-9 -92 0
-9 -91 0
-9 -86 0
-9 -81 0
-9 -77 0
-9 -75 0
-9 -74 0
-9 -66 0
-9 -65 0
-9 -54 0
-9 -34 0
-9 -31 0
-9 -24 0
-9 -18 0
-9 -16 0
-9 -10 0
-8 -131 0
-8 -118 0
-8 -116 0
-8 -108 0
-8 -95 0
-8 -94 0
-8 -80 0
-8 -77 0
-8 -73 0
-8 -69 0
-8 -67 0
-8 -64 0
-8 -63 0
-8 -61 0
-8 -47 0
-8 -46 0
-8 -43 0
-8 -39 0
-8 -28 0
-8 -18 0
-8 -12 0
-7 -124 0
-7 -111 0
-7 -110 0
-7 -106 0
-7 -105 0
-7 -104 0
-7 -102 0
-7 -94 0
-7 -91 0
-7 -82 0
-7 -60 0
-7 -55 0
-7 -52 0
-7 -42 0
-7 -33 0
-7 -30 0
-7 -29 0
-7 -28 0
-7 -19 0
-7 -15 0
-7 -13 0
-6 -131 0
-6 -128 0
-6 -122 0
-6 -120 0
-6 -114 0
-6 -97 0
-6 -96 0
-6 -89 0
-6 -87 0
-6 -82 0
-6 -79 0
-6 -76 0
-6 -72 0
-6 -63 0
-6 -59 0
-6 -58 0
-6 -56 0
-6 -53 0
-6 -24 0
-6 -23 0
-6 -15 0
-5 -116 0
-5 -114 0
-5 -105 0
-5 -100 0
-5 -78 0
-5 -71 0
-5 -70 0
-5 -60 0
-5 -59 0
-5 -50 0
-5 -40 0
-5 -39 0
-5 -38 0
-5 -35 0
-5 -31 0
-5 -26 0
-5 -16 0
-5 -14 0
-4 -116 0
-4 -114 0
-4 -105 0
-4 -100 0
-4 -81 0
-4 -70 0
-4 -68 0
-4 -61 0
-4 -56 0
-4 -55 0
-4 -51 0
-4 -44 0
-4 -41 0
-4 -40 0
-4 -36 0
-4 -31 0
-4 -22 0
-4 -17 0
-4 -14 0
-4 -5 0
-3 -123 0
-3 -113 0
-3 -90 0
-3 -78 0
-3 -74 0
-3 -71 0
-3 -60 0
-3 -59 0
-3 -58 0
-3 -57 0
-3 -51 0
-3 -50 0
-3 -48 0
-3 -46 0
-3 -39 0
-3 -38 0
-3 -35 0
-3 -26 0
-3 -19 0
-3 -16 0
-3 -5 0
-2 -132 0
-2 -118 0
-2 -117 0
-2 -112 0
-2 -109 0
-2 -103 0
-2 -96 0
-2 -90 0
-2 -88 0
-2 -86 0
-2 -79 0
-2 -70 0
-2 -64 0
-2 -62 0
-2 -50 0
-2 -45 0
-2 -42 0
-2 -34 0
-2 -33 0
-2 -22 0
-2 -20 0
-1 -125 0
-1 -123 0
-1 -119 0
-1 -117 0
-1 -116 0
-1 -114 0
-1 -105 0
-1 -101 0
-1 -100 0
-1 -98 0
-1 -87 0
-1 -75 0
-1 -70 0
-1 -47 0
-1 -40 0
-1 -31 0
-1 -30 0
-1 -21 0
-1 -14 0
-1 -5 0
-1 -4 0
1 4 5 14 31 40 70 100 105 114 116 0
2 20 22 42 45 50 64 86 96 103 117 0
3 19 46 48 51 57 58 74 90 113 123 0
6 23 56 59 72 79 82 87 120 128 131 0
7 15 30 33 55 60 94 102 104 106 110 0
8 12 18 28 39 43 47 61 63 69 118 0
9 10 16 24 34 75 77 81 91 127 129 0
11 37 38 41 52 62 89 92 95 101 126 0
13 17 21 26 32 66 83 84 88 108 122 0
25 29 44 65 67 78 97 107 119 121 132 0
27 35 36 53 73 93 98 99 112 124 130 0
49 54 68 71 76 80 85 109 111 115 125 0
