p cnf 72 549
-68 -71 0
-67 -69 0
-66 -68 0
-65 -72 0
-65 -68 0
-65 -66 0
-64 -71 0
-64 -69 0
-63 -70 0
-62 -63 0
-61 -71 0
-61 -68 0
-61 -62 0
-60 -72 0
-60 -65 0
-59 -71 0
-59 -70 0
-59 -64 0
-58 -70 0
-58 -60 0
-58 -59 0
-57 -66 0
-57 -62 0
-57 -61 0
-56 -68 0
-56 -66 0
-56 -65 0
-55 -68 0
-55 -67 0
-55 -66 0
-55 -65 0
-55 -56 0
-54 -72 0
-54 -66 0
-54 -57 0
-53 -71 0
-53 -66 0
-53 -64 0
-53 -59 0
-53 -57 0
-53 -54 0
-52 -72 0
-52 -54 0
-51 -72 0
-51 -63 0
-51 -62 0
-51 -54 0
-51 -52 0
-50 -63 0
-50 -62 0
-50 -51 0
-49 -71 0
-49 -64 0
-49 -59 0
-49 -56 0
-49 -53 0
-48 -69 0
-48 -67 0
-48 -63 0
-48 -62 0
-48 -51 0
-48 -50 0
-47 -67 0
-47 -62 0
-47 -61 0
-47 -57 0
-47 -55 0
-46 -67 0
-46 -55 0
-46 -50 0
-46 -47 0
-45 -66 0
-45 -57 0
-45 -54 0
-45 -53 0
-45 -50 0
-45 -46 0
-44 -66 0
-44 -60 0
-44 -58 0
-44 -57 0
-44 -54 0
-44 -53 0
-44 -45 0
-43 -71 0
-43 -64 0
-43 -59 0
-43 -53 0
-43 -52 0
-43 -49 0
-42 -62 0
-42 -61 0
-42 -57 0
-42 -56 0
-42 -49 0
-42 -47 0
-41 -70 0
-41 -69 0
-41 -67 0
-41 -59 0
-41 -58 0
-41 -48 0
-40 -69 0
-40 -64 0
-40 -62 0
-40 -61 0
-40 -57 0
-40 -47 0
-40 -42 0
-39 -70 0
-39 -62 0
-39 -61 0
-39 -59 0
-39 -58 0
-39 -57 0
-39 -47 0
-39 -42 0
-39 -41 0
-39 -40 0
-38 -68 0
-38 -66 0
-38 -65 0
-38 -56 0
-38 -55 0
-38 -52 0
-38 -43 0
-37 -72 0
-37 -70 0
-37 -59 0
-37 -58 0
-37 -54 0
-37 -52 0
-37 -51 0
-37 -41 0
-37 -39 0
-36 -71 0
-36 -68 0
-36 -61 0
-36 -60 0
-36 -58 0
-36 -44 0
-35 -72 0
-35 -71 0
-35 -65 0
-35 -64 0
-35 -60 0
-35 -59 0
-35 -53 0
-35 -49 0
-35 -43 0
-34 -70 0
-34 -59 0
-34 -58 0
-34 -50 0
-34 -46 0
-34 -45 0
-34 -41 0
-34 -39 0
-34 -37 0
-33 -60 0
-33 -58 0
-33 -52 0
-33 -44 0
-33 -43 0
-33 -38 0
-33 -36 0
-32 -70 0
-32 -63 0
-32 -52 0
-32 -43 0
-32 -38 0
-32 -33 0
-31 -70 0
-31 -66 0
-31 -63 0
-31 -57 0
-31 -54 0
-31 -53 0
-31 -45 0
-31 -44 0
-31 -32 0
-30 -69 0
-30 -64 0
-30 -50 0
-30 -46 0
-30 -45 0
-30 -40 0
-30 -34 0
-29 -56 0
-29 -50 0
-29 -49 0
-29 -46 0
-29 -45 0
-29 -42 0
-29 -34 0
-29 -30 0
-28 -69 0
-28 -67 0
-28 -66 0
-28 -57 0
-28 -54 0
-28 -53 0
-28 -48 0
-28 -45 0
-28 -44 0
-28 -41 0
-28 -31 0
-27 -70 0
-27 -67 0
-27 -63 0
-27 -55 0
-27 -47 0
-27 -46 0
-27 -32 0
-27 -31 0
-26 -69 0
-26 -68 0
-26 -66 0
-26 -65 0
-26 -64 0
-26 -56 0
-26 -55 0
-26 -40 0
-26 -38 0
-26 -30 0
-25 -72 0
-25 -65 0
-25 -60 0
-25 -50 0
-25 -46 0
-25 -45 0
-25 -35 0
-25 -34 0
-25 -30 0
-25 -29 0
-24 -62 0
-24 -61 0
-24 -57 0
-24 -52 0
-24 -47 0
-24 -43 0
-24 -42 0
-24 -40 0
-24 -39 0
-24 -38 0
-24 -33 0
-24 -32 0
-23 -72 0
-23 -69 0
-23 -67 0
-23 -65 0
-23 -60 0
-23 -48 0
-23 -41 0
-23 -35 0
-23 -28 0
-23 -25 0
-22 -72 0
-22 -71 0
-22 -68 0
-22 -61 0
-22 -54 0
-22 -52 0
-22 -51 0
-22 -37 0
-22 -36 0
-21 -52 0
-21 -50 0
-21 -46 0
-21 -45 0
-21 -43 0
-21 -38 0
-21 -34 0
-21 -33 0
-21 -32 0
-21 -30 0
-21 -29 0
-21 -25 0
-21 -24 0
-20 -70 0
-20 -63 0
-20 -56 0
-20 -49 0
-20 -42 0
-20 -32 0
-20 -31 0
-20 -29 0
-20 -27 0
-19 -71 0
-19 -70 0
-19 -68 0
-19 -63 0
-19 -61 0
-19 -36 0
-19 -32 0
-19 -31 0
-19 -27 0
-19 -22 0
-19 -20 0
-18 -72 0
-18 -67 0
-18 -55 0
-18 -54 0
-18 -52 0
-18 -51 0
-18 -47 0
-18 -46 0
-18 -37 0
-18 -27 0
-18 -22 0
-17 -70 0
-17 -68 0
-17 -66 0
-17 -65 0
-17 -59 0
-17 -58 0
-17 -56 0
-17 -55 0
-17 -41 0
-17 -39 0
-17 -38 0
-17 -37 0
-17 -34 0
-17 -26 0
-16 -72 0
-16 -56 0
-16 -54 0
-16 -52 0
-16 -51 0
-16 -49 0
-16 -42 0
-16 -37 0
-16 -29 0
-16 -22 0
-16 -20 0
-16 -18 0
-15 -63 0
-15 -62 0
-15 -60 0
-15 -58 0
-15 -51 0
-15 -50 0
-15 -48 0
-15 -44 0
-15 -36 0
-15 -33 0
-14 -68 0
-14 -66 0
-14 -65 0
-14 -63 0
-14 -62 0
-14 -56 0
-14 -55 0
-14 -51 0
-14 -50 0
-14 -48 0
-14 -38 0
-14 -26 0
-14 -17 0
-14 -15 0
-13 -72 0
-13 -70 0
-13 -65 0
-13 -63 0
-13 -60 0
-13 -35 0
-13 -32 0
-13 -31 0
-13 -27 0
-13 -25 0
-13 -23 0
-13 -20 0
-13 -19 0
-12 -69 0
-12 -67 0
-12 -52 0
-12 -48 0
-12 -43 0
-12 -41 0
-12 -38 0
-12 -33 0
-12 -32 0
-12 -28 0
-12 -24 0
-12 -23 0
-12 -21 0
-11 -69 0
-11 -67 0
-11 -56 0
-11 -49 0
-11 -48 0
-11 -42 0
-11 -41 0
-11 -29 0
-11 -28 0
-11 -23 0
-11 -20 0
-11 -16 0
-11 -12 0
-10 -60 0
-10 -58 0
-10 -56 0
-10 -49 0
-10 -44 0
-10 -42 0
-10 -36 0
-10 -33 0
-10 -29 0
-10 -20 0
-10 -16 0
-10 -15 0
-10 -11 0
-9 -71 0
-9 -68 0
-9 -61 0
-9 -50 0
-9 -46 0
-9 -45 0
-9 -36 0
-9 -34 0
-9 -30 0
-9 -29 0
-9 -25 0
-9 -22 0
-9 -21 0
-9 -19 0
-8 -72 0
-8 -69 0
-8 -64 0
-8 -54 0
-8 -52 0
-8 -51 0
-8 -40 0
-8 -37 0
-8 -30 0
-8 -26 0
-8 -22 0
-8 -18 0
-8 -16 0
-7 -67 0
-7 -60 0
-7 -58 0
-7 -55 0
-7 -47 0
-7 -46 0
-7 -44 0
-7 -36 0
-7 -33 0
-7 -27 0
-7 -18 0
-7 -15 0
-7 -10 0
-6 -71 0
-6 -69 0
-6 -68 0
-6 -67 0
-6 -61 0
-6 -48 0
-6 -41 0
-6 -36 0
-6 -28 0
-6 -23 0
-6 -22 0
-6 -19 0
-6 -12 0
-6 -11 0
-6 -9 0
-5 -69 0
-5 -64 0
-5 -60 0
-5 -58 0
-5 -44 0
-5 -40 0
-5 -36 0
-5 -33 0
-5 -30 0
-5 -26 0
-5 -15 0
-5 -10 0
-5 -8 0
-5 -7 0
-4 -71 0
-4 -67 0
-4 -64 0
-4 -59 0
-4 -55 0
-4 -53 0
-4 -49 0
-4 -47 0
-4 -46 0
-4 -43 0
-4 -35 0
-4 -27 0
-4 -18 0
-4 -7 0
-3 -72 0
-3 -65 0
-3 -62 0
-3 -61 0
-3 -60 0
-3 -57 0
-3 -47 0
-3 -42 0
-3 -40 0
-3 -39 0
-3 -35 0
-3 -25 0
-3 -24 0
-3 -23 0
-3 -13 0
-2 -71 0
-2 -64 0
-2 -63 0
-2 -62 0
-2 -59 0
-2 -53 0
-2 -51 0
-2 -50 0
-2 -49 0
-2 -48 0
-2 -43 0
-2 -35 0
-2 -15 0
-2 -14 0
-2 -4 0
-1 -70 0
-1 -69 0
-1 -64 0
-1 -63 0
-1 -40 0
-1 -32 0
-1 -31 0
-1 -30 0
-1 -27 0
-1 -26 0
-1 -20 0
-1 -19 0
-1 -13 0
-1 -8 0
-1 -5 0
1 5 8 26 30 40 64 69 0
2 14 15 48 50 51 62 63 0
3 13 23 25 35 60 65 72 0
4 7 18 27 46 47 55 67 0
6 9 19 22 36 61 68 71 0
10 11 16 20 29 42 49 56 0
12 21 24 32 33 38 43 52 0
17 34 37 39 41 58 59 70 0
28 31 44 45 53 54 57 66 0
