p cnf 72 549
-68 -72 0
-68 -69 0
-67 -72 0
-67 -68 0
-66 -69 0
-66 -67 0
-65 -71 0
-63 -71 0
-63 -70 0
-63 -65 0
-62 -71 0
-62 -70 0
-61 -72 0
-61 -64 0
-60 -69 0
-60 -68 0
-59 -67 0
-59 -66 0
-59 -60 0
-57 -67 0
-57 -66 0
-57 -64 0
-57 -61 0
-57 -59 0
-56 -65 0
-55 -69 0
-55 -66 0
-55 -65 0
-55 -56 0
-54 -72 0
-54 -61 0
-54 -60 0
-54 -59 0
-53 -70 0
-53 -63 0
-53 -56 0
-52 -67 0
-52 -66 0
-52 -59 0
-52 -57 0
-51 -71 0
-51 -62 0
-51 -58 0
-50 -71 0
-50 -64 0
-50 -62 0
-50 -61 0
-50 -57 0
-50 -51 0
-49 -70 0
-49 -62 0
-49 -58 0
-48 -72 0
-48 -68 0
-48 -67 0
-48 -64 0
-47 -72 0
-47 -70 0
-47 -62 0
-47 -61 0
-47 -54 0
-47 -49 0
-46 -67 0
-46 -66 0
-46 -59 0
-46 -58 0
-46 -57 0
-46 -52 0
-46 -51 0
-45 -64 0
-45 -52 0
-45 -48 0
-44 -70 0
-44 -63 0
-44 -58 0
-44 -53 0
-44 -51 0
-44 -46 0
-43 -65 0
-43 -56 0
-43 -55 0
-43 -52 0
-43 -45 0
-42 -72 0
-42 -68 0
-42 -67 0
-42 -58 0
-42 -49 0
-42 -48 0
-41 -69 0
-41 -68 0
-41 -60 0
-41 -52 0
-41 -45 0
-41 -43 0
-40 -71 0
-40 -62 0
-40 -56 0
-40 -53 0
-40 -51 0
-40 -50 0
-39 -69 0
-39 -68 0
-39 -64 0
-39 -61 0
-39 -60 0
-39 -57 0
-39 -50 0
-39 -41 0
-38 -58 0
-38 -52 0
-38 -49 0
-38 -45 0
-38 -43 0
-38 -42 0
-38 -41 0
-37 -64 0
-37 -60 0
-37 -59 0
-37 -54 0
-37 -48 0
-37 -45 0
-36 -72 0
-36 -71 0
-36 -65 0
-36 -63 0
-36 -61 0
-36 -54 0
-36 -47 0
-35 -64 0
-35 -58 0
-35 -51 0
-35 -48 0
-35 -46 0
-35 -45 0
-35 -44 0
-35 -37 0
-34 -69 0
-34 -66 0
-34 -64 0
-34 -55 0
-34 -48 0
-34 -45 0
-34 -37 0
-34 -35 0
-33 -72 0
-33 -71 0
-33 -68 0
-33 -67 0
-33 -62 0
-33 -51 0
-33 -50 0
-33 -48 0
-33 -42 0
-33 -40 0
-32 -69 0
-32 -68 0
-32 -60 0
-32 -56 0
-32 -53 0
-32 -41 0
-32 -40 0
-32 -39 0
-31 -72 0
-31 -70 0
-31 -68 0
-31 -67 0
-31 -63 0
-31 -53 0
-31 -48 0
-31 -44 0
-31 -42 0
-31 -33 0
-30 -70 0
-30 -69 0
-30 -66 0
-30 -63 0
-30 -55 0
-30 -53 0
-30 -44 0
-30 -34 0
-30 -31 0
-29 -71 0
-29 -62 0
-29 -52 0
-29 -51 0
-29 -50 0
-29 -45 0
-29 -43 0
-29 -41 0
-29 -40 0
-29 -38 0
-29 -33 0
-28 -71 0
-28 -69 0
-28 -68 0
-28 -65 0
-28 -63 0
-28 -60 0
-28 -41 0
-28 -39 0
-28 -36 0
-28 -32 0
-27 -65 0
-27 -58 0
-27 -56 0
-27 -55 0
-27 -51 0
-27 -46 0
-27 -44 0
-27 -43 0
-27 -35 0
-26 -58 0
-26 -56 0
-26 -53 0
-26 -49 0
-26 -42 0
-26 -40 0
-26 -38 0
-26 -32 0
-25 -70 0
-25 -67 0
-25 -66 0
-25 -62 0
-25 -59 0
-25 -57 0
-25 -52 0
-25 -49 0
-25 -47 0
-25 -46 0
-24 -71 0
-24 -65 0
-24 -63 0
-24 -58 0
-24 -49 0
-24 -42 0
-24 -38 0
-24 -36 0
-24 -28 0
-24 -26 0
-23 -71 0
-23 -69 0
-23 -66 0
-23 -62 0
-23 -55 0
-23 -51 0
-23 -50 0
-23 -40 0
-23 -34 0
-23 -33 0
-23 -30 0
-23 -29 0
-22 -72 0
-22 -61 0
-22 -56 0
-22 -54 0
-22 -53 0
-22 -47 0
-22 -40 0
-22 -36 0
-22 -32 0
-22 -26 0
-21 -70 0
-21 -63 0
-21 -60 0
-21 -59 0
-21 -54 0
-21 -53 0
-21 -44 0
-21 -37 0
-21 -31 0
-21 -30 0
-20 -72 0
-20 -69 0
-20 -66 0
-20 -61 0
-20 -55 0
-20 -54 0
-20 -47 0
-20 -36 0
-20 -34 0
-20 -30 0
-20 -23 0
-20 -22 0
-19 -71 0
-19 -67 0
-19 -66 0
-19 -65 0
-19 -63 0
-19 -59 0
-19 -57 0
-19 -52 0
-19 -46 0
-19 -36 0
-19 -28 0
-19 -25 0
-19 -24 0
-18 -65 0
-18 -64 0
-18 -61 0
-18 -57 0
-18 -56 0
-18 -55 0
-18 -50 0
-18 -43 0
-18 -39 0
-18 -27 0
-17 -64 0
-17 -61 0
-17 -58 0
-17 -57 0
-17 -50 0
-17 -49 0
-17 -42 0
-17 -39 0
-17 -38 0
-17 -26 0
-17 -24 0
-17 -18 0
-16 -72 0
-16 -61 0
-16 -58 0
-16 -54 0
-16 -51 0
-16 -47 0
-16 -46 0
-16 -44 0
-16 -36 0
-16 -35 0
-16 -27 0
-16 -22 0
-16 -20 0
-15 -70 0
-15 -64 0
-15 -63 0
-15 -61 0
-15 -57 0
-15 -53 0
-15 -50 0
-15 -44 0
-15 -39 0
-15 -31 0
-15 -30 0
-15 -21 0
-15 -18 0
-15 -17 0
-14 -69 0
-14 -66 0
-14 -58 0
-14 -55 0
-14 -49 0
-14 -42 0
-14 -38 0
-14 -34 0
-14 -30 0
-14 -26 0
-14 -24 0
-14 -23 0
-14 -20 0
-14 -17 0
-13 -64 0
-13 -56 0
-13 -53 0
-13 -48 0
-13 -45 0
-13 -40 0
-13 -37 0
-13 -35 0
-13 -34 0
-13 -32 0
-13 -26 0
-13 -22 0
-12 -70 0
-12 -63 0
-12 -53 0
-12 -52 0
-12 -45 0
-12 -44 0
-12 -43 0
-12 -41 0
-12 -38 0
-12 -31 0
-12 -30 0
-12 -29 0
-12 -21 0
-12 -15 0
-11 -67 0
-11 -66 0
-11 -59 0
-11 -57 0
-11 -56 0
-11 -53 0
-11 -52 0
-11 -46 0
-11 -40 0
-11 -32 0
-11 -26 0
-11 -25 0
-11 -22 0
-11 -19 0
-11 -13 0
-10 -71 0
-10 -65 0
-10 -64 0
-10 -63 0
-10 -48 0
-10 -45 0
-10 -37 0
-10 -36 0
-10 -35 0
-10 -34 0
-10 -28 0
-10 -24 0
-10 -19 0
-10 -13 0
-9 -70 0
-9 -69 0
-9 -68 0
-9 -62 0
-9 -60 0
-9 -49 0
-9 -47 0
-9 -41 0
-9 -39 0
-9 -32 0
-9 -28 0
-9 -25 0
-8 -69 0
-8 -68 0
-8 -60 0
-8 -58 0
-8 -51 0
-8 -46 0
-8 -44 0
-8 -41 0
-8 -39 0
-8 -35 0
-8 -32 0
-8 -28 0
-8 -27 0
-8 -16 0
-8 -9 0
-7 -70 0
-7 -64 0
-7 -62 0
-7 -49 0
-7 -48 0
-7 -47 0
-7 -45 0
-7 -37 0
-7 -35 0
-7 -34 0
-7 -25 0
-7 -13 0
-7 -10 0
-7 -9 0
-6 -65 0
-6 -60 0
-6 -59 0
-6 -56 0
-6 -55 0
-6 -54 0
-6 -43 0
-6 -37 0
-6 -27 0
-6 -21 0
-6 -18 0
-5 -72 0
-5 -61 0
-5 -54 0
-5 -52 0
-5 -47 0
-5 -45 0
-5 -43 0
-5 -41 0
-5 -38 0
-5 -36 0
-5 -29 0
-5 -22 0
-5 -20 0
-5 -16 0
-5 -12 0
-4 -70 0
-4 -65 0
-4 -62 0
-4 -56 0
-4 -55 0
-4 -49 0
-4 -47 0
-4 -43 0
-4 -27 0
-4 -25 0
-4 -18 0
-4 -9 0
-4 -7 0
-4 -6 0
-3 -72 0
-3 -68 0
-3 -67 0
-3 -65 0
-3 -56 0
-3 -55 0
-3 -48 0
-3 -43 0
-3 -42 0
-3 -33 0
-3 -31 0
-3 -27 0
-3 -18 0
-3 -6 0
-3 -4 0
-2 -60 0
-2 -59 0
-2 -58 0
-2 -54 0
-2 -49 0
-2 -42 0
-2 -38 0
-2 -37 0
-2 -26 0
-2 -24 0
-2 -21 0
-2 -17 0
-2 -14 0
-2 -6 0
-1 -71 0
-1 -62 0
-1 -60 0
-1 -59 0
-1 -54 0
-1 -51 0
-1 -50 0
-1 -40 0
-1 -37 0
-1 -33 0
-1 -29 0
-1 -23 0
-1 -21 0
-1 -6 0
-1 -2 0
1 2 6 21 37 54 59 60 0
3 31 33 42 48 67 68 72 0
4 7 9 25 47 49 62 70 0
5 12 29 38 41 43 45 52 0
8 16 27 35 44 46 51 58 0
10 19 24 28 36 63 65 71 0
11 13 22 26 32 40 53 56 0
14 20 23 30 34 55 66 69 0
15 17 18 39 50 57 61 64 0
