p cnf 90 775
-88 -90 0
-87 -89 0
-87 -88 0
-85 -89 0
-83 -88 0
-83 -87 0
-83 -85 0
-82 -90 0
-80 -81 0
-79 -81 0
-78 -90 0
-78 -88 0
-77 -89 0
-77 -85 0
-77 -81 0
-77 -79 0
-76 -89 0
-76 -85 0
-76 -84 0
-76 -77 0
-75 -90 0
-75 -88 0
-75 -84 0
-75 -78 0
-74 -90 0
-74 -82 0
-74 -81 0
-74 -79 0
-74 -77 0
-73 -84 0
-73 -76 0
-72 -84 0
-72 -82 0
-72 -75 0
-71 -89 0
-71 -87 0
-71 -73 0
-70 -84 0
-70 -81 0
-70 -79 0
-70 -77 0
-70 -75 0
-70 -74 0
-70 -72 0
-69 -82 0
-69 -78 0
-69 -72 0
-68 -89 0
-68 -85 0
-68 -77 0
-68 -76 0
-67 -90 0
-67 -88 0
-67 -79 0
-67 -78 0
-67 -75 0
-66 -86 0
-66 -81 0
-66 -80 0
-65 -89 0
-65 -87 0
-65 -78 0
-65 -71 0
-65 -69 0
-64 -90 0
-64 -89 0
-64 -88 0
-64 -85 0
-64 -78 0
-64 -77 0
-64 -76 0
-64 -75 0
-64 -68 0
-64 -67 0
-63 -89 0
-63 -85 0
-63 -82 0
-63 -77 0
-63 -76 0
-63 -72 0
-63 -69 0
-63 -68 0
-63 -64 0
-62 -88 0
-62 -87 0
-62 -83 0
-62 -80 0
-61 -89 0
-61 -85 0
-61 -80 0
-61 -77 0
-61 -76 0
-61 -68 0
-61 -64 0
-61 -63 0
-61 -62 0
-60 -86 0
-60 -84 0
-60 -76 0
-60 -73 0
-59 -85 0
-59 -83 0
-59 -79 0
-59 -67 0
-58 -90 0
-58 -82 0
-58 -80 0
-58 -74 0
-58 -62 0
-58 -61 0
-57 -90 0
-57 -86 0
-57 -82 0
-57 -74 0
-57 -66 0
-57 -58 0
-56 -85 0
-56 -83 0
-56 -81 0
-56 -80 0
-56 -66 0
-56 -59 0
-55 -90 0
-55 -88 0
-55 -86 0
-55 -78 0
-55 -75 0
-55 -67 0
-55 -64 0
-55 -60 0
-54 -82 0
-54 -79 0
-54 -72 0
-54 -69 0
-54 -67 0
-54 -63 0
-54 -59 0
-53 -90 0
-53 -88 0
-53 -81 0
-53 -80 0
-53 -78 0
-53 -75 0
-53 -67 0
-53 -66 0
-53 -64 0
-53 -56 0
-53 -55 0
-52 -86 0
-52 -82 0
-52 -72 0
-52 -69 0
-52 -63 0
-52 -60 0
-52 -55 0
-52 -54 0
-51 -86 0
-51 -85 0
-51 -83 0
-51 -60 0
-51 -59 0
-51 -56 0
-51 -55 0
-51 -52 0
-50 -82 0
-50 -81 0
-50 -80 0
-50 -72 0
-50 -69 0
-50 -66 0
-50 -63 0
-50 -56 0
-50 -54 0
-50 -53 0
-50 -52 0
-49 -84 0
-49 -78 0
-49 -76 0
-49 -73 0
-49 -69 0
-49 -65 0
-49 -60 0
-48 -90 0
-48 -85 0
-48 -83 0
-48 -82 0
-48 -74 0
-48 -59 0
-48 -58 0
-48 -57 0
-48 -56 0
-48 -51 0
-47 -81 0
-47 -79 0
-47 -77 0
-47 -74 0
-47 -70 0
-46 -90 0
-46 -82 0
-46 -74 0
-46 -68 0
-46 -58 0
-46 -57 0
-46 -48 0
-45 -85 0
-45 -84 0
-45 -83 0
-45 -75 0
-45 -72 0
-45 -70 0
-45 -59 0
-45 -56 0
-45 -51 0
-45 -48 0
-44 -86 0
-44 -73 0
-44 -71 0
-44 -66 0
-44 -57 0
-43 -86 0
-43 -78 0
-43 -69 0
-43 -66 0
-43 -65 0
-43 -57 0
-43 -49 0
-43 -44 0
-42 -84 0
-42 -80 0
-42 -75 0
-42 -72 0
-42 -70 0
-42 -62 0
-42 -61 0
-42 -58 0
-42 -45 0
-41 -88 0
-41 -87 0
-41 -83 0
-41 -68 0
-41 -62 0
-41 -46 0
-40 -81 0
-40 -80 0
-40 -68 0
-40 -66 0
-40 -56 0
-40 -53 0
-40 -50 0
-40 -46 0
-40 -41 0
-39 -84 0
-39 -75 0
-39 -72 0
-39 -70 0
-39 -68 0
-39 -46 0
-39 -45 0
-39 -42 0
-39 -41 0
-39 -40 0
-38 -88 0
-38 -87 0
-38 -83 0
-38 -81 0
-38 -79 0
-38 -77 0
-38 -74 0
-38 -70 0
-38 -62 0
-38 -47 0
-38 -41 0
-37 -88 0
-37 -87 0
-37 -83 0
-37 -82 0
-37 -72 0
-37 -69 0
-37 -63 0
-37 -62 0
-37 -54 0
-37 -52 0
-37 -50 0
-37 -41 0
-37 -38 0
-36 -89 0
-36 -86 0
-36 -85 0
-36 -77 0
-36 -76 0
-36 -68 0
-36 -66 0
-36 -64 0
-36 -63 0
-36 -61 0
-36 -57 0
-36 -44 0
-36 -43 0
-35 -85 0
-35 -83 0
-35 -78 0
-35 -69 0
-35 -65 0
-35 -59 0
-35 -56 0
-35 -51 0
-35 -49 0
-35 -48 0
-35 -45 0
-35 -43 0
-34 -85 0
-34 -83 0
-34 -73 0
-34 -71 0
-34 -59 0
-34 -56 0
-34 -51 0
-34 -48 0
-34 -45 0
-34 -44 0
-34 -35 0
-33 -86 0
-33 -81 0
-33 -79 0
-33 -77 0
-33 -74 0
-33 -70 0
-33 -60 0
-33 -55 0
-33 -52 0
-33 -51 0
-33 -47 0
-33 -38 0
-32 -85 0
-32 -83 0
-32 -59 0
-32 -56 0
-32 -51 0
-32 -48 0
-32 -47 0
-32 -45 0
-32 -35 0
-32 -34 0
-31 -86 0
-31 -79 0
-31 -67 0
-31 -66 0
-31 -59 0
-31 -57 0
-31 -54 0
-31 -44 0
-31 -43 0
-31 -36 0
-30 -82 0
-30 -72 0
-30 -69 0
-30 -63 0
-30 -54 0
-30 -52 0
-30 -50 0
-30 -47 0
-30 -37 0
-30 -32 0
-29 -86 0
-29 -84 0
-29 -75 0
-29 -72 0
-29 -70 0
-29 -66 0
-29 -57 0
-29 -45 0
-29 -44 0
-29 -43 0
-29 -42 0
-29 -39 0
-29 -36 0
-29 -31 0
-28 -90 0
-28 -88 0
-28 -78 0
-28 -75 0
-28 -73 0
-28 -71 0
-28 -67 0
-28 -64 0
-28 -55 0
-28 -53 0
-28 -44 0
-28 -34 0
-27 -79 0
-27 -68 0
-27 -67 0
-27 -59 0
-27 -54 0
-27 -46 0
-27 -41 0
-27 -40 0
-27 -39 0
-27 -31 0
-26 -80 0
-26 -79 0
-26 -67 0
-26 -62 0
-26 -61 0
-26 -59 0
-26 -58 0
-26 -54 0
-26 -42 0
-26 -31 0
-26 -27 0
-25 -81 0
-25 -79 0
-25 -78 0
-25 -77 0
-25 -74 0
-25 -70 0
-25 -69 0
-25 -65 0
-25 -49 0
-25 -47 0
-25 -43 0
-25 -38 0
-25 -35 0
-25 -33 0
-24 -86 0
-24 -66 0
-24 -57 0
-24 -47 0
-24 -44 0
-24 -43 0
-24 -36 0
-24 -32 0
-24 -31 0
-24 -30 0
-24 -29 0
-23 -80 0
-23 -73 0
-23 -71 0
-23 -62 0
-23 -61 0
-23 -58 0
-23 -44 0
-23 -42 0
-23 -34 0
-23 -28 0
-23 -26 0
-22 -90 0
-22 -88 0
-22 -78 0
-22 -75 0
-22 -67 0
-22 -64 0
-22 -55 0
-22 -53 0
-22 -47 0
-22 -32 0
-22 -30 0
-22 -28 0
-22 -24 0
-21 -89 0
-21 -87 0
-21 -84 0
-21 -75 0
-21 -72 0
-21 -71 0
-21 -70 0
-21 -65 0
-21 -45 0
-21 -42 0
-21 -39 0
-21 -29 0
-20 -84 0
-20 -76 0
-20 -73 0
-20 -60 0
-20 -49 0
-20 -47 0
-20 -32 0
-20 -30 0
-20 -24 0
-20 -22 0
-19 -90 0
-19 -89 0
-19 -87 0
-19 -82 0
-19 -74 0
-19 -71 0
-19 -65 0
-19 -58 0
-19 -57 0
-19 -48 0
-19 -46 0
-19 -21 0
-18 -80 0
-18 -78 0
-18 -69 0
-18 -65 0
-18 -62 0
-18 -61 0
-18 -58 0
-18 -49 0
-18 -43 0
-18 -42 0
-18 -35 0
-18 -26 0
-18 -25 0
-18 -23 0
-17 -82 0
-17 -73 0
-17 -72 0
-17 -71 0
-17 -69 0
-17 -63 0
-17 -54 0
-17 -52 0
-17 -50 0
-17 -44 0
-17 -37 0
-17 -34 0
-17 -30 0
-17 -28 0
-17 -23 0
-16 -73 0
-16 -71 0
-16 -68 0
-16 -46 0
-16 -44 0
-16 -41 0
-16 -40 0
-16 -39 0
-16 -34 0
-16 -28 0
-16 -27 0
-16 -23 0
-16 -17 0
-15 -86 0
-15 -80 0
-15 -62 0
-15 -61 0
-15 -60 0
-15 -58 0
-15 -55 0
-15 -52 0
-15 -51 0
-15 -42 0
-15 -33 0
-15 -26 0
-15 -23 0
-15 -18 0
-14 -80 0
-14 -62 0
-14 -61 0
-14 -58 0
-14 -47 0
-14 -42 0
-14 -32 0
-14 -30 0
-14 -26 0
-14 -24 0
-14 -23 0
-14 -22 0
-14 -20 0
-14 -18 0
-14 -15 0
-13 -84 0
-13 -81 0
-13 -80 0
-13 -76 0
-13 -73 0
-13 -66 0
-13 -60 0
-13 -56 0
-13 -53 0
-13 -50 0
-13 -49 0
-13 -40 0
-13 -20 0
-12 -88 0
-12 -87 0
-12 -84 0
-12 -83 0
-12 -76 0
-12 -73 0
-12 -62 0
-12 -60 0
-12 -49 0
-12 -41 0
-12 -38 0
-12 -37 0
-12 -20 0
-12 -13 0
-11 -88 0
-11 -87 0
-11 -86 0
-11 -83 0
-11 -66 0
-11 -62 0
-11 -57 0
-11 -44 0
-11 -43 0
-11 -41 0
-11 -38 0
-11 -37 0
-11 -36 0
-11 -31 0
-11 -29 0
-11 -24 0
-11 -12 0
-10 -78 0
-10 -69 0
-10 -68 0
-10 -65 0
-10 -49 0
-10 -46 0
-10 -43 0
-10 -41 0
-10 -40 0
-10 -39 0
-10 -35 0
-10 -27 0
-10 -25 0
-10 -18 0
-10 -16 0
-9 -89 0
-9 -87 0
-9 -71 0
-9 -65 0
-9 -47 0
-9 -32 0
-9 -30 0
-9 -24 0
-9 -22 0
-9 -21 0
-9 -20 0
-9 -19 0
-9 -14 0
-8 -89 0
-8 -87 0
-8 -86 0
-8 -71 0
-8 -65 0
-8 -60 0
-8 -55 0
-8 -52 0
-8 -51 0
-8 -33 0
-8 -21 0
-8 -19 0
-8 -15 0
-8 -9 0
-7 -86 0
-7 -68 0
-7 -60 0
-7 -55 0
-7 -52 0
-7 -51 0
-7 -46 0
-7 -41 0
-7 -40 0
-7 -39 0
-7 -33 0
-7 -27 0
-7 -16 0
-7 -15 0
-7 -10 0
-7 -8 0
-6 -89 0
-6 -87 0
-6 -79 0
-6 -71 0
-6 -67 0
-6 -65 0
-6 -59 0
-6 -54 0
-6 -31 0
-6 -27 0
-6 -26 0
-6 -21 0
-6 -19 0
-6 -9 0
-6 -8 0
-5 -89 0
-5 -87 0
-5 -81 0
-5 -80 0
-5 -71 0
-5 -66 0
-5 -65 0
-5 -56 0
-5 -53 0
-5 -50 0
-5 -40 0
-5 -21 0
-5 -19 0
-5 -13 0
-5 -9 0
-5 -8 0
-5 -6 0
-4 -68 0
-4 -47 0
-4 -46 0
-4 -41 0
-4 -40 0
-4 -39 0
-4 -32 0
-4 -30 0
-4 -27 0
-4 -24 0
-4 -22 0
-4 -20 0
-4 -16 0
-4 -14 0
-4 -10 0
-4 -9 0
-4 -7 0
-3 -90 0
-3 -84 0
-3 -82 0
-3 -76 0
-3 -74 0
-3 -73 0
-3 -60 0
-3 -58 0
-3 -57 0
-3 -49 0
-3 -48 0
-3 -46 0
-3 -20 0
-3 -19 0
-3 -13 0
-3 -12 0
-2 -84 0
-2 -79 0
-2 -76 0
-2 -73 0
-2 -67 0
-2 -60 0
-2 -59 0
-2 -54 0
-2 -49 0
-2 -31 0
-2 -27 0
-2 -26 0
-2 -20 0
-2 -13 0
-2 -12 0
-2 -6 0
-2 -3 0
-1 -81 0
-1 -79 0
-1 -77 0
-1 -74 0
-1 -73 0
-1 -71 0
-1 -70 0
-1 -47 0
-1 -44 0
-1 -38 0
-1 -34 0
-1 -33 0
-1 -28 0
-1 -25 0
-1 -23 0
-1 -17 0
-1 -16 0
1 16 17 23 28 34 44 71 73 0
2 6 26 27 31 54 59 67 79 0
3 19 46 48 57 58 74 82 90 0
4 9 14 20 22 24 30 32 47 0
5 13 40 50 53 56 66 80 81 0
7 8 15 33 51 52 55 60 86 0
10 18 25 35 43 49 65 69 78 0
11 12 37 38 41 62 83 87 88 0
21 29 39 42 45 70 72 75 84 0
36 61 63 64 68 76 77 85 89 0
