p cnf 30 141
-27 -30 0
-26 -30 0
-26 -28 0
-24 -25 0
-23 -28 0
-23 -26 0
-23 -24 0
-22 -28 0
-22 -25 0
-22 -24 0
-21 -30 0
-21 -29 0
-21 -26 0
-20 -28 0
-20 -27 0
-20 -26 0
-20 -23 0
-19 -29 0
-19 -28 0
-19 -26 0
-19 -23 0
-19 -20 0
-18 -30 0
-18 -29 0
-18 -27 0
-18 -19 0
-17 -29 0
-17 -25 0
-17 -24 0
-17 -22 0
-17 -19 0
-17 -18 0
-16 -27 0
-16 -25 0
-16 -24 0
-16 -22 0
-16 -20 0
-16 -17 0
-15 -30 0
-15 -26 0
-15 -21 0
-14 -25 0
-14 -15 0
-13 -30 0
-13 -26 0
-13 -25 0
-13 -24 0
-13 -22 0
-13 -21 0
-13 -17 0
-13 -16 0
-13 -15 0
-12 -29 0
-12 -19 0
-12 -18 0
-12 -17 0
-12 -15 0
-12 -14 0
-11 -30 0
-11 -27 0
-11 -25 0
-11 -18 0
-11 -14 0
-10 -29 0
-10 -24 0
-10 -23 0
-10 -21 0
-9 -30 0
-9 -27 0
-9 -24 0
-9 -23 0
-9 -18 0
-9 -11 0
-9 -10 0
-8 -27 0
-8 -20 0
-8 -16 0
-8 -15 0
-8 -14 0
-8 -12 0
-7 -28 0
-7 -26 0
-7 -25 0
-7 -23 0
-7 -20 0
-7 -19 0
-7 -14 0
-7 -11 0
-6 -30 0
-6 -28 0
-6 -27 0
-6 -22 0
-6 -18 0
-6 -11 0
-6 -9 0
-5 -24 0
-5 -23 0
-5 -15 0
-5 -14 0
-5 -12 0
-5 -10 0
-5 -9 0
-5 -8 0
-4 -28 0
-4 -22 0
-4 -15 0
-4 -14 0
-4 -12 0
-4 -8 0
-4 -6 0
-4 -5 0
-3 -29 0
-3 -28 0
-3 -22 0
-3 -21 0
-3 -10 0
-3 -6 0
-3 -4 0
-2 -29 0
-2 -25 0
-2 -21 0
-2 -14 0
-2 -11 0
-2 -10 0
-2 -7 0
-2 -3 0
-1 -29 0
-1 -27 0
-1 -21 0
-1 -20 0
-1 -16 0
-1 -10 0
-1 -8 0
-1 -3 0
-1 -2 0
1 8 16 20 27 0
2 7 11 14 25 0
3 4 6 22 28 0
5 9 10 23 24 0
12 17 18 19 29 0
13 15 21 26 30 0
