p cnf 110 1056
-108 -110 0
-107 -109 0
-107 -108 0
-106 -108 0
-106 -107 0
-104 -109 0
-103 -109 0
-103 -107 0
-102 -105 0
-101 -103 0
-99 -106 0
-98 -110 0
-96 -105 0
-96 -104 0
-96 -102 0
-95 -104 0
-95 -96 0
-94 -105 0
-94 -95 0
-93 -109 0
-93 -104 0
-93 -101 0
-92 -108 0
-92 -107 0
-92 -106 0
-92 -101 0
-92 -93 0
-91 -101 0
-91 -97 0
-91 -93 0
-91 -92 0
-90 -102 0
-90 -97 0
-90 -91 0
-89 -106 0
-89 -99 0
-89 -97 0
-89 -91 0
-89 -90 0
-88 -110 0
-88 -108 0
-87 -108 0
-87 -107 0
-87 -106 0
-87 -102 0
-87 -92 0
-87 -90 0
-86 -109 0
-86 -104 0
-86 -93 0
-85 -97 0
-85 -88 0
-84 -109 0
-84 -107 0
-84 -105 0
-84 -103 0
-84 -102 0
-84 -96 0
-83 -109 0
-83 -106 0
-83 -104 0
-83 -99 0
-83 -93 0
-83 -89 0
-83 -86 0
-82 -105 0
-82 -94 0
-82 -88 0
-82 -85 0
-81 -110 0
-81 -104 0
-81 -98 0
-81 -96 0
-81 -95 0
-80 -110 0
-80 -101 0
-80 -98 0
-80 -93 0
-80 -92 0
-80 -91 0
-80 -81 0
-79 -110 0
-79 -102 0
-79 -98 0
-79 -90 0
-79 -87 0
-79 -81 0
-79 -80 0
-78 -100 0
-78 -99 0
-77 -110 0
-77 -108 0
-77 -95 0
-77 -94 0
-77 -88 0
-76 -106 0
-76 -99 0
-76 -89 0
-76 -88 0
-76 -85 0
-76 -83 0
-76 -82 0
-75 -100 0
-75 -95 0
-75 -94 0
-75 -78 0
-75 -77 0
-74 -108 0
-74 -107 0
-74 -106 0
-74 -92 0
-74 -87 0
-74 -86 0
-73 -101 0
-73 -99 0
-73 -93 0
-73 -92 0
-73 -91 0
-73 -80 0
-73 -78 0
-72 -110 0
-72 -108 0
-72 -103 0
-72 -101 0
-72 -88 0
-72 -77 0
-71 -105 0
-71 -102 0
-71 -98 0
-71 -96 0
-71 -84 0
-70 -109 0
-70 -107 0
-70 -103 0
-70 -88 0
-70 -85 0
-70 -84 0
-70 -82 0
-70 -76 0
-69 -98 0
-69 -88 0
-69 -85 0
-69 -82 0
-69 -76 0
-69 -71 0
-69 -70 0
-68 -100 0
-68 -88 0
-68 -85 0
-68 -82 0
-68 -78 0
-68 -76 0
-68 -75 0
-68 -70 0
-68 -69 0
-67 -109 0
-67 -104 0
-67 -97 0
-67 -93 0
-67 -86 0
-67 -85 0
-67 -83 0
-66 -105 0
-66 -100 0
-66 -94 0
-66 -82 0
-65 -104 0
-65 -100 0
-65 -96 0
-65 -95 0
-65 -81 0
-65 -66 0
-64 -109 0
-64 -104 0
-64 -102 0
-64 -93 0
-64 -90 0
-64 -87 0
-64 -86 0
-64 -83 0
-64 -79 0
-64 -67 0
-63 -104 0
-63 -96 0
-63 -95 0
-63 -88 0
-63 -85 0
-63 -82 0
-63 -81 0
-63 -76 0
-63 -70 0
-63 -69 0
-63 -68 0
-63 -65 0
-62 -100 0
-62 -86 0
-62 -74 0
-62 -66 0
-62 -65 0
-61 -108 0
-61 -107 0
-61 -106 0
-61 -100 0
-61 -92 0
-61 -87 0
-61 -78 0
-61 -75 0
-61 -74 0
-61 -68 0
-60 -109 0
-60 -104 0
-60 -100 0
-60 -93 0
-60 -86 0
-60 -83 0
-60 -78 0
-60 -75 0
-60 -68 0
-60 -67 0
-60 -64 0
-60 -61 0
-59 -100 0
-59 -97 0
-59 -91 0
-59 -90 0
-59 -89 0
-59 -78 0
-59 -75 0
-59 -68 0
-59 -61 0
-59 -60 0
-58 -104 0
-58 -99 0
-58 -96 0
-58 -95 0
-58 -81 0
-58 -78 0
-58 -73 0
-58 -65 0
-58 -63 0
-57 -110 0
-57 -105 0
-57 -98 0
-57 -94 0
-57 -82 0
-57 -81 0
-57 -80 0
-57 -79 0
-57 -66 0
-56 -103 0
-56 -102 0
-56 -101 0
-56 -90 0
-56 -87 0
-56 -79 0
-56 -72 0
-56 -64 0
-55 -110 0
-55 -108 0
-55 -99 0
-55 -88 0
-55 -78 0
-55 -77 0
-55 -73 0
-55 -72 0
-55 -58 0
-54 -110 0
-54 -108 0
-54 -105 0
-54 -102 0
-54 -96 0
-54 -88 0
-54 -84 0
-54 -77 0
-54 -72 0
-54 -71 0
-54 -55 0
-53 -105 0
-53 -99 0
-53 -94 0
-53 -82 0
-53 -78 0
-53 -73 0
-53 -66 0
-53 -58 0
-53 -57 0
-53 -55 0
-52 -102 0
-52 -100 0
-52 -90 0
-52 -87 0
-52 -79 0
-52 -66 0
-52 -65 0
-52 -64 0
-52 -62 0
-52 -56 0
-51 -104 0
-51 -103 0
-51 -101 0
-51 -96 0
-51 -95 0
-51 -81 0
-51 -72 0
-51 -65 0
-51 -63 0
-51 -58 0
-51 -56 0
-50 -101 0
-50 -93 0
-50 -92 0
-50 -91 0
-50 -88 0
-50 -85 0
-50 -82 0
-50 -80 0
-50 -76 0
-50 -73 0
-50 -70 0
-50 -69 0
-50 -68 0
-50 -63 0
-49 -98 0
-49 -95 0
-49 -94 0
-49 -77 0
-49 -75 0
-49 -71 0
-49 -69 0
-48 -109 0
-48 -107 0
-48 -103 0
-48 -99 0
-48 -84 0
-48 -78 0
-48 -73 0
-48 -70 0
-48 -58 0
-48 -55 0
-48 -53 0
-47 -110 0
-47 -108 0
-47 -97 0
-47 -91 0
-47 -90 0
-47 -89 0
-47 -88 0
-47 -77 0
-47 -72 0
-47 -59 0
-47 -55 0
-47 -54 0
-46 -110 0
-46 -98 0
-46 -97 0
-46 -85 0
-46 -81 0
-46 -80 0
-46 -79 0
-46 -67 0
-46 -57 0
-45 -105 0
-45 -103 0
-45 -101 0
-45 -94 0
-45 -82 0
-45 -72 0
-45 -66 0
-45 -57 0
-45 -56 0
-45 -53 0
-45 -51 0
-44 -98 0
-44 -97 0
-44 -91 0
-44 -90 0
-44 -89 0
-44 -71 0
-44 -69 0
-44 -59 0
-44 -49 0
-44 -47 0
-43 -105 0
-43 -102 0
-43 -96 0
-43 -86 0
-43 -84 0
-43 -74 0
-43 -71 0
-43 -62 0
-43 -54 0
-42 -104 0
-42 -97 0
-42 -96 0
-42 -95 0
-42 -91 0
-42 -90 0
-42 -89 0
-42 -81 0
-42 -65 0
-42 -63 0
-42 -59 0
-42 -58 0
-42 -51 0
-42 -47 0
-42 -44 0
-41 -110 0
-41 -106 0
-41 -99 0
-41 -98 0
-41 -89 0
-41 -83 0
-41 -81 0
-41 -80 0
-41 -79 0
-41 -76 0
-41 -57 0
-41 -46 0
-40 -109 0
-40 -104 0
-40 -98 0
-40 -93 0
-40 -86 0
-40 -83 0
-40 -71 0
-40 -69 0
-40 -67 0
-40 -64 0
-40 -60 0
-40 -49 0
-40 -44 0
-39 -110 0
-39 -109 0
-39 -108 0
-39 -104 0
-39 -93 0
-39 -88 0
-39 -86 0
-39 -83 0
-39 -77 0
-39 -72 0
-39 -67 0
-39 -64 0
-39 -60 0
-39 -55 0
-39 -54 0
-39 -47 0
-39 -40 0
-38 -100 0
-38 -98 0
-38 -71 0
-38 -69 0
-38 -66 0
-38 -65 0
-38 -62 0
-38 -52 0
-38 -49 0
-38 -44 0
-38 -40 0
-37 -102 0
-37 -95 0
-37 -94 0
-37 -90 0
-37 -87 0
-37 -79 0
-37 -77 0
-37 -75 0
-37 -64 0
-37 -56 0
-37 -52 0
-37 -49 0
-36 -108 0
-36 -107 0
-36 -106 0
-36 -97 0
-36 -92 0
-36 -87 0
-36 -85 0
-36 -74 0
-36 -67 0
-36 -61 0
-36 -46 0
-35 -106 0
-35 -103 0
-35 -101 0
-35 -99 0
-35 -89 0
-35 -83 0
-35 -76 0
-35 -72 0
-35 -56 0
-35 -51 0
-35 -45 0
-35 -41 0
-34 -110 0
-34 -98 0
-34 -86 0
-34 -81 0
-34 -80 0
-34 -79 0
-34 -74 0
-34 -62 0
-34 -57 0
-34 -46 0
-34 -43 0
-34 -41 0
-33 -101 0
-33 -100 0
-33 -93 0
-33 -92 0
-33 -91 0
-33 -80 0
-33 -73 0
-33 -66 0
-33 -65 0
-33 -62 0
-33 -52 0
-33 -50 0
-33 -38 0
-32 -110 0
-32 -108 0
-32 -100 0
-32 -88 0
-32 -77 0
-32 -72 0
-32 -66 0
-32 -65 0
-32 -62 0
-32 -55 0
-32 -54 0
-32 -52 0
-32 -47 0
-32 -39 0
-32 -38 0
-32 -33 0
-31 -108 0
-31 -107 0
-31 -106 0
-31 -105 0
-31 -94 0
-31 -92 0
-31 -87 0
-31 -82 0
-31 -74 0
-31 -66 0
-31 -61 0
-31 -57 0
-31 -53 0
-31 -45 0
-31 -36 0
-30 -105 0
-30 -102 0
-30 -97 0
-30 -96 0
-30 -85 0
-30 -84 0
-30 -71 0
-30 -67 0
-30 -54 0
-30 -46 0
-30 -43 0
-30 -36 0
-29 -88 0
-29 -86 0
-29 -85 0
-29 -82 0
-29 -76 0
-29 -74 0
-29 -70 0
-29 -69 0
-29 -68 0
-29 -63 0
-29 -62 0
-29 -50 0
-29 -43 0
-29 -34 0
-28 -108 0
-28 -107 0
-28 -106 0
-28 -98 0
-28 -92 0
-28 -87 0
-28 -74 0
-28 -71 0
-28 -69 0
-28 -61 0
-28 -49 0
-28 -44 0
-28 -40 0
-28 -38 0
-28 -36 0
-28 -31 0
-27 -105 0
-27 -102 0
-27 -100 0
-27 -96 0
-27 -84 0
-27 -78 0
-27 -75 0
-27 -71 0
-27 -68 0
-27 -61 0
-27 -60 0
-27 -59 0
-27 -54 0
-27 -43 0
-27 -30 0
-26 -105 0
-26 -102 0
-26 -101 0
-26 -96 0
-26 -93 0
-26 -92 0
-26 -91 0
-26 -84 0
-26 -80 0
-26 -73 0
-26 -71 0
-26 -54 0
-26 -50 0
-26 -43 0
-26 -33 0
-26 -30 0
-26 -27 0
-25 -103 0
-25 -101 0
-25 -98 0
-25 -72 0
-25 -71 0
-25 -69 0
-25 -56 0
-25 -51 0
-25 -49 0
-25 -45 0
-25 -44 0
-25 -40 0
-25 -38 0
-25 -35 0
-25 -28 0
-24 -106 0
-24 -100 0
-24 -99 0
-24 -89 0
-24 -83 0
-24 -76 0
-24 -66 0
-24 -65 0
-24 -62 0
-24 -52 0
-24 -41 0
-24 -38 0
-24 -35 0
-24 -33 0
-24 -32 0
-23 -110 0
-23 -100 0
-23 -98 0
-23 -81 0
-23 -80 0
-23 -79 0
-23 -78 0
-23 -75 0
-23 -68 0
-23 -61 0
-23 -60 0
-23 -59 0
-23 -57 0
-23 -46 0
-23 -41 0
-23 -34 0
-23 -27 0
-22 -99 0
-22 -86 0
-22 -78 0
-22 -74 0
-22 -73 0
-22 -62 0
-22 -58 0
-22 -55 0
-22 -53 0
-22 -48 0
-22 -43 0
-22 -34 0
-22 -29 0
-21 -108 0
-21 -107 0
-21 -106 0
-21 -104 0
-21 -96 0
-21 -95 0
-21 -92 0
-21 -87 0
-21 -81 0
-21 -74 0
-21 -65 0
-21 -63 0
-21 -61 0
-21 -58 0
-21 -51 0
-21 -42 0
-21 -36 0
-21 -31 0
-21 -28 0
-20 -103 0
-20 -101 0
-20 -100 0
-20 -78 0
-20 -75 0
-20 -72 0
-20 -68 0
-20 -61 0
-20 -60 0
-20 -59 0
-20 -56 0
-20 -51 0
-20 -45 0
-20 -35 0
-20 -27 0
-20 -25 0
-20 -23 0
-19 -106 0
-19 -105 0
-19 -102 0
-19 -99 0
-19 -96 0
-19 -89 0
-19 -84 0
-19 -83 0
-19 -76 0
-19 -71 0
-19 -54 0
-19 -43 0
-19 -41 0
-19 -35 0
-19 -30 0
-19 -27 0
-19 -26 0
-19 -24 0
-18 -103 0
-18 -101 0
-18 -97 0
-18 -85 0
-18 -72 0
-18 -67 0
-18 -56 0
-18 -51 0
-18 -46 0
-18 -45 0
-18 -36 0
-18 -35 0
-18 -30 0
-18 -25 0
-18 -20 0
-17 -103 0
-17 -101 0
-17 -86 0
-17 -74 0
-17 -72 0
-17 -62 0
-17 -56 0
-17 -51 0
-17 -45 0
-17 -43 0
-17 -35 0
-17 -34 0
-17 -29 0
-17 -25 0
-17 -22 0
-17 -20 0
-17 -18 0
-16 -109 0
-16 -107 0
-16 -103 0
-16 -97 0
-16 -91 0
-16 -90 0
-16 -89 0
-16 -84 0
-16 -70 0
-16 -59 0
-16 -48 0
-16 -47 0
-16 -44 0
-16 -42 0
-15 -99 0
-15 -97 0
-15 -85 0
-15 -78 0
-15 -73 0
-15 -67 0
-15 -58 0
-15 -55 0
-15 -53 0
-15 -48 0
-15 -46 0
-15 -36 0
-15 -30 0
-15 -22 0
-15 -18 0
-14 -97 0
-14 -91 0
-14 -90 0
-14 -89 0
-14 -86 0
-14 -74 0
-14 -62 0
-14 -59 0
-14 -47 0
-14 -44 0
-14 -43 0
-14 -42 0
-14 -34 0
-14 -29 0
-14 -22 0
-14 -17 0
-14 -16 0
-13 -109 0
-13 -107 0
-13 -103 0
-13 -100 0
-13 -84 0
-13 -70 0
-13 -66 0
-13 -65 0
-13 -62 0
-13 -52 0
-13 -48 0
-13 -38 0
-13 -33 0
-13 -32 0
-13 -24 0
-13 -16 0
-12 -102 0
-12 -90 0
-12 -88 0
-12 -87 0
-12 -85 0
-12 -82 0
-12 -79 0
-12 -76 0
-12 -70 0
-12 -69 0
-12 -68 0
-12 -64 0
-12 -63 0
-12 -56 0
-12 -52 0
-12 -50 0
-12 -37 0
-12 -29 0
-11 -110 0
-11 -109 0
-11 -107 0
-11 -103 0
-11 -98 0
-11 -84 0
-11 -81 0
-11 -80 0
-11 -79 0
-11 -70 0
-11 -57 0
-11 -48 0
-11 -46 0
-11 -41 0
-11 -34 0
-11 -23 0
-11 -16 0
-11 -13 0
-10 -95 0
-10 -94 0
-10 -86 0
-10 -77 0
-10 -75 0
-10 -74 0
-10 -62 0
-10 -49 0
-10 -43 0
-10 -37 0
-10 -34 0
-10 -29 0
-10 -22 0
-10 -17 0
-10 -14 0
-9 -106 0
-9 -99 0
-9 -95 0
-9 -94 0
-9 -89 0
-9 -83 0
-9 -77 0
-9 -76 0
-9 -75 0
-9 -49 0
-9 -41 0
-9 -37 0
-9 -35 0
-9 -24 0
-9 -19 0
-9 -10 0
-8 -99 0
-8 -98 0
-8 -78 0
-8 -73 0
-8 -71 0
-8 -69 0
-8 -58 0
-8 -55 0
-8 -53 0
-8 -49 0
-8 -48 0
-8 -44 0
-8 -40 0
-8 -38 0
-8 -28 0
-8 -25 0
-8 -22 0
-8 -15 0
-7 -97 0
-7 -95 0
-7 -94 0
-7 -85 0
-7 -77 0
-7 -75 0
-7 -67 0
-7 -49 0
-7 -46 0
-7 -37 0
-7 -36 0
-7 -30 0
-7 -18 0
-7 -15 0
-7 -10 0
-7 -9 0
-6 -101 0
-6 -95 0
-6 -94 0
-6 -93 0
-6 -92 0
-6 -91 0
-6 -80 0
-6 -77 0
-6 -75 0
-6 -73 0
-6 -50 0
-6 -49 0
-6 -37 0
-6 -33 0
-6 -26 0
-6 -10 0
-6 -9 0
-6 -7 0
-5 -109 0
-5 -107 0
-5 -103 0
-5 -95 0
-5 -94 0
-5 -84 0
-5 -77 0
-5 -75 0
-5 -70 0
-5 -49 0
-5 -48 0
-5 -37 0
-5 -16 0
-5 -13 0
-5 -11 0
-5 -10 0
-5 -9 0
-5 -7 0
-5 -6 0
-4 -102 0
-4 -99 0
-4 -90 0
-4 -87 0
-4 -79 0
-4 -78 0
-4 -73 0
-4 -64 0
-4 -58 0
-4 -56 0
-4 -55 0
-4 -53 0
-4 -52 0
-4 -48 0
-4 -37 0
-4 -22 0
-4 -15 0
-4 -12 0
-4 -8 0
-3 -109 0
-3 -105 0
-3 -104 0
-3 -94 0
-3 -93 0
-3 -86 0
-3 -83 0
-3 -82 0
-3 -67 0
-3 -66 0
-3 -64 0
-3 -60 0
-3 -57 0
-3 -53 0
-3 -45 0
-3 -40 0
-3 -39 0
-3 -31 0
-2 -105 0
-2 -97 0
-2 -94 0
-2 -91 0
-2 -90 0
-2 -89 0
-2 -82 0
-2 -66 0
-2 -59 0
-2 -57 0
-2 -53 0
-2 -47 0
-2 -45 0
-2 -44 0
-2 -42 0
-2 -31 0
-2 -16 0
-2 -14 0
-2 -3 0
-1 -100 0
-1 -97 0
-1 -85 0
-1 -67 0
-1 -66 0
-1 -65 0
-1 -62 0
-1 -52 0
-1 -46 0
-1 -38 0
-1 -36 0
-1 -33 0
-1 -32 0
-1 -30 0
-1 -24 0
-1 -18 0
-1 -15 0
-1 -13 0
-1 -7 0
1 7 15 18 30 36 46 67 85 97 0
2 3 31 45 53 57 66 82 94 105 0
4 12 37 52 56 64 79 87 90 102 0
5 11 13 16 48 70 84 103 107 109 0
6 26 33 50 73 80 91 92 93 101 0
8 25 28 38 40 44 49 69 71 98 0
9 19 24 35 41 76 83 89 99 106 0
10 14 17 22 29 34 43 62 74 86 0
20 23 27 59 60 61 68 75 78 100 0
21 42 51 58 63 65 81 95 96 104 0
32 39 47 54 55 72 77 88 108 110 0
