p cnf 30 141
-28 -30 0
-28 -29 0
-26 -30 0
-26 -29 0
-25 -27 0
-24 -25 0
-23 -27 0
-22 -25 0
-22 -24 0
-21 -23 0
-20 -30 0
-20 -27 0
-20 -26 0
-20 -25 0
-19 -29 0
-19 -27 0
-19 -26 0
-19 -23 0
-18 -29 0
-18 -28 0
-18 -23 0
-18 -21 0
-17 -29 0
-17 -28 0
-17 -24 0
-17 -18 0
-16 -29 0
-16 -26 0
-16 -25 0
-16 -24 0
-16 -22 0
-16 -19 0
-15 -30 0
-15 -28 0
-15 -27 0
-15 -23 0
-15 -19 0
-14 -27 0
-14 -24 0
-14 -23 0
-14 -19 0
-14 -17 0
-14 -15 0
-13 -29 0
-13 -28 0
-13 -22 0
-13 -18 0
-13 -17 0
-12 -29 0
-12 -28 0
-12 -27 0
-12 -25 0
-12 -20 0
-12 -18 0
-12 -17 0
-12 -13 0
-11 -30 0
-11 -26 0
-11 -23 0
-11 -21 0
-11 -20 0
-11 -18 0
-10 -22 0
-10 -21 0
-10 -13 0
-9 -30 0
-9 -28 0
-9 -25 0
-9 -24 0
-9 -22 0
-9 -16 0
-9 -15 0
-8 -24 0
-8 -21 0
-8 -17 0
-8 -14 0
-8 -10 0
-7 -29 0
-7 -26 0
-7 -21 0
-7 -19 0
-7 -16 0
-7 -10 0
-7 -8 0
-6 -27 0
-6 -23 0
-6 -22 0
-6 -19 0
-6 -15 0
-6 -14 0
-6 -13 0
-6 -10 0
-5 -25 0
-5 -24 0
-5 -23 0
-5 -22 0
-5 -21 0
-5 -18 0
-5 -16 0
-5 -11 0
-5 -9 0
-4 -30 0
-4 -26 0
-4 -24 0
-4 -20 0
-4 -17 0
-4 -14 0
-4 -11 0
-4 -8 0
-3 -30 0
-3 -26 0
-3 -22 0
-3 -20 0
-3 -13 0
-3 -11 0
-3 -10 0
-3 -6 0
-3 -4 0
-2 -27 0
-2 -25 0
-2 -21 0
-2 -20 0
-2 -12 0
-2 -10 0
-2 -8 0
-2 -7 0
-1 -30 0
-1 -28 0
-1 -21 0
-1 -15 0
-1 -10 0
-1 -9 0
-1 -8 0
-1 -7 0
-1 -2 0
1 9 15 28 30 0
2 12 20 25 27 0
3 6 10 13 22 0
4 8 14 17 24 0
5 11 18 21 23 0
7 16 19 26 29 0
