p cnf 110 1056
-107 -108 0
-105 -107 0
-104 -108 0
-104 -107 0
-103 -108 0
-103 -105 0
-102 -105 0
-102 -103 0
-101 -108 0
-101 -103 0
-100 -110 0
-100 -102 0
-99 -102 0
-99 -100 0
-98 -99 0
-97 -109 0
-97 -106 0
-95 -110 0
-95 -104 0
-95 -100 0
-94 -105 0
-94 -104 0
-94 -103 0
-94 -102 0
-94 -95 0
-93 -109 0
-92 -107 0
-92 -105 0
-92 -99 0
-92 -98 0
-91 -110 0
-91 -106 0
-91 -100 0
-91 -97 0
-91 -95 0
-90 -102 0
-90 -100 0
-90 -99 0
-90 -96 0
-89 -106 0
-89 -97 0
-89 -93 0
-89 -91 0
-88 -107 0
-88 -105 0
-88 -96 0
-88 -92 0
-88 -90 0
-87 -109 0
-87 -98 0
-87 -97 0
-85 -110 0
-85 -101 0
-84 -86 0
-83 -109 0
-83 -104 0
-83 -97 0
-83 -95 0
-83 -94 0
-83 -87 0
-82 -110 0
-82 -109 0
-82 -97 0
-82 -87 0
-82 -85 0
-82 -83 0
-81 -96 0
-81 -90 0
-81 -88 0
-81 -86 0
-81 -84 0
-80 -106 0
-80 -97 0
-80 -96 0
-80 -91 0
-80 -90 0
-80 -89 0
-80 -88 0
-80 -81 0
-79 -93 0
-79 -89 0
-79 -86 0
-79 -84 0
-79 -81 0
-78 -96 0
-78 -86 0
-77 -101 0
-77 -98 0
-77 -87 0
-77 -85 0
-76 -108 0
-76 -107 0
-76 -104 0
-76 -86 0
-76 -84 0
-76 -81 0
-76 -79 0
-75 -109 0
-75 -107 0
-75 -105 0
-75 -97 0
-75 -92 0
-75 -88 0
-75 -87 0
-75 -83 0
-75 -82 0
-74 -106 0
-74 -86 0
-74 -84 0
-74 -81 0
-74 -79 0
-74 -76 0
-73 -110 0
-73 -108 0
-73 -107 0
-73 -104 0
-73 -85 0
-73 -82 0
-73 -76 0
-72 -109 0
-72 -97 0
-72 -87 0
-72 -86 0
-72 -84 0
-72 -83 0
-72 -82 0
-72 -81 0
-72 -79 0
-72 -76 0
-72 -75 0
-72 -74 0
-71 -109 0
-71 -105 0
-71 -103 0
-71 -102 0
-71 -94 0
-71 -93 0
-70 -99 0
-70 -98 0
-70 -96 0
-70 -92 0
-70 -78 0
-69 -110 0
-69 -108 0
-69 -103 0
-69 -101 0
-69 -100 0
-69 -95 0
-69 -91 0
-68 -109 0
-68 -97 0
-68 -96 0
-68 -87 0
-68 -83 0
-68 -82 0
-68 -78 0
-68 -75 0
-68 -72 0
-68 -70 0
-67 -106 0
-67 -98 0
-67 -87 0
-67 -77 0
-67 -74 0
-66 -110 0
-66 -105 0
-66 -103 0
-66 -102 0
-66 -94 0
-66 -85 0
-66 -82 0
-66 -73 0
-66 -71 0
-65 -108 0
-65 -107 0
-65 -104 0
-65 -98 0
-65 -87 0
-65 -77 0
-65 -76 0
-65 -73 0
-65 -67 0
-64 -106 0
-64 -101 0
-64 -97 0
-64 -91 0
-64 -89 0
-64 -85 0
-64 -80 0
-64 -77 0
-63 -110 0
-63 -106 0
-63 -85 0
-63 -82 0
-63 -74 0
-63 -73 0
-63 -67 0
-63 -66 0
-62 -110 0
-62 -85 0
-62 -84 0
-62 -82 0
-62 -73 0
-62 -66 0
-62 -63 0
-61 -110 0
-61 -100 0
-61 -96 0
-61 -95 0
-61 -91 0
-61 -78 0
-61 -70 0
-61 -69 0
-61 -68 0
-60 -109 0
-60 -99 0
-60 -98 0
-60 -93 0
-60 -92 0
-60 -71 0
-60 -70 0
-59 -110 0
-59 -86 0
-59 -85 0
-59 -82 0
-59 -78 0
-59 -73 0
-59 -66 0
-59 -63 0
-59 -62 0
-58 -106 0
-58 -97 0
-58 -91 0
-58 -89 0
-58 -86 0
-58 -80 0
-58 -78 0
-58 -64 0
-58 -59 0
-57 -96 0
-57 -84 0
-57 -78 0
-57 -70 0
-57 -68 0
-57 -62 0
-57 -61 0
-56 -98 0
-56 -93 0
-56 -89 0
-56 -87 0
-56 -79 0
-56 -77 0
-56 -67 0
-56 -65 0
-55 -109 0
-55 -106 0
-55 -93 0
-55 -74 0
-55 -71 0
-55 -67 0
-55 -63 0
-55 -60 0
-54 -98 0
-54 -87 0
-54 -86 0
-54 -78 0
-54 -77 0
-54 -67 0
-54 -65 0
-54 -59 0
-54 -58 0
-54 -56 0
-53 -98 0
-53 -87 0
-53 -84 0
-53 -77 0
-53 -67 0
-53 -65 0
-53 -62 0
-53 -57 0
-53 -56 0
-53 -54 0
-52 -108 0
-52 -107 0
-52 -106 0
-52 -104 0
-52 -97 0
-52 -91 0
-52 -89 0
-52 -80 0
-52 -76 0
-52 -73 0
-52 -65 0
-52 -64 0
-52 -58 0
-51 -106 0
-51 -99 0
-51 -98 0
-51 -97 0
-51 -92 0
-51 -91 0
-51 -89 0
-51 -80 0
-51 -70 0
-51 -64 0
-51 -60 0
-51 -58 0
-51 -52 0
-50 -110 0
-50 -93 0
-50 -89 0
-50 -85 0
-50 -82 0
-50 -79 0
-50 -73 0
-50 -66 0
-50 -63 0
-50 -62 0
-50 -59 0
-50 -56 0
-49 -110 0
-49 -100 0
-49 -98 0
-49 -95 0
-49 -91 0
-49 -87 0
-49 -77 0
-49 -69 0
-49 -67 0
-49 -65 0
-49 -61 0
-49 -56 0
-49 -54 0
-49 -53 0
-48 -106 0
-48 -97 0
-48 -91 0
-48 -89 0
-48 -84 0
-48 -80 0
-48 -64 0
-48 -62 0
-48 -58 0
-48 -57 0
-48 -53 0
-48 -52 0
-48 -51 0
-47 -102 0
-47 -100 0
-47 -99 0
-47 -93 0
-47 -90 0
-47 -89 0
-47 -79 0
-47 -56 0
-47 -50 0
-46 -109 0
-46 -108 0
-46 -103 0
-46 -101 0
-46 -97 0
-46 -87 0
-46 -83 0
-46 -82 0
-46 -75 0
-46 -72 0
-46 -69 0
-46 -68 0
-45 -107 0
-45 -106 0
-45 -105 0
-45 -92 0
-45 -88 0
-45 -75 0
-45 -74 0
-45 -67 0
-45 -63 0
-45 -55 0
-44 -105 0
-44 -103 0
-44 -102 0
-44 -96 0
-44 -94 0
-44 -78 0
-44 -71 0
-44 -70 0
-44 -68 0
-44 -66 0
-44 -61 0
-44 -57 0
-43 -108 0
-43 -107 0
-43 -104 0
-43 -96 0
-43 -78 0
-43 -76 0
-43 -73 0
-43 -70 0
-43 -68 0
-43 -65 0
-43 -61 0
-43 -57 0
-43 -52 0
-43 -44 0
-42 -106 0
-42 -96 0
-42 -78 0
-42 -74 0
-42 -70 0
-42 -68 0
-42 -67 0
-42 -63 0
-42 -61 0
-42 -57 0
-42 -55 0
-42 -45 0
-42 -44 0
-42 -43 0
-41 -110 0
-41 -96 0
-41 -90 0
-41 -88 0
-41 -85 0
-41 -82 0
-41 -81 0
-41 -80 0
-41 -73 0
-41 -66 0
-41 -63 0
-41 -62 0
-41 -59 0
-41 -50 0
-40 -108 0
-40 -103 0
-40 -101 0
-40 -93 0
-40 -89 0
-40 -79 0
-40 -69 0
-40 -56 0
-40 -50 0
-40 -47 0
-40 -46 0
-39 -104 0
-39 -95 0
-39 -94 0
-39 -86 0
-39 -83 0
-39 -78 0
-39 -59 0
-39 -58 0
-39 -54 0
-38 -109 0
-38 -93 0
-38 -86 0
-38 -78 0
-38 -71 0
-38 -60 0
-38 -59 0
-38 -58 0
-38 -55 0
-38 -54 0
-38 -39 0
-37 -108 0
-37 -103 0
-37 -101 0
-37 -84 0
-37 -69 0
-37 -62 0
-37 -57 0
-37 -53 0
-37 -48 0
-37 -46 0
-37 -40 0
-36 -96 0
-36 -93 0
-36 -89 0
-36 -79 0
-36 -78 0
-36 -70 0
-36 -68 0
-36 -61 0
-36 -57 0
-36 -56 0
-36 -50 0
-36 -47 0
-36 -44 0
-36 -43 0
-36 -42 0
-36 -40 0
-35 -110 0
-35 -99 0
-35 -98 0
-35 -92 0
-35 -85 0
-35 -82 0
-35 -73 0
-35 -70 0
-35 -66 0
-35 -63 0
-35 -62 0
-35 -60 0
-35 -59 0
-35 -51 0
-35 -50 0
-35 -41 0
-34 -98 0
-34 -96 0
-34 -90 0
-34 -88 0
-34 -87 0
-34 -81 0
-34 -80 0
-34 -77 0
-34 -67 0
-34 -65 0
-34 -56 0
-34 -54 0
-34 -53 0
-34 -49 0
-34 -41 0
-33 -104 0
-33 -96 0
-33 -95 0
-33 -94 0
-33 -90 0
-33 -88 0
-33 -83 0
-33 -81 0
-33 -80 0
-33 -41 0
-33 -39 0
-33 -34 0
-32 -109 0
-32 -101 0
-32 -93 0
-32 -85 0
-32 -77 0
-32 -71 0
-32 -64 0
-32 -60 0
-32 -55 0
-32 -38 0
-31 -108 0
-31 -107 0
-31 -104 0
-31 -102 0
-31 -100 0
-31 -99 0
-31 -90 0
-31 -76 0
-31 -73 0
-31 -65 0
-31 -52 0
-31 -47 0
-31 -43 0
-30 -102 0
-30 -100 0
-30 -99 0
-30 -90 0
-30 -86 0
-30 -78 0
-30 -59 0
-30 -58 0
-30 -54 0
-30 -47 0
-30 -39 0
-30 -38 0
-30 -31 0
-29 -109 0
-29 -96 0
-29 -93 0
-29 -90 0
-29 -88 0
-29 -81 0
-29 -80 0
-29 -71 0
-29 -60 0
-29 -55 0
-29 -41 0
-29 -38 0
-29 -34 0
-29 -33 0
-29 -32 0
-28 -104 0
-28 -99 0
-28 -98 0
-28 -95 0
-28 -94 0
-28 -92 0
-28 -83 0
-28 -70 0
-28 -60 0
-28 -51 0
-28 -39 0
-28 -35 0
-28 -33 0
-27 -110 0
-27 -100 0
-27 -95 0
-27 -91 0
-27 -86 0
-27 -84 0
-27 -81 0
-27 -79 0
-27 -76 0
-27 -74 0
-27 -72 0
-27 -69 0
-27 -61 0
-27 -49 0
-26 -105 0
-26 -103 0
-26 -102 0
-26 -98 0
-26 -94 0
-26 -87 0
-26 -77 0
-26 -71 0
-26 -67 0
-26 -66 0
-26 -65 0
-26 -56 0
-26 -54 0
-26 -53 0
-26 -49 0
-26 -44 0
-26 -34 0
-25 -108 0
-25 -106 0
-25 -103 0
-25 -101 0
-25 -74 0
-25 -69 0
-25 -67 0
-25 -63 0
-25 -55 0
-25 -46 0
-25 -45 0
-25 -42 0
-25 -40 0
-25 -37 0
-24 -110 0
-24 -109 0
-24 -100 0
-24 -95 0
-24 -93 0
-24 -91 0
-24 -71 0
-24 -69 0
-24 -61 0
-24 -60 0
-24 -55 0
-24 -49 0
-24 -38 0
-24 -32 0
-24 -29 0
-24 -27 0
-23 -107 0
-23 -105 0
-23 -92 0
-23 -88 0
-23 -86 0
-23 -78 0
-23 -75 0
-23 -59 0
-23 -58 0
-23 -54 0
-23 -45 0
-23 -39 0
-23 -38 0
-23 -30 0
-22 -101 0
-22 -96 0
-22 -85 0
-22 -78 0
-22 -77 0
-22 -70 0
-22 -68 0
-22 -64 0
-22 -61 0
-22 -57 0
-22 -44 0
-22 -43 0
-22 -42 0
-22 -36 0
-22 -32 0
-21 -109 0
-21 -93 0
-21 -84 0
-21 -71 0
-21 -62 0
-21 -60 0
-21 -57 0
-21 -55 0
-21 -53 0
-21 -48 0
-21 -38 0
-21 -37 0
-21 -32 0
-21 -29 0
-21 -24 0
-20 -107 0
-20 -105 0
-20 -93 0
-20 -92 0
-20 -89 0
-20 -88 0
-20 -79 0
-20 -75 0
-20 -56 0
-20 -50 0
-20 -47 0
-20 -45 0
-20 -40 0
-20 -36 0
-20 -23 0
-19 -109 0
-19 -102 0
-19 -100 0
-19 -99 0
-19 -97 0
-19 -90 0
-19 -87 0
-19 -83 0
-19 -82 0
-19 -75 0
-19 -72 0
-19 -68 0
-19 -47 0
-19 -46 0
-19 -31 0
-19 -30 0
-18 -106 0
-18 -104 0
-18 -95 0
-18 -94 0
-18 -83 0
-18 -74 0
-18 -67 0
-18 -63 0
-18 -55 0
-18 -45 0
-18 -42 0
-18 -39 0
-18 -33 0
-18 -28 0
-18 -25 0
-17 -106 0
-17 -102 0
-17 -100 0
-17 -99 0
-17 -90 0
-17 -74 0
-17 -67 0
-17 -63 0
-17 -55 0
-17 -47 0
-17 -45 0
-17 -42 0
-17 -31 0
-17 -30 0
-17 -25 0
-17 -19 0
-17 -18 0
-16 -104 0
-16 -101 0
-16 -95 0
-16 -94 0
-16 -85 0
-16 -83 0
-16 -77 0
-16 -64 0
-16 -39 0
-16 -33 0
-16 -32 0
-16 -28 0
-16 -22 0
-16 -18 0
-15 -109 0
-15 -108 0
-15 -107 0
-15 -104 0
-15 -93 0
-15 -76 0
-15 -73 0
-15 -71 0
-15 -65 0
-15 -60 0
-15 -55 0
-15 -52 0
-15 -43 0
-15 -38 0
-15 -32 0
-15 -31 0
-15 -29 0
-15 -24 0
-15 -21 0
-14 -107 0
-14 -105 0
-14 -101 0
-14 -92 0
-14 -88 0
-14 -85 0
-14 -77 0
-14 -75 0
-14 -64 0
-14 -45 0
-14 -32 0
-14 -23 0
-14 -22 0
-14 -20 0
-14 -16 0
-13 -102 0
-13 -100 0
-13 -99 0
-13 -90 0
-13 -84 0
-13 -62 0
-13 -57 0
-13 -53 0
-13 -48 0
-13 -47 0
-13 -37 0
-13 -31 0
-13 -30 0
-13 -21 0
-13 -19 0
-13 -17 0
-12 -99 0
-12 -98 0
-12 -92 0
-12 -86 0
-12 -84 0
-12 -81 0
-12 -79 0
-12 -76 0
-12 -74 0
-12 -72 0
-12 -70 0
-12 -60 0
-12 -51 0
-12 -35 0
-12 -28 0
-12 -27 0
-11 -104 0
-11 -95 0
-11 -94 0
-11 -93 0
-11 -89 0
-11 -83 0
-11 -79 0
-11 -56 0
-11 -50 0
-11 -47 0
-11 -40 0
-11 -39 0
-11 -36 0
-11 -33 0
-11 -28 0
-11 -20 0
-11 -18 0
-11 -16 0
-10 -101 0
-10 -86 0
-10 -85 0
-10 -84 0
-10 -81 0
-10 -79 0
-10 -77 0
-10 -76 0
-10 -74 0
-10 -72 0
-10 -64 0
-10 -32 0
-10 -27 0
-10 -22 0
-10 -16 0
-10 -14 0
-10 -12 0
-9 -108 0
-9 -103 0
-9 -101 0
-9 -99 0
-9 -98 0
-9 -92 0
-9 -70 0
-9 -69 0
-9 -60 0
-9 -51 0
-9 -46 0
-9 -40 0
-9 -37 0
-9 -35 0
-9 -28 0
-9 -25 0
-9 -12 0
-8 -104 0
-8 -95 0
-8 -94 0
-8 -84 0
-8 -83 0
-8 -62 0
-8 -57 0
-8 -53 0
-8 -48 0
-8 -39 0
-8 -37 0
-8 -33 0
-8 -28 0
-8 -21 0
-8 -18 0
-8 -16 0
-8 -13 0
-8 -11 0
-7 -107 0
-7 -105 0
-7 -92 0
-7 -88 0
-7 -84 0
-7 -75 0
-7 -62 0
-7 -57 0
-7 -53 0
-7 -48 0
-7 -45 0
-7 -37 0
-7 -23 0
-7 -21 0
-7 -20 0
-7 -14 0
-7 -13 0
-7 -8 0
-6 -105 0
-6 -103 0
-6 -102 0
-6 -94 0
-6 -86 0
-6 -84 0
-6 -81 0
-6 -79 0
-6 -76 0
-6 -74 0
-6 -72 0
-6 -71 0
-6 -66 0
-6 -44 0
-6 -27 0
-6 -26 0
-6 -12 0
-6 -10 0
-5 -108 0
-5 -103 0
-5 -101 0
-5 -86 0
-5 -78 0
-5 -69 0
-5 -59 0
-5 -58 0
-5 -54 0
-5 -46 0
-5 -40 0
-5 -39 0
-5 -38 0
-5 -37 0
-5 -30 0
-5 -25 0
-5 -23 0
-5 -9 0
-4 -108 0
-4 -103 0
-4 -101 0
-4 -96 0
-4 -90 0
-4 -88 0
-4 -81 0
-4 -80 0
-4 -69 0
-4 -46 0
-4 -41 0
-4 -40 0
-4 -37 0
-4 -34 0
-4 -33 0
-4 -29 0
-4 -25 0
-4 -9 0
-4 -5 0
-3 -102 0
-3 -101 0
-3 -100 0
-3 -99 0
-3 -90 0
-3 -85 0
-3 -77 0
-3 -64 0
-3 -47 0
-3 -32 0
-3 -31 0
-3 -30 0
-3 -22 0
-3 -19 0
-3 -17 0
-3 -16 0
-3 -14 0
-3 -13 0
-3 -10 0
-2 -106 0
-2 -105 0
-2 -103 0
-2 -102 0
-2 -97 0
-2 -94 0
-2 -91 0
-2 -89 0
-2 -80 0
-2 -71 0
-2 -66 0
-2 -64 0
-2 -58 0
-2 -52 0
-2 -51 0
-2 -48 0
-2 -44 0
-2 -26 0
-2 -6 0
-1 -110 0
-1 -107 0
-1 -105 0
-1 -100 0
-1 -95 0
-1 -92 0
-1 -91 0
-1 -88 0
-1 -75 0
-1 -69 0
-1 -61 0
-1 -49 0
-1 -45 0
-1 -27 0
-1 -24 0
-1 -23 0
-1 -20 0
-1 -14 0
-1 -7 0
1 24 27 49 61 69 91 95 100 110 0
2 6 26 44 66 71 94 102 103 105 0
3 10 14 16 22 32 64 77 85 101 0
4 29 33 34 41 80 81 88 90 96 0
5 23 30 38 39 54 58 59 78 86 0
7 8 13 21 37 48 53 57 62 84 0
9 12 28 35 51 60 70 92 98 99 0
11 20 36 40 47 50 56 79 89 93 0
15 31 43 52 65 73 76 104 107 108 0
17 18 25 42 45 55 63 67 74 106 0
19 46 68 72 75 82 83 87 97 109 0
