p cnf 132 1398
-128 -131 0
-127 -132 0
-126 -131 0
-125 -129 0
-124 -129 0
-123 -127 0
-122 -131 0
-122 -128 0
-122 -125 0
-121 -132 0
-121 -129 0
-121 -127 0
-121 -124 0
-120 -123 0
-119 -123 0
-119 -120 0
-118 -124 0
-118 -119 0
-117 -126 0
-116 -126 0
-116 -120 0
-116 -117 0
-115 -131 0
-115 -130 0
-115 -128 0
-115 -122 0
-114 -117 0
-113 -130 0
-112 -130 0
-112 -125 0
-112 -122 0
-112 -113 0
-111 -126 0
-111 -119 0
-111 -118 0
-111 -117 0
-111 -116 0
-110 -126 0
-110 -117 0
-110 -116 0
-110 -113 0
-110 -111 0
-109 -132 0
-109 -124 0
-109 -118 0
-108 -131 0
-108 -126 0
-108 -114 0
-107 -132 0
-107 -128 0
-107 -127 0
-107 -121 0
-106 -132 0
-106 -129 0
-106 -125 0
-106 -109 0
-105 -130 0
-105 -124 0
-105 -118 0
-105 -115 0
-105 -109 0
-104 -130 0
-104 -123 0
-104 -120 0
-104 -119 0
-104 -115 0
-104 -105 0
-103 -132 0
-103 -131 0
-103 -127 0
-103 -126 0
-103 -121 0
-103 -108 0
-103 -107 0
-102 -119 0
-102 -118 0
-102 -111 0
-101 -130 0
-101 -115 0
-101 -114 0
-101 -108 0
-101 -105 0
-101 -104 0
-100 -129 0
-100 -124 0
-100 -121 0
-100 -114 0
-100 -108 0
-100 -101 0
-99 -127 0
-99 -123 0
-98 -125 0
-98 -122 0
-98 -114 0
-98 -112 0
-98 -108 0
-98 -101 0
-98 -100 0
-97 -129 0
-97 -125 0
-97 -117 0
-97 -114 0
-97 -106 0
-96 -132 0
-96 -127 0
-96 -121 0
-96 -120 0
-96 -116 0
-96 -107 0
-96 -103 0
-95 -120 0
-95 -116 0
-95 -99 0
-95 -96 0
-94 -129 0
-94 -124 0
-94 -123 0
-94 -121 0
-94 -120 0
-94 -119 0
-94 -104 0
-94 -100 0
-93 -132 0
-93 -127 0
-93 -121 0
-93 -119 0
-93 -118 0
-93 -111 0
-93 -107 0
-93 -103 0
-93 -102 0
-93 -96 0
-92 -132 0
-92 -114 0
-92 -109 0
-92 -108 0
-92 -106 0
-92 -101 0
-92 -100 0
-92 -98 0
-91 -113 0
-91 -110 0
-90 -119 0
-90 -118 0
-90 -111 0
-90 -102 0
-90 -99 0
-90 -95 0
-90 -93 0
-89 -114 0
-89 -113 0
-89 -110 0
-89 -108 0
-89 -101 0
-89 -100 0
-89 -98 0
-89 -92 0
-89 -91 0
-88 -131 0
-88 -126 0
-88 -108 0
-88 -103 0
-88 -99 0
-88 -95 0
-88 -90 0
-87 -130 0
-87 -129 0
-87 -125 0
-87 -115 0
-87 -106 0
-87 -105 0
-87 -104 0
-87 -101 0
-87 -97 0
-86 -128 0
-86 -114 0
-86 -108 0
-86 -107 0
-86 -101 0
-86 -100 0
-86 -98 0
-86 -92 0
-86 -89 0
-85 -132 0
-85 -131 0
-85 -128 0
-85 -122 0
-85 -115 0
-85 -109 0
-85 -106 0
-85 -92 0
-84 -129 0
-84 -125 0
-84 -113 0
-84 -110 0
-84 -106 0
-84 -97 0
-84 -91 0
-84 -89 0
-84 -87 0
-83 -124 0
-83 -118 0
-83 -113 0
-83 -110 0
-83 -109 0
-83 -105 0
-83 -91 0
-83 -89 0
-83 -84 0
-82 -113 0
-82 -110 0
-82 -91 0
-82 -89 0
-82 -84 0
-82 -83 0
-81 -131 0
-81 -130 0
-81 -126 0
-81 -113 0
-81 -112 0
-81 -108 0
-81 -103 0
-81 -88 0
-80 -125 0
-80 -122 0
-80 -112 0
-80 -102 0
-80 -98 0
-79 -123 0
-79 -120 0
-79 -119 0
-79 -117 0
-79 -114 0
-79 -104 0
-79 -97 0
-79 -94 0
-78 -128 0
-78 -124 0
-78 -118 0
-78 -109 0
-78 -107 0
-78 -105 0
-78 -86 0
-78 -83 0
-77 -128 0
-77 -107 0
-77 -102 0
-77 -86 0
-77 -80 0
-77 -78 0
-76 -131 0
-76 -126 0
-76 -108 0
-76 -103 0
-76 -102 0
-76 -88 0
-76 -81 0
-76 -80 0
-76 -77 0
-75 -131 0
-75 -129 0
-75 -126 0
-75 -125 0
-75 -108 0
-75 -106 0
-75 -103 0
-75 -97 0
-75 -88 0
-75 -87 0
-75 -84 0
-75 -81 0
-75 -76 0
-74 -128 0
-74 -107 0
-74 -91 0
-74 -86 0
-74 -78 0
-74 -77 0
-73 -128 0
-73 -126 0
-73 -117 0
-73 -116 0
-73 -111 0
-73 -110 0
-73 -107 0
-73 -86 0
-73 -78 0
-73 -77 0
-73 -74 0
-72 -128 0
-72 -107 0
-72 -99 0
-72 -95 0
-72 -90 0
-72 -88 0
-72 -86 0
-72 -78 0
-72 -77 0
-72 -74 0
-72 -73 0
-71 -132 0
-71 -109 0
-71 -106 0
-71 -102 0
-71 -92 0
-71 -85 0
-71 -80 0
-71 -77 0
-71 -76 0
-70 -130 0
-70 -128 0
-70 -113 0
-70 -112 0
-70 -107 0
-70 -86 0
-70 -81 0
-70 -78 0
-70 -77 0
-70 -74 0
-70 -73 0
-70 -72 0
-69 -130 0
-69 -119 0
-69 -118 0
-69 -113 0
-69 -112 0
-69 -111 0
-69 -102 0
-69 -93 0
-69 -90 0
-69 -81 0
-69 -70 0
-68 -131 0
-68 -129 0
-68 -128 0
-68 -124 0
-68 -122 0
-68 -121 0
-68 -115 0
-68 -100 0
-68 -94 0
-68 -85 0
-67 -130 0
-67 -117 0
-67 -114 0
-67 -113 0
-67 -112 0
-67 -97 0
-67 -81 0
-67 -79 0
-67 -70 0
-67 -69 0
-66 -117 0
-66 -114 0
-66 -102 0
-66 -97 0
-66 -80 0
-66 -79 0
-66 -77 0
-66 -76 0
-66 -71 0
-66 -67 0
-65 -128 0
-65 -123 0
-65 -120 0
-65 -119 0
-65 -107 0
-65 -104 0
-65 -94 0
-65 -86 0
-65 -79 0
-65 -78 0
-65 -77 0
-65 -74 0
-65 -73 0
-65 -72 0
-65 -70 0
-64 -131 0
-64 -126 0
-64 -123 0
-64 -120 0
-64 -119 0
-64 -108 0
-64 -104 0
-64 -103 0
-64 -94 0
-64 -88 0
-64 -81 0
-64 -79 0
-64 -76 0
-64 -75 0
-64 -65 0
-63 -132 0
-63 -130 0
-63 -127 0
-63 -121 0
-63 -115 0
-63 -107 0
-63 -105 0
-63 -104 0
-63 -103 0
-63 -101 0
-63 -96 0
-63 -93 0
-63 -87 0
-62 -132 0
-62 -126 0
-62 -117 0
-62 -116 0
-62 -111 0
-62 -110 0
-62 -109 0
-62 -106 0
-62 -92 0
-62 -85 0
-62 -73 0
-62 -71 0
-61 -113 0
-61 -110 0
-61 -102 0
-61 -91 0
-61 -89 0
-61 -84 0
-61 -83 0
-61 -82 0
-61 -80 0
-61 -77 0
-61 -76 0
-61 -71 0
-61 -66 0
-60 -130 0
-60 -129 0
-60 -124 0
-60 -121 0
-60 -113 0
-60 -112 0
-60 -100 0
-60 -94 0
-60 -81 0
-60 -70 0
-60 -69 0
-60 -68 0
-60 -67 0
-59 -125 0
-59 -122 0
-59 -112 0
-59 -99 0
-59 -98 0
-59 -95 0
-59 -90 0
-59 -88 0
-59 -80 0
-59 -72 0
-58 -127 0
-58 -123 0
-58 -114 0
-58 -108 0
-58 -101 0
-58 -100 0
-58 -99 0
-58 -98 0
-58 -92 0
-58 -89 0
-58 -86 0
-57 -132 0
-57 -123 0
-57 -120 0
-57 -119 0
-57 -109 0
-57 -106 0
-57 -104 0
-57 -94 0
-57 -92 0
-57 -85 0
-57 -79 0
-57 -71 0
-57 -65 0
-57 -64 0
-57 -62 0
-56 -131 0
-56 -128 0
-56 -122 0
-56 -119 0
-56 -118 0
-56 -115 0
-56 -111 0
-56 -102 0
-56 -93 0
-56 -90 0
-56 -85 0
-56 -69 0
-56 -68 0
-55 -132 0
-55 -109 0
-55 -106 0
-55 -99 0
-55 -95 0
-55 -92 0
-55 -90 0
-55 -88 0
-55 -85 0
-55 -72 0
-55 -71 0
-55 -62 0
-55 -59 0
-55 -57 0
-54 -130 0
-54 -120 0
-54 -116 0
-54 -113 0
-54 -112 0
-54 -96 0
-54 -95 0
-54 -81 0
-54 -70 0
-54 -69 0
-54 -67 0
-54 -60 0
-53 -129 0
-53 -124 0
-53 -121 0
-53 -100 0
-53 -94 0
-53 -82 0
-53 -68 0
-53 -60 0
-52 -130 0
-52 -115 0
-52 -105 0
-52 -104 0
-52 -102 0
-52 -101 0
-52 -87 0
-52 -80 0
-52 -77 0
-52 -76 0
-52 -71 0
-52 -66 0
-52 -63 0
-52 -61 0
-51 -127 0
-51 -123 0
-51 -99 0
-51 -82 0
-51 -58 0
-51 -53 0
-50 -129 0
-50 -125 0
-50 -120 0
-50 -116 0
-50 -106 0
-50 -97 0
-50 -96 0
-50 -95 0
-50 -87 0
-50 -84 0
-50 -75 0
-50 -54 0
-49 -124 0
-49 -118 0
-49 -117 0
-49 -114 0
-49 -109 0
-49 -105 0
-49 -97 0
-49 -83 0
-49 -79 0
-49 -78 0
-49 -67 0
-49 -66 0
-48 -117 0
-48 -114 0
-48 -99 0
-48 -97 0
-48 -95 0
-48 -90 0
-48 -88 0
-48 -79 0
-48 -72 0
-48 -67 0
-48 -66 0
-48 -59 0
-48 -55 0
-48 -49 0
-47 -129 0
-47 -124 0
-47 -121 0
-47 -102 0
-47 -100 0
-47 -94 0
-47 -80 0
-47 -77 0
-47 -76 0
-47 -71 0
-47 -68 0
-47 -66 0
-47 -61 0
-47 -60 0
-47 -53 0
-47 -52 0
-46 -120 0
-46 -116 0
-46 -96 0
-46 -95 0
-46 -91 0
-46 -74 0
-46 -54 0
-46 -50 0
-45 -113 0
-45 -110 0
-45 -99 0
-45 -95 0
-45 -91 0
-45 -90 0
-45 -89 0
-45 -88 0
-45 -84 0
-45 -83 0
-45 -82 0
-45 -72 0
-45 -61 0
-45 -59 0
-45 -55 0
-45 -48 0
-44 -124 0
-44 -120 0
-44 -118 0
-44 -116 0
-44 -109 0
-44 -105 0
-44 -96 0
-44 -95 0
-44 -83 0
-44 -78 0
-44 -54 0
-44 -50 0
-44 -49 0
-44 -46 0
-43 -129 0
-43 -124 0
-43 -121 0
-43 -100 0
-43 -99 0
-43 -95 0
-43 -94 0
-43 -90 0
-43 -88 0
-43 -72 0
-43 -68 0
-43 -60 0
-43 -59 0
-43 -55 0
-43 -53 0
-43 -48 0
-43 -47 0
-43 -45 0
-42 -129 0
-42 -126 0
-42 -124 0
-42 -121 0
-42 -117 0
-42 -116 0
-42 -111 0
-42 -110 0
-42 -100 0
-42 -94 0
-42 -73 0
-42 -68 0
-42 -62 0
-42 -60 0
-42 -53 0
-42 -47 0
-42 -43 0
-41 -132 0
-41 -127 0
-41 -125 0
-41 -122 0
-41 -121 0
-41 -112 0
-41 -107 0
-41 -103 0
-41 -98 0
-41 -96 0
-41 -93 0
-41 -80 0
-41 -63 0
-41 -59 0
-40 -130 0
-40 -127 0
-40 -123 0
-40 -113 0
-40 -112 0
-40 -99 0
-40 -81 0
-40 -70 0
-40 -69 0
-40 -67 0
-40 -60 0
-40 -58 0
-40 -54 0
-40 -51 0
-39 -127 0
-39 -123 0
-39 -99 0
-39 -91 0
-39 -74 0
-39 -58 0
-39 -51 0
-39 -46 0
-39 -40 0
-38 -132 0
-38 -130 0
-38 -113 0
-38 -112 0
-38 -109 0
-38 -106 0
-38 -92 0
-38 -85 0
-38 -81 0
-38 -71 0
-38 -70 0
-38 -69 0
-38 -67 0
-38 -62 0
-38 -60 0
-38 -57 0
-38 -55 0
-38 -54 0
-38 -40 0
-37 -126 0
-37 -125 0
-37 -122 0
-37 -117 0
-37 -116 0
-37 -112 0
-37 -111 0
-37 -110 0
-37 -98 0
-37 -80 0
-37 -73 0
-37 -62 0
-37 -59 0
-37 -42 0
-37 -41 0
-36 -119 0
-36 -118 0
-36 -111 0
-36 -102 0
-36 -93 0
-36 -91 0
-36 -90 0
-36 -74 0
-36 -69 0
-36 -56 0
-36 -46 0
-36 -39 0
-35 -131 0
-35 -126 0
-35 -124 0
-35 -118 0
-35 -109 0
-35 -108 0
-35 -105 0
-35 -103 0
-35 -88 0
-35 -83 0
-35 -81 0
-35 -78 0
-35 -76 0
-35 -75 0
-35 -64 0
-35 -49 0
-35 -44 0
-34 -127 0
-34 -126 0
-34 -123 0
-34 -117 0
-34 -116 0
-34 -111 0
-34 -110 0
-34 -99 0
-34 -73 0
-34 -62 0
-34 -58 0
-34 -51 0
-34 -42 0
-34 -40 0
-34 -39 0
-34 -37 0
-33 -130 0
-33 -126 0
-33 -117 0
-33 -116 0
-33 -115 0
-33 -111 0
-33 -110 0
-33 -105 0
-33 -104 0
-33 -101 0
-33 -87 0
-33 -73 0
-33 -63 0
-33 -62 0
-33 -52 0
-33 -42 0
-33 -37 0
-33 -34 0
-32 -125 0
-32 -123 0
-32 -122 0
-32 -120 0
-32 -119 0
-32 -112 0
-32 -104 0
-32 -98 0
-32 -94 0
-32 -80 0
-32 -79 0
-32 -65 0
-32 -64 0
-32 -59 0
-32 -57 0
-32 -41 0
-32 -37 0
-31 -130 0
-31 -115 0
-31 -105 0
-31 -104 0
-31 -101 0
-31 -99 0
-31 -95 0
-31 -90 0
-31 -88 0
-31 -87 0
-31 -72 0
-31 -63 0
-31 -59 0
-31 -55 0
-31 -52 0
-31 -48 0
-31 -45 0
-31 -43 0
-31 -33 0
-30 -125 0
-30 -122 0
-30 -112 0
-30 -98 0
-30 -82 0
-30 -80 0
-30 -59 0
-30 -53 0
-30 -51 0
-30 -41 0
-30 -37 0
-30 -32 0
-29 -120 0
-29 -116 0
-29 -102 0
-29 -96 0
-29 -95 0
-29 -80 0
-29 -77 0
-29 -76 0
-29 -71 0
-29 -66 0
-29 -61 0
-29 -54 0
-29 -52 0
-29 -50 0
-29 -47 0
-29 -46 0
-29 -44 0
-28 -131 0
-28 -128 0
-28 -122 0
-28 -115 0
-28 -113 0
-28 -110 0
-28 -91 0
-28 -89 0
-28 -85 0
-28 -84 0
-28 -83 0
-28 -82 0
-28 -68 0
-28 -61 0
-28 -56 0
-28 -45 0
-27 -132 0
-27 -127 0
-27 -121 0
-27 -113 0
-27 -110 0
-27 -107 0
-27 -103 0
-27 -96 0
-27 -93 0
-27 -91 0
-27 -89 0
-27 -84 0
-27 -83 0
-27 -82 0
-27 -63 0
-27 -61 0
-27 -45 0
-27 -41 0
-27 -28 0
-26 -131 0
-26 -128 0
-26 -127 0
-26 -123 0
-26 -122 0
-26 -115 0
-26 -99 0
-26 -85 0
-26 -68 0
-26 -58 0
-26 -56 0
-26 -51 0
-26 -40 0
-26 -39 0
-26 -34 0
-26 -28 0
-25 -129 0
-25 -125 0
-25 -119 0
-25 -118 0
-25 -111 0
-25 -106 0
-25 -102 0
-25 -97 0
-25 -93 0
-25 -90 0
-25 -87 0
-25 -84 0
-25 -75 0
-25 -69 0
-25 -56 0
-25 -50 0
-25 -36 0
-24 -119 0
-24 -118 0
-24 -111 0
-24 -102 0
-24 -93 0
-24 -90 0
-24 -82 0
-24 -69 0
-24 -56 0
-24 -53 0
-24 -51 0
-24 -36 0
-24 -30 0
-24 -25 0
-23 -131 0
-23 -126 0
-23 -108 0
-23 -103 0
-23 -88 0
-23 -82 0
-23 -81 0
-23 -76 0
-23 -75 0
-23 -64 0
-23 -53 0
-23 -51 0
-23 -35 0
-23 -30 0
-23 -24 0
-22 -117 0
-22 -114 0
-22 -97 0
-22 -82 0
-22 -79 0
-22 -67 0
-22 -66 0
-22 -53 0
-22 -51 0
-22 -49 0
-22 -48 0
-22 -30 0
-22 -24 0
-22 -23 0
-21 -132 0
-21 -127 0
-21 -121 0
-21 -117 0
-21 -114 0
-21 -107 0
-21 -103 0
-21 -97 0
-21 -96 0
-21 -93 0
-21 -79 0
-21 -67 0
-21 -66 0
-21 -63 0
-21 -49 0
-21 -48 0
-21 -41 0
-21 -27 0
-21 -22 0
-20 -128 0
-20 -107 0
-20 -86 0
-20 -82 0
-20 -78 0
-20 -77 0
-20 -74 0
-20 -73 0
-20 -72 0
-20 -70 0
-20 -65 0
-20 -53 0
-20 -51 0
-20 -30 0
-20 -24 0
-20 -23 0
-20 -22 0
-19 -127 0
-19 -123 0
-19 -102 0
-19 -99 0
-19 -80 0
-19 -77 0
-19 -76 0
-19 -71 0
-19 -66 0
-19 -61 0
-19 -58 0
-19 -52 0
-19 -51 0
-19 -47 0
-19 -40 0
-19 -39 0
-19 -34 0
-19 -29 0
-19 -26 0
-18 -129 0
-18 -124 0
-18 -121 0
-18 -100 0
-18 -94 0
-18 -91 0
-18 -74 0
-18 -68 0
-18 -60 0
-18 -53 0
-18 -47 0
-18 -46 0
-18 -43 0
-18 -42 0
-18 -39 0
-18 -36 0
-17 -120 0
-17 -116 0
-17 -96 0
-17 -95 0
-17 -82 0
-17 -54 0
-17 -53 0
-17 -51 0
-17 -50 0
-17 -46 0
-17 -44 0
-17 -30 0
-17 -29 0
-17 -24 0
-17 -23 0
-17 -22 0
-17 -20 0
-16 -130 0
-16 -115 0
-16 -105 0
-16 -104 0
-16 -101 0
-16 -87 0
-16 -82 0
-16 -63 0
-16 -53 0
-16 -52 0
-16 -51 0
-16 -33 0
-16 -31 0
-16 -30 0
-16 -24 0
-16 -23 0
-16 -22 0
-16 -20 0
-16 -17 0
-15 -125 0
-15 -122 0
-15 -112 0
-15 -98 0
-15 -91 0
-15 -80 0
-15 -74 0
-15 -59 0
-15 -46 0
-15 -41 0
-15 -39 0
-15 -37 0
-15 -36 0
-15 -32 0
-15 -30 0
-15 -18 0
-14 -129 0
-14 -128 0
-14 -125 0
-14 -107 0
-14 -106 0
-14 -97 0
-14 -87 0
-14 -86 0
-14 -84 0
-14 -78 0
-14 -77 0
-14 -75 0
-14 -74 0
-14 -73 0
-14 -72 0
-14 -70 0
-14 -65 0
-14 -50 0
-14 -25 0
-14 -20 0
-13 -131 0
-13 -126 0
-13 -108 0
-13 -103 0
-13 -91 0
-13 -88 0
-13 -81 0
-13 -76 0
-13 -75 0
-13 -74 0
-13 -64 0
-13 -46 0
-13 -39 0
-13 -36 0
-13 -35 0
-13 -23 0
-13 -18 0
-13 -15 0
-12 -127 0
-12 -124 0
-12 -123 0
-12 -118 0
-12 -109 0
-12 -105 0
-12 -99 0
-12 -83 0
-12 -78 0
-12 -58 0
-12 -51 0
-12 -49 0
-12 -44 0
-12 -40 0
-12 -39 0
-12 -35 0
-12 -34 0
-12 -26 0
-12 -19 0
-11 -117 0
-11 -114 0
-11 -97 0
-11 -91 0
-11 -79 0
-11 -74 0
-11 -67 0
-11 -66 0
-11 -49 0
-11 -48 0
-11 -46 0
-11 -39 0
-11 -36 0
-11 -22 0
-11 -21 0
-11 -18 0
-11 -15 0
-11 -13 0
-10 -131 0
-10 -128 0
-10 -122 0
-10 -120 0
-10 -116 0
-10 -115 0
-10 -96 0
-10 -95 0
-10 -85 0
-10 -68 0
-10 -56 0
-10 -54 0
-10 -50 0
-10 -46 0
-10 -44 0
-10 -29 0
-10 -28 0
-10 -26 0
-10 -17 0
-9 -125 0
-9 -124 0
-9 -122 0
-9 -118 0
-9 -112 0
-9 -109 0
-9 -105 0
-9 -98 0
-9 -83 0
-9 -80 0
-9 -78 0
-9 -59 0
-9 -49 0
-9 -44 0
-9 -41 0
-9 -37 0
-9 -35 0
-9 -32 0
-9 -30 0
-9 -15 0
-9 -12 0
-8 -119 0
-8 -118 0
-8 -114 0
-8 -111 0
-8 -108 0
-8 -102 0
-8 -101 0
-8 -100 0
-8 -98 0
-8 -93 0
-8 -92 0
-8 -90 0
-8 -89 0
-8 -86 0
-8 -69 0
-8 -58 0
-8 -56 0
-8 -36 0
-8 -25 0
-8 -24 0
-7 -132 0
-7 -109 0
-7 -106 0
-7 -92 0
-7 -91 0
-7 -85 0
-7 -74 0
-7 -71 0
-7 -62 0
-7 -57 0
-7 -55 0
-7 -46 0
-7 -39 0
-7 -38 0
-7 -36 0
-7 -18 0
-7 -15 0
-7 -13 0
-7 -11 0
-6 -120 0
-6 -116 0
-6 -114 0
-6 -108 0
-6 -101 0
-6 -100 0
-6 -98 0
-6 -96 0
-6 -95 0
-6 -92 0
-6 -89 0
-6 -86 0
-6 -58 0
-6 -54 0
-6 -50 0
-6 -46 0
-6 -44 0
-6 -29 0
-6 -17 0
-6 -10 0
-6 -8 0
-5 -130 0
-5 -115 0
-5 -105 0
-5 -104 0
-5 -101 0
-5 -91 0
-5 -87 0
-5 -74 0
-5 -63 0
-5 -52 0
-5 -46 0
-5 -39 0
-5 -36 0
-5 -33 0
-5 -31 0
-5 -18 0
-5 -16 0
-5 -15 0
-5 -13 0
-5 -11 0
-5 -7 0
-4 -123 0
-4 -120 0
-4 -119 0
-4 -113 0
-4 -110 0
-4 -104 0
-4 -94 0
-4 -91 0
-4 -89 0
-4 -84 0
-4 -83 0
-4 -82 0
-4 -79 0
-4 -65 0
-4 -64 0
-4 -61 0
-4 -57 0
-4 -45 0
-4 -32 0
-4 -28 0
-4 -27 0
-3 -131 0
-3 -128 0
-3 -122 0
-3 -117 0
-3 -115 0
-3 -114 0
-3 -97 0
-3 -85 0
-3 -79 0
-3 -68 0
-3 -67 0
-3 -66 0
-3 -56 0
-3 -49 0
-3 -48 0
-3 -28 0
-3 -26 0
-3 -22 0
-3 -21 0
-3 -11 0
-3 -10 0
-2 -129 0
-2 -127 0
-2 -125 0
-2 -123 0
-2 -106 0
-2 -99 0
-2 -97 0
-2 -87 0
-2 -84 0
-2 -75 0
-2 -58 0
-2 -51 0
-2 -50 0
-2 -40 0
-2 -39 0
-2 -34 0
-2 -26 0
-2 -25 0
-2 -19 0
-2 -14 0
-2 -12 0
-1 -132 0
-1 -109 0
-1 -106 0
-1 -92 0
-1 -85 0
-1 -82 0
-1 -71 0
-1 -62 0
-1 -57 0
-1 -55 0
-1 -53 0
-1 -51 0
-1 -38 0
-1 -30 0
-1 -24 0
-1 -23 0
-1 -22 0
-1 -20 0
-1 -17 0
-1 -16 0
-1 -7 0
1 16 17 20 22 23 24 30 51 53 82 0
2 14 25 50 75 84 87 97 106 125 129 0
3 10 26 28 56 68 85 115 122 128 131 0
4 32 57 64 65 79 94 104 119 120 123 0
5 7 11 13 15 18 36 39 46 74 91 0
6 8 58 86 89 92 98 100 101 108 114 0
9 12 35 44 49 78 83 105 109 118 124 0
19 29 47 52 61 66 71 76 77 80 102 0
21 27 41 63 93 96 103 107 121 127 132 0
31 43 45 48 55 59 72 88 90 95 99 0
33 34 37 42 62 73 110 111 116 117 126 0
38 40 54 60 67 69 70 81 112 113 130 0
