p cnf 90 775
-89 -90 0
-88 -89 0
-82 -85 0
-81 -83 0
-80 -87 0
-80 -83 0
-80 -81 0
-79 -81 0
-78 -85 0
-78 -84 0
-78 -82 0
-77 -87 0
-77 -80 0
-77 -79 0
-76 -87 0
-76 -85 0
-76 -82 0
-76 -80 0
-76 -78 0
-76 -77 0
-74 -83 0
-74 -79 0
-74 -77 0
-73 -90 0
-73 -87 0
-72 -90 0
-72 -89 0
-72 -82 0
-71 -86 0
-71 -81 0
-71 -79 0
-70 -89 0
-70 -88 0
-70 -75 0
-69 -88 0
-69 -75 0
-68 -86 0
-68 -79 0
-68 -77 0
-68 -74 0
-67 -88 0
-67 -82 0
-67 -72 0
-67 -69 0
-66 -86 0
-66 -84 0
-66 -78 0
-66 -71 0
-65 -86 0
-65 -75 0
-65 -70 0
-65 -68 0
-64 -89 0
-64 -88 0
-64 -87 0
-64 -73 0
-64 -70 0
-63 -90 0
-63 -86 0
-63 -73 0
-63 -71 0
-63 -66 0
-62 -90 0
-62 -85 0
-62 -82 0
-62 -78 0
-62 -76 0
-62 -73 0
-62 -63 0
-61 -83 0
-61 -75 0
-61 -74 0
-61 -70 0
-61 -65 0
-60 -90 0
-60 -83 0
-60 -81 0
-60 -80 0
-60 -73 0
-60 -63 0
-60 -62 0
-59 -87 0
-59 -85 0
-59 -73 0
-59 -64 0
-58 -90 0
-58 -89 0
-58 -75 0
-58 -72 0
-58 -69 0
-57 -86 0
-57 -85 0
-57 -82 0
-57 -78 0
-57 -76 0
-57 -68 0
-57 -65 0
-57 -62 0
-56 -89 0
-56 -88 0
-56 -79 0
-56 -77 0
-56 -74 0
-56 -70 0
-56 -68 0
-56 -64 0
-55 -90 0
-55 -89 0
-55 -86 0
-55 -72 0
-55 -68 0
-55 -65 0
-55 -58 0
-55 -57 0
-54 -86 0
-54 -85 0
-54 -71 0
-54 -66 0
-54 -63 0
-54 -59 0
-53 -84 0
-53 -82 0
-53 -72 0
-53 -67 0
-52 -86 0
-52 -83 0
-52 -74 0
-52 -71 0
-52 -66 0
-52 -63 0
-52 -61 0
-52 -54 0
-51 -90 0
-51 -75 0
-51 -73 0
-51 -70 0
-51 -65 0
-51 -63 0
-51 -62 0
-51 -61 0
-51 -60 0
-50 -87 0
-50 -83 0
-50 -74 0
-50 -73 0
-50 -64 0
-50 -61 0
-50 -59 0
-50 -52 0
-49 -83 0
-49 -82 0
-49 -81 0
-49 -80 0
-49 -72 0
-49 -67 0
-49 -60 0
-49 -53 0
-48 -81 0
-48 -79 0
-48 -75 0
-48 -71 0
-48 -70 0
-48 -65 0
-48 -61 0
-48 -51 0
-47 -90 0
-47 -89 0
-47 -85 0
-47 -72 0
-47 -59 0
-47 -58 0
-47 -55 0
-47 -54 0
-46 -90 0
-46 -84 0
-46 -73 0
-46 -63 0
-46 -62 0
-46 -60 0
-46 -53 0
-46 -51 0
-45 -87 0
-45 -81 0
-45 -79 0
-45 -73 0
-45 -71 0
-45 -64 0
-45 -59 0
-45 -50 0
-45 -48 0
-44 -89 0
-44 -88 0
-44 -85 0
-44 -82 0
-44 -78 0
-44 -76 0
-44 -70 0
-44 -64 0
-44 -62 0
-44 -57 0
-44 -56 0
-43 -90 0
-43 -89 0
-43 -81 0
-43 -79 0
-43 -72 0
-43 -71 0
-43 -58 0
-43 -55 0
-43 -48 0
-43 -47 0
-43 -45 0
-42 -85 0
-42 -79 0
-42 -77 0
-42 -74 0
-42 -68 0
-42 -59 0
-42 -56 0
-42 -54 0
-42 -47 0
-41 -82 0
-41 -79 0
-41 -77 0
-41 -74 0
-41 -72 0
-41 -68 0
-41 -67 0
-41 -56 0
-41 -53 0
-41 -49 0
-41 -42 0
-40 -86 0
-40 -84 0
-40 -68 0
-40 -65 0
-40 -57 0
-40 -55 0
-40 -53 0
-40 -46 0
-39 -90 0
-39 -89 0
-39 -84 0
-39 -78 0
-39 -72 0
-39 -66 0
-39 -58 0
-39 -55 0
-39 -47 0
-39 -43 0
-38 -85 0
-38 -75 0
-38 -70 0
-38 -65 0
-38 -61 0
-38 -59 0
-38 -54 0
-38 -51 0
-38 -48 0
-38 -47 0
-38 -42 0
-37 -84 0
-37 -79 0
-37 -78 0
-37 -77 0
-37 -74 0
-37 -68 0
-37 -66 0
-37 -56 0
-37 -42 0
-37 -41 0
-37 -39 0
-36 -87 0
-36 -86 0
-36 -80 0
-36 -77 0
-36 -76 0
-36 -71 0
-36 -66 0
-36 -63 0
-36 -54 0
-36 -52 0
-35 -87 0
-35 -84 0
-35 -78 0
-35 -73 0
-35 -66 0
-35 -64 0
-35 -59 0
-35 -50 0
-35 -45 0
-35 -39 0
-35 -37 0
-34 -88 0
-34 -87 0
-34 -80 0
-34 -77 0
-34 -76 0
-34 -69 0
-34 -67 0
-34 -36 0
-33 -85 0
-33 -83 0
-33 -82 0
-33 -78 0
-33 -76 0
-33 -74 0
-33 -62 0
-33 -61 0
-33 -57 0
-33 -52 0
-33 -50 0
-33 -44 0
-32 -86 0
-32 -75 0
-32 -71 0
-32 -69 0
-32 -66 0
-32 -63 0
-32 -58 0
-32 -54 0
-32 -52 0
-32 -36 0
-31 -88 0
-31 -81 0
-31 -79 0
-31 -71 0
-31 -69 0
-31 -67 0
-31 -48 0
-31 -45 0
-31 -43 0
-31 -34 0
-30 -86 0
-30 -82 0
-30 -72 0
-30 -71 0
-30 -67 0
-30 -66 0
-30 -63 0
-30 -54 0
-30 -53 0
-30 -52 0
-30 -49 0
-30 -41 0
-30 -36 0
-30 -32 0
-29 -88 0
-29 -85 0
-29 -69 0
-29 -67 0
-29 -59 0
-29 -54 0
-29 -47 0
-29 -42 0
-29 -38 0
-29 -34 0
-29 -31 0
-28 -86 0
-28 -83 0
-28 -81 0
-28 -80 0
-28 -68 0
-28 -65 0
-28 -60 0
-28 -57 0
-28 -55 0
-28 -49 0
-28 -40 0
-27 -89 0
-27 -88 0
-27 -86 0
-27 -71 0
-27 -70 0
-27 -66 0
-27 -64 0
-27 -63 0
-27 -56 0
-27 -54 0
-27 -52 0
-27 -44 0
-27 -36 0
-27 -32 0
-27 -30 0
-26 -85 0
-26 -84 0
-26 -59 0
-26 -54 0
-26 -53 0
-26 -47 0
-26 -46 0
-26 -42 0
-26 -40 0
-26 -38 0
-26 -29 0
-25 -90 0
-25 -79 0
-25 -77 0
-25 -74 0
-25 -73 0
-25 -68 0
-25 -63 0
-25 -62 0
-25 -60 0
-25 -56 0
-25 -51 0
-25 -46 0
-25 -42 0
-25 -41 0
-25 -37 0
-24 -85 0
-24 -82 0
-24 -78 0
-24 -76 0
-24 -75 0
-24 -69 0
-24 -62 0
-24 -58 0
-24 -57 0
-24 -44 0
-24 -33 0
-24 -32 0
-23 -90 0
-23 -89 0
-23 -87 0
-23 -80 0
-23 -77 0
-23 -76 0
-23 -72 0
-23 -58 0
-23 -55 0
-23 -47 0
-23 -43 0
-23 -39 0
-23 -36 0
-23 -34 0
-22 -84 0
-22 -78 0
-22 -75 0
-22 -70 0
-22 -66 0
-22 -65 0
-22 -61 0
-22 -51 0
-22 -48 0
-22 -39 0
-22 -38 0
-22 -37 0
-22 -35 0
-21 -87 0
-21 -80 0
-21 -77 0
-21 -76 0
-21 -75 0
-21 -70 0
-21 -65 0
-21 -61 0
-21 -51 0
-21 -48 0
-21 -38 0
-21 -36 0
-21 -34 0
-21 -23 0
-21 -22 0
-20 -89 0
-20 -88 0
-20 -83 0
-20 -81 0
-20 -80 0
-20 -70 0
-20 -64 0
-20 -60 0
-20 -56 0
-20 -49 0
-20 -44 0
-20 -28 0
-20 -27 0
-19 -90 0
-19 -88 0
-19 -73 0
-19 -69 0
-19 -67 0
-19 -63 0
-19 -62 0
-19 -60 0
-19 -51 0
-19 -46 0
-19 -34 0
-19 -31 0
-19 -29 0
-19 -25 0
-18 -87 0
-18 -82 0
-18 -73 0
-18 -72 0
-18 -67 0
-18 -64 0
-18 -59 0
-18 -53 0
-18 -50 0
-18 -49 0
-18 -45 0
-18 -41 0
-18 -35 0
-18 -30 0
-17 -85 0
-17 -82 0
-17 -81 0
-17 -79 0
-17 -78 0
-17 -76 0
-17 -71 0
-17 -62 0
-17 -57 0
-17 -48 0
-17 -45 0
-17 -44 0
-17 -43 0
-17 -33 0
-17 -31 0
-17 -24 0
-16 -82 0
-16 -75 0
-16 -72 0
-16 -70 0
-16 -67 0
-16 -65 0
-16 -61 0
-16 -53 0
-16 -51 0
-16 -49 0
-16 -48 0
-16 -41 0
-16 -38 0
-16 -30 0
-16 -22 0
-16 -21 0
-16 -18 0
-15 -89 0
-15 -88 0
-15 -84 0
-15 -70 0
-15 -64 0
-15 -56 0
-15 -53 0
-15 -46 0
-15 -44 0
-15 -40 0
-15 -27 0
-15 -26 0
-15 -20 0
-14 -87 0
-14 -86 0
-14 -73 0
-14 -68 0
-14 -65 0
-14 -64 0
-14 -59 0
-14 -57 0
-14 -55 0
-14 -50 0
-14 -45 0
-14 -40 0
-14 -35 0
-14 -28 0
-14 -18 0
-13 -90 0
-13 -89 0
-13 -83 0
-13 -74 0
-13 -72 0
-13 -61 0
-13 -58 0
-13 -55 0
-13 -52 0
-13 -50 0
-13 -47 0
-13 -43 0
-13 -39 0
-13 -33 0
-13 -23 0
-12 -87 0
-12 -75 0
-12 -73 0
-12 -69 0
-12 -64 0
-12 -59 0
-12 -58 0
-12 -50 0
-12 -45 0
-12 -35 0
-12 -32 0
-12 -24 0
-12 -18 0
-12 -14 0
-11 -88 0
-11 -84 0
-11 -78 0
-11 -69 0
-11 -67 0
-11 -66 0
-11 -39 0
-11 -37 0
-11 -35 0
-11 -34 0
-11 -31 0
-11 -29 0
-11 -22 0
-11 -19 0
-10 -88 0
-10 -86 0
-10 -69 0
-10 -68 0
-10 -67 0
-10 -65 0
-10 -57 0
-10 -55 0
-10 -40 0
-10 -34 0
-10 -31 0
-10 -29 0
-10 -28 0
-10 -19 0
-10 -14 0
-10 -11 0
-9 -84 0
-9 -83 0
-9 -74 0
-9 -61 0
-9 -53 0
-9 -52 0
-9 -50 0
-9 -46 0
-9 -40 0
-9 -33 0
-9 -26 0
-9 -15 0
-9 -13 0
-8 -84 0
-8 -75 0
-8 -69 0
-8 -58 0
-8 -53 0
-8 -46 0
-8 -40 0
-8 -32 0
-8 -26 0
-8 -24 0
-8 -15 0
-8 -12 0
-8 -9 0
-7 -87 0
-7 -84 0
-7 -80 0
-7 -77 0
-7 -76 0
-7 -53 0
-7 -46 0
-7 -40 0
-7 -36 0
-7 -34 0
-7 -26 0
-7 -23 0
-7 -21 0
-7 -15 0
-7 -9 0
-7 -8 0
-6 -84 0
-6 -83 0
-6 -81 0
-6 -80 0
-6 -78 0
-6 -66 0
-6 -60 0
-6 -49 0
-6 -39 0
-6 -37 0
-6 -35 0
-6 -28 0
-6 -22 0
-6 -20 0
-6 -11 0
-5 -79 0
-5 -77 0
-5 -75 0
-5 -74 0
-5 -69 0
-5 -68 0
-5 -58 0
-5 -56 0
-5 -42 0
-5 -41 0
-5 -37 0
-5 -32 0
-5 -25 0
-5 -24 0
-5 -12 0
-5 -8 0
-4 -88 0
-4 -83 0
-4 -74 0
-4 -69 0
-4 -67 0
-4 -61 0
-4 -52 0
-4 -50 0
-4 -34 0
-4 -33 0
-4 -31 0
-4 -29 0
-4 -19 0
-4 -13 0
-4 -11 0
-4 -10 0
-4 -9 0
-3 -83 0
-3 -81 0
-3 -80 0
-3 -75 0
-3 -69 0
-3 -60 0
-3 -58 0
-3 -49 0
-3 -32 0
-3 -28 0
-3 -24 0
-3 -20 0
-3 -12 0
-3 -8 0
-3 -6 0
-3 -5 0
-2 -84 0
-2 -81 0
-2 -79 0
-2 -71 0
-2 -53 0
-2 -48 0
-2 -46 0
-2 -45 0
-2 -43 0
-2 -40 0
-2 -31 0
-2 -26 0
-2 -17 0
-2 -15 0
-2 -9 0
-2 -8 0
-2 -7 0
-1 -85 0
-1 -83 0
-1 -81 0
-1 -80 0
-1 -60 0
-1 -59 0
-1 -54 0
-1 -49 0
-1 -47 0
-1 -42 0
-1 -38 0
-1 -29 0
-1 -28 0
-1 -26 0
-1 -20 0
-1 -6 0
-1 -3 0
1 26 29 38 42 47 54 59 85 0
2 17 31 43 45 48 71 79 81 0
3 5 8 12 24 32 58 69 75 0
4 9 13 33 50 52 61 74 83 0
6 11 22 35 37 39 66 78 84 0
7 21 23 34 36 76 77 80 87 0
10 14 28 40 55 57 65 68 86 0
15 20 27 44 56 64 70 88 89 0
16 18 30 41 49 53 67 72 82 0
19 25 46 51 60 62 63 73 90 0
