p cnf 72 549
-71 -72 0
-70 -72 0
-67 -69 0
-66 -72 0
-66 -71 0
-65 -69 0
-65 -67 0
-65 -66 0
-63 -68 0
-63 -66 0
-63 -65 0
-62 -66 0
-62 -65 0
-62 -63 0
-61 -68 0
-60 -62 0
-59 -68 0
-59 -63 0
-58 -68 0
-58 -64 0
-58 -61 0
-57 -61 0
-57 -59 0
-56 -61 0
-56 -60 0
-56 -57 0
-55 -71 0
-54 -64 0
-54 -60 0
-54 -58 0
-54 -56 0
-53 -69 0
-53 -67 0
-53 -65 0
-53 -60 0
-53 -56 0
-53 -54 0
-52 -71 0
-52 -70 0
-52 -55 0
-51 -72 0
-51 -70 0
-51 -68 0
-51 -63 0
-51 -59 0
-50 -71 0
-50 -62 0
-50 -60 0
-50 -55 0
-50 -52 0
-49 -72 0
-49 -70 0
-49 -69 0
-49 -67 0
-49 -65 0
-49 -53 0
-49 -51 0
-48 -70 0
-48 -69 0
-48 -52 0
-47 -72 0
-47 -70 0
-47 -62 0
-47 -60 0
-47 -51 0
-47 -50 0
-47 -49 0
-46 -64 0
-46 -55 0
-45 -67 0
-45 -61 0
-45 -57 0
-45 -56 0
-44 -67 0
-44 -62 0
-44 -60 0
-44 -50 0
-44 -47 0
-44 -45 0
-43 -66 0
-43 -65 0
-43 -63 0
-43 -62 0
-43 -55 0
-43 -46 0
-42 -72 0
-42 -71 0
-42 -66 0
-42 -59 0
-42 -57 0
-41 -70 0
-41 -67 0
-41 -52 0
-41 -48 0
-41 -45 0
-41 -44 0
-40 -68 0
-40 -67 0
-40 -63 0
-40 -59 0
-40 -51 0
-40 -45 0
-40 -44 0
-40 -41 0
-39 -68 0
-39 -63 0
-39 -60 0
-39 -59 0
-39 -56 0
-39 -54 0
-39 -53 0
-39 -51 0
-39 -40 0
-38 -69 0
-38 -68 0
-38 -63 0
-38 -59 0
-38 -51 0
-38 -48 0
-38 -40 0
-38 -39 0
-37 -69 0
-37 -64 0
-37 -58 0
-37 -54 0
-37 -48 0
-37 -38 0
-36 -71 0
-36 -64 0
-36 -58 0
-36 -55 0
-36 -54 0
-36 -52 0
-36 -50 0
-36 -37 0
-35 -71 0
-35 -68 0
-35 -63 0
-35 -59 0
-35 -55 0
-35 -52 0
-35 -51 0
-35 -50 0
-35 -40 0
-35 -39 0
-35 -38 0
-35 -36 0
-34 -71 0
-34 -61 0
-34 -57 0
-34 -56 0
-34 -55 0
-34 -52 0
-34 -50 0
-34 -45 0
-34 -36 0
-34 -35 0
-33 -69 0
-33 -61 0
-33 -57 0
-33 -56 0
-33 -48 0
-33 -45 0
-33 -38 0
-33 -37 0
-33 -34 0
-32 -64 0
-32 -62 0
-32 -60 0
-32 -50 0
-32 -47 0
-32 -46 0
-32 -44 0
-31 -72 0
-31 -70 0
-31 -64 0
-31 -58 0
-31 -54 0
-31 -51 0
-31 -49 0
-31 -47 0
-31 -37 0
-31 -36 0
-30 -72 0
-30 -71 0
-30 -66 0
-30 -60 0
-30 -56 0
-30 -54 0
-30 -53 0
-30 -42 0
-30 -39 0
-29 -72 0
-29 -70 0
-29 -61 0
-29 -57 0
-29 -56 0
-29 -51 0
-29 -49 0
-29 -47 0
-29 -45 0
-29 -34 0
-29 -33 0
-29 -31 0
-28 -72 0
-28 -71 0
-28 -67 0
-28 -66 0
-28 -45 0
-28 -44 0
-28 -42 0
-28 -41 0
-28 -40 0
-28 -30 0
-27 -64 0
-27 -59 0
-27 -58 0
-27 -57 0
-27 -54 0
-27 -42 0
-27 -37 0
-27 -36 0
-27 -31 0
-26 -69 0
-26 -62 0
-26 -60 0
-26 -50 0
-26 -48 0
-26 -47 0
-26 -44 0
-26 -38 0
-26 -37 0
-26 -33 0
-26 -32 0
-25 -66 0
-25 -65 0
-25 -64 0
-25 -63 0
-25 -62 0
-25 -58 0
-25 -54 0
-25 -43 0
-25 -37 0
-25 -36 0
-25 -31 0
-25 -27 0
-24 -70 0
-24 -59 0
-24 -57 0
-24 -52 0
-24 -48 0
-24 -42 0
-24 -41 0
-24 -27 0
-23 -67 0
-23 -64 0
-23 -58 0
-23 -54 0
-23 -45 0
-23 -44 0
-23 -41 0
-23 -40 0
-23 -37 0
-23 -36 0
-23 -31 0
-23 -28 0
-23 -27 0
-23 -25 0
-22 -72 0
-22 -71 0
-22 -66 0
-22 -64 0
-22 -46 0
-22 -42 0
-22 -32 0
-22 -30 0
-22 -28 0
-21 -71 0
-21 -69 0
-21 -67 0
-21 -65 0
-21 -55 0
-21 -53 0
-21 -52 0
-21 -50 0
-21 -49 0
-21 -36 0
-21 -35 0
-21 -34 0
-20 -60 0
-20 -56 0
-20 -55 0
-20 -54 0
-20 -53 0
-20 -46 0
-20 -43 0
-20 -39 0
-20 -30 0
-19 -62 0
-19 -60 0
-19 -59 0
-19 -57 0
-19 -50 0
-19 -47 0
-19 -44 0
-19 -42 0
-19 -32 0
-19 -27 0
-19 -26 0
-19 -24 0
-18 -66 0
-18 -65 0
-18 -63 0
-18 -62 0
-18 -61 0
-18 -57 0
-18 -56 0
-18 -45 0
-18 -43 0
-18 -34 0
-18 -33 0
-18 -29 0
-18 -25 0
-17 -72 0
-17 -71 0
-17 -69 0
-17 -66 0
-17 -48 0
-17 -42 0
-17 -38 0
-17 -37 0
-17 -33 0
-17 -30 0
-17 -28 0
-17 -26 0
-17 -22 0
-16 -64 0
-16 -61 0
-16 -57 0
-16 -56 0
-16 -46 0
-16 -45 0
-16 -34 0
-16 -33 0
-16 -32 0
-16 -29 0
-16 -22 0
-16 -18 0
-15 -70 0
-15 -66 0
-15 -65 0
-15 -63 0
-15 -62 0
-15 -52 0
-15 -48 0
-15 -43 0
-15 -41 0
-15 -25 0
-15 -24 0
-15 -18 0
-14 -68 0
-14 -64 0
-14 -63 0
-14 -59 0
-14 -51 0
-14 -46 0
-14 -40 0
-14 -39 0
-14 -38 0
-14 -35 0
-14 -32 0
-14 -22 0
-14 -16 0
-13 -68 0
-13 -61 0
-13 -58 0
-13 -55 0
-13 -46 0
-13 -43 0
-13 -20 0
-12 -70 0
-12 -60 0
-12 -56 0
-12 -54 0
-12 -53 0
-12 -52 0
-12 -48 0
-12 -41 0
-12 -39 0
-12 -30 0
-12 -24 0
-12 -20 0
-12 -15 0
-11 -69 0
-11 -67 0
-11 -65 0
-11 -59 0
-11 -57 0
-11 -53 0
-11 -49 0
-11 -42 0
-11 -27 0
-11 -24 0
-11 -21 0
-11 -19 0
-10 -70 0
-10 -64 0
-10 -52 0
-10 -48 0
-10 -46 0
-10 -41 0
-10 -32 0
-10 -24 0
-10 -22 0
-10 -16 0
-10 -15 0
-10 -14 0
-10 -12 0
-9 -68 0
-9 -62 0
-9 -61 0
-9 -60 0
-9 -58 0
-9 -50 0
-9 -47 0
-9 -44 0
-9 -32 0
-9 -26 0
-9 -19 0
-9 -13 0
-8 -69 0
-8 -55 0
-8 -48 0
-8 -46 0
-8 -43 0
-8 -38 0
-8 -37 0
-8 -33 0
-8 -26 0
-8 -20 0
-8 -17 0
-8 -13 0
-7 -59 0
-7 -57 0
-7 -55 0
-7 -46 0
-7 -43 0
-7 -42 0
-7 -27 0
-7 -24 0
-7 -20 0
-7 -19 0
-7 -13 0
-7 -11 0
-7 -8 0
-6 -72 0
-6 -71 0
-6 -68 0
-6 -66 0
-6 -61 0
-6 -58 0
-6 -42 0
-6 -30 0
-6 -28 0
-6 -22 0
-6 -17 0
-6 -13 0
-6 -9 0
-5 -69 0
-5 -68 0
-5 -67 0
-5 -65 0
-5 -61 0
-5 -58 0
-5 -53 0
-5 -49 0
-5 -21 0
-5 -13 0
-5 -11 0
-5 -9 0
-5 -6 0
-4 -72 0
-4 -70 0
-4 -55 0
-4 -51 0
-4 -49 0
-4 -47 0
-4 -46 0
-4 -43 0
-4 -31 0
-4 -29 0
-4 -20 0
-4 -13 0
-4 -8 0
-4 -7 0
-3 -69 0
-3 -67 0
-3 -65 0
-3 -64 0
-3 -53 0
-3 -49 0
-3 -46 0
-3 -32 0
-3 -22 0
-3 -21 0
-3 -16 0
-3 -14 0
-3 -11 0
-3 -10 0
-3 -5 0
-2 -70 0
-2 -68 0
-2 -61 0
-2 -58 0
-2 -52 0
-2 -48 0
-2 -41 0
-2 -24 0
-2 -15 0
-2 -13 0
-2 -12 0
-2 -10 0
-2 -9 0
-2 -6 0
-2 -5 0
-1 -67 0
-1 -55 0
-1 -46 0
-1 -45 0
-1 -44 0
-1 -43 0
-1 -41 0
-1 -40 0
-1 -28 0
-1 -23 0
-1 -20 0
-1 -13 0
-1 -8 0
-1 -7 0
-1 -4 0
1 23 28 40 41 44 45 67 0
2 5 6 9 13 58 61 68 0
3 10 14 16 22 32 46 64 0
4 29 31 47 49 51 70 72 0
7 11 19 24 27 42 57 59 0
8 17 26 33 37 38 48 69 0
12 20 30 39 53 54 56 60 0
15 18 25 43 62 63 65 66 0
21 34 35 36 50 52 55 71 0
