p cnf 42 238
-39 -42 0
-39 -41 0
-38 -41 0
-36 -41 0
-36 -38 0
-35 -42 0
-34 -36 0
-34 -35 0
-33 -42 0
-33 -35 0
-32 -41 0
-32 -40 0
-32 -38 0
-32 -36 0
-31 -42 0
-31 -40 0
-31 -39 0
-31 -32 0
-30 -37 0
-30 -35 0
-30 -34 0
-29 -40 0
-29 -33 0
-29 -32 0
-29 -31 0
-28 -33 0
-28 -29 0
-27 -40 0
-27 -36 0
-27 -34 0
-26 -41 0
-26 -40 0
-26 -39 0
-26 -27 0
-25 -38 0
-25 -37 0
-24 -41 0
-24 -39 0
-24 -33 0
-24 -29 0
-24 -28 0
-24 -26 0
-23 -40 0
-23 -35 0
-23 -34 0
-23 -32 0
-23 -31 0
-23 -30 0
-23 -29 0
-22 -37 0
-22 -28 0
-22 -25 0
-21 -42 0
-21 -39 0
-21 -36 0
-21 -34 0
-21 -31 0
-21 -27 0
-20 -40 0
-20 -28 0
-20 -27 0
-20 -26 0
-20 -22 0
-19 -35 0
-19 -34 0
-19 -30 0
-19 -28 0
-19 -23 0
-19 -22 0
-19 -20 0
-18 -41 0
-18 -39 0
-18 -37 0
-18 -26 0
-18 -25 0
-18 -24 0
-18 -22 0
-17 -42 0
-17 -39 0
-17 -38 0
-17 -31 0
-17 -25 0
-17 -21 0
-16 -37 0
-16 -33 0
-16 -30 0
-16 -29 0
-16 -28 0
-16 -24 0
-15 -36 0
-15 -34 0
-15 -33 0
-15 -29 0
-15 -28 0
-15 -27 0
-15 -24 0
-15 -21 0
-15 -16 0
-14 -41 0
-14 -38 0
-14 -36 0
-14 -32 0
-14 -28 0
-14 -22 0
-14 -20 0
-14 -19 0
-13 -42 0
-13 -41 0
-13 -38 0
-13 -36 0
-13 -35 0
-13 -33 0
-13 -32 0
-13 -14 0
-12 -41 0
-12 -38 0
-12 -37 0
-12 -36 0
-12 -32 0
-12 -30 0
-12 -16 0
-12 -14 0
-12 -13 0
-11 -38 0
-11 -33 0
-11 -29 0
-11 -28 0
-11 -25 0
-11 -24 0
-11 -17 0
-11 -16 0
-11 -15 0
-10 -40 0
-10 -37 0
-10 -32 0
-10 -31 0
-10 -29 0
-10 -25 0
-10 -23 0
-10 -22 0
-10 -18 0
-9 -38 0
-9 -35 0
-9 -34 0
-9 -30 0
-9 -25 0
-9 -23 0
-9 -19 0
-9 -17 0
-9 -11 0
-8 -37 0
-8 -36 0
-8 -34 0
-8 -27 0
-8 -25 0
-8 -22 0
-8 -21 0
-8 -18 0
-8 -15 0
-8 -10 0
-7 -42 0
-7 -40 0
-7 -35 0
-7 -33 0
-7 -27 0
-7 -26 0
-7 -20 0
-7 -13 0
-6 -40 0
-6 -38 0
-6 -27 0
-6 -26 0
-6 -25 0
-6 -20 0
-6 -17 0
-6 -11 0
-6 -9 0
-6 -7 0
-5 -42 0
-5 -39 0
-5 -31 0
-5 -28 0
-5 -22 0
-5 -21 0
-5 -20 0
-5 -19 0
-5 -17 0
-5 -14 0
-4 -42 0
-4 -37 0
-4 -35 0
-4 -33 0
-4 -25 0
-4 -22 0
-4 -18 0
-4 -13 0
-4 -10 0
-4 -8 0
-4 -7 0
-3 -40 0
-3 -37 0
-3 -30 0
-3 -27 0
-3 -26 0
-3 -20 0
-3 -16 0
-3 -12 0
-3 -7 0
-3 -6 0
-2 -41 0
-2 -39 0
-2 -35 0
-2 -34 0
-2 -30 0
-2 -26 0
-2 -24 0
-2 -23 0
-2 -19 0
-2 -18 0
-2 -9 0
-1 -42 0
-1 -39 0
-1 -37 0
-1 -31 0
-1 -30 0
-1 -21 0
-1 -17 0
-1 -16 0
-1 -12 0
-1 -5 0
-1 -3 0
1 3 12 16 30 37 0
2 18 24 26 39 41 0
4 7 13 33 35 42 0
5 14 19 20 22 28 0
6 9 11 17 25 38 0
8 15 21 27 34 36 0
10 23 29 31 32 40 0
