p cnf 72 549
-69 -72 0
-68 -72 0
-67 -69 0
-66 -72 0
-66 -71 0
-66 -69 0
-65 -67 0
-64 -70 0
-64 -65 0
-63 -70 0
-63 -68 0
-62 -65 0
-62 -64 0
-61 -69 0
-61 -68 0
-61 -67 0
-61 -63 0
-60 -67 0
-60 -65 0
-59 -71 0
-59 -68 0
-59 -66 0
-59 -63 0
-59 -61 0
-58 -68 0
-58 -65 0
-58 -64 0
-58 -63 0
-58 -62 0
-58 -61 0
-58 -59 0
-57 -72 0
-57 -71 0
-57 -68 0
-56 -70 0
-56 -64 0
-55 -70 0
-55 -64 0
-55 -56 0
-53 -70 0
-53 -69 0
-53 -67 0
-53 -64 0
-53 -61 0
-53 -56 0
-53 -55 0
-52 -65 0
-52 -64 0
-52 -62 0
-52 -58 0
-52 -54 0
-51 -69 0
-51 -67 0
-51 -62 0
-51 -61 0
-51 -53 0
-50 -68 0
-50 -63 0
-50 -61 0
-50 -59 0
-50 -58 0
-50 -56 0
-49 -60 0
-48 -65 0
-48 -64 0
-48 -62 0
-48 -58 0
-48 -52 0
-48 -49 0
-47 -72 0
-47 -69 0
-47 -66 0
-47 -60 0
-47 -49 0
-46 -71 0
-46 -70 0
-46 -66 0
-46 -64 0
-46 -59 0
-46 -56 0
-46 -55 0
-46 -53 0
-45 -71 0
-45 -70 0
-45 -63 0
-45 -57 0
-44 -71 0
-44 -67 0
-44 -66 0
-44 -65 0
-44 -60 0
-44 -59 0
-44 -46 0
-43 -68 0
-43 -63 0
-43 -61 0
-43 -59 0
-43 -58 0
-43 -54 0
-43 -50 0
-42 -68 0
-42 -63 0
-42 -61 0
-42 -60 0
-42 -59 0
-42 -58 0
-42 -50 0
-42 -49 0
-42 -47 0
-42 -43 0
-41 -62 0
-41 -54 0
-41 -51 0
-41 -43 0
-40 -72 0
-40 -70 0
-40 -68 0
-40 -64 0
-40 -57 0
-40 -56 0
-40 -55 0
-40 -53 0
-40 -46 0
-39 -71 0
-39 -57 0
-39 -56 0
-39 -50 0
-39 -45 0
-38 -71 0
-38 -60 0
-38 -57 0
-38 -49 0
-38 -47 0
-38 -45 0
-38 -42 0
-38 -39 0
-37 -62 0
-37 -55 0
-37 -51 0
-37 -41 0
-36 -55 0
-36 -49 0
-36 -48 0
-36 -37 0
-35 -71 0
-35 -65 0
-35 -64 0
-35 -62 0
-35 -58 0
-35 -57 0
-35 -52 0
-35 -48 0
-35 -45 0
-35 -39 0
-35 -38 0
-34 -60 0
-34 -54 0
-34 -52 0
-34 -49 0
-34 -47 0
-34 -42 0
-34 -38 0
-33 -72 0
-33 -68 0
-33 -57 0
-33 -54 0
-33 -52 0
-33 -40 0
-33 -34 0
-32 -71 0
-32 -66 0
-32 -59 0
-32 -54 0
-32 -52 0
-32 -46 0
-32 -44 0
-32 -34 0
-32 -33 0
-31 -56 0
-31 -54 0
-31 -52 0
-31 -50 0
-31 -39 0
-31 -34 0
-31 -33 0
-31 -32 0
-30 -69 0
-30 -67 0
-30 -61 0
-30 -53 0
-30 -51 0
-30 -49 0
-30 -48 0
-30 -36 0
-29 -72 0
-29 -70 0
-29 -69 0
-29 -66 0
-29 -63 0
-29 -47 0
-29 -45 0
-28 -72 0
-28 -68 0
-28 -57 0
-28 -49 0
-28 -48 0
-28 -40 0
-28 -36 0
-28 -33 0
-28 -30 0
-27 -71 0
-27 -57 0
-27 -55 0
-27 -45 0
-27 -39 0
-27 -38 0
-27 -37 0
-27 -36 0
-27 -35 0
-26 -72 0
-26 -68 0
-26 -67 0
-26 -65 0
-26 -60 0
-26 -57 0
-26 -44 0
-26 -40 0
-26 -33 0
-26 -28 0
-25 -72 0
-25 -68 0
-25 -62 0
-25 -57 0
-25 -51 0
-25 -41 0
-25 -40 0
-25 -37 0
-25 -33 0
-25 -28 0
-25 -26 0
-24 -67 0
-24 -65 0
-24 -60 0
-24 -56 0
-24 -50 0
-24 -44 0
-24 -39 0
-24 -31 0
-24 -26 0
-23 -67 0
-23 -65 0
-23 -60 0
-23 -54 0
-23 -44 0
-23 -43 0
-23 -41 0
-23 -26 0
-23 -24 0
-22 -70 0
-22 -64 0
-22 -60 0
-22 -56 0
-22 -55 0
-22 -53 0
-22 -49 0
-22 -47 0
-22 -46 0
-22 -42 0
-22 -40 0
-22 -38 0
-22 -34 0
-21 -72 0
-21 -69 0
-21 -66 0
-21 -54 0
-21 -47 0
-21 -43 0
-21 -41 0
-21 -29 0
-21 -23 0
-20 -62 0
-20 -60 0
-20 -51 0
-20 -49 0
-20 -47 0
-20 -42 0
-20 -41 0
-20 -38 0
-20 -37 0
-20 -34 0
-20 -25 0
-20 -22 0
-19 -72 0
-19 -69 0
-19 -66 0
-19 -56 0
-19 -50 0
-19 -47 0
-19 -39 0
-19 -31 0
-19 -29 0
-19 -24 0
-19 -21 0
-18 -70 0
-18 -64 0
-18 -56 0
-18 -55 0
-18 -54 0
-18 -53 0
-18 -46 0
-18 -43 0
-18 -41 0
-18 -40 0
-18 -23 0
-18 -22 0
-18 -21 0
-17 -54 0
-17 -49 0
-17 -48 0
-17 -43 0
-17 -41 0
-17 -36 0
-17 -30 0
-17 -28 0
-17 -23 0
-17 -21 0
-17 -18 0
-16 -72 0
-16 -69 0
-16 -66 0
-16 -55 0
-16 -47 0
-16 -37 0
-16 -36 0
-16 -29 0
-16 -27 0
-16 -21 0
-16 -19 0
-15 -70 0
-15 -63 0
-15 -62 0
-15 -51 0
-15 -45 0
-15 -41 0
-15 -37 0
-15 -29 0
-15 -25 0
-15 -20 0
-14 -71 0
-14 -66 0
-14 -62 0
-14 -59 0
-14 -51 0
-14 -46 0
-14 -44 0
-14 -41 0
-14 -37 0
-14 -32 0
-14 -25 0
-14 -20 0
-14 -15 0
-13 -72 0
-13 -69 0
-13 -66 0
-13 -65 0
-13 -64 0
-13 -62 0
-13 -58 0
-13 -52 0
-13 -48 0
-13 -47 0
-13 -35 0
-13 -29 0
-13 -21 0
-13 -19 0
-13 -16 0
-12 -71 0
-12 -66 0
-12 -59 0
-12 -49 0
-12 -48 0
-12 -46 0
-12 -44 0
-12 -36 0
-12 -32 0
-12 -30 0
-12 -28 0
-12 -17 0
-12 -14 0
-11 -62 0
-11 -56 0
-11 -51 0
-11 -50 0
-11 -41 0
-11 -39 0
-11 -37 0
-11 -31 0
-11 -25 0
-11 -24 0
-11 -20 0
-11 -19 0
-11 -15 0
-11 -14 0
-10 -69 0
-10 -67 0
-10 -61 0
-10 -54 0
-10 -53 0
-10 -52 0
-10 -51 0
-10 -34 0
-10 -33 0
-10 -32 0
-10 -31 0
-10 -30 0
-9 -71 0
-9 -69 0
-9 -67 0
-9 -61 0
-9 -57 0
-9 -53 0
-9 -51 0
-9 -45 0
-9 -39 0
-9 -38 0
-9 -35 0
-9 -30 0
-9 -27 0
-9 -10 0
-8 -70 0
-8 -63 0
-8 -54 0
-8 -52 0
-8 -45 0
-8 -34 0
-8 -33 0
-8 -32 0
-8 -31 0
-8 -29 0
-8 -15 0
-8 -10 0
-7 -71 0
-7 -57 0
-7 -54 0
-7 -45 0
-7 -43 0
-7 -41 0
-7 -39 0
-7 -38 0
-7 -35 0
-7 -27 0
-7 -23 0
-7 -21 0
-7 -18 0
-7 -17 0
-7 -9 0
-6 -56 0
-6 -50 0
-6 -49 0
-6 -48 0
-6 -39 0
-6 -36 0
-6 -31 0
-6 -30 0
-6 -28 0
-6 -24 0
-6 -19 0
-6 -17 0
-6 -12 0
-6 -11 0
-5 -70 0
-5 -63 0
-5 -49 0
-5 -48 0
-5 -45 0
-5 -36 0
-5 -30 0
-5 -29 0
-5 -28 0
-5 -17 0
-5 -15 0
-5 -12 0
-5 -8 0
-5 -6 0
-4 -55 0
-4 -54 0
-4 -52 0
-4 -37 0
-4 -36 0
-4 -34 0
-4 -33 0
-4 -32 0
-4 -31 0
-4 -27 0
-4 -16 0
-4 -10 0
-4 -8 0
-3 -68 0
-3 -63 0
-3 -61 0
-3 -59 0
-3 -58 0
-3 -55 0
-3 -50 0
-3 -43 0
-3 -42 0
-3 -37 0
-3 -36 0
-3 -27 0
-3 -16 0
-3 -4 0
-2 -67 0
-2 -65 0
-2 -60 0
-2 -55 0
-2 -44 0
-2 -37 0
-2 -36 0
-2 -27 0
-2 -26 0
-2 -24 0
-2 -23 0
-2 -16 0
-2 -4 0
-2 -3 0
-1 -70 0
-1 -67 0
-1 -65 0
-1 -63 0
-1 -60 0
-1 -45 0
-1 -44 0
-1 -29 0
-1 -26 0
-1 -24 0
-1 -23 0
-1 -15 0
-1 -8 0
-1 -5 0
-1 -2 0
1 5 8 15 29 45 63 70 0
2 3 4 16 27 36 37 55 0
6 11 19 24 31 39 50 56 0
7 17 18 21 23 41 43 54 0
9 10 30 51 53 61 67 69 0
12 14 32 44 46 59 66 71 0
13 35 48 52 58 62 64 65 0
20 22 34 38 42 47 49 60 0
25 26 28 33 40 57 68 72 0
