p cnf 110 1056
-107 -109 0
-106 -107 0
-105 -109 0
-105 -107 0
-102 -107 0
-102 -106 0
-101 -110 0
-100 -109 0
-99 -109 0
-99 -107 0
-99 -105 0
-98 -106 0
-97 -105 0
-96 -104 0
-96 -100 0
-95 -106 0
-95 -105 0
-95 -98 0
-95 -97 0
-94 -110 0
-94 -108 0
-93 -97 0
-92 -108 0
-92 -98 0
-91 -103 0
-91 -101 0
-90 -109 0
-90 -106 0
-90 -100 0
-90 -98 0
-90 -95 0
-89 -97 0
-89 -93 0
-88 -110 0
-88 -105 0
-88 -97 0
-88 -95 0
-88 -94 0
-87 -104 0
-87 -103 0
-87 -91 0
-86 -108 0
-86 -97 0
-86 -94 0
-86 -93 0
-86 -89 0
-85 -103 0
-85 -102 0
-85 -91 0
-85 -87 0
-84 -110 0
-84 -101 0
-84 -97 0
-84 -93 0
-84 -89 0
-84 -86 0
-83 -104 0
-83 -89 0
-83 -87 0
-82 -106 0
-82 -99 0
-82 -98 0
-82 -95 0
-82 -90 0
-81 -108 0
-81 -103 0
-81 -92 0
-81 -91 0
-81 -87 0
-81 -85 0
-80 -110 0
-80 -102 0
-80 -101 0
-80 -85 0
-80 -84 0
-79 -110 0
-79 -104 0
-79 -101 0
-79 -87 0
-79 -84 0
-79 -83 0
-79 -80 0
-78 -101 0
-78 -93 0
-78 -91 0
-77 -110 0
-77 -99 0
-77 -94 0
-77 -88 0
-77 -82 0
-76 -110 0
-76 -106 0
-76 -101 0
-76 -98 0
-76 -95 0
-76 -90 0
-76 -84 0
-76 -82 0
-76 -80 0
-76 -79 0
-75 -110 0
-75 -108 0
-75 -101 0
-75 -92 0
-75 -84 0
-75 -81 0
-75 -80 0
-75 -79 0
-75 -76 0
-74 -109 0
-74 -103 0
-74 -100 0
-74 -90 0
-73 -105 0
-73 -104 0
-73 -97 0
-73 -95 0
-73 -88 0
-73 -87 0
-73 -83 0
-73 -79 0
-72 -103 0
-72 -97 0
-72 -93 0
-72 -91 0
-72 -89 0
-72 -87 0
-72 -86 0
-72 -85 0
-72 -84 0
-72 -81 0
-71 -100 0
-71 -96 0
-71 -89 0
-71 -83 0
-70 -103 0
-70 -99 0
-70 -82 0
-70 -77 0
-70 -74 0
-69 -110 0
-69 -107 0
-69 -106 0
-69 -102 0
-69 -94 0
-69 -88 0
-69 -77 0
-68 -103 0
-68 -100 0
-68 -96 0
-68 -91 0
-68 -87 0
-68 -85 0
-68 -81 0
-68 -72 0
-68 -71 0
-67 -106 0
-67 -98 0
-67 -95 0
-67 -90 0
-67 -89 0
-67 -83 0
-67 -82 0
-67 -76 0
-67 -71 0
-66 -102 0
-66 -99 0
-66 -85 0
-66 -82 0
-66 -80 0
-66 -77 0
-66 -70 0
-65 -100 0
-65 -99 0
-65 -96 0
-65 -82 0
-65 -77 0
-65 -71 0
-65 -70 0
-65 -68 0
-65 -66 0
-64 -109 0
-64 -107 0
-64 -105 0
-64 -99 0
-64 -98 0
-64 -92 0
-63 -104 0
-63 -102 0
-63 -96 0
-63 -85 0
-63 -80 0
-63 -66 0
-62 -107 0
-62 -106 0
-62 -102 0
-62 -101 0
-62 -91 0
-62 -78 0
-62 -69 0
-61 -110 0
-61 -104 0
-61 -96 0
-61 -94 0
-61 -88 0
-61 -77 0
-61 -69 0
-61 -63 0
-60 -109 0
-60 -108 0
-60 -100 0
-60 -92 0
-60 -90 0
-60 -81 0
-60 -75 0
-60 -74 0
-59 -103 0
-59 -89 0
-59 -83 0
-59 -74 0
-59 -71 0
-59 -70 0
-59 -67 0
-58 -109 0
-58 -101 0
-58 -100 0
-58 -91 0
-58 -90 0
-58 -78 0
-58 -74 0
-58 -62 0
-58 -60 0
-57 -109 0
-57 -100 0
-57 -97 0
-57 -93 0
-57 -90 0
-57 -89 0
-57 -86 0
-57 -84 0
-57 -74 0
-57 -72 0
-57 -60 0
-57 -58 0
-56 -108 0
-56 -105 0
-56 -97 0
-56 -95 0
-56 -92 0
-56 -88 0
-56 -81 0
-56 -75 0
-56 -73 0
-56 -60 0
-55 -109 0
-55 -108 0
-55 -107 0
-55 -105 0
-55 -99 0
-55 -94 0
-55 -86 0
-55 -64 0
-54 -109 0
-54 -107 0
-54 -105 0
-54 -103 0
-54 -99 0
-54 -91 0
-54 -87 0
-54 -85 0
-54 -81 0
-54 -72 0
-54 -68 0
-54 -64 0
-54 -55 0
-53 -110 0
-53 -101 0
-53 -100 0
-53 -96 0
-53 -84 0
-53 -80 0
-53 -79 0
-53 -76 0
-53 -75 0
-53 -71 0
-53 -68 0
-53 -65 0
-52 -108 0
-52 -100 0
-52 -96 0
-52 -94 0
-52 -86 0
-52 -71 0
-52 -68 0
-52 -65 0
-52 -55 0
-52 -53 0
-51 -108 0
-51 -102 0
-51 -94 0
-51 -86 0
-51 -85 0
-51 -80 0
-51 -66 0
-51 -63 0
-51 -55 0
-51 -52 0
-50 -106 0
-50 -98 0
-50 -95 0
-50 -93 0
-50 -90 0
-50 -82 0
-50 -78 0
-50 -76 0
-50 -67 0
-49 -110 0
-49 -98 0
-49 -94 0
-49 -92 0
-49 -88 0
-49 -77 0
-49 -69 0
-49 -64 0
-49 -61 0
-48 -109 0
-48 -102 0
-48 -100 0
-48 -90 0
-48 -85 0
-48 -80 0
-48 -74 0
-48 -66 0
-48 -63 0
-48 -60 0
-48 -58 0
-48 -57 0
-48 -51 0
-47 -104 0
-47 -97 0
-47 -96 0
-47 -93 0
-47 -89 0
-47 -86 0
-47 -84 0
-47 -72 0
-47 -63 0
-47 -61 0
-47 -57 0
-46 -110 0
-46 -109 0
-46 -100 0
-46 -94 0
-46 -90 0
-46 -88 0
-46 -77 0
-46 -74 0
-46 -69 0
-46 -61 0
-46 -60 0
-46 -58 0
-46 -57 0
-46 -49 0
-46 -48 0
-45 -109 0
-45 -107 0
-45 -105 0
-45 -99 0
-45 -93 0
-45 -78 0
-45 -64 0
-45 -55 0
-45 -54 0
-45 -50 0
-44 -108 0
-44 -93 0
-44 -92 0
-44 -81 0
-44 -78 0
-44 -75 0
-44 -60 0
-44 -56 0
-44 -50 0
-44 -45 0
-43 -109 0
-43 -107 0
-43 -105 0
-43 -104 0
-43 -99 0
-43 -96 0
-43 -64 0
-43 -63 0
-43 -61 0
-43 -55 0
-43 -54 0
-43 -47 0
-43 -45 0
-42 -104 0
-42 -93 0
-42 -87 0
-42 -83 0
-42 -79 0
-42 -78 0
-42 -73 0
-42 -50 0
-42 -45 0
-42 -44 0
-41 -107 0
-41 -106 0
-41 -103 0
-41 -102 0
-41 -74 0
-41 -70 0
-41 -69 0
-41 -62 0
-41 -59 0
-40 -101 0
-40 -91 0
-40 -89 0
-40 -83 0
-40 -78 0
-40 -71 0
-40 -67 0
-40 -62 0
-40 -59 0
-40 -58 0
-39 -104 0
-39 -103 0
-39 -96 0
-39 -74 0
-39 -70 0
-39 -63 0
-39 -61 0
-39 -59 0
-39 -47 0
-39 -43 0
-39 -41 0
-38 -107 0
-38 -106 0
-38 -104 0
-38 -102 0
-38 -87 0
-38 -83 0
-38 -79 0
-38 -73 0
-38 -69 0
-38 -62 0
-38 -42 0
-38 -41 0
-37 -107 0
-37 -106 0
-37 -102 0
-37 -100 0
-37 -96 0
-37 -71 0
-37 -69 0
-37 -68 0
-37 -65 0
-37 -62 0
-37 -53 0
-37 -52 0
-37 -41 0
-37 -38 0
-36 -104 0
-36 -99 0
-36 -87 0
-36 -83 0
-36 -82 0
-36 -79 0
-36 -77 0
-36 -73 0
-36 -70 0
-36 -66 0
-36 -65 0
-36 -42 0
-36 -38 0
-35 -110 0
-35 -103 0
-35 -101 0
-35 -84 0
-35 -80 0
-35 -79 0
-35 -76 0
-35 -75 0
-35 -74 0
-35 -70 0
-35 -59 0
-35 -53 0
-35 -41 0
-35 -39 0
-34 -105 0
-34 -101 0
-34 -97 0
-34 -95 0
-34 -91 0
-34 -88 0
-34 -78 0
-34 -73 0
-34 -62 0
-34 -58 0
-34 -56 0
-34 -40 0
-33 -108 0
-33 -104 0
-33 -94 0
-33 -87 0
-33 -86 0
-33 -83 0
-33 -79 0
-33 -73 0
-33 -55 0
-33 -52 0
-33 -51 0
-33 -42 0
-33 -38 0
-33 -36 0
-32 -101 0
-32 -99 0
-32 -91 0
-32 -82 0
-32 -78 0
-32 -77 0
-32 -70 0
-32 -66 0
-32 -65 0
-32 -62 0
-32 -58 0
-32 -40 0
-32 -36 0
-32 -34 0
-31 -101 0
-31 -98 0
-31 -92 0
-31 -91 0
-31 -78 0
-31 -64 0
-31 -62 0
-31 -58 0
-31 -49 0
-31 -40 0
-31 -34 0
-31 -32 0
-30 -103 0
-30 -93 0
-30 -78 0
-30 -74 0
-30 -70 0
-30 -59 0
-30 -50 0
-30 -45 0
-30 -44 0
-30 -42 0
-30 -41 0
-30 -39 0
-30 -35 0
-29 -110 0
-29 -94 0
-29 -89 0
-29 -88 0
-29 -83 0
-29 -77 0
-29 -71 0
-29 -69 0
-29 -67 0
-29 -61 0
-29 -59 0
-29 -49 0
-29 -46 0
-29 -40 0
-28 -104 0
-28 -101 0
-28 -96 0
-28 -91 0
-28 -78 0
-28 -63 0
-28 -62 0
-28 -61 0
-28 -58 0
-28 -47 0
-28 -43 0
-28 -40 0
-28 -39 0
-28 -34 0
-28 -32 0
-28 -31 0
-27 -110 0
-27 -109 0
-27 -107 0
-27 -105 0
-27 -101 0
-27 -99 0
-27 -84 0
-27 -80 0
-27 -79 0
-27 -76 0
-27 -75 0
-27 -64 0
-27 -55 0
-27 -54 0
-27 -53 0
-27 -45 0
-27 -43 0
-27 -35 0
-26 -103 0
-26 -98 0
-26 -92 0
-26 -74 0
-26 -70 0
-26 -64 0
-26 -59 0
-26 -49 0
-26 -41 0
-26 -39 0
-26 -35 0
-26 -31 0
-26 -30 0
-25 -98 0
-25 -97 0
-25 -93 0
-25 -92 0
-25 -89 0
-25 -86 0
-25 -84 0
-25 -72 0
-25 -64 0
-25 -57 0
-25 -49 0
-25 -47 0
-25 -31 0
-25 -26 0
-24 -110 0
-24 -94 0
-24 -93 0
-24 -88 0
-24 -78 0
-24 -77 0
-24 -69 0
-24 -61 0
-24 -50 0
-24 -49 0
-24 -46 0
-24 -45 0
-24 -44 0
-24 -42 0
-24 -30 0
-24 -29 0
-23 -109 0
-23 -107 0
-23 -105 0
-23 -99 0
-23 -89 0
-23 -83 0
-23 -71 0
-23 -67 0
-23 -64 0
-23 -59 0
-23 -55 0
-23 -54 0
-23 -45 0
-23 -43 0
-23 -40 0
-23 -29 0
-23 -27 0
-22 -105 0
-22 -103 0
-22 -97 0
-22 -95 0
-22 -88 0
-22 -74 0
-22 -73 0
-22 -70 0
-22 -59 0
-22 -56 0
-22 -41 0
-22 -39 0
-22 -35 0
-22 -34 0
-22 -30 0
-22 -26 0
-21 -110 0
-21 -103 0
-21 -94 0
-21 -91 0
-21 -88 0
-21 -87 0
-21 -85 0
-21 -81 0
-21 -77 0
-21 -72 0
-21 -69 0
-21 -68 0
-21 -61 0
-21 -54 0
-21 -49 0
-21 -46 0
-21 -29 0
-21 -24 0
-20 -106 0
-20 -103 0
-20 -98 0
-20 -95 0
-20 -91 0
-20 -90 0
-20 -87 0
-20 -85 0
-20 -82 0
-20 -81 0
-20 -76 0
-20 -72 0
-20 -68 0
-20 -67 0
-20 -54 0
-20 -50 0
-20 -21 0
-19 -109 0
-19 -104 0
-19 -100 0
-19 -90 0
-19 -87 0
-19 -83 0
-19 -79 0
-19 -74 0
-19 -73 0
-19 -60 0
-19 -58 0
-19 -57 0
-19 -48 0
-19 -46 0
-19 -42 0
-19 -38 0
-19 -36 0
-19 -33 0
-18 -106 0
-18 -104 0
-18 -98 0
-18 -96 0
-18 -95 0
-18 -90 0
-18 -82 0
-18 -76 0
-18 -67 0
-18 -63 0
-18 -61 0
-18 -50 0
-18 -47 0
-18 -43 0
-18 -39 0
-18 -28 0
-18 -20 0
-17 -105 0
-17 -100 0
-17 -97 0
-17 -96 0
-17 -95 0
-17 -88 0
-17 -73 0
-17 -71 0
-17 -68 0
-17 -65 0
-17 -56 0
-17 -53 0
-17 -52 0
-17 -37 0
-17 -34 0
-17 -22 0
-16 -108 0
-16 -92 0
-16 -89 0
-16 -83 0
-16 -81 0
-16 -75 0
-16 -71 0
-16 -67 0
-16 -60 0
-16 -59 0
-16 -56 0
-16 -44 0
-16 -40 0
-16 -29 0
-16 -23 0
-15 -108 0
-15 -101 0
-15 -94 0
-15 -91 0
-15 -86 0
-15 -78 0
-15 -62 0
-15 -58 0
-15 -55 0
-15 -52 0
-15 -51 0
-15 -40 0
-15 -34 0
-15 -33 0
-15 -32 0
-15 -31 0
-15 -28 0
-14 -102 0
-14 -89 0
-14 -85 0
-14 -83 0
-14 -80 0
-14 -71 0
-14 -67 0
-14 -66 0
-14 -63 0
-14 -59 0
-14 -51 0
-14 -48 0
-14 -40 0
-14 -29 0
-14 -23 0
-14 -16 0
-13 -102 0
-13 -93 0
-13 -85 0
-13 -80 0
-13 -78 0
-13 -66 0
-13 -63 0
-13 -51 0
-13 -50 0
-13 -48 0
-13 -45 0
-13 -44 0
-13 -42 0
-13 -30 0
-13 -24 0
-13 -14 0
-12 -108 0
-12 -104 0
-12 -96 0
-12 -92 0
-12 -81 0
-12 -75 0
-12 -63 0
-12 -61 0
-12 -60 0
-12 -56 0
-12 -47 0
-12 -44 0
-12 -43 0
-12 -39 0
-12 -28 0
-12 -18 0
-12 -16 0
-11 -107 0
-11 -106 0
-11 -102 0
-11 -97 0
-11 -93 0
-11 -89 0
-11 -86 0
-11 -84 0
-11 -72 0
-11 -69 0
-11 -62 0
-11 -57 0
-11 -47 0
-11 -41 0
-11 -38 0
-11 -37 0
-11 -25 0
-10 -102 0
-10 -98 0
-10 -92 0
-10 -85 0
-10 -80 0
-10 -66 0
-10 -64 0
-10 -63 0
-10 -51 0
-10 -49 0
-10 -48 0
-10 -31 0
-10 -26 0
-10 -25 0
-10 -14 0
-10 -13 0
-9 -100 0
-9 -96 0
-9 -93 0
-9 -78 0
-9 -71 0
-9 -68 0
-9 -65 0
-9 -53 0
-9 -52 0
-9 -50 0
-9 -45 0
-9 -44 0
-9 -42 0
-9 -37 0
-9 -30 0
-9 -24 0
-9 -17 0
-9 -13 0
-8 -108 0
-8 -106 0
-8 -98 0
-8 -95 0
-8 -94 0
-8 -90 0
-8 -86 0
-8 -82 0
-8 -76 0
-8 -67 0
-8 -55 0
-8 -52 0
-8 -51 0
-8 -50 0
-8 -33 0
-8 -20 0
-8 -18 0
-8 -15 0
-7 -108 0
-7 -103 0
-7 -94 0
-7 -86 0
-7 -74 0
-7 -70 0
-7 -59 0
-7 -55 0
-7 -52 0
-7 -51 0
-7 -41 0
-7 -39 0
-7 -35 0
-7 -33 0
-7 -30 0
-7 -26 0
-7 -22 0
-7 -15 0
-7 -8 0
-6 -100 0
-6 -98 0
-6 -96 0
-6 -92 0
-6 -71 0
-6 -68 0
-6 -65 0
-6 -64 0
-6 -53 0
-6 -52 0
-6 -49 0
-6 -37 0
-6 -31 0
-6 -26 0
-6 -25 0
-6 -17 0
-6 -10 0
-6 -9 0
-5 -99 0
-5 -97 0
-5 -93 0
-5 -89 0
-5 -86 0
-5 -84 0
-5 -82 0
-5 -77 0
-5 -72 0
-5 -70 0
-5 -66 0
-5 -65 0
-5 -57 0
-5 -47 0
-5 -36 0
-5 -32 0
-5 -25 0
-5 -11 0
-4 -104 0
-4 -98 0
-4 -92 0
-4 -87 0
-4 -83 0
-4 -79 0
-4 -73 0
-4 -64 0
-4 -49 0
-4 -42 0
-4 -38 0
-4 -36 0
-4 -33 0
-4 -31 0
-4 -26 0
-4 -25 0
-4 -19 0
-4 -10 0
-4 -6 0
-3 -108 0
-3 -107 0
-3 -106 0
-3 -102 0
-3 -92 0
-3 -81 0
-3 -75 0
-3 -69 0
-3 -62 0
-3 -60 0
-3 -56 0
-3 -44 0
-3 -41 0
-3 -38 0
-3 -37 0
-3 -16 0
-3 -12 0
-3 -11 0
-2 -105 0
-2 -102 0
-2 -97 0
-2 -95 0
-2 -88 0
-2 -85 0
-2 -80 0
-2 -73 0
-2 -66 0
-2 -63 0
-2 -56 0
-2 -51 0
-2 -48 0
-2 -34 0
-2 -22 0
-2 -17 0
-2 -14 0
-2 -13 0
-2 -10 0
-1 -108 0
-1 -99 0
-1 -92 0
-1 -82 0
-1 -81 0
-1 -77 0
-1 -75 0
-1 -70 0
-1 -66 0
-1 -65 0
-1 -60 0
-1 -56 0
-1 -44 0
-1 -36 0
-1 -32 0
-1 -16 0
-1 -12 0
-1 -5 0
-1 -3 0
1 5 32 36 65 66 70 77 82 99 0
2 17 22 34 56 73 88 95 97 105 0
3 11 37 38 41 62 69 102 106 107 0
4 6 10 25 26 31 49 64 92 98 0
7 8 15 33 51 52 55 86 94 108 0
9 13 24 30 42 44 45 50 78 93 0
12 18 28 39 43 47 61 63 96 104 0
14 16 23 29 40 59 67 71 83 89 0
19 46 48 57 58 60 74 90 100 109 0
20 21 54 68 72 81 85 87 91 103 0
27 35 53 75 76 79 80 84 101 110 0
