p cnf 72 549
-69 -70 0
-68 -70 0
-68 -69 0
-66 -72 0
-64 -72 0
-64 -70 0
-64 -69 0
-64 -68 0
-64 -66 0
-63 -70 0
-63 -67 0
-62 -72 0
-61 -65 0
-60 -69 0
-60 -66 0
-59 -62 0
-59 -61 0
-58 -69 0
-58 -65 0
-58 -60 0
-57 -71 0
-56 -72 0
-56 -66 0
-56 -64 0
-55 -72 0
-55 -71 0
-55 -62 0
-54 -66 0
-54 -62 0
-54 -60 0
-54 -59 0
-53 -67 0
-53 -66 0
-53 -60 0
-53 -54 0
-52 -72 0
-52 -68 0
-52 -62 0
-52 -55 0
-51 -72 0
-51 -66 0
-51 -65 0
-51 -64 0
-51 -58 0
-51 -56 0
-50 -68 0
-50 -65 0
-50 -58 0
-50 -52 0
-50 -51 0
-49 -71 0
-49 -56 0
-49 -55 0
-48 -70 0
-48 -63 0
-48 -61 0
-48 -59 0
-47 -66 0
-47 -60 0
-47 -57 0
-47 -54 0
-47 -53 0
-46 -72 0
-46 -67 0
-46 -66 0
-46 -64 0
-46 -63 0
-46 -56 0
-46 -51 0
-45 -72 0
-45 -65 0
-45 -62 0
-45 -61 0
-45 -55 0
-45 -52 0
-44 -71 0
-44 -68 0
-44 -57 0
-44 -52 0
-44 -50 0
-43 -71 0
-43 -66 0
-43 -60 0
-43 -55 0
-43 -54 0
-43 -53 0
-43 -49 0
-43 -47 0
-42 -68 0
-42 -56 0
-42 -52 0
-42 -50 0
-42 -49 0
-42 -44 0
-41 -71 0
-41 -65 0
-41 -61 0
-41 -57 0
-41 -45 0
-41 -44 0
-40 -67 0
-40 -65 0
-40 -63 0
-40 -61 0
-40 -46 0
-40 -45 0
-40 -41 0
-39 -70 0
-39 -69 0
-39 -68 0
-39 -64 0
-39 -62 0
-39 -59 0
-39 -54 0
-38 -65 0
-38 -62 0
-38 -59 0
-38 -58 0
-38 -54 0
-38 -51 0
-38 -50 0
-38 -39 0
-37 -70 0
-37 -66 0
-37 -63 0
-37 -60 0
-37 -54 0
-37 -53 0
-37 -48 0
-37 -47 0
-37 -43 0
-36 -65 0
-36 -58 0
-36 -57 0
-36 -51 0
-36 -50 0
-36 -47 0
-36 -38 0
-35 -72 0
-35 -67 0
-35 -62 0
-35 -55 0
-35 -53 0
-35 -52 0
-35 -45 0
-34 -67 0
-34 -56 0
-34 -53 0
-34 -49 0
-34 -42 0
-34 -35 0
-33 -71 0
-33 -69 0
-33 -60 0
-33 -58 0
-33 -57 0
-33 -44 0
-33 -41 0
-32 -67 0
-32 -63 0
-32 -62 0
-32 -59 0
-32 -54 0
-32 -46 0
-32 -40 0
-32 -39 0
-32 -38 0
-31 -68 0
-31 -61 0
-31 -59 0
-31 -52 0
-31 -50 0
-31 -48 0
-31 -44 0
-31 -42 0
-30 -71 0
-30 -70 0
-30 -69 0
-30 -68 0
-30 -64 0
-30 -55 0
-30 -49 0
-30 -43 0
-30 -39 0
-29 -72 0
-29 -70 0
-29 -63 0
-29 -62 0
-29 -55 0
-29 -52 0
-29 -48 0
-29 -45 0
-29 -37 0
-29 -35 0
-28 -68 0
-28 -66 0
-28 -60 0
-28 -54 0
-28 -53 0
-28 -52 0
-28 -50 0
-28 -47 0
-28 -44 0
-28 -43 0
-28 -42 0
-28 -37 0
-28 -31 0
-27 -68 0
-27 -67 0
-27 -63 0
-27 -52 0
-27 -50 0
-27 -46 0
-27 -44 0
-27 -42 0
-27 -40 0
-27 -32 0
-27 -31 0
-27 -28 0
-26 -69 0
-26 -67 0
-26 -63 0
-26 -60 0
-26 -58 0
-26 -46 0
-26 -40 0
-26 -33 0
-26 -32 0
-26 -27 0
-25 -69 0
-25 -61 0
-25 -60 0
-25 -59 0
-25 -58 0
-25 -48 0
-25 -33 0
-25 -31 0
-25 -26 0
-24 -70 0
-24 -69 0
-24 -68 0
-24 -67 0
-24 -64 0
-24 -53 0
-24 -39 0
-24 -35 0
-24 -34 0
-24 -30 0
-23 -72 0
-23 -66 0
-23 -64 0
-23 -61 0
-23 -59 0
-23 -56 0
-23 -51 0
-23 -48 0
-23 -46 0
-23 -31 0
-23 -25 0
-22 -71 0
-22 -67 0
-22 -57 0
-22 -53 0
-22 -44 0
-22 -41 0
-22 -35 0
-22 -34 0
-22 -33 0
-22 -24 0
-21 -57 0
-21 -56 0
-21 -49 0
-21 -47 0
-21 -42 0
-21 -36 0
-21 -34 0
-20 -70 0
-20 -65 0
-20 -63 0
-20 -58 0
-20 -51 0
-20 -50 0
-20 -48 0
-20 -38 0
-20 -37 0
-20 -36 0
-20 -29 0
-19 -66 0
-19 -65 0
-19 -61 0
-19 -60 0
-19 -54 0
-19 -53 0
-19 -47 0
-19 -45 0
-19 -43 0
-19 -41 0
-19 -40 0
-19 -37 0
-19 -28 0
-18 -72 0
-18 -69 0
-18 -62 0
-18 -60 0
-18 -58 0
-18 -55 0
-18 -52 0
-18 -45 0
-18 -35 0
-18 -33 0
-18 -29 0
-18 -26 0
-18 -25 0
-17 -69 0
-17 -60 0
-17 -58 0
-17 -56 0
-17 -49 0
-17 -42 0
-17 -34 0
-17 -33 0
-17 -26 0
-17 -25 0
-17 -21 0
-17 -18 0
-16 -70 0
-16 -69 0
-16 -68 0
-16 -65 0
-16 -64 0
-16 -61 0
-16 -45 0
-16 -41 0
-16 -40 0
-16 -39 0
-16 -30 0
-16 -24 0
-16 -19 0
-15 -71 0
-15 -62 0
-15 -59 0
-15 -57 0
-15 -54 0
-15 -44 0
-15 -41 0
-15 -39 0
-15 -38 0
-15 -33 0
-15 -32 0
-15 -22 0
-14 -67 0
-14 -61 0
-14 -59 0
-14 -53 0
-14 -48 0
-14 -35 0
-14 -34 0
-14 -31 0
-14 -25 0
-14 -24 0
-14 -23 0
-14 -22 0
-13 -70 0
-13 -63 0
-13 -56 0
-13 -49 0
-13 -48 0
-13 -42 0
-13 -37 0
-13 -34 0
-13 -29 0
-13 -21 0
-13 -20 0
-13 -17 0
-12 -62 0
-12 -59 0
-12 -56 0
-12 -54 0
-12 -49 0
-12 -42 0
-12 -39 0
-12 -38 0
-12 -34 0
-12 -32 0
-12 -21 0
-12 -17 0
-12 -15 0
-12 -13 0
-11 -71 0
-11 -65 0
-11 -58 0
-11 -55 0
-11 -51 0
-11 -50 0
-11 -49 0
-11 -43 0
-11 -38 0
-11 -36 0
-11 -30 0
-11 -20 0
-10 -71 0
-10 -67 0
-10 -63 0
-10 -55 0
-10 -49 0
-10 -46 0
-10 -43 0
-10 -40 0
-10 -32 0
-10 -30 0
-10 -27 0
-10 -26 0
-10 -11 0
-9 -71 0
-9 -70 0
-9 -63 0
-9 -57 0
-9 -48 0
-9 -44 0
-9 -41 0
-9 -37 0
-9 -33 0
-9 -29 0
-9 -22 0
-9 -20 0
-9 -15 0
-9 -13 0
-8 -72 0
-8 -62 0
-8 -57 0
-8 -55 0
-8 -52 0
-8 -47 0
-8 -45 0
-8 -36 0
-8 -35 0
-8 -29 0
-8 -21 0
-8 -18 0
-7 -72 0
-7 -71 0
-7 -66 0
-7 -64 0
-7 -57 0
-7 -56 0
-7 -51 0
-7 -46 0
-7 -44 0
-7 -41 0
-7 -33 0
-7 -23 0
-7 -22 0
-7 -15 0
-7 -9 0
-6 -67 0
-6 -63 0
-6 -57 0
-6 -47 0
-6 -46 0
-6 -40 0
-6 -36 0
-6 -32 0
-6 -27 0
-6 -26 0
-6 -21 0
-6 -10 0
-6 -8 0
-5 -65 0
-5 -61 0
-5 -56 0
-5 -49 0
-5 -45 0
-5 -42 0
-5 -41 0
-5 -40 0
-5 -34 0
-5 -21 0
-5 -19 0
-5 -17 0
-5 -16 0
-5 -13 0
-5 -12 0
-4 -61 0
-4 -59 0
-4 -57 0
-4 -48 0
-4 -47 0
-4 -36 0
-4 -31 0
-4 -25 0
-4 -23 0
-4 -21 0
-4 -14 0
-4 -8 0
-4 -6 0
-3 -71 0
-3 -61 0
-3 -59 0
-3 -55 0
-3 -49 0
-3 -48 0
-3 -43 0
-3 -31 0
-3 -30 0
-3 -25 0
-3 -23 0
-3 -14 0
-3 -11 0
-3 -10 0
-3 -4 0
-2 -67 0
-2 -65 0
-2 -58 0
-2 -53 0
-2 -51 0
-2 -50 0
-2 -38 0
-2 -36 0
-2 -35 0
-2 -34 0
-2 -24 0
-2 -22 0
-2 -20 0
-2 -14 0
-2 -11 0
-1 -70 0
-1 -69 0
-1 -68 0
-1 -64 0
-1 -57 0
-1 -47 0
-1 -39 0
-1 -36 0
-1 -30 0
-1 -24 0
-1 -21 0
-1 -16 0
-1 -8 0
-1 -6 0
-1 -4 0
1 4 6 8 21 36 47 57 0
2 14 22 24 34 35 53 67 0
3 10 11 30 43 49 55 71 0
5 16 19 40 41 45 61 65 0
7 23 46 51 56 64 66 72 0
9 13 20 29 37 48 63 70 0
12 15 32 38 39 54 59 62 0
17 18 25 26 33 58 60 69 0
27 28 31 42 44 50 52 68 0
