p cnf 132 1398
-128 -132 0
-126 -129 0
-125 -127 0
-123 -128 0
-122 -131 0
-122 -129 0
-122 -126 0
-121 -131 0
-120 -121 0
-119 -130 0
-119 -121 0
-119 -120 0
-118 -129 0
-118 -126 0
-118 -125 0
-118 -122 0
-117 -130 0
-117 -119 0
-116 -124 0
-116 -120 0
-115 -127 0
-115 -125 0
-115 -121 0
-115 -120 0
-115 -119 0
-114 -130 0
-114 -129 0
-114 -119 0
-114 -117 0
-113 -132 0
-113 -129 0
-113 -114 0
-112 -132 0
-112 -128 0
-111 -132 0
-111 -127 0
-111 -113 0
-110 -127 0
-110 -111 0
-109 -129 0
-109 -126 0
-109 -124 0
-109 -122 0
-109 -118 0
-109 -116 0
-108 -130 0
-108 -127 0
-108 -119 0
-108 -117 0
-108 -114 0
-108 -111 0
-108 -110 0
-107 -127 0
-107 -125 0
-107 -123 0
-107 -115 0
-106 -132 0
-106 -130 0
-106 -128 0
-106 -119 0
-106 -117 0
-106 -114 0
-106 -112 0
-106 -108 0
-105 -130 0
-105 -124 0
-104 -125 0
-104 -118 0
-104 -112 0
-103 -130 0
-103 -123 0
-103 -119 0
-103 -117 0
-103 -114 0
-103 -108 0
-103 -107 0
-103 -106 0
-102 -112 0
-102 -104 0
-101 -123 0
-101 -112 0
-101 -107 0
-101 -104 0
-101 -103 0
-101 -102 0
-100 -121 0
-100 -120 0
-100 -119 0
-100 -115 0
-100 -110 0
-99 -132 0
-99 -128 0
-99 -120 0
-99 -116 0
-99 -112 0
-99 -106 0
-98 -125 0
-98 -118 0
-98 -110 0
-98 -104 0
-98 -100 0
-97 -131 0
-97 -127 0
-97 -121 0
-97 -111 0
-97 -110 0
-97 -108 0
-96 -132 0
-96 -131 0
-96 -128 0
-96 -121 0
-96 -112 0
-96 -106 0
-96 -99 0
-96 -97 0
-95 -129 0
-95 -128 0
-95 -123 0
-95 -114 0
-95 -113 0
-94 -124 0
-94 -123 0
-94 -107 0
-94 -105 0
-94 -103 0
-94 -101 0
-93 -123 0
-93 -107 0
-93 -103 0
-93 -101 0
-93 -94 0
-92 -127 0
-92 -126 0
-92 -125 0
-92 -115 0
-92 -107 0
-91 -123 0
-91 -120 0
-91 -116 0
-91 -107 0
-91 -103 0
-91 -101 0
-91 -99 0
-91 -94 0
-91 -93 0
-90 -132 0
-90 -121 0
-90 -120 0
-90 -119 0
-90 -115 0
-90 -113 0
-90 -111 0
-90 -100 0
-89 -124 0
-89 -116 0
-89 -109 0
-89 -93 0
-88 -131 0
-88 -121 0
-88 -102 0
-88 -97 0
-88 -96 0
-87 -131 0
-87 -121 0
-87 -117 0
-87 -97 0
-87 -96 0
-87 -88 0
-86 -128 0
-86 -123 0
-86 -117 0
-86 -95 0
-86 -87 0
-85 -128 0
-85 -123 0
-85 -121 0
-85 -120 0
-85 -119 0
-85 -115 0
-85 -100 0
-85 -95 0
-85 -90 0
-85 -86 0
-84 -132 0
-84 -124 0
-84 -116 0
-84 -113 0
-84 -111 0
-84 -109 0
-84 -90 0
-84 -89 0
-83 -130 0
-83 -112 0
-83 -105 0
-83 -104 0
-83 -102 0
-83 -101 0
-82 -127 0
-82 -111 0
-82 -110 0
-82 -108 0
-82 -97 0
-82 -93 0
-82 -89 0
-81 -131 0
-81 -124 0
-81 -122 0
-81 -105 0
-81 -94 0
-80 -126 0
-80 -124 0
-80 -105 0
-80 -94 0
-80 -92 0
-80 -81 0
-79 -124 0
-79 -116 0
-79 -112 0
-79 -109 0
-79 -104 0
-79 -102 0
-79 -101 0
-79 -89 0
-79 -84 0
-79 -83 0
-78 -132 0
-78 -123 0
-78 -113 0
-78 -111 0
-78 -107 0
-78 -103 0
-78 -101 0
-78 -94 0
-78 -93 0
-78 -91 0
-78 -90 0
-78 -84 0
-77 -123 0
-77 -110 0
-77 -107 0
-77 -103 0
-77 -101 0
-77 -100 0
-77 -98 0
-77 -94 0
-77 -93 0
-77 -91 0
-77 -78 0
-76 -117 0
-76 -110 0
-76 -100 0
-76 -98 0
-76 -87 0
-76 -86 0
-76 -77 0
-75 -128 0
-75 -123 0
-75 -102 0
-75 -95 0
-75 -88 0
-75 -86 0
-75 -85 0
-74 -127 0
-74 -120 0
-74 -116 0
-74 -111 0
-74 -110 0
-74 -108 0
-74 -99 0
-74 -97 0
-74 -91 0
-74 -82 0
-73 -126 0
-73 -93 0
-73 -92 0
-73 -89 0
-73 -82 0
-73 -80 0
-72 -121 0
-72 -120 0
-72 -119 0
-72 -115 0
-72 -100 0
-72 -93 0
-72 -90 0
-72 -89 0
-72 -85 0
-72 -82 0
-72 -73 0
-71 -132 0
-71 -130 0
-71 -113 0
-71 -111 0
-71 -105 0
-71 -90 0
-71 -84 0
-71 -83 0
-71 -78 0
-70 -126 0
-70 -112 0
-70 -104 0
-70 -102 0
-70 -101 0
-70 -92 0
-70 -83 0
-70 -80 0
-70 -79 0
-70 -73 0
-69 -132 0
-69 -125 0
-69 -118 0
-69 -113 0
-69 -111 0
-69 -104 0
-69 -98 0
-69 -90 0
-69 -84 0
-69 -78 0
-69 -71 0
-68 -129 0
-68 -114 0
-68 -113 0
-68 -112 0
-68 -104 0
-68 -102 0
-68 -101 0
-68 -95 0
-68 -83 0
-68 -79 0
-68 -70 0
-67 -124 0
-67 -105 0
-67 -102 0
-67 -94 0
-67 -88 0
-67 -81 0
-67 -80 0
-67 -75 0
-66 -130 0
-66 -127 0
-66 -125 0
-66 -115 0
-66 -107 0
-66 -105 0
-66 -92 0
-66 -83 0
-66 -71 0
-65 -124 0
-65 -116 0
-65 -110 0
-65 -109 0
-65 -100 0
-65 -98 0
-65 -89 0
-65 -84 0
-65 -79 0
-65 -77 0
-65 -76 0
-64 -129 0
-64 -126 0
-64 -123 0
-64 -122 0
-64 -118 0
-64 -109 0
-64 -107 0
-64 -103 0
-64 -101 0
-64 -94 0
-64 -93 0
-64 -91 0
-64 -78 0
-64 -77 0
-63 -131 0
-63 -129 0
-63 -121 0
-63 -114 0
-63 -113 0
-63 -97 0
-63 -96 0
-63 -95 0
-63 -88 0
-63 -87 0
-63 -68 0
-62 -128 0
-62 -127 0
-62 -123 0
-62 -111 0
-62 -110 0
-62 -108 0
-62 -97 0
-62 -95 0
-62 -86 0
-62 -85 0
-62 -82 0
-62 -75 0
-62 -74 0
-61 -131 0
-61 -130 0
-61 -122 0
-61 -119 0
-61 -117 0
-61 -114 0
-61 -108 0
-61 -106 0
-61 -103 0
-61 -81 0
-60 -127 0
-60 -125 0
-60 -124 0
-60 -116 0
-60 -115 0
-60 -109 0
-60 -107 0
-60 -92 0
-60 -89 0
-60 -84 0
-60 -79 0
-60 -66 0
-60 -65 0
-59 -131 0
-59 -124 0
-59 -121 0
-59 -116 0
-59 -109 0
-59 -97 0
-59 -96 0
-59 -89 0
-59 -88 0
-59 -87 0
-59 -84 0
-59 -79 0
-59 -65 0
-59 -63 0
-59 -60 0
-58 -128 0
-58 -125 0
-58 -123 0
-58 -118 0
-58 -104 0
-58 -98 0
-58 -95 0
-58 -86 0
-58 -85 0
-58 -75 0
-58 -69 0
-58 -62 0
-57 -130 0
-57 -129 0
-57 -126 0
-57 -122 0
-57 -118 0
-57 -109 0
-57 -105 0
-57 -83 0
-57 -71 0
-57 -66 0
-57 -64 0
-56 -124 0
-56 -121 0
-56 -120 0
-56 -119 0
-56 -115 0
-56 -105 0
-56 -100 0
-56 -94 0
-56 -90 0
-56 -85 0
-56 -81 0
-56 -80 0
-56 -72 0
-56 -67 0
-55 -131 0
-55 -123 0
-55 -121 0
-55 -107 0
-55 -103 0
-55 -101 0
-55 -97 0
-55 -96 0
-55 -94 0
-55 -93 0
-55 -91 0
-55 -88 0
-55 -87 0
-55 -78 0
-55 -77 0
-55 -64 0
-55 -63 0
-55 -59 0
-54 -131 0
-54 -128 0
-54 -123 0
-54 -122 0
-54 -95 0
-54 -86 0
-54 -85 0
-54 -81 0
-54 -75 0
-54 -62 0
-54 -61 0
-54 -58 0
-53 -129 0
-53 -127 0
-53 -126 0
-53 -122 0
-53 -118 0
-53 -111 0
-53 -110 0
-53 -109 0
-53 -108 0
-53 -97 0
-53 -82 0
-53 -74 0
-53 -64 0
-53 -62 0
-53 -57 0
-52 -130 0
-52 -105 0
-52 -93 0
-52 -89 0
-52 -83 0
-52 -82 0
-52 -73 0
-52 -72 0
-52 -71 0
-52 -66 0
-52 -57 0
-51 -129 0
-51 -126 0
-51 -122 0
-51 -118 0
-51 -109 0
-51 -102 0
-51 -88 0
-51 -75 0
-51 -67 0
-51 -64 0
-51 -57 0
-51 -53 0
-50 -126 0
-50 -110 0
-50 -100 0
-50 -98 0
-50 -92 0
-50 -80 0
-50 -77 0
-50 -76 0
-50 -73 0
-50 -70 0
-50 -65 0
-49 -127 0
-49 -125 0
-49 -115 0
-49 -107 0
-49 -102 0
-49 -92 0
-49 -88 0
-49 -75 0
-49 -67 0
-49 -66 0
-49 -60 0
-49 -51 0
-48 -132 0
-48 -128 0
-48 -112 0
-48 -106 0
-48 -99 0
-48 -96 0
-48 -93 0
-48 -89 0
-48 -82 0
-48 -73 0
-48 -72 0
-48 -52 0
-47 -126 0
-47 -120 0
-47 -116 0
-47 -99 0
-47 -92 0
-47 -91 0
-47 -80 0
-47 -74 0
-47 -73 0
-47 -70 0
-47 -50 0
-46 -131 0
-46 -122 0
-46 -120 0
-46 -116 0
-46 -99 0
-46 -91 0
-46 -81 0
-46 -74 0
-46 -61 0
-46 -54 0
-46 -47 0
-45 -130 0
-45 -128 0
-45 -123 0
-45 -105 0
-45 -95 0
-45 -86 0
-45 -85 0
-45 -83 0
-45 -75 0
-45 -71 0
-45 -66 0
-45 -62 0
-45 -58 0
-45 -57 0
-45 -54 0
-45 -52 0
-44 -129 0
-44 -114 0
-44 -113 0
-44 -95 0
-44 -93 0
-44 -89 0
-44 -82 0
-44 -73 0
-44 -72 0
-44 -68 0
-44 -63 0
-44 -52 0
-44 -48 0
-43 -132 0
-43 -131 0
-43 -122 0
-43 -113 0
-43 -111 0
-43 -90 0
-43 -84 0
-43 -81 0
-43 -78 0
-43 -71 0
-43 -69 0
-43 -61 0
-43 -54 0
-43 -46 0
-42 -120 0
-42 -116 0
-42 -102 0
-42 -99 0
-42 -91 0
-42 -88 0
-42 -75 0
-42 -74 0
-42 -67 0
-42 -51 0
-42 -49 0
-42 -47 0
-42 -46 0
-41 -124 0
-41 -117 0
-41 -105 0
-41 -94 0
-41 -87 0
-41 -86 0
-41 -81 0
-41 -80 0
-41 -76 0
-41 -67 0
-41 -56 0
-40 -127 0
-40 -124 0
-40 -111 0
-40 -110 0
-40 -108 0
-40 -105 0
-40 -97 0
-40 -94 0
-40 -82 0
-40 -81 0
-40 -80 0
-40 -74 0
-40 -67 0
-40 -62 0
-40 -56 0
-40 -53 0
-40 -41 0
-39 -132 0
-39 -129 0
-39 -128 0
-39 -126 0
-39 -122 0
-39 -118 0
-39 -112 0
-39 -109 0
-39 -106 0
-39 -99 0
-39 -96 0
-39 -64 0
-39 -57 0
-39 -53 0
-39 -51 0
-39 -48 0
-38 -129 0
-38 -114 0
-38 -113 0
-38 -110 0
-38 -100 0
-38 -98 0
-38 -95 0
-38 -77 0
-38 -76 0
-38 -68 0
-38 -65 0
-38 -63 0
-38 -50 0
-38 -44 0
-37 -130 0
-37 -120 0
-37 -116 0
-37 -105 0
-37 -99 0
-37 -91 0
-37 -83 0
-37 -74 0
-37 -71 0
-37 -66 0
-37 -57 0
-37 -52 0
-37 -47 0
-37 -46 0
-37 -45 0
-37 -42 0
-36 -125 0
-36 -124 0
-36 -118 0
-36 -105 0
-36 -104 0
-36 -98 0
-36 -94 0
-36 -81 0
-36 -80 0
-36 -69 0
-36 -67 0
-36 -58 0
-36 -56 0
-36 -41 0
-36 -40 0
-35 -129 0
-35 -126 0
-35 -122 0
-35 -118 0
-35 -117 0
-35 -109 0
-35 -87 0
-35 -86 0
-35 -76 0
-35 -64 0
-35 -57 0
-35 -53 0
-35 -51 0
-35 -41 0
-35 -39 0
-34 -131 0
-34 -127 0
-34 -125 0
-34 -122 0
-34 -115 0
-34 -107 0
-34 -92 0
-34 -81 0
-34 -66 0
-34 -61 0
-34 -60 0
-34 -54 0
-34 -49 0
-34 -46 0
-34 -43 0
-33 -132 0
-33 -126 0
-33 -113 0
-33 -111 0
-33 -92 0
-33 -90 0
-33 -84 0
-33 -80 0
-33 -78 0
-33 -73 0
-33 -71 0
-33 -70 0
-33 -69 0
-33 -50 0
-33 -47 0
-33 -43 0
-32 -127 0
-32 -125 0
-32 -117 0
-32 -115 0
-32 -107 0
-32 -92 0
-32 -87 0
-32 -86 0
-32 -76 0
-32 -66 0
-32 -60 0
-32 -49 0
-32 -41 0
-32 -35 0
-32 -34 0
-31 -131 0
-31 -130 0
-31 -121 0
-31 -105 0
-31 -97 0
-31 -96 0
-31 -88 0
-31 -87 0
-31 -83 0
-31 -71 0
-31 -66 0
-31 -63 0
-31 -59 0
-31 -57 0
-31 -55 0
-31 -52 0
-31 -45 0
-31 -37 0
-30 -130 0
-30 -124 0
-30 -119 0
-30 -117 0
-30 -116 0
-30 -114 0
-30 -109 0
-30 -108 0
-30 -106 0
-30 -103 0
-30 -89 0
-30 -84 0
-30 -79 0
-30 -65 0
-30 -61 0
-30 -60 0
-30 -59 0
-29 -125 0
-29 -118 0
-29 -104 0
-29 -98 0
-29 -93 0
-29 -89 0
-29 -82 0
-29 -73 0
-29 -72 0
-29 -69 0
-29 -58 0
-29 -52 0
-29 -48 0
-29 -44 0
-29 -36 0
-28 -130 0
-28 -119 0
-28 -117 0
-28 -114 0
-28 -108 0
-28 -106 0
-28 -103 0
-28 -102 0
-28 -88 0
-28 -75 0
-28 -67 0
-28 -61 0
-28 -51 0
-28 -49 0
-28 -42 0
-28 -30 0
-27 -129 0
-27 -120 0
-27 -116 0
-27 -114 0
-27 -113 0
-27 -99 0
-27 -95 0
-27 -91 0
-27 -74 0
-27 -68 0
-27 -63 0
-27 -47 0
-27 -46 0
-27 -44 0
-27 -42 0
-27 -38 0
-27 -37 0
-26 -131 0
-26 -126 0
-26 -121 0
-26 -97 0
-26 -96 0
-26 -92 0
-26 -88 0
-26 -87 0
-26 -80 0
-26 -73 0
-26 -70 0
-26 -63 0
-26 -59 0
-26 -55 0
-26 -50 0
-26 -47 0
-26 -33 0
-26 -31 0
-25 -102 0
-25 -93 0
-25 -89 0
-25 -88 0
-25 -82 0
-25 -75 0
-25 -73 0
-25 -72 0
-25 -67 0
-25 -52 0
-25 -51 0
-25 -49 0
-25 -48 0
-25 -44 0
-25 -42 0
-25 -29 0
-25 -28 0
-24 -132 0
-24 -117 0
-24 -113 0
-24 -111 0
-24 -90 0
-24 -87 0
-24 -86 0
-24 -84 0
-24 -78 0
-24 -76 0
-24 -71 0
-24 -69 0
-24 -43 0
-24 -41 0
-24 -35 0
-24 -33 0
-24 -32 0
-23 -131 0
-23 -125 0
-23 -121 0
-23 -118 0
-23 -104 0
-23 -98 0
-23 -97 0
-23 -96 0
-23 -88 0
-23 -87 0
-23 -69 0
-23 -63 0
-23 -59 0
-23 -58 0
-23 -55 0
-23 -36 0
-23 -31 0
-23 -29 0
-23 -26 0
-22 -127 0
-22 -112 0
-22 -111 0
-22 -110 0
-22 -108 0
-22 -104 0
-22 -102 0
-22 -101 0
-22 -97 0
-22 -83 0
-22 -82 0
-22 -79 0
-22 -74 0
-22 -70 0
-22 -68 0
-22 -62 0
-22 -53 0
-22 -40 0
-21 -128 0
-21 -124 0
-21 -123 0
-21 -116 0
-21 -109 0
-21 -95 0
-21 -89 0
-21 -86 0
-21 -85 0
-21 -84 0
-21 -79 0
-21 -75 0
-21 -65 0
-21 -62 0
-21 -60 0
-21 -59 0
-21 -58 0
-21 -54 0
-21 -45 0
-21 -30 0
-20 -131 0
-20 -122 0
-20 -110 0
-20 -100 0
-20 -98 0
-20 -81 0
-20 -77 0
-20 -76 0
-20 -65 0
-20 -61 0
-20 -54 0
-20 -50 0
-20 -46 0
-20 -43 0
-20 -38 0
-20 -34 0
-19 -120 0
-19 -117 0
-19 -116 0
-19 -99 0
-19 -91 0
-19 -87 0
-19 -86 0
-19 -76 0
-19 -74 0
-19 -47 0
-19 -46 0
-19 -42 0
-19 -41 0
-19 -37 0
-19 -35 0
-19 -32 0
-19 -27 0
-19 -24 0
-18 -121 0
-18 -120 0
-18 -119 0
-18 -115 0
-18 -112 0
-18 -104 0
-18 -102 0
-18 -101 0
-18 -100 0
-18 -90 0
-18 -85 0
-18 -83 0
-18 -79 0
-18 -72 0
-18 -70 0
-18 -68 0
-18 -56 0
-18 -22 0
-17 -129 0
-17 -124 0
-17 -114 0
-17 -113 0
-17 -105 0
-17 -95 0
-17 -94 0
-17 -81 0
-17 -80 0
-17 -68 0
-17 -67 0
-17 -63 0
-17 -56 0
-17 -44 0
-17 -41 0
-17 -40 0
-17 -38 0
-17 -36 0
-17 -27 0
-16 -130 0
-16 -126 0
-16 -119 0
-16 -117 0
-16 -114 0
-16 -108 0
-16 -106 0
-16 -103 0
-16 -92 0
-16 -80 0
-16 -73 0
-16 -70 0
-16 -61 0
-16 -50 0
-16 -47 0
-16 -33 0
-16 -30 0
-16 -28 0
-16 -26 0
-15 -129 0
-15 -126 0
-15 -122 0
-15 -121 0
-15 -120 0
-15 -119 0
-15 -118 0
-15 -115 0
-15 -109 0
-15 -100 0
-15 -90 0
-15 -85 0
-15 -72 0
-15 -64 0
-15 -57 0
-15 -56 0
-15 -53 0
-15 -51 0
-15 -39 0
-15 -35 0
-15 -18 0
-14 -125 0
-14 -120 0
-14 -118 0
-14 -116 0
-14 -104 0
-14 -99 0
-14 -98 0
-14 -91 0
-14 -74 0
-14 -69 0
-14 -58 0
-14 -47 0
-14 -46 0
-14 -42 0
-14 -37 0
-14 -36 0
-14 -29 0
-14 -27 0
-14 -23 0
-14 -19 0
-13 -132 0
-13 -128 0
-13 -124 0
-13 -112 0
-13 -106 0
-13 -105 0
-13 -99 0
-13 -96 0
-13 -94 0
-13 -81 0
-13 -80 0
-13 -67 0
-13 -56 0
-13 -48 0
-13 -41 0
-13 -40 0
-13 -39 0
-13 -36 0
-13 -17 0
-12 -131 0
-12 -122 0
-12 -93 0
-12 -89 0
-12 -82 0
-12 -81 0
-12 -73 0
-12 -72 0
-12 -61 0
-12 -54 0
-12 -52 0
-12 -48 0
-12 -46 0
-12 -44 0
-12 -43 0
-12 -34 0
-12 -29 0
-12 -25 0
-12 -20 0
-11 -132 0
-11 -128 0
-11 -112 0
-11 -110 0
-11 -106 0
-11 -100 0
-11 -99 0
-11 -98 0
-11 -96 0
-11 -77 0
-11 -76 0
-11 -65 0
-11 -50 0
-11 -48 0
-11 -39 0
-11 -38 0
-11 -20 0
-11 -13 0
-10 -131 0
-10 -122 0
-10 -112 0
-10 -104 0
-10 -102 0
-10 -101 0
-10 -83 0
-10 -81 0
-10 -79 0
-10 -70 0
-10 -68 0
-10 -61 0
-10 -54 0
-10 -46 0
-10 -43 0
-10 -34 0
-10 -22 0
-10 -20 0
-10 -18 0
-10 -12 0
-9 -117 0
-9 -93 0
-9 -89 0
-9 -87 0
-9 -86 0
-9 -82 0
-9 -76 0
-9 -73 0
-9 -72 0
-9 -52 0
-9 -48 0
-9 -44 0
-9 -41 0
-9 -35 0
-9 -32 0
-9 -29 0
-9 -25 0
-9 -24 0
-9 -19 0
-9 -12 0
-8 -130 0
-8 -125 0
-8 -119 0
-8 -118 0
-8 -117 0
-8 -114 0
-8 -108 0
-8 -106 0
-8 -104 0
-8 -103 0
-8 -98 0
-8 -69 0
-8 -61 0
-8 -58 0
-8 -36 0
-8 -30 0
-8 -29 0
-8 -28 0
-8 -23 0
-8 -16 0
-8 -14 0
-7 -110 0
-7 -102 0
-7 -100 0
-7 -98 0
-7 -88 0
-7 -77 0
-7 -76 0
-7 -75 0
-7 -67 0
-7 -65 0
-7 -51 0
-7 -50 0
-7 -49 0
-7 -42 0
-7 -38 0
-7 -28 0
-7 -25 0
-7 -20 0
-7 -11 0
-6 -128 0
-6 -126 0
-6 -123 0
-6 -95 0
-6 -92 0
-6 -86 0
-6 -85 0
-6 -80 0
-6 -75 0
-6 -73 0
-6 -70 0
-6 -62 0
-6 -58 0
-6 -54 0
-6 -50 0
-6 -47 0
-6 -45 0
-6 -33 0
-6 -26 0
-6 -21 0
-6 -16 0
-5 -132 0
-5 -128 0
-5 -127 0
-5 -125 0
-5 -115 0
-5 -112 0
-5 -107 0
-5 -106 0
-5 -99 0
-5 -96 0
-5 -92 0
-5 -66 0
-5 -60 0
-5 -49 0
-5 -48 0
-5 -39 0
-5 -34 0
-5 -32 0
-5 -13 0
-5 -11 0
-4 -132 0
-4 -113 0
-4 -111 0
-4 -102 0
-4 -90 0
-4 -88 0
-4 -84 0
-4 -78 0
-4 -75 0
-4 -71 0
-4 -69 0
-4 -67 0
-4 -51 0
-4 -49 0
-4 -43 0
-4 -42 0
-4 -33 0
-4 -28 0
-4 -25 0
-4 -24 0
-4 -7 0
-3 -117 0
-3 -112 0
-3 -104 0
-3 -102 0
-3 -101 0
-3 -87 0
-3 -86 0
-3 -83 0
-3 -79 0
-3 -76 0
-3 -70 0
-3 -68 0
-3 -41 0
-3 -35 0
-3 -32 0
-3 -24 0
-3 -22 0
-3 -19 0
-3 -18 0
-3 -10 0
-3 -9 0
-2 -130 0
-2 -110 0
-2 -105 0
-2 -100 0
-2 -98 0
-2 -83 0
-2 -77 0
-2 -76 0
-2 -71 0
-2 -66 0
-2 -65 0
-2 -57 0
-2 -52 0
-2 -50 0
-2 -45 0
-2 -38 0
-2 -37 0
-2 -31 0
-2 -20 0
-2 -11 0
-2 -7 0
-1 -129 0
-1 -127 0
-1 -125 0
-1 -115 0
-1 -114 0
-1 -113 0
-1 -107 0
-1 -95 0
-1 -92 0
-1 -68 0
-1 -66 0
-1 -63 0
-1 -60 0
-1 -49 0
-1 -44 0
-1 -38 0
-1 -34 0
-1 -32 0
-1 -27 0
-1 -17 0
-1 -5 0
1 17 27 38 44 63 68 95 113 114 129 0
2 31 37 45 52 57 66 71 83 105 130 0
3 9 19 24 32 35 41 76 86 87 117 0
4 7 25 28 42 49 51 67 75 88 102 0
5 11 13 39 48 96 99 106 112 128 132 0
6 16 26 33 47 50 70 73 80 92 126 0
8 14 23 29 36 58 69 98 104 118 125 0
10 12 20 34 43 46 54 61 81 122 131 0
15 18 56 72 85 90 100 115 119 120 121 0
21 30 59 60 65 79 84 89 109 116 124 0
22 40 53 62 74 82 97 108 110 111 127 0
55 64 77 78 91 93 94 101 103 107 123 0
