p cnf 30 141
-26 -29 0
-26 -27 0
-25 -28 0
-25 -27 0
-24 -28 0
-23 -30 0
-22 -29 0
-22 -28 0
-22 -24 0
-21 -24 0
-20 -28 0
-20 -25 0
-20 -21 0
-19 -29 0
-19 -26 0
-19 -24 0
-19 -21 0
-18 -28 0
-18 -24 0
-18 -23 0
-18 -22 0
-17 -30 0
-17 -21 0
-17 -20 0
-16 -29 0
-16 -28 0
-16 -26 0
-16 -25 0
-16 -20 0
-16 -19 0
-15 -30 0
-15 -28 0
-15 -24 0
-15 -22 0
-15 -18 0
-15 -17 0
-14 -28 0
-14 -27 0
-14 -26 0
-14 -24 0
-14 -22 0
-14 -18 0
-14 -15 0
-13 -29 0
-13 -27 0
-13 -25 0
-13 -22 0
-12 -27 0
-12 -25 0
-12 -24 0
-12 -21 0
-12 -19 0
-12 -13 0
-11 -30 0
-11 -28 0
-11 -25 0
-11 -23 0
-11 -20 0
-11 -16 0
-10 -27 0
-10 -26 0
-10 -21 0
-10 -20 0
-10 -17 0
-10 -14 0
-9 -23 0
-9 -21 0
-9 -20 0
-9 -18 0
-9 -17 0
-9 -10 0
-8 -30 0
-8 -27 0
-8 -26 0
-8 -23 0
-8 -14 0
-8 -11 0
-8 -10 0
-7 -29 0
-7 -26 0
-7 -23 0
-7 -19 0
-7 -18 0
-7 -16 0
-7 -9 0
-6 -30 0
-6 -27 0
-6 -25 0
-6 -17 0
-6 -15 0
-6 -13 0
-6 -12 0
-5 -29 0
-5 -22 0
-5 -21 0
-5 -20 0
-5 -17 0
-5 -13 0
-5 -10 0
-5 -9 0
-4 -30 0
-4 -29 0
-4 -26 0
-4 -19 0
-4 -17 0
-4 -16 0
-4 -15 0
-4 -7 0
-4 -6 0
-3 -30 0
-3 -29 0
-3 -23 0
-3 -22 0
-3 -13 0
-3 -11 0
-3 -8 0
-3 -5 0
-2 -30 0
-2 -24 0
-2 -23 0
-2 -21 0
-2 -19 0
-2 -12 0
-2 -11 0
-2 -8 0
-2 -3 0
-1 -27 0
-1 -25 0
-1 -23 0
-1 -18 0
-1 -13 0
-1 -12 0
-1 -9 0
-1 -7 0
-1 -6 0
1 7 9 18 23 0
2 12 19 21 24 0
3 5 13 22 29 0
4 6 15 17 30 0
8 10 14 26 27 0
11 16 20 25 28 0
