p cnf 132 1398
-129 -130 0
-128 -132 0
-127 -132 0
-127 -128 0
-126 -130 0
-126 -129 0
-124 -130 0
-123 -130 0
-123 -124 0
-122 -130 0
-122 -129 0
-122 -128 0
-122 -126 0
-121 -128 0
-121 -122 0
-120 -132 0
-119 -126 0
-119 -121 0
-118 -132 0
-118 -131 0
-118 -128 0
-118 -127 0
-116 -125 0
-116 -123 0
-115 -126 0
-115 -119 0
-114 -128 0
-114 -122 0
-114 -121 0
-114 -120 0
-113 -126 0
-113 -124 0
-113 -119 0
-113 -115 0
-112 -132 0
-112 -129 0
-112 -128 0
-112 -127 0
-112 -118 0
-111 -126 0
-111 -119 0
-111 -117 0
-111 -115 0
-111 -113 0
-110 -129 0
-110 -121 0
-110 -119 0
-110 -112 0
-109 -127 0
-109 -123 0
-109 -116 0
-108 -124 0
-108 -113 0
-107 -125 0
-107 -121 0
-107 -119 0
-107 -116 0
-107 -110 0
-106 -125 0
-106 -108 0
-105 -127 0
-105 -117 0
-105 -111 0
-105 -109 0
-104 -131 0
-104 -118 0
-103 -125 0
-103 -116 0
-103 -115 0
-103 -107 0
-102 -115 0
-102 -103 0
-101 -127 0
-101 -120 0
-101 -114 0
-101 -109 0
-101 -105 0
-100 -126 0
-100 -125 0
-100 -119 0
-100 -115 0
-100 -113 0
-100 -111 0
-100 -106 0
-99 -128 0
-99 -125 0
-99 -122 0
-99 -121 0
-99 -114 0
-99 -106 0
-99 -100 0
-98 -120 0
-98 -117 0
-98 -114 0
-98 -101 0
-97 -131 0
-97 -118 0
-97 -115 0
-97 -104 0
-97 -103 0
-97 -102 0
-96 -102 0
-95 -129 0
-95 -125 0
-95 -112 0
-95 -110 0
-95 -106 0
-95 -100 0
-95 -99 0
-94 -127 0
-94 -124 0
-94 -113 0
-94 -109 0
-94 -108 0
-94 -105 0
-94 -101 0
-93 -125 0
-93 -124 0
-93 -116 0
-93 -113 0
-93 -108 0
-93 -107 0
-93 -103 0
-93 -94 0
-92 -127 0
-92 -109 0
-92 -105 0
-92 -101 0
-92 -96 0
-92 -94 0
-91 -129 0
-91 -112 0
-91 -110 0
-91 -104 0
-91 -95 0
-90 -130 0
-90 -129 0
-90 -127 0
-90 -126 0
-90 -122 0
-90 -109 0
-90 -105 0
-90 -101 0
-90 -94 0
-90 -92 0
-89 -130 0
-89 -124 0
-89 -123 0
-89 -121 0
-89 -119 0
-89 -110 0
-89 -107 0
-88 -125 0
-88 -117 0
-88 -106 0
-88 -100 0
-88 -99 0
-88 -98 0
-88 -95 0
-87 -125 0
-87 -117 0
-87 -116 0
-87 -111 0
-87 -107 0
-87 -105 0
-87 -103 0
-87 -93 0
-86 -128 0
-86 -122 0
-86 -121 0
-86 -115 0
-86 -114 0
-86 -103 0
-86 -102 0
-86 -99 0
-86 -97 0
-85 -123 0
-85 -116 0
-85 -109 0
-85 -102 0
-85 -96 0
-84 -127 0
-84 -115 0
-84 -109 0
-84 -105 0
-84 -103 0
-84 -102 0
-84 -101 0
-84 -97 0
-84 -94 0
-84 -92 0
-84 -90 0
-84 -86 0
-83 -124 0
-83 -113 0
-83 -108 0
-83 -102 0
-83 -96 0
-83 -94 0
-83 -93 0
-83 -85 0
-82 -129 0
-82 -120 0
-82 -114 0
-82 -112 0
-82 -110 0
-82 -101 0
-82 -98 0
-82 -95 0
-82 -91 0
-81 -131 0
-81 -125 0
-81 -118 0
-81 -106 0
-81 -104 0
-81 -100 0
-81 -99 0
-81 -97 0
-81 -95 0
-81 -88 0
-80 -126 0
-80 -119 0
-80 -115 0
-80 -113 0
-80 -111 0
-80 -104 0
-80 -100 0
-80 -91 0
-79 -131 0
-79 -117 0
-79 -98 0
-79 -88 0
-78 -115 0
-78 -108 0
-78 -106 0
-78 -103 0
-78 -102 0
-78 -97 0
-78 -86 0
-78 -84 0
-77 -130 0
-77 -124 0
-77 -123 0
-77 -117 0
-77 -111 0
-77 -105 0
-77 -89 0
-77 -87 0
-76 -125 0
-76 -120 0
-76 -116 0
-76 -114 0
-76 -107 0
-76 -103 0
-76 -101 0
-76 -98 0
-76 -93 0
-76 -87 0
-76 -82 0
-75 -129 0
-75 -112 0
-75 -110 0
-75 -96 0
-75 -95 0
-75 -92 0
-75 -91 0
-75 -82 0
-74 -132 0
-74 -128 0
-74 -127 0
-74 -125 0
-74 -118 0
-74 -116 0
-74 -112 0
-74 -107 0
-74 -103 0
-74 -93 0
-74 -87 0
-74 -76 0
-73 -132 0
-73 -128 0
-73 -127 0
-73 -118 0
-73 -117 0
-73 -112 0
-73 -98 0
-73 -88 0
-73 -79 0
-73 -74 0
-72 -131 0
-72 -108 0
-72 -106 0
-72 -79 0
-72 -78 0
-71 -131 0
-71 -130 0
-71 -124 0
-71 -123 0
-71 -89 0
-71 -79 0
-71 -77 0
-71 -72 0
-70 -108 0
-70 -106 0
-70 -96 0
-70 -92 0
-70 -78 0
-70 -75 0
-70 -72 0
-69 -127 0
-69 -121 0
-69 -119 0
-69 -110 0
-69 -109 0
-69 -107 0
-69 -105 0
-69 -101 0
-69 -94 0
-69 -92 0
-69 -90 0
-69 -89 0
-69 -84 0
-68 -132 0
-68 -120 0
-68 -104 0
-68 -91 0
-68 -80 0
-67 -131 0
-67 -124 0
-67 -118 0
-67 -113 0
-67 -108 0
-67 -104 0
-67 -97 0
-67 -94 0
-67 -93 0
-67 -83 0
-67 -81 0
-66 -132 0
-66 -128 0
-66 -127 0
-66 -118 0
-66 -112 0
-66 -108 0
-66 -106 0
-66 -78 0
-66 -74 0
-66 -73 0
-66 -72 0
-66 -70 0
-65 -132 0
-65 -120 0
-65 -117 0
-65 -111 0
-65 -105 0
-65 -87 0
-65 -77 0
-65 -68 0
-64 -126 0
-64 -119 0
-64 -115 0
-64 -113 0
-64 -111 0
-64 -100 0
-64 -96 0
-64 -92 0
-64 -80 0
-64 -75 0
-64 -70 0
-63 -131 0
-63 -128 0
-63 -122 0
-63 -121 0
-63 -114 0
-63 -99 0
-63 -86 0
-63 -79 0
-63 -72 0
-63 -71 0
-62 -130 0
-62 -129 0
-62 -126 0
-62 -122 0
-62 -117 0
-62 -98 0
-62 -90 0
-62 -88 0
-62 -79 0
-62 -73 0
-61 -128 0
-61 -122 0
-61 -121 0
-61 -114 0
-61 -99 0
-61 -96 0
-61 -92 0
-61 -86 0
-61 -75 0
-61 -70 0
-61 -64 0
-61 -63 0
-60 -121 0
-60 -119 0
-60 -110 0
-60 -107 0
-60 -102 0
-60 -96 0
-60 -89 0
-60 -85 0
-60 -83 0
-60 -69 0
-59 -131 0
-59 -118 0
-59 -117 0
-59 -111 0
-59 -105 0
-59 -104 0
-59 -97 0
-59 -87 0
-59 -81 0
-59 -77 0
-59 -67 0
-59 -65 0
-58 -127 0
-58 -125 0
-58 -109 0
-58 -106 0
-58 -105 0
-58 -101 0
-58 -100 0
-58 -99 0
-58 -95 0
-58 -94 0
-58 -92 0
-58 -90 0
-58 -88 0
-58 -84 0
-58 -81 0
-58 -69 0
-57 -131 0
-57 -130 0
-57 -129 0
-57 -126 0
-57 -122 0
-57 -118 0
-57 -104 0
-57 -97 0
-57 -90 0
-57 -81 0
-57 -67 0
-57 -62 0
-57 -59 0
-56 -129 0
-56 -123 0
-56 -116 0
-56 -112 0
-56 -110 0
-56 -109 0
-56 -95 0
-56 -91 0
-56 -85 0
-56 -82 0
-56 -75 0
-55 -128 0
-55 -123 0
-55 -122 0
-55 -121 0
-55 -116 0
-55 -114 0
-55 -109 0
-55 -99 0
-55 -86 0
-55 -85 0
-55 -63 0
-55 -61 0
-55 -56 0
-54 -125 0
-54 -116 0
-54 -107 0
-54 -104 0
-54 -103 0
-54 -93 0
-54 -91 0
-54 -87 0
-54 -80 0
-54 -76 0
-54 -74 0
-54 -68 0
-53 -132 0
-53 -123 0
-53 -120 0
-53 -116 0
-53 -109 0
-53 -85 0
-53 -68 0
-53 -65 0
-53 -56 0
-53 -55 0
-52 -120 0
-52 -114 0
-52 -108 0
-52 -106 0
-52 -101 0
-52 -98 0
-52 -82 0
-52 -78 0
-52 -76 0
-52 -72 0
-52 -70 0
-52 -66 0
-51 -120 0
-51 -114 0
-51 -102 0
-51 -101 0
-51 -98 0
-51 -96 0
-51 -85 0
-51 -83 0
-51 -82 0
-51 -76 0
-51 -60 0
-51 -52 0
-50 -125 0
-50 -116 0
-50 -107 0
-50 -103 0
-50 -96 0
-50 -93 0
-50 -92 0
-50 -87 0
-50 -76 0
-50 -75 0
-50 -74 0
-50 -70 0
-50 -64 0
-50 -61 0
-50 -54 0
-49 -124 0
-49 -117 0
-49 -113 0
-49 -108 0
-49 -98 0
-49 -94 0
-49 -93 0
-49 -88 0
-49 -83 0
-49 -79 0
-49 -73 0
-49 -67 0
-49 -62 0
-48 -131 0
-48 -120 0
-48 -118 0
-48 -114 0
-48 -104 0
-48 -101 0
-48 -98 0
-48 -97 0
-48 -82 0
-48 -81 0
-48 -76 0
-48 -67 0
-48 -59 0
-48 -57 0
-48 -52 0
-48 -51 0
-47 -132 0
-47 -120 0
-47 -96 0
-47 -92 0
-47 -75 0
-47 -70 0
-47 -68 0
-47 -65 0
-47 -64 0
-47 -61 0
-47 -53 0
-47 -50 0
-46 -130 0
-46 -129 0
-46 -126 0
-46 -122 0
-46 -108 0
-46 -106 0
-46 -90 0
-46 -78 0
-46 -72 0
-46 -70 0
-46 -66 0
-46 -62 0
-46 -57 0
-46 -52 0
-45 -129 0
-45 -115 0
-45 -112 0
-45 -110 0
-45 -103 0
-45 -102 0
-45 -97 0
-45 -95 0
-45 -91 0
-45 -86 0
-45 -84 0
-45 -82 0
-45 -78 0
-45 -75 0
-45 -56 0
-44 -130 0
-44 -124 0
-44 -123 0
-44 -96 0
-44 -92 0
-44 -89 0
-44 -77 0
-44 -75 0
-44 -71 0
-44 -70 0
-44 -64 0
-44 -61 0
-44 -50 0
-44 -47 0
-43 -131 0
-43 -118 0
-43 -104 0
-43 -97 0
-43 -96 0
-43 -92 0
-43 -81 0
-43 -75 0
-43 -70 0
-43 -67 0
-43 -64 0
-43 -61 0
-43 -59 0
-43 -57 0
-43 -50 0
-43 -48 0
-43 -47 0
-43 -44 0
-42 -130 0
-42 -129 0
-42 -126 0
-42 -125 0
-42 -122 0
-42 -116 0
-42 -107 0
-42 -103 0
-42 -93 0
-42 -90 0
-42 -87 0
-42 -76 0
-42 -74 0
-42 -62 0
-42 -57 0
-42 -54 0
-42 -50 0
-42 -46 0
-41 -131 0
-41 -102 0
-41 -96 0
-41 -85 0
-41 -83 0
-41 -79 0
-41 -72 0
-41 -71 0
-41 -63 0
-41 -60 0
-41 -51 0
-40 -130 0
-40 -125 0
-40 -124 0
-40 -123 0
-40 -106 0
-40 -100 0
-40 -99 0
-40 -95 0
-40 -89 0
-40 -88 0
-40 -81 0
-40 -77 0
-40 -71 0
-40 -58 0
-40 -44 0
-39 -128 0
-39 -122 0
-39 -121 0
-39 -114 0
-39 -104 0
-39 -99 0
-39 -91 0
-39 -86 0
-39 -80 0
-39 -68 0
-39 -63 0
-39 -61 0
-39 -55 0
-39 -54 0
-38 -126 0
-38 -120 0
-38 -119 0
-38 -115 0
-38 -114 0
-38 -113 0
-38 -111 0
-38 -101 0
-38 -100 0
-38 -98 0
-38 -82 0
-38 -80 0
-38 -76 0
-38 -64 0
-38 -52 0
-38 -51 0
-38 -48 0
-37 -130 0
-37 -124 0
-37 -123 0
-37 -115 0
-37 -103 0
-37 -102 0
-37 -97 0
-37 -89 0
-37 -86 0
-37 -84 0
-37 -78 0
-37 -77 0
-37 -71 0
-37 -45 0
-37 -44 0
-37 -40 0
-36 -128 0
-36 -124 0
-36 -122 0
-36 -121 0
-36 -114 0
-36 -113 0
-36 -108 0
-36 -99 0
-36 -94 0
-36 -93 0
-36 -86 0
-36 -83 0
-36 -67 0
-36 -63 0
-36 -61 0
-36 -55 0
-36 -49 0
-36 -39 0
-35 -117 0
-35 -98 0
-35 -96 0
-35 -92 0
-35 -88 0
-35 -79 0
-35 -75 0
-35 -73 0
-35 -70 0
-35 -64 0
-35 -62 0
-35 -61 0
-35 -50 0
-35 -49 0
-35 -47 0
-35 -44 0
-35 -43 0
-34 -132 0
-34 -120 0
-34 -115 0
-34 -103 0
-34 -102 0
-34 -97 0
-34 -86 0
-34 -84 0
-34 -78 0
-34 -68 0
-34 -65 0
-34 -53 0
-34 -47 0
-34 -45 0
-34 -37 0
-33 -131 0
-33 -126 0
-33 -119 0
-33 -115 0
-33 -113 0
-33 -111 0
-33 -100 0
-33 -80 0
-33 -79 0
-33 -72 0
-33 -71 0
-33 -64 0
-33 -63 0
-33 -41 0
-33 -38 0
-32 -131 0
-32 -121 0
-32 -119 0
-32 -118 0
-32 -110 0
-32 -107 0
-32 -104 0
-32 -97 0
-32 -89 0
-32 -81 0
-32 -69 0
-32 -67 0
-32 -60 0
-32 -59 0
-32 -57 0
-32 -48 0
-32 -43 0
-31 -117 0
-31 -115 0
-31 -103 0
-31 -102 0
-31 -98 0
-31 -97 0
-31 -88 0
-31 -86 0
-31 -84 0
-31 -79 0
-31 -78 0
-31 -73 0
-31 -62 0
-31 -49 0
-31 -45 0
-31 -37 0
-31 -35 0
-31 -34 0
-30 -132 0
-30 -130 0
-30 -128 0
-30 -127 0
-30 -124 0
-30 -123 0
-30 -118 0
-30 -112 0
-30 -89 0
-30 -77 0
-30 -74 0
-30 -73 0
-30 -71 0
-30 -66 0
-30 -44 0
-30 -40 0
-30 -37 0
-29 -123 0
-29 -116 0
-29 -109 0
-29 -108 0
-29 -106 0
-29 -85 0
-29 -78 0
-29 -72 0
-29 -70 0
-29 -66 0
-29 -56 0
-29 -55 0
-29 -53 0
-29 -52 0
-29 -46 0
-28 -104 0
-28 -102 0
-28 -96 0
-28 -91 0
-28 -85 0
-28 -83 0
-28 -80 0
-28 -68 0
-28 -60 0
-28 -54 0
-28 -51 0
-28 -41 0
-28 -39 0
-27 -127 0
-27 -109 0
-27 -105 0
-27 -104 0
-27 -101 0
-27 -94 0
-27 -92 0
-27 -91 0
-27 -90 0
-27 -84 0
-27 -80 0
-27 -69 0
-27 -68 0
-27 -58 0
-27 -54 0
-27 -39 0
-27 -28 0
-26 -132 0
-26 -121 0
-26 -120 0
-26 -119 0
-26 -110 0
-26 -107 0
-26 -89 0
-26 -69 0
-26 -68 0
-26 -65 0
-26 -60 0
-26 -53 0
-26 -47 0
-26 -34 0
-26 -32 0
-25 -131 0
-25 -127 0
-25 -109 0
-25 -105 0
-25 -101 0
-25 -94 0
-25 -92 0
-25 -90 0
-25 -84 0
-25 -79 0
-25 -72 0
-25 -71 0
-25 -69 0
-25 -63 0
-25 -58 0
-25 -41 0
-25 -33 0
-25 -27 0
-24 -117 0
-24 -104 0
-24 -98 0
-24 -91 0
-24 -88 0
-24 -80 0
-24 -79 0
-24 -73 0
-24 -68 0
-24 -62 0
-24 -54 0
-24 -49 0
-24 -39 0
-24 -35 0
-24 -31 0
-24 -28 0
-24 -27 0
-23 -121 0
-23 -119 0
-23 -110 0
-23 -108 0
-23 -107 0
-23 -106 0
-23 -89 0
-23 -78 0
-23 -72 0
-23 -70 0
-23 -69 0
-23 -66 0
-23 -60 0
-23 -52 0
-23 -46 0
-23 -32 0
-23 -29 0
-23 -26 0
-22 -131 0
-22 -129 0
-22 -112 0
-22 -110 0
-22 -95 0
-22 -91 0
-22 -82 0
-22 -79 0
-22 -75 0
-22 -72 0
-22 -71 0
-22 -63 0
-22 -56 0
-22 -45 0
-22 -41 0
-22 -33 0
-22 -25 0
-21 -129 0
-21 -124 0
-21 -113 0
-21 -112 0
-21 -110 0
-21 -108 0
-21 -95 0
-21 -94 0
-21 -93 0
-21 -91 0
-21 -83 0
-21 -82 0
-21 -75 0
-21 -67 0
-21 -56 0
-21 -49 0
-21 -45 0
-21 -36 0
-21 -22 0
-20 -108 0
-20 -106 0
-20 -104 0
-20 -91 0
-20 -80 0
-20 -78 0
-20 -72 0
-20 -70 0
-20 -68 0
-20 -66 0
-20 -54 0
-20 -52 0
-20 -46 0
-20 -39 0
-20 -29 0
-20 -28 0
-20 -27 0
-20 -24 0
-20 -23 0
-19 -123 0
-19 -117 0
-19 -116 0
-19 -109 0
-19 -98 0
-19 -88 0
-19 -85 0
-19 -79 0
-19 -73 0
-19 -62 0
-19 -56 0
-19 -55 0
-19 -53 0
-19 -49 0
-19 -35 0
-19 -31 0
-19 -29 0
-19 -24 0
-18 -129 0
-18 -117 0
-18 -112 0
-18 -111 0
-18 -110 0
-18 -105 0
-18 -95 0
-18 -91 0
-18 -87 0
-18 -82 0
-18 -77 0
-18 -75 0
-18 -65 0
-18 -59 0
-18 -56 0
-18 -45 0
-18 -22 0
-18 -21 0
-17 -130 0
-17 -124 0
-17 -123 0
-17 -120 0
-17 -114 0
-17 -101 0
-17 -98 0
-17 -89 0
-17 -82 0
-17 -77 0
-17 -76 0
-17 -71 0
-17 -52 0
-17 -51 0
-17 -48 0
-17 -44 0
-17 -40 0
-17 -38 0
-17 -37 0
-17 -30 0
-16 -117 0
-16 -111 0
-16 -108 0
-16 -106 0
-16 -105 0
-16 -87 0
-16 -78 0
-16 -77 0
-16 -72 0
-16 -70 0
-16 -66 0
-16 -65 0
-16 -59 0
-16 -52 0
-16 -46 0
-16 -29 0
-16 -23 0
-16 -20 0
-16 -18 0
-15 -131 0
-15 -123 0
-15 -118 0
-15 -116 0
-15 -109 0
-15 -104 0
-15 -97 0
-15 -85 0
-15 -81 0
-15 -67 0
-15 -59 0
-15 -57 0
-15 -56 0
-15 -55 0
-15 -53 0
-15 -48 0
-15 -43 0
-15 -32 0
-15 -29 0
-15 -19 0
-14 -132 0
-14 -131 0
-14 -120 0
-14 -79 0
-14 -72 0
-14 -71 0
-14 -68 0
-14 -65 0
-14 -63 0
-14 -53 0
-14 -47 0
-14 -41 0
-14 -34 0
-14 -33 0
-14 -26 0
-14 -25 0
-14 -22 0
-13 -131 0
-13 -125 0
-13 -116 0
-13 -107 0
-13 -103 0
-13 -93 0
-13 -87 0
-13 -79 0
-13 -76 0
-13 -74 0
-13 -72 0
-13 -71 0
-13 -63 0
-13 -54 0
-13 -50 0
-13 -42 0
-13 -41 0
-13 -33 0
-13 -25 0
-13 -22 0
-13 -14 0
-12 -132 0
-12 -128 0
-12 -127 0
-12 -126 0
-12 -119 0
-12 -118 0
-12 -115 0
-12 -113 0
-12 -112 0
-12 -111 0
-12 -100 0
-12 -80 0
-12 -74 0
-12 -73 0
-12 -66 0
-12 -64 0
-12 -38 0
-12 -33 0
-12 -30 0
-11 -125 0
-11 -106 0
-11 -102 0
-11 -100 0
-11 -99 0
-11 -96 0
-11 -95 0
-11 -88 0
-11 -85 0
-11 -83 0
-11 -81 0
-11 -60 0
-11 -58 0
-11 -51 0
-11 -41 0
-11 -40 0
-11 -28 0
-10 -128 0
-10 -122 0
-10 -121 0
-10 -117 0
-10 -114 0
-10 -111 0
-10 -105 0
-10 -99 0
-10 -87 0
-10 -86 0
-10 -77 0
-10 -65 0
-10 -63 0
-10 -61 0
-10 -59 0
-10 -55 0
-10 -39 0
-10 -36 0
-10 -18 0
-10 -16 0
-9 -132 0
-9 -128 0
-9 -127 0
-9 -118 0
-9 -112 0
-9 -102 0
-9 -96 0
-9 -85 0
-9 -83 0
-9 -74 0
-9 -73 0
-9 -66 0
-9 -60 0
-9 -51 0
-9 -41 0
-9 -30 0
-9 -28 0
-9 -12 0
-9 -11 0
-8 -117 0
-8 -111 0
-8 -105 0
-8 -102 0
-8 -96 0
-8 -87 0
-8 -85 0
-8 -83 0
-8 -77 0
-8 -65 0
-8 -60 0
-8 -59 0
-8 -51 0
-8 -41 0
-8 -28 0
-8 -18 0
-8 -16 0
-8 -11 0
-8 -10 0
-8 -9 0
-7 -126 0
-7 -123 0
-7 -119 0
-7 -116 0
-7 -115 0
-7 -113 0
-7 -111 0
-7 -109 0
-7 -100 0
-7 -85 0
-7 -80 0
-7 -64 0
-7 -56 0
-7 -55 0
-7 -53 0
-7 -38 0
-7 -33 0
-7 -29 0
-7 -19 0
-7 -15 0
-7 -12 0
-6 -132 0
-6 -130 0
-6 -129 0
-6 -126 0
-6 -122 0
-6 -120 0
-6 -90 0
-6 -68 0
-6 -65 0
-6 -62 0
-6 -57 0
-6 -53 0
-6 -47 0
-6 -46 0
-6 -42 0
-6 -34 0
-6 -26 0
-6 -14 0
-5 -130 0
-5 -129 0
-5 -126 0
-5 -122 0
-5 -102 0
-5 -96 0
-5 -90 0
-5 -85 0
-5 -83 0
-5 -62 0
-5 -60 0
-5 -57 0
-5 -51 0
-5 -46 0
-5 -42 0
-5 -41 0
-5 -28 0
-5 -11 0
-5 -9 0
-5 -8 0
-5 -6 0
-4 -132 0
-4 -124 0
-4 -120 0
-4 -113 0
-4 -108 0
-4 -94 0
-4 -93 0
-4 -83 0
-4 -68 0
-4 -67 0
-4 -65 0
-4 -53 0
-4 -49 0
-4 -47 0
-4 -36 0
-4 -34 0
-4 -26 0
-4 -21 0
-4 -14 0
-4 -6 0
-3 -130 0
-3 -124 0
-3 -123 0
-3 -104 0
-3 -91 0
-3 -89 0
-3 -80 0
-3 -77 0
-3 -71 0
-3 -68 0
-3 -54 0
-3 -44 0
-3 -40 0
-3 -39 0
-3 -37 0
-3 -30 0
-3 -28 0
-3 -27 0
-3 -24 0
-3 -20 0
-3 -17 0
-2 -121 0
-2 -119 0
-2 -117 0
-2 -110 0
-2 -107 0
-2 -98 0
-2 -89 0
-2 -88 0
-2 -79 0
-2 -73 0
-2 -69 0
-2 -62 0
-2 -60 0
-2 -49 0
-2 -35 0
-2 -32 0
-2 -31 0
-2 -26 0
-2 -24 0
-2 -23 0
-2 -19 0
-1 -132 0
-1 -125 0
-1 -120 0
-1 -106 0
-1 -100 0
-1 -99 0
-1 -95 0
-1 -88 0
-1 -81 0
-1 -68 0
-1 -65 0
-1 -58 0
-1 -53 0
-1 -47 0
-1 -40 0
-1 -34 0
-1 -26 0
-1 -14 0
-1 -11 0
-1 -6 0
-1 -4 0
1 11 40 58 81 88 95 99 100 106 125 0
2 23 26 32 60 69 89 107 110 119 121 0
3 20 24 27 28 39 54 68 80 91 104 0
4 21 36 49 67 83 93 94 108 113 124 0
5 6 42 46 57 62 90 122 126 129 130 0
7 15 19 29 53 55 56 85 109 116 123 0
8 10 16 18 59 65 77 87 105 111 117 0
9 12 30 66 73 74 112 118 127 128 132 0
13 14 22 25 33 41 63 71 72 79 131 0
17 38 48 51 52 76 82 98 101 114 120 0
31 34 37 45 78 84 86 97 102 103 115 0
35 43 44 47 50 61 64 70 75 92 96 0
