p cnf 90 775
-88 -90 0
-87 -90 0
-85 -88 0
-85 -86 0
-83 -89 0
-83 -84 0
-82 -90 0
-82 -89 0
-82 -87 0
-81 -84 0
-80 -89 0
-80 -86 0
-80 -82 0
-79 -86 0
-79 -84 0
-79 -83 0
-79 -80 0
-78 -90 0
-78 -87 0
-78 -84 0
-78 -83 0
-78 -82 0
-78 -79 0
-77 -90 0
-77 -88 0
-76 -84 0
-76 -83 0
-76 -79 0
-76 -78 0
-75 -87 0
-75 -84 0
-75 -81 0
-73 -89 0
-73 -82 0
-73 -80 0
-73 -77 0
-72 -90 0
-72 -88 0
-72 -77 0
-71 -90 0
-71 -87 0
-71 -86 0
-71 -85 0
-71 -82 0
-71 -78 0
-70 -87 0
-70 -75 0
-70 -74 0
-69 -87 0
-69 -75 0
-69 -72 0
-69 -70 0
-68 -89 0
-68 -87 0
-68 -83 0
-68 -75 0
-68 -70 0
-68 -69 0
-67 -84 0
-67 -83 0
-67 -79 0
-67 -78 0
-67 -77 0
-67 -76 0
-67 -73 0
-66 -72 0
-66 -69 0
-65 -88 0
-65 -85 0
-64 -84 0
-64 -81 0
-64 -75 0
-64 -66 0
-63 -89 0
-63 -86 0
-63 -85 0
-63 -83 0
-63 -71 0
-63 -68 0
-62 -81 0
-62 -76 0
-61 -88 0
-61 -85 0
-61 -66 0
-61 -65 0
-61 -64 0
-60 -81 0
-60 -74 0
-60 -70 0
-60 -62 0
-59 -76 0
-59 -62 0
-58 -84 0
-58 -81 0
-58 -75 0
-58 -64 0
-58 -59 0
-57 -77 0
-57 -73 0
-57 -67 0
-57 -66 0
-57 -64 0
-57 -61 0
-56 -76 0
-56 -65 0
-56 -62 0
-56 -59 0
-55 -90 0
-55 -88 0
-55 -84 0
-55 -81 0
-55 -77 0
-55 -75 0
-55 -72 0
-55 -64 0
-55 -58 0
-54 -90 0
-54 -89 0
-54 -88 0
-54 -83 0
-54 -77 0
-54 -72 0
-54 -68 0
-54 -63 0
-54 -55 0
-53 -74 0
-53 -72 0
-53 -69 0
-53 -66 0
-52 -89 0
-52 -83 0
-52 -68 0
-52 -66 0
-52 -64 0
-52 -63 0
-52 -61 0
-52 -57 0
-52 -54 0
-51 -86 0
-51 -85 0
-51 -72 0
-51 -71 0
-51 -69 0
-51 -66 0
-51 -63 0
-51 -53 0
-50 -89 0
-50 -82 0
-50 -80 0
-50 -74 0
-50 -73 0
-50 -70 0
-50 -60 0
-49 -72 0
-49 -69 0
-49 -66 0
-49 -59 0
-49 -58 0
-49 -53 0
-49 -51 0
-48 -87 0
-48 -77 0
-48 -75 0
-48 -73 0
-48 -70 0
-48 -69 0
-48 -68 0
-48 -67 0
-48 -57 0
-47 -90 0
-47 -88 0
-47 -86 0
-47 -80 0
-47 -79 0
-47 -77 0
-47 -72 0
-47 -55 0
-47 -54 0
-46 -77 0
-46 -73 0
-46 -67 0
-46 -59 0
-46 -58 0
-46 -57 0
-46 -49 0
-46 -48 0
-45 -90 0
-45 -87 0
-45 -82 0
-45 -81 0
-45 -78 0
-45 -71 0
-45 -62 0
-45 -60 0
-44 -86 0
-44 -80 0
-44 -79 0
-44 -65 0
-44 -56 0
-44 -47 0
-43 -74 0
-43 -70 0
-43 -65 0
-43 -60 0
-43 -56 0
-43 -50 0
-43 -44 0
-42 -86 0
-42 -85 0
-42 -74 0
-42 -71 0
-42 -70 0
-42 -63 0
-42 -60 0
-42 -51 0
-42 -50 0
-42 -43 0
-41 -86 0
-41 -85 0
-41 -84 0
-41 -81 0
-41 -75 0
-41 -71 0
-41 -64 0
-41 -63 0
-41 -58 0
-41 -55 0
-41 -51 0
-41 -42 0
-40 -90 0
-40 -87 0
-40 -82 0
-40 -78 0
-40 -71 0
-40 -59 0
-40 -58 0
-40 -49 0
-40 -46 0
-40 -45 0
-39 -90 0
-39 -88 0
-39 -77 0
-39 -74 0
-39 -72 0
-39 -70 0
-39 -60 0
-39 -55 0
-39 -54 0
-39 -50 0
-39 -47 0
-39 -43 0
-39 -42 0
-38 -74 0
-38 -70 0
-38 -66 0
-38 -64 0
-38 -61 0
-38 -60 0
-38 -57 0
-38 -52 0
-38 -50 0
-38 -43 0
-38 -42 0
-38 -39 0
-37 -77 0
-37 -74 0
-37 -73 0
-37 -67 0
-37 -57 0
-37 -53 0
-37 -48 0
-37 -46 0
-36 -84 0
-36 -81 0
-36 -75 0
-36 -65 0
-36 -64 0
-36 -58 0
-36 -56 0
-36 -55 0
-36 -44 0
-36 -43 0
-36 -41 0
-35 -86 0
-35 -80 0
-35 -79 0
-35 -74 0
-35 -53 0
-35 -47 0
-35 -44 0
-35 -37 0
-34 -86 0
-34 -81 0
-34 -80 0
-34 -79 0
-34 -62 0
-34 -60 0
-34 -47 0
-34 -45 0
-34 -44 0
-34 -35 0
-33 -89 0
-33 -88 0
-33 -85 0
-33 -82 0
-33 -80 0
-33 -73 0
-33 -65 0
-33 -61 0
-33 -50 0
-32 -90 0
-32 -88 0
-32 -77 0
-32 -76 0
-32 -72 0
-32 -62 0
-32 -59 0
-32 -56 0
-32 -55 0
-32 -54 0
-32 -47 0
-32 -39 0
-31 -76 0
-31 -74 0
-31 -62 0
-31 -59 0
-31 -56 0
-31 -53 0
-31 -37 0
-31 -35 0
-31 -32 0
-30 -88 0
-30 -85 0
-30 -65 0
-30 -61 0
-30 -59 0
-30 -58 0
-30 -49 0
-30 -46 0
-30 -40 0
-30 -33 0
-29 -84 0
-29 -83 0
-29 -79 0
-29 -78 0
-29 -76 0
-29 -74 0
-29 -70 0
-29 -67 0
-29 -60 0
-29 -50 0
-29 -43 0
-29 -42 0
-29 -39 0
-29 -38 0
-28 -84 0
-28 -81 0
-28 -75 0
-28 -74 0
-28 -64 0
-28 -58 0
-28 -55 0
-28 -53 0
-28 -41 0
-28 -37 0
-28 -36 0
-28 -35 0
-28 -31 0
-27 -88 0
-27 -85 0
-27 -74 0
-27 -65 0
-27 -61 0
-27 -53 0
-27 -37 0
-27 -35 0
-27 -33 0
-27 -31 0
-27 -30 0
-27 -28 0
-26 -89 0
-26 -82 0
-26 -80 0
-26 -73 0
-26 -72 0
-26 -69 0
-26 -66 0
-26 -53 0
-26 -51 0
-26 -50 0
-26 -49 0
-26 -33 0
-25 -89 0
-25 -83 0
-25 -68 0
-25 -63 0
-25 -59 0
-25 -58 0
-25 -54 0
-25 -52 0
-25 -49 0
-25 -46 0
-25 -40 0
-25 -30 0
-24 -90 0
-24 -87 0
-24 -82 0
-24 -78 0
-24 -74 0
-24 -71 0
-24 -53 0
-24 -45 0
-24 -40 0
-24 -37 0
-24 -35 0
-24 -31 0
-24 -28 0
-24 -27 0
-23 -88 0
-23 -85 0
-23 -84 0
-23 -83 0
-23 -79 0
-23 -78 0
-23 -76 0
-23 -67 0
-23 -65 0
-23 -61 0
-23 -33 0
-23 -30 0
-23 -29 0
-23 -27 0
-22 -81 0
-22 -77 0
-22 -73 0
-22 -67 0
-22 -62 0
-22 -60 0
-22 -57 0
-22 -48 0
-22 -46 0
-22 -45 0
-22 -37 0
-22 -34 0
-21 -86 0
-21 -80 0
-21 -79 0
-21 -66 0
-21 -64 0
-21 -61 0
-21 -57 0
-21 -52 0
-21 -47 0
-21 -44 0
-21 -38 0
-21 -35 0
-21 -34 0
-20 -89 0
-20 -83 0
-20 -68 0
-20 -65 0
-20 -63 0
-20 -56 0
-20 -54 0
-20 -52 0
-20 -44 0
-20 -43 0
-20 -36 0
-20 -25 0
-19 -84 0
-19 -83 0
-19 -79 0
-19 -78 0
-19 -76 0
-19 -72 0
-19 -69 0
-19 -67 0
-19 -66 0
-19 -53 0
-19 -51 0
-19 -49 0
-19 -29 0
-19 -26 0
-19 -23 0
-18 -76 0
-18 -66 0
-18 -64 0
-18 -62 0
-18 -61 0
-18 -59 0
-18 -57 0
-18 -56 0
-18 -52 0
-18 -38 0
-18 -32 0
-18 -31 0
-18 -21 0
-17 -89 0
-17 -83 0
-17 -81 0
-17 -68 0
-17 -63 0
-17 -62 0
-17 -60 0
-17 -54 0
-17 -52 0
-17 -45 0
-17 -34 0
-17 -25 0
-17 -22 0
-17 -20 0
-16 -89 0
-16 -84 0
-16 -82 0
-16 -81 0
-16 -80 0
-16 -75 0
-16 -73 0
-16 -64 0
-16 -58 0
-16 -55 0
-16 -50 0
-16 -41 0
-16 -36 0
-16 -33 0
-16 -28 0
-16 -26 0
-15 -81 0
-15 -72 0
-15 -69 0
-15 -66 0
-15 -62 0
-15 -60 0
-15 -53 0
-15 -51 0
-15 -49 0
-15 -45 0
-15 -34 0
-15 -26 0
-15 -22 0
-15 -19 0
-15 -17 0
-14 -74 0
-14 -70 0
-14 -60 0
-14 -59 0
-14 -58 0
-14 -50 0
-14 -49 0
-14 -46 0
-14 -43 0
-14 -42 0
-14 -40 0
-14 -39 0
-14 -38 0
-14 -30 0
-14 -29 0
-14 -25 0
-13 -88 0
-13 -87 0
-13 -85 0
-13 -75 0
-13 -70 0
-13 -69 0
-13 -68 0
-13 -65 0
-13 -61 0
-13 -48 0
-13 -33 0
-13 -30 0
-13 -27 0
-13 -23 0
-12 -90 0
-12 -87 0
-12 -82 0
-12 -78 0
-12 -71 0
-12 -66 0
-12 -64 0
-12 -61 0
-12 -57 0
-12 -52 0
-12 -45 0
-12 -40 0
-12 -38 0
-12 -24 0
-12 -21 0
-12 -18 0
-11 -87 0
-11 -86 0
-11 -80 0
-11 -79 0
-11 -75 0
-11 -70 0
-11 -69 0
-11 -68 0
-11 -48 0
-11 -47 0
-11 -44 0
-11 -35 0
-11 -34 0
-11 -21 0
-11 -13 0
-10 -90 0
-10 -87 0
-10 -82 0
-10 -78 0
-10 -71 0
-10 -65 0
-10 -56 0
-10 -45 0
-10 -44 0
-10 -43 0
-10 -40 0
-10 -36 0
-10 -24 0
-10 -20 0
-10 -12 0
-9 -88 0
-9 -85 0
-9 -81 0
-9 -65 0
-9 -62 0
-9 -61 0
-9 -60 0
-9 -45 0
-9 -34 0
-9 -33 0
-9 -30 0
-9 -27 0
-9 -23 0
-9 -22 0
-9 -17 0
-9 -15 0
-9 -13 0
-8 -89 0
-8 -83 0
-8 -74 0
-8 -68 0
-8 -63 0
-8 -54 0
-8 -53 0
-8 -52 0
-8 -37 0
-8 -35 0
-8 -31 0
-8 -28 0
-8 -27 0
-8 -25 0
-8 -24 0
-8 -20 0
-8 -17 0
-7 -86 0
-7 -85 0
-7 -76 0
-7 -71 0
-7 -63 0
-7 -62 0
-7 -59 0
-7 -56 0
-7 -51 0
-7 -42 0
-7 -41 0
-7 -32 0
-7 -31 0
-7 -18 0
-6 -89 0
-6 -82 0
-6 -80 0
-6 -76 0
-6 -73 0
-6 -62 0
-6 -59 0
-6 -56 0
-6 -50 0
-6 -33 0
-6 -32 0
-6 -31 0
-6 -26 0
-6 -18 0
-6 -16 0
-6 -7 0
-5 -87 0
-5 -76 0
-5 -75 0
-5 -70 0
-5 -69 0
-5 -68 0
-5 -62 0
-5 -59 0
-5 -56 0
-5 -48 0
-5 -32 0
-5 -31 0
-5 -18 0
-5 -13 0
-5 -11 0
-5 -7 0
-5 -6 0
-4 -86 0
-4 -85 0
-4 -77 0
-4 -73 0
-4 -71 0
-4 -67 0
-4 -63 0
-4 -57 0
-4 -51 0
-4 -48 0
-4 -46 0
-4 -42 0
-4 -41 0
-4 -37 0
-4 -22 0
-4 -7 0
-3 -86 0
-3 -80 0
-3 -79 0
-3 -59 0
-3 -58 0
-3 -49 0
-3 -47 0
-3 -46 0
-3 -44 0
-3 -40 0
-3 -35 0
-3 -34 0
-3 -30 0
-3 -25 0
-3 -21 0
-3 -14 0
-3 -11 0
-2 -72 0
-2 -69 0
-2 -66 0
-2 -65 0
-2 -56 0
-2 -53 0
-2 -51 0
-2 -49 0
-2 -44 0
-2 -43 0
-2 -36 0
-2 -26 0
-2 -20 0
-2 -19 0
-2 -15 0
-2 -10 0
-1 -77 0
-1 -73 0
-1 -67 0
-1 -65 0
-1 -57 0
-1 -56 0
-1 -48 0
-1 -46 0
-1 -44 0
-1 -43 0
-1 -37 0
-1 -36 0
-1 -22 0
-1 -20 0
-1 -10 0
-1 -4 0
-1 -2 0
1 2 10 20 36 43 44 56 65 0
3 14 25 30 40 46 49 58 59 0
4 7 41 42 51 63 71 85 86 0
5 11 13 48 68 69 70 75 87 0
6 16 26 33 50 73 80 82 89 0
8 24 27 28 31 35 37 53 74 0
9 15 17 22 34 45 60 62 81 0
12 18 21 38 52 57 61 64 66 0
19 23 29 67 76 78 79 83 84 0
32 39 47 54 55 72 77 88 90 0
