p cnf 90 775
-87 -89 0
-84 -88 0
-84 -86 0
-83 -88 0
-83 -86 0
-82 -85 0
-81 -88 0
-81 -87 0
-81 -84 0
-80 -90 0
-80 -88 0
-80 -83 0
-79 -89 0
-79 -82 0
-78 -89 0
-78 -87 0
-77 -88 0
-77 -83 0
-77 -80 0
-76 -88 0
-76 -84 0
-76 -81 0
-75 -87 0
-75 -85 0
-75 -81 0
-74 -85 0
-74 -75 0
-73 -88 0
-73 -83 0
-73 -80 0
-73 -77 0
-72 -85 0
-72 -82 0
-71 -90 0
-71 -72 0
-70 -89 0
-70 -86 0
-70 -83 0
-70 -79 0
-69 -89 0
-69 -87 0
-69 -78 0
-69 -74 0
-68 -89 0
-68 -87 0
-68 -78 0
-68 -76 0
-68 -69 0
-67 -82 0
-67 -79 0
-67 -76 0
-67 -68 0
-66 -87 0
-66 -81 0
-66 -75 0
-66 -73 0
-65 -87 0
-65 -86 0
-65 -83 0
-65 -81 0
-65 -75 0
-65 -70 0
-65 -66 0
-64 -85 0
-64 -75 0
-64 -74 0
-63 -90 0
-63 -80 0
-63 -74 0
-63 -69 0
-62 -73 0
-62 -66 0
-62 -64 0
-61 -90 0
-61 -82 0
-61 -79 0
-61 -71 0
-61 -67 0
-60 -90 0
-60 -80 0
-60 -64 0
-60 -63 0
-60 -62 0
-59 -89 0
-59 -88 0
-59 -87 0
-59 -83 0
-59 -80 0
-59 -78 0
-59 -77 0
-59 -73 0
-59 -69 0
-59 -68 0
-58 -85 0
-58 -82 0
-58 -73 0
-58 -72 0
-58 -66 0
-58 -62 0
-57 -89 0
-57 -87 0
-57 -85 0
-57 -82 0
-57 -78 0
-57 -72 0
-57 -69 0
-57 -68 0
-57 -59 0
-57 -58 0
-56 -90 0
-56 -80 0
-56 -78 0
-56 -63 0
-56 -60 0
-55 -74 0
-55 -73 0
-55 -69 0
-55 -66 0
-55 -63 0
-55 -62 0
-55 -58 0
-54 -90 0
-54 -80 0
-54 -76 0
-54 -68 0
-54 -67 0
-54 -63 0
-54 -60 0
-54 -56 0
-53 -86 0
-53 -85 0
-53 -83 0
-53 -82 0
-53 -72 0
-53 -70 0
-53 -65 0
-53 -58 0
-53 -57 0
-52 -86 0
-52 -84 0
-52 -73 0
-52 -66 0
-52 -62 0
-52 -58 0
-52 -55 0
-51 -89 0
-51 -79 0
-51 -77 0
-51 -70 0
-50 -90 0
-50 -88 0
-50 -84 0
-50 -81 0
-50 -76 0
-50 -71 0
-50 -61 0
-49 -89 0
-49 -85 0
-49 -79 0
-49 -75 0
-49 -74 0
-49 -70 0
-49 -64 0
-49 -51 0
-48 -76 0
-48 -72 0
-48 -71 0
-48 -68 0
-48 -67 0
-48 -54 0
-47 -77 0
-47 -76 0
-47 -68 0
-47 -67 0
-47 -54 0
-47 -51 0
-47 -48 0
-46 -89 0
-46 -79 0
-46 -73 0
-46 -70 0
-46 -66 0
-46 -62 0
-46 -58 0
-46 -55 0
-46 -52 0
-46 -51 0
-46 -49 0
-45 -86 0
-45 -84 0
-45 -72 0
-45 -71 0
-45 -52 0
-45 -48 0
-44 -89 0
-44 -79 0
-44 -72 0
-44 -71 0
-44 -70 0
-44 -51 0
-44 -49 0
-44 -48 0
-44 -46 0
-44 -45 0
-43 -85 0
-43 -76 0
-43 -75 0
-43 -74 0
-43 -68 0
-43 -67 0
-43 -64 0
-43 -54 0
-43 -49 0
-43 -48 0
-43 -47 0
-42 -72 0
-42 -71 0
-42 -64 0
-42 -62 0
-42 -60 0
-42 -48 0
-42 -45 0
-42 -44 0
-41 -88 0
-41 -85 0
-41 -84 0
-41 -82 0
-41 -81 0
-41 -76 0
-41 -72 0
-41 -58 0
-41 -57 0
-41 -53 0
-41 -50 0
-40 -90 0
-40 -85 0
-40 -75 0
-40 -74 0
-40 -71 0
-40 -64 0
-40 -61 0
-40 -50 0
-40 -49 0
-40 -43 0
-39 -86 0
-39 -83 0
-39 -76 0
-39 -70 0
-39 -68 0
-39 -67 0
-39 -65 0
-39 -54 0
-39 -53 0
-39 -48 0
-39 -47 0
-39 -43 0
-38 -87 0
-38 -81 0
-38 -75 0
-38 -72 0
-38 -71 0
-38 -66 0
-38 -65 0
-38 -48 0
-38 -45 0
-38 -44 0
-38 -42 0
-37 -86 0
-37 -83 0
-37 -78 0
-37 -70 0
-37 -65 0
-37 -56 0
-37 -53 0
-37 -39 0
-36 -86 0
-36 -83 0
-36 -74 0
-36 -70 0
-36 -69 0
-36 -65 0
-36 -63 0
-36 -55 0
-36 -53 0
-36 -39 0
-36 -37 0
-35 -88 0
-35 -84 0
-35 -81 0
-35 -76 0
-35 -74 0
-35 -69 0
-35 -63 0
-35 -55 0
-35 -50 0
-35 -41 0
-35 -36 0
-34 -82 0
-34 -79 0
-34 -67 0
-34 -64 0
-34 -62 0
-34 -61 0
-34 -60 0
-34 -42 0
-33 -78 0
-33 -72 0
-33 -71 0
-33 -56 0
-33 -48 0
-33 -45 0
-33 -44 0
-33 -42 0
-33 -38 0
-33 -37 0
-32 -90 0
-32 -85 0
-32 -82 0
-32 -80 0
-32 -72 0
-32 -63 0
-32 -60 0
-32 -58 0
-32 -57 0
-32 -56 0
-32 -54 0
-32 -53 0
-32 -41 0
-31 -90 0
-31 -87 0
-31 -81 0
-31 -80 0
-31 -75 0
-31 -66 0
-31 -65 0
-31 -63 0
-31 -60 0
-31 -56 0
-31 -54 0
-31 -38 0
-31 -32 0
-30 -77 0
-30 -74 0
-30 -69 0
-30 -63 0
-30 -55 0
-30 -51 0
-30 -47 0
-30 -36 0
-30 -35 0
-29 -90 0
-29 -73 0
-29 -71 0
-29 -66 0
-29 -62 0
-29 -61 0
-29 -58 0
-29 -55 0
-29 -52 0
-29 -50 0
-29 -46 0
-29 -40 0
-28 -90 0
-28 -77 0
-28 -71 0
-28 -61 0
-28 -51 0
-28 -50 0
-28 -47 0
-28 -40 0
-28 -30 0
-28 -29 0
-27 -90 0
-27 -89 0
-27 -80 0
-27 -79 0
-27 -70 0
-27 -63 0
-27 -60 0
-27 -56 0
-27 -54 0
-27 -51 0
-27 -49 0
-27 -46 0
-27 -44 0
-27 -32 0
-27 -31 0
-26 -85 0
-26 -78 0
-26 -75 0
-26 -74 0
-26 -64 0
-26 -56 0
-26 -49 0
-26 -43 0
-26 -40 0
-26 -37 0
-26 -33 0
-25 -86 0
-25 -85 0
-25 -84 0
-25 -75 0
-25 -74 0
-25 -64 0
-25 -52 0
-25 -49 0
-25 -45 0
-25 -43 0
-25 -40 0
-25 -26 0
-24 -87 0
-24 -81 0
-24 -77 0
-24 -75 0
-24 -66 0
-24 -65 0
-24 -51 0
-24 -47 0
-24 -38 0
-24 -31 0
-24 -30 0
-24 -28 0
-23 -86 0
-23 -84 0
-23 -82 0
-23 -79 0
-23 -67 0
-23 -61 0
-23 -52 0
-23 -45 0
-23 -34 0
-23 -25 0
-22 -88 0
-22 -83 0
-22 -82 0
-22 -80 0
-22 -79 0
-22 -77 0
-22 -73 0
-22 -67 0
-22 -61 0
-22 -59 0
-22 -34 0
-22 -23 0
-21 -82 0
-21 -79 0
-21 -78 0
-21 -67 0
-21 -61 0
-21 -56 0
-21 -37 0
-21 -34 0
-21 -33 0
-21 -26 0
-21 -23 0
-21 -22 0
-20 -82 0
-20 -79 0
-20 -74 0
-20 -69 0
-20 -67 0
-20 -63 0
-20 -61 0
-20 -55 0
-20 -36 0
-20 -35 0
-20 -34 0
-20 -30 0
-20 -23 0
-20 -22 0
-20 -21 0
-19 -88 0
-19 -84 0
-19 -81 0
-19 -78 0
-19 -76 0
-19 -56 0
-19 -50 0
-19 -41 0
-19 -37 0
-19 -35 0
-19 -33 0
-19 -26 0
-19 -21 0
-18 -88 0
-18 -84 0
-18 -81 0
-18 -76 0
-18 -64 0
-18 -62 0
-18 -60 0
-18 -50 0
-18 -42 0
-18 -41 0
-18 -35 0
-18 -34 0
-18 -19 0
-17 -89 0
-17 -87 0
-17 -86 0
-17 -84 0
-17 -78 0
-17 -69 0
-17 -68 0
-17 -59 0
-17 -57 0
-17 -52 0
-17 -45 0
-17 -25 0
-17 -23 0
-16 -77 0
-16 -64 0
-16 -62 0
-16 -60 0
-16 -51 0
-16 -47 0
-16 -42 0
-16 -34 0
-16 -30 0
-16 -28 0
-16 -24 0
-16 -18 0
-15 -76 0
-15 -73 0
-15 -68 0
-15 -67 0
-15 -66 0
-15 -62 0
-15 -58 0
-15 -55 0
-15 -54 0
-15 -52 0
-15 -48 0
-15 -47 0
-15 -46 0
-15 -43 0
-15 -39 0
-15 -29 0
-14 -86 0
-14 -84 0
-14 -77 0
-14 -52 0
-14 -51 0
-14 -47 0
-14 -45 0
-14 -30 0
-14 -28 0
-14 -25 0
-14 -24 0
-14 -23 0
-14 -17 0
-14 -16 0
-13 -90 0
-13 -86 0
-13 -84 0
-13 -80 0
-13 -63 0
-13 -60 0
-13 -56 0
-13 -54 0
-13 -52 0
-13 -45 0
-13 -32 0
-13 -31 0
-13 -27 0
-13 -25 0
-13 -23 0
-13 -17 0
-13 -14 0
-12 -85 0
-12 -82 0
-12 -77 0
-12 -72 0
-12 -58 0
-12 -57 0
-12 -53 0
-12 -51 0
-12 -47 0
-12 -41 0
-12 -32 0
-12 -30 0
-12 -28 0
-12 -24 0
-12 -16 0
-12 -14 0
-11 -78 0
-11 -73 0
-11 -66 0
-11 -62 0
-11 -58 0
-11 -56 0
-11 -55 0
-11 -52 0
-11 -46 0
-11 -37 0
-11 -33 0
-11 -29 0
-11 -26 0
-11 -21 0
-11 -19 0
-11 -15 0
-10 -86 0
-10 -83 0
-10 -70 0
-10 -65 0
-10 -64 0
-10 -62 0
-10 -60 0
-10 -53 0
-10 -42 0
-10 -39 0
-10 -37 0
-10 -36 0
-10 -34 0
-10 -18 0
-10 -16 0
-9 -88 0
-9 -85 0
-9 -83 0
-9 -80 0
-9 -77 0
-9 -75 0
-9 -74 0
-9 -73 0
-9 -64 0
-9 -59 0
-9 -49 0
-9 -43 0
-9 -40 0
-9 -26 0
-9 -25 0
-9 -22 0
-8 -87 0
-8 -82 0
-8 -81 0
-8 -79 0
-8 -75 0
-8 -67 0
-8 -66 0
-8 -65 0
-8 -61 0
-8 -38 0
-8 -34 0
-8 -31 0
-8 -24 0
-8 -23 0
-8 -22 0
-8 -21 0
-8 -20 0
-7 -90 0
-7 -89 0
-7 -87 0
-7 -78 0
-7 -71 0
-7 -69 0
-7 -68 0
-7 -61 0
-7 -59 0
-7 -57 0
-7 -50 0
-7 -40 0
-7 -29 0
-7 -28 0
-7 -17 0
-6 -88 0
-6 -83 0
-6 -80 0
-6 -77 0
-6 -73 0
-6 -72 0
-6 -71 0
-6 -59 0
-6 -48 0
-6 -45 0
-6 -44 0
-6 -42 0
-6 -38 0
-6 -33 0
-6 -22 0
-6 -9 0
-5 -74 0
-5 -72 0
-5 -71 0
-5 -69 0
-5 -63 0
-5 -55 0
-5 -48 0
-5 -45 0
-5 -44 0
-5 -42 0
-5 -38 0
-5 -36 0
-5 -35 0
-5 -33 0
-5 -30 0
-5 -20 0
-5 -6 0
-4 -78 0
-4 -77 0
-4 -56 0
-4 -51 0
-4 -47 0
-4 -37 0
-4 -33 0
-4 -30 0
-4 -28 0
-4 -26 0
-4 -24 0
-4 -21 0
-4 -19 0
-4 -16 0
-4 -14 0
-4 -12 0
-4 -11 0
-3 -89 0
-3 -88 0
-3 -84 0
-3 -81 0
-3 -79 0
-3 -76 0
-3 -70 0
-3 -51 0
-3 -50 0
-3 -49 0
-3 -46 0
-3 -44 0
-3 -41 0
-3 -35 0
-3 -27 0
-3 -19 0
-3 -18 0
-2 -89 0
-2 -87 0
-2 -78 0
-2 -69 0
-2 -68 0
-2 -64 0
-2 -62 0
-2 -60 0
-2 -59 0
-2 -57 0
-2 -42 0
-2 -34 0
-2 -18 0
-2 -17 0
-2 -16 0
-2 -10 0
-2 -7 0
-1 -90 0
-1 -86 0
-1 -83 0
-1 -71 0
-1 -70 0
-1 -65 0
-1 -61 0
-1 -53 0
-1 -50 0
-1 -40 0
-1 -39 0
-1 -37 0
-1 -36 0
-1 -29 0
-1 -28 0
-1 -10 0
-1 -7 0
1 7 28 29 40 50 61 71 90 0
2 10 16 18 34 42 60 62 64 0
3 27 44 46 49 51 70 79 89 0
4 11 19 21 26 33 37 56 78 0
5 20 30 35 36 55 63 69 74 0
6 9 22 59 73 77 80 83 88 0
8 24 31 38 65 66 75 81 87 0
12 32 41 53 57 58 72 82 85 0
13 14 17 23 25 45 52 84 86 0
15 39 43 47 48 54 67 68 76 0
