p cnf 132 1398
-126 -127 0
-125 -127 0
-123 -124 0
-122 -130 0
-122 -124 0
-122 -123 0
-121 -132 0
-121 -129 0
-119 -124 0
-118 -129 0
-118 -121 0
-118 -119 0
-117 -128 0
-116 -127 0
-116 -125 0
-115 -130 0
-115 -124 0
-115 -119 0
-114 -132 0
-113 -127 0
-113 -125 0
-113 -123 0
-113 -116 0
-112 -131 0
-112 -125 0
-111 -129 0
-111 -124 0
-111 -123 0
-111 -122 0
-111 -121 0
-111 -118 0
-110 -128 0
-110 -120 0
-110 -117 0
-109 -132 0
-109 -127 0
-109 -125 0
-109 -116 0
-109 -114 0
-109 -113 0
-108 -129 0
-108 -121 0
-108 -118 0
-108 -117 0
-108 -111 0
-107 -129 0
-107 -127 0
-107 -125 0
-107 -121 0
-107 -118 0
-107 -116 0
-107 -113 0
-107 -111 0
-107 -109 0
-107 -108 0
-106 -127 0
-106 -125 0
-106 -124 0
-106 -119 0
-106 -116 0
-106 -115 0
-106 -113 0
-106 -109 0
-106 -107 0
-105 -124 0
-105 -120 0
-105 -119 0
-105 -115 0
-105 -110 0
-105 -106 0
-104 -130 0
-104 -122 0
-104 -119 0
-104 -118 0
-103 -132 0
-103 -117 0
-103 -114 0
-103 -109 0
-103 -108 0
-102 -129 0
-102 -121 0
-102 -118 0
-102 -114 0
-102 -111 0
-102 -108 0
-102 -107 0
-101 -131 0
-101 -116 0
-101 -112 0
-100 -132 0
-100 -128 0
-100 -114 0
-100 -109 0
-100 -103 0
-99 -132 0
-99 -124 0
-99 -121 0
-99 -119 0
-99 -115 0
-99 -106 0
-99 -105 0
-98 -128 0
-98 -120 0
-98 -100 0
-97 -131 0
-97 -124 0
-97 -119 0
-97 -115 0
-97 -112 0
-97 -106 0
-97 -105 0
-97 -101 0
-97 -99 0
-96 -130 0
-96 -127 0
-96 -126 0
-96 -115 0
-95 -132 0
-95 -127 0
-95 -126 0
-95 -121 0
-95 -99 0
-95 -96 0
-94 -116 0
-94 -114 0
-94 -102 0
-94 -101 0
-93 -132 0
-93 -120 0
-93 -114 0
-93 -110 0
-93 -109 0
-93 -105 0
-93 -103 0
-93 -100 0
-92 -128 0
-92 -123 0
-92 -113 0
-92 -100 0
-92 -98 0
-91 -126 0
-91 -124 0
-91 -119 0
-91 -115 0
-91 -106 0
-91 -105 0
-91 -99 0
-91 -97 0
-90 -130 0
-90 -122 0
-90 -120 0
-90 -110 0
-90 -105 0
-90 -104 0
-90 -93 0
-89 -132 0
-89 -123 0
-89 -121 0
-89 -113 0
-89 -99 0
-89 -95 0
-89 -92 0
-88 -131 0
-88 -127 0
-88 -126 0
-88 -112 0
-88 -101 0
-88 -97 0
-88 -96 0
-88 -95 0
-87 -131 0
-87 -128 0
-87 -100 0
-87 -98 0
-87 -92 0
-86 -128 0
-86 -126 0
-86 -117 0
-86 -110 0
-86 -91 0
-85 -120 0
-85 -114 0
-85 -102 0
-85 -98 0
-85 -94 0
-84 -125 0
-84 -117 0
-84 -112 0
-84 -108 0
-84 -103 0
-83 -129 0
-83 -120 0
-83 -98 0
-83 -85 0
-82 -130 0
-82 -123 0
-82 -115 0
-82 -113 0
-82 -96 0
-82 -92 0
-82 -89 0
-81 -131 0
-81 -128 0
-81 -117 0
-81 -112 0
-81 -110 0
-81 -101 0
-81 -97 0
-81 -88 0
-81 -86 0
-80 -129 0
-80 -126 0
-80 -121 0
-80 -118 0
-80 -111 0
-80 -108 0
-80 -107 0
-80 -102 0
-80 -91 0
-80 -86 0
-79 -131 0
-79 -129 0
-79 -87 0
-79 -83 0
-78 -128 0
-78 -119 0
-78 -118 0
-78 -117 0
-78 -110 0
-78 -104 0
-78 -86 0
-78 -81 0
-77 -125 0
-77 -114 0
-77 -112 0
-77 -102 0
-77 -94 0
-77 -85 0
-77 -84 0
-76 -119 0
-76 -118 0
-76 -116 0
-76 -104 0
-76 -101 0
-76 -94 0
-76 -78 0
-75 -117 0
-75 -116 0
-75 -108 0
-75 -103 0
-75 -101 0
-75 -94 0
-75 -84 0
-75 -76 0
-74 -124 0
-74 -123 0
-74 -122 0
-74 -120 0
-74 -111 0
-74 -98 0
-74 -85 0
-74 -83 0
-73 -130 0
-73 -129 0
-73 -122 0
-73 -104 0
-73 -90 0
-73 -83 0
-73 -79 0
-72 -130 0
-72 -122 0
-72 -114 0
-72 -104 0
-72 -102 0
-72 -94 0
-72 -90 0
-72 -85 0
-72 -77 0
-72 -73 0
-71 -132 0
-71 -121 0
-71 -116 0
-71 -101 0
-71 -99 0
-71 -95 0
-71 -94 0
-71 -89 0
-71 -76 0
-71 -75 0
-70 -132 0
-70 -124 0
-70 -123 0
-70 -122 0
-70 -114 0
-70 -111 0
-70 -109 0
-70 -103 0
-70 -100 0
-70 -93 0
-70 -74 0
-69 -127 0
-69 -126 0
-69 -114 0
-69 -102 0
-69 -96 0
-69 -95 0
-69 -94 0
-69 -88 0
-69 -85 0
-69 -77 0
-69 -72 0
-68 -123 0
-68 -114 0
-68 -113 0
-68 -102 0
-68 -94 0
-68 -92 0
-68 -89 0
-68 -85 0
-68 -82 0
-68 -77 0
-68 -72 0
-68 -69 0
-67 -131 0
-67 -123 0
-67 -113 0
-67 -112 0
-67 -101 0
-67 -97 0
-67 -92 0
-67 -89 0
-67 -88 0
-67 -82 0
-67 -81 0
-67 -68 0
-66 -127 0
-66 -126 0
-66 -124 0
-66 -123 0
-66 -122 0
-66 -111 0
-66 -96 0
-66 -95 0
-66 -88 0
-66 -74 0
-66 -70 0
-66 -69 0
-65 -127 0
-65 -126 0
-65 -117 0
-65 -108 0
-65 -103 0
-65 -96 0
-65 -95 0
-65 -88 0
-65 -84 0
-65 -75 0
-65 -69 0
-65 -66 0
-64 -131 0
-64 -129 0
-64 -121 0
-64 -118 0
-64 -112 0
-64 -111 0
-64 -108 0
-64 -107 0
-64 -102 0
-64 -101 0
-64 -97 0
-64 -88 0
-64 -81 0
-64 -80 0
-64 -67 0
-63 -132 0
-63 -130 0
-63 -115 0
-63 -114 0
-63 -109 0
-63 -103 0
-63 -100 0
-63 -96 0
-63 -93 0
-63 -82 0
-63 -70 0
-62 -120 0
-62 -119 0
-62 -118 0
-62 -104 0
-62 -98 0
-62 -85 0
-62 -83 0
-62 -78 0
-62 -76 0
-62 -74 0
-61 -130 0
-61 -122 0
-61 -117 0
-61 -108 0
-61 -104 0
-61 -103 0
-61 -90 0
-61 -84 0
-61 -75 0
-61 -73 0
-61 -72 0
-61 -65 0
-60 -132 0
-60 -125 0
-60 -121 0
-60 -112 0
-60 -99 0
-60 -95 0
-60 -89 0
-60 -84 0
-60 -77 0
-60 -71 0
-59 -128 0
-59 -124 0
-59 -123 0
-59 -122 0
-59 -117 0
-59 -111 0
-59 -110 0
-59 -86 0
-59 -81 0
-59 -78 0
-59 -74 0
-59 -70 0
-59 -66 0
-58 -126 0
-58 -123 0
-58 -113 0
-58 -92 0
-58 -91 0
-58 -89 0
-58 -86 0
-58 -82 0
-58 -80 0
-58 -68 0
-58 -67 0
-57 -127 0
-57 -126 0
-57 -119 0
-57 -118 0
-57 -104 0
-57 -96 0
-57 -95 0
-57 -88 0
-57 -78 0
-57 -76 0
-57 -69 0
-57 -66 0
-57 -65 0
-57 -62 0
-56 -132 0
-56 -128 0
-56 -121 0
-56 -117 0
-56 -110 0
-56 -99 0
-56 -95 0
-56 -89 0
-56 -86 0
-56 -81 0
-56 -78 0
-56 -71 0
-56 -60 0
-56 -59 0
-55 -130 0
-55 -127 0
-55 -125 0
-55 -122 0
-55 -116 0
-55 -113 0
-55 -109 0
-55 -107 0
-55 -106 0
-55 -104 0
-55 -90 0
-55 -73 0
-55 -72 0
-55 -61 0
-54 -129 0
-54 -128 0
-54 -117 0
-54 -110 0
-54 -86 0
-54 -83 0
-54 -81 0
-54 -79 0
-54 -78 0
-54 -73 0
-54 -59 0
-54 -56 0
-53 -131 0
-53 -119 0
-53 -118 0
-53 -104 0
-53 -87 0
-53 -79 0
-53 -78 0
-53 -76 0
-53 -62 0
-53 -57 0
-52 -128 0
-52 -127 0
-52 -126 0
-52 -100 0
-52 -98 0
-52 -96 0
-52 -95 0
-52 -92 0
-52 -88 0
-52 -87 0
-52 -69 0
-52 -66 0
-52 -65 0
-52 -57 0
-51 -126 0
-51 -125 0
-51 -112 0
-51 -91 0
-51 -86 0
-51 -84 0
-51 -80 0
-51 -77 0
-51 -60 0
-51 -58 0
-50 -125 0
-50 -119 0
-50 -118 0
-50 -112 0
-50 -104 0
-50 -84 0
-50 -78 0
-50 -77 0
-50 -76 0
-50 -62 0
-50 -60 0
-50 -57 0
-50 -53 0
-50 -51 0
-49 -131 0
-49 -127 0
-49 -125 0
-49 -116 0
-49 -113 0
-49 -109 0
-49 -107 0
-49 -106 0
-49 -87 0
-49 -79 0
-49 -55 0
-49 -53 0
-48 -131 0
-48 -126 0
-48 -91 0
-48 -87 0
-48 -86 0
-48 -80 0
-48 -79 0
-48 -58 0
-48 -53 0
-48 -51 0
-48 -49 0
-47 -123 0
-47 -117 0
-47 -113 0
-47 -108 0
-47 -103 0
-47 -92 0
-47 -89 0
-47 -84 0
-47 -82 0
-47 -75 0
-47 -68 0
-47 -67 0
-47 -65 0
-47 -61 0
-47 -58 0
-46 -131 0
-46 -130 0
-46 -122 0
-46 -112 0
-46 -104 0
-46 -101 0
-46 -97 0
-46 -90 0
-46 -88 0
-46 -81 0
-46 -73 0
-46 -72 0
-46 -67 0
-46 -64 0
-46 -61 0
-46 -55 0
-45 -129 0
-45 -128 0
-45 -121 0
-45 -118 0
-45 -111 0
-45 -108 0
-45 -107 0
-45 -102 0
-45 -100 0
-45 -98 0
-45 -92 0
-45 -87 0
-45 -80 0
-45 -64 0
-45 -52 0
-44 -132 0
-44 -131 0
-44 -121 0
-44 -99 0
-44 -95 0
-44 -89 0
-44 -87 0
-44 -79 0
-44 -71 0
-44 -60 0
-44 -56 0
-44 -53 0
-44 -49 0
-44 -48 0
-43 -130 0
-43 -116 0
-43 -115 0
-43 -101 0
-43 -96 0
-43 -94 0
-43 -82 0
-43 -76 0
-43 -75 0
-43 -71 0
-43 -63 0
-42 -129 0
-42 -124 0
-42 -119 0
-42 -115 0
-42 -106 0
-42 -105 0
-42 -99 0
-42 -97 0
-42 -91 0
-42 -83 0
-42 -79 0
-42 -73 0
-42 -54 0
-41 -132 0
-41 -126 0
-41 -114 0
-41 -109 0
-41 -103 0
-41 -100 0
-41 -93 0
-41 -91 0
-41 -86 0
-41 -80 0
-41 -70 0
-41 -63 0
-41 -58 0
-41 -51 0
-41 -48 0
-40 -132 0
-40 -130 0
-40 -122 0
-40 -121 0
-40 -104 0
-40 -99 0
-40 -95 0
-40 -90 0
-40 -89 0
-40 -73 0
-40 -72 0
-40 -71 0
-40 -61 0
-40 -60 0
-40 -56 0
-40 -55 0
-40 -46 0
-40 -44 0
-39 -130 0
-39 -128 0
-39 -117 0
-39 -115 0
-39 -110 0
-39 -96 0
-39 -86 0
-39 -82 0
-39 -81 0
-39 -78 0
-39 -63 0
-39 -59 0
-39 -56 0
-39 -54 0
-39 -43 0
-38 -126 0
-38 -116 0
-38 -101 0
-38 -94 0
-38 -91 0
-38 -86 0
-38 -80 0
-38 -76 0
-38 -75 0
-38 -71 0
-38 -58 0
-38 -51 0
-38 -48 0
-38 -43 0
-38 -41 0
-37 -131 0
-37 -120 0
-37 -112 0
-37 -101 0
-37 -98 0
-37 -97 0
-37 -88 0
-37 -85 0
-37 -83 0
-37 -81 0
-37 -74 0
-37 -67 0
-37 -64 0
-37 -62 0
-37 -46 0
-36 -120 0
-36 -116 0
-36 -110 0
-36 -105 0
-36 -101 0
-36 -94 0
-36 -93 0
-36 -90 0
-36 -76 0
-36 -75 0
-36 -71 0
-36 -43 0
-36 -38 0
-35 -127 0
-35 -125 0
-35 -120 0
-35 -116 0
-35 -113 0
-35 -109 0
-35 -107 0
-35 -106 0
-35 -98 0
-35 -85 0
-35 -83 0
-35 -74 0
-35 -62 0
-35 -55 0
-35 -49 0
-35 -37 0
-34 -128 0
-34 -127 0
-34 -125 0
-34 -117 0
-34 -116 0
-34 -113 0
-34 -110 0
-34 -109 0
-34 -107 0
-34 -106 0
-34 -86 0
-34 -81 0
-34 -78 0
-34 -59 0
-34 -56 0
-34 -55 0
-34 -54 0
-34 -49 0
-34 -39 0
-34 -35 0
-33 -124 0
-33 -119 0
-33 -115 0
-33 -114 0
-33 -106 0
-33 -105 0
-33 -102 0
-33 -99 0
-33 -97 0
-33 -94 0
-33 -91 0
-33 -85 0
-33 -77 0
-33 -72 0
-33 -69 0
-33 -68 0
-33 -42 0
-32 -123 0
-32 -120 0
-32 -113 0
-32 -110 0
-32 -105 0
-32 -93 0
-32 -92 0
-32 -90 0
-32 -89 0
-32 -82 0
-32 -68 0
-32 -67 0
-32 -58 0
-32 -47 0
-32 -36 0
-31 -129 0
-31 -125 0
-31 -112 0
-31 -84 0
-31 -83 0
-31 -79 0
-31 -77 0
-31 -73 0
-31 -60 0
-31 -54 0
-31 -51 0
-31 -50 0
-31 -42 0
-30 -128 0
-30 -117 0
-30 -114 0
-30 -110 0
-30 -102 0
-30 -94 0
-30 -86 0
-30 -85 0
-30 -81 0
-30 -78 0
-30 -77 0
-30 -72 0
-30 -69 0
-30 -68 0
-30 -59 0
-30 -56 0
-30 -54 0
-30 -39 0
-30 -34 0
-30 -33 0
-29 -130 0
-29 -129 0
-29 -121 0
-29 -118 0
-29 -115 0
-29 -111 0
-29 -108 0
-29 -107 0
-29 -102 0
-29 -96 0
-29 -82 0
-29 -80 0
-29 -64 0
-29 -63 0
-29 -45 0
-29 -43 0
-29 -39 0
-28 -129 0
-28 -121 0
-28 -120 0
-28 -118 0
-28 -111 0
-28 -110 0
-28 -108 0
-28 -107 0
-28 -105 0
-28 -102 0
-28 -93 0
-28 -90 0
-28 -80 0
-28 -64 0
-28 -45 0
-28 -36 0
-28 -32 0
-28 -29 0
-27 -132 0
-27 -131 0
-27 -114 0
-27 -112 0
-27 -109 0
-27 -103 0
-27 -101 0
-27 -100 0
-27 -97 0
-27 -93 0
-27 -88 0
-27 -81 0
-27 -70 0
-27 -67 0
-27 -64 0
-27 -63 0
-27 -46 0
-27 -41 0
-27 -37 0
-26 -127 0
-26 -126 0
-26 -120 0
-26 -110 0
-26 -105 0
-26 -96 0
-26 -95 0
-26 -93 0
-26 -90 0
-26 -88 0
-26 -69 0
-26 -66 0
-26 -65 0
-26 -57 0
-26 -52 0
-26 -36 0
-26 -32 0
-26 -28 0
-25 -128 0
-25 -116 0
-25 -101 0
-25 -100 0
-25 -98 0
-25 -94 0
-25 -92 0
-25 -87 0
-25 -76 0
-25 -75 0
-25 -71 0
-25 -52 0
-25 -45 0
-25 -43 0
-25 -38 0
-25 -36 0
-24 -131 0
-24 -124 0
-24 -123 0
-24 -122 0
-24 -111 0
-24 -87 0
-24 -79 0
-24 -74 0
-24 -70 0
-24 -66 0
-24 -59 0
-24 -53 0
-24 -49 0
-24 -48 0
-24 -44 0
-23 -128 0
-23 -124 0
-23 -119 0
-23 -115 0
-23 -106 0
-23 -105 0
-23 -100 0
-23 -99 0
-23 -98 0
-23 -97 0
-23 -92 0
-23 -91 0
-23 -87 0
-23 -52 0
-23 -45 0
-23 -42 0
-23 -33 0
-23 -25 0
-22 -124 0
-22 -123 0
-22 -122 0
-22 -116 0
-22 -111 0
-22 -101 0
-22 -94 0
-22 -76 0
-22 -75 0
-22 -74 0
-22 -71 0
-22 -70 0
-22 -66 0
-22 -59 0
-22 -43 0
-22 -38 0
-22 -36 0
-22 -25 0
-22 -24 0
-21 -131 0
-21 -130 0
-21 -115 0
-21 -96 0
-21 -87 0
-21 -82 0
-21 -79 0
-21 -63 0
-21 -53 0
-21 -49 0
-21 -48 0
-21 -44 0
-21 -43 0
-21 -39 0
-21 -29 0
-21 -24 0
-20 -132 0
-20 -129 0
-20 -114 0
-20 -109 0
-20 -103 0
-20 -100 0
-20 -93 0
-20 -83 0
-20 -79 0
-20 -73 0
-20 -70 0
-20 -63 0
-20 -54 0
-20 -42 0
-20 -41 0
-20 -31 0
-20 -27 0
-19 -129 0
-19 -116 0
-19 -101 0
-19 -94 0
-19 -83 0
-19 -79 0
-19 -76 0
-19 -75 0
-19 -73 0
-19 -71 0
-19 -54 0
-19 -43 0
-19 -42 0
-19 -38 0
-19 -36 0
-19 -31 0
-19 -25 0
-19 -22 0
-19 -20 0
-18 -123 0
-18 -119 0
-18 -118 0
-18 -113 0
-18 -104 0
-18 -92 0
-18 -89 0
-18 -82 0
-18 -78 0
-18 -76 0
-18 -68 0
-18 -67 0
-18 -62 0
-18 -58 0
-18 -57 0
-18 -53 0
-18 -50 0
-18 -47 0
-18 -32 0
-17 -128 0
-17 -125 0
-17 -112 0
-17 -100 0
-17 -98 0
-17 -92 0
-17 -87 0
-17 -84 0
-17 -77 0
-17 -60 0
-17 -52 0
-17 -51 0
-17 -50 0
-17 -45 0
-17 -31 0
-17 -25 0
-17 -23 0
-16 -124 0
-16 -119 0
-16 -117 0
-16 -115 0
-16 -108 0
-16 -106 0
-16 -105 0
-16 -103 0
-16 -99 0
-16 -97 0
-16 -91 0
-16 -84 0
-16 -75 0
-16 -65 0
-16 -61 0
-16 -47 0
-16 -42 0
-16 -33 0
-16 -23 0
-15 -131 0
-15 -117 0
-15 -108 0
-15 -103 0
-15 -87 0
-15 -84 0
-15 -79 0
-15 -75 0
-15 -65 0
-15 -61 0
-15 -53 0
-15 -49 0
-15 -48 0
-15 -47 0
-15 -44 0
-15 -24 0
-15 -21 0
-15 -16 0
-14 -130 0
-14 -128 0
-14 -122 0
-14 -104 0
-14 -100 0
-14 -98 0
-14 -92 0
-14 -90 0
-14 -87 0
-14 -73 0
-14 -72 0
-14 -61 0
-14 -55 0
-14 -52 0
-14 -46 0
-14 -45 0
-14 -40 0
-14 -25 0
-14 -23 0
-14 -17 0
-13 -120 0
-13 -117 0
-13 -108 0
-13 -103 0
-13 -98 0
-13 -85 0
-13 -84 0
-13 -83 0
-13 -75 0
-13 -74 0
-13 -65 0
-13 -62 0
-13 -61 0
-13 -47 0
-13 -37 0
-13 -35 0
-13 -16 0
-13 -15 0
-12 -129 0
-12 -123 0
-12 -113 0
-12 -92 0
-12 -89 0
-12 -83 0
-12 -82 0
-12 -79 0
-12 -73 0
-12 -68 0
-12 -67 0
-12 -58 0
-12 -54 0
-12 -47 0
-12 -42 0
-12 -32 0
-12 -31 0
-12 -20 0
-12 -19 0
-12 -18 0
-11 -125 0
-11 -120 0
-11 -112 0
-11 -110 0
-11 -105 0
-11 -93 0
-11 -90 0
-11 -84 0
-11 -77 0
-11 -60 0
-11 -51 0
-11 -50 0
-11 -36 0
-11 -32 0
-11 -31 0
-11 -28 0
-11 -26 0
-11 -17 0
-10 -132 0
-10 -121 0
-10 -120 0
-10 -99 0
-10 -98 0
-10 -95 0
-10 -89 0
-10 -85 0
-10 -83 0
-10 -74 0
-10 -71 0
-10 -62 0
-10 -60 0
-10 -56 0
-10 -44 0
-10 -40 0
-10 -37 0
-10 -35 0
-10 -13 0
-9 -125 0
-9 -124 0
-9 -123 0
-9 -122 0
-9 -112 0
-9 -111 0
-9 -84 0
-9 -77 0
-9 -74 0
-9 -70 0
-9 -66 0
-9 -60 0
-9 -59 0
-9 -51 0
-9 -50 0
-9 -31 0
-9 -24 0
-9 -22 0
-9 -17 0
-9 -11 0
-8 -126 0
-8 -120 0
-8 -98 0
-8 -91 0
-8 -86 0
-8 -85 0
-8 -83 0
-8 -80 0
-8 -74 0
-8 -62 0
-8 -58 0
-8 -51 0
-8 -48 0
-8 -41 0
-8 -38 0
-8 -37 0
-8 -35 0
-8 -13 0
-8 -10 0
-7 -130 0
-7 -125 0
-7 -115 0
-7 -112 0
-7 -96 0
-7 -84 0
-7 -82 0
-7 -77 0
-7 -63 0
-7 -60 0
-7 -51 0
-7 -50 0
-7 -43 0
-7 -39 0
-7 -31 0
-7 -29 0
-7 -21 0
-7 -17 0
-7 -11 0
-7 -9 0
-6 -131 0
-6 -114 0
-6 -102 0
-6 -94 0
-6 -87 0
-6 -85 0
-6 -79 0
-6 -77 0
-6 -72 0
-6 -69 0
-6 -68 0
-6 -53 0
-6 -49 0
-6 -48 0
-6 -44 0
-6 -33 0
-6 -30 0
-6 -24 0
-6 -21 0
-6 -15 0
-5 -132 0
-5 -119 0
-5 -118 0
-5 -114 0
-5 -109 0
-5 -104 0
-5 -103 0
-5 -100 0
-5 -93 0
-5 -78 0
-5 -76 0
-5 -70 0
-5 -63 0
-5 -62 0
-5 -57 0
-5 -53 0
-5 -50 0
-5 -41 0
-5 -27 0
-5 -20 0
-5 -18 0
-4 -129 0
-4 -127 0
-4 -126 0
-4 -96 0
-4 -95 0
-4 -88 0
-4 -83 0
-4 -79 0
-4 -73 0
-4 -69 0
-4 -66 0
-4 -65 0
-4 -57 0
-4 -54 0
-4 -52 0
-4 -42 0
-4 -31 0
-4 -26 0
-4 -20 0
-4 -19 0
-4 -12 0
-3 -131 0
-3 -120 0
-3 -110 0
-3 -105 0
-3 -93 0
-3 -90 0
-3 -87 0
-3 -79 0
-3 -53 0
-3 -49 0
-3 -48 0
-3 -44 0
-3 -36 0
-3 -32 0
-3 -28 0
-3 -26 0
-3 -24 0
-3 -21 0
-3 -15 0
-3 -11 0
-3 -6 0
-2 -130 0
-2 -120 0
-2 -115 0
-2 -98 0
-2 -96 0
-2 -85 0
-2 -83 0
-2 -82 0
-2 -74 0
-2 -63 0
-2 -62 0
-2 -43 0
-2 -39 0
-2 -37 0
-2 -35 0
-2 -29 0
-2 -21 0
-2 -13 0
-2 -10 0
-2 -8 0
-2 -7 0
-1 -130 0
-1 -126 0
-1 -122 0
-1 -104 0
-1 -91 0
-1 -90 0
-1 -86 0
-1 -80 0
-1 -73 0
-1 -72 0
-1 -61 0
-1 -58 0
-1 -55 0
-1 -51 0
-1 -48 0
-1 -46 0
-1 -41 0
-1 -40 0
-1 -38 0
-1 -14 0
-1 -8 0
1 8 38 41 48 51 58 80 86 91 126 0
2 7 21 29 39 43 63 82 96 115 130 0
3 11 26 28 32 36 90 93 105 110 120 0
4 12 19 20 31 42 54 73 79 83 129 0
5 18 50 53 57 62 76 78 104 118 119 0
6 30 33 68 69 72 77 85 94 102 114 0
9 22 24 59 66 70 74 111 122 123 124 0
10 40 44 56 60 71 89 95 99 121 132 0
13 15 16 47 61 65 75 84 103 108 117 0
14 17 23 25 45 52 87 92 98 100 128 0
27 37 46 64 67 81 88 97 101 112 131 0
34 35 49 55 106 107 109 113 116 125 127 0
