p cnf 72 549
-67 -71 0
-66 -68 0
-65 -66 0
-64 -71 0
-64 -67 0
-63 -68 0
-63 -66 0
-62 -64 0
-62 -63 0
-61 -70 0
-61 -65 0
-60 -67 0
-59 -72 0
-59 -71 0
-59 -67 0
-59 -64 0
-58 -66 0
-58 -65 0
-58 -64 0
-58 -62 0
-57 -72 0
-57 -70 0
-56 -72 0
-56 -70 0
-56 -61 0
-56 -59 0
-55 -72 0
-55 -64 0
-55 -62 0
-55 -58 0
-55 -57 0
-54 -69 0
-54 -63 0
-54 -62 0
-53 -69 0
-53 -66 0
-53 -65 0
-53 -58 0
-53 -54 0
-52 -70 0
-52 -61 0
-52 -56 0
-51 -72 0
-51 -66 0
-51 -65 0
-51 -59 0
-51 -58 0
-51 -56 0
-51 -53 0
-50 -70 0
-50 -69 0
-50 -57 0
-49 -72 0
-49 -57 0
-49 -55 0
-49 -52 0
-48 -72 0
-48 -71 0
-48 -57 0
-48 -55 0
-48 -49 0
-47 -70 0
-47 -68 0
-47 -66 0
-47 -63 0
-47 -61 0
-47 -56 0
-47 -52 0
-46 -71 0
-46 -70 0
-46 -61 0
-46 -56 0
-46 -52 0
-46 -48 0
-46 -47 0
-45 -70 0
-45 -68 0
-45 -57 0
-45 -50 0
-44 -65 0
-44 -63 0
-44 -62 0
-44 -61 0
-44 -54 0
-43 -72 0
-43 -68 0
-43 -66 0
-43 -63 0
-43 -57 0
-43 -55 0
-43 -49 0
-43 -48 0
-43 -47 0
-42 -60 0
-42 -52 0
-42 -49 0
-41 -70 0
-41 -63 0
-41 -62 0
-41 -57 0
-41 -54 0
-41 -50 0
-41 -45 0
-41 -44 0
-40 -68 0
-40 -65 0
-40 -61 0
-40 -45 0
-40 -44 0
-39 -72 0
-39 -69 0
-39 -59 0
-39 -56 0
-39 -51 0
-39 -50 0
-38 -69 0
-38 -65 0
-38 -61 0
-38 -50 0
-38 -44 0
-38 -40 0
-38 -39 0
-37 -71 0
-37 -67 0
-37 -64 0
-37 -59 0
-37 -52 0
-37 -49 0
-37 -42 0
-36 -71 0
-36 -66 0
-36 -65 0
-36 -58 0
-36 -53 0
-36 -51 0
-36 -48 0
-36 -46 0
-35 -71 0
-35 -69 0
-35 -67 0
-35 -64 0
-35 -59 0
-35 -54 0
-35 -53 0
-35 -37 0
-34 -68 0
-34 -52 0
-34 -49 0
-34 -45 0
-34 -42 0
-34 -40 0
-34 -37 0
-33 -67 0
-33 -66 0
-33 -65 0
-33 -60 0
-33 -58 0
-33 -53 0
-33 -51 0
-33 -36 0
-32 -72 0
-32 -67 0
-32 -60 0
-32 -57 0
-32 -55 0
-32 -49 0
-32 -48 0
-32 -43 0
-32 -33 0
-31 -71 0
-31 -68 0
-31 -48 0
-31 -46 0
-31 -45 0
-31 -40 0
-31 -36 0
-31 -34 0
-30 -72 0
-30 -69 0
-30 -57 0
-30 -55 0
-30 -54 0
-30 -53 0
-30 -49 0
-30 -48 0
-30 -43 0
-30 -35 0
-30 -32 0
-29 -72 0
-29 -60 0
-29 -59 0
-29 -56 0
-29 -51 0
-29 -42 0
-29 -39 0
-28 -64 0
-28 -62 0
-28 -60 0
-28 -58 0
-28 -55 0
-28 -42 0
-28 -29 0
-27 -69 0
-27 -68 0
-27 -66 0
-27 -63 0
-27 -50 0
-27 -47 0
-27 -43 0
-27 -39 0
-27 -38 0
-26 -65 0
-26 -61 0
-26 -60 0
-26 -44 0
-26 -42 0
-26 -40 0
-26 -38 0
-26 -29 0
-26 -28 0
-25 -68 0
-25 -66 0
-25 -63 0
-25 -60 0
-25 -47 0
-25 -43 0
-25 -42 0
-25 -29 0
-25 -28 0
-25 -27 0
-25 -26 0
-24 -71 0
-24 -70 0
-24 -67 0
-24 -64 0
-24 -59 0
-24 -57 0
-24 -50 0
-24 -45 0
-24 -41 0
-24 -37 0
-24 -35 0
-23 -66 0
-23 -65 0
-23 -58 0
-23 -53 0
-23 -52 0
-23 -51 0
-23 -49 0
-23 -42 0
-23 -37 0
-23 -36 0
-23 -34 0
-23 -33 0
-22 -71 0
-22 -63 0
-22 -62 0
-22 -54 0
-22 -48 0
-22 -46 0
-22 -44 0
-22 -41 0
-22 -36 0
-22 -31 0
-21 -69 0
-21 -60 0
-21 -54 0
-21 -53 0
-21 -42 0
-21 -35 0
-21 -30 0
-21 -29 0
-21 -28 0
-21 -26 0
-21 -25 0
-20 -67 0
-20 -63 0
-20 -62 0
-20 -60 0
-20 -54 0
-20 -44 0
-20 -41 0
-20 -33 0
-20 -32 0
-20 -22 0
-19 -63 0
-19 -62 0
-19 -54 0
-19 -52 0
-19 -49 0
-19 -44 0
-19 -42 0
-19 -41 0
-19 -37 0
-19 -34 0
-19 -23 0
-19 -22 0
-19 -20 0
-18 -70 0
-18 -60 0
-18 -57 0
-18 -50 0
-18 -45 0
-18 -42 0
-18 -41 0
-18 -29 0
-18 -28 0
-18 -26 0
-18 -25 0
-18 -24 0
-18 -21 0
-17 -70 0
-17 -64 0
-17 -62 0
-17 -61 0
-17 -58 0
-17 -56 0
-17 -55 0
-17 -52 0
-17 -47 0
-17 -46 0
-17 -28 0
-16 -69 0
-16 -52 0
-16 -50 0
-16 -49 0
-16 -42 0
-16 -39 0
-16 -38 0
-16 -37 0
-16 -34 0
-16 -27 0
-16 -23 0
-16 -19 0
-15 -69 0
-15 -64 0
-15 -62 0
-15 -58 0
-15 -55 0
-15 -50 0
-15 -39 0
-15 -38 0
-15 -28 0
-15 -27 0
-15 -17 0
-15 -16 0
-14 -70 0
-14 -69 0
-14 -61 0
-14 -56 0
-14 -54 0
-14 -53 0
-14 -52 0
-14 -47 0
-14 -46 0
-14 -35 0
-14 -30 0
-14 -21 0
-14 -17 0
-13 -71 0
-13 -69 0
-13 -50 0
-13 -48 0
-13 -46 0
-13 -39 0
-13 -38 0
-13 -36 0
-13 -31 0
-13 -27 0
-13 -22 0
-13 -16 0
-13 -15 0
-12 -69 0
-12 -68 0
-12 -54 0
-12 -53 0
-12 -45 0
-12 -40 0
-12 -35 0
-12 -34 0
-12 -31 0
-12 -30 0
-12 -21 0
-12 -14 0
-11 -71 0
-11 -68 0
-11 -67 0
-11 -66 0
-11 -64 0
-11 -63 0
-11 -59 0
-11 -47 0
-11 -43 0
-11 -37 0
-11 -35 0
-11 -27 0
-11 -25 0
-11 -24 0
-10 -68 0
-10 -67 0
-10 -60 0
-10 -45 0
-10 -40 0
-10 -34 0
-10 -33 0
-10 -32 0
-10 -31 0
-10 -20 0
-10 -12 0
-9 -72 0
-9 -65 0
-9 -61 0
-9 -57 0
-9 -55 0
-9 -49 0
-9 -48 0
-9 -44 0
-9 -43 0
-9 -40 0
-9 -38 0
-9 -32 0
-9 -30 0
-9 -26 0
-8 -71 0
-8 -67 0
-8 -65 0
-8 -64 0
-8 -61 0
-8 -59 0
-8 -44 0
-8 -40 0
-8 -38 0
-8 -37 0
-8 -35 0
-8 -26 0
-8 -24 0
-8 -11 0
-8 -9 0
-7 -72 0
-7 -68 0
-7 -59 0
-7 -56 0
-7 -51 0
-7 -45 0
-7 -40 0
-7 -39 0
-7 -34 0
-7 -31 0
-7 -29 0
-7 -12 0
-7 -10 0
-6 -71 0
-6 -60 0
-6 -48 0
-6 -46 0
-6 -42 0
-6 -36 0
-6 -31 0
-6 -29 0
-6 -28 0
-6 -26 0
-6 -25 0
-6 -22 0
-6 -21 0
-6 -18 0
-6 -13 0
-5 -72 0
-5 -63 0
-5 -62 0
-5 -59 0
-5 -56 0
-5 -54 0
-5 -51 0
-5 -44 0
-5 -41 0
-5 -39 0
-5 -29 0
-5 -22 0
-5 -20 0
-5 -19 0
-5 -7 0
-4 -68 0
-4 -64 0
-4 -62 0
-4 -58 0
-4 -55 0
-4 -45 0
-4 -40 0
-4 -34 0
-4 -31 0
-4 -28 0
-4 -17 0
-4 -15 0
-4 -12 0
-4 -10 0
-4 -7 0
-3 -70 0
-3 -67 0
-3 -61 0
-3 -60 0
-3 -56 0
-3 -52 0
-3 -47 0
-3 -46 0
-3 -33 0
-3 -32 0
-3 -20 0
-3 -17 0
-3 -14 0
-3 -10 0
-2 -70 0
-2 -66 0
-2 -65 0
-2 -58 0
-2 -57 0
-2 -53 0
-2 -51 0
-2 -50 0
-2 -45 0
-2 -41 0
-2 -36 0
-2 -33 0
-2 -24 0
-2 -23 0
-2 -18 0
-1 -69 0
-1 -67 0
-1 -60 0
-1 -50 0
-1 -39 0
-1 -38 0
-1 -33 0
-1 -32 0
-1 -27 0
-1 -20 0
-1 -16 0
-1 -15 0
-1 -13 0
-1 -10 0
-1 -3 0
1 3 10 20 32 33 60 67 0
2 18 24 41 45 50 57 70 0
4 15 17 28 55 58 62 64 0
5 7 29 39 51 56 59 72 0
6 13 22 31 36 46 48 71 0
8 9 26 38 40 44 61 65 0
11 25 27 43 47 63 66 68 0
12 14 21 30 35 53 54 69 0
16 19 23 34 37 42 49 52 0
