p cnf 110 1056
-107 -109 0
-107 -108 0
-106 -109 0
-106 -107 0
-105 -108 0
-105 -107 0
-103 -109 0
-103 -108 0
-102 -110 0
-101 -106 0
-100 -105 0
-99 -108 0
-99 -103 0
-97 -105 0
-97 -100 0
-97 -98 0
-96 -109 0
-96 -107 0
-96 -106 0
-96 -100 0
-95 -102 0
-95 -99 0
-94 -110 0
-94 -104 0
-94 -102 0
-93 -110 0
-93 -108 0
-93 -107 0
-93 -105 0
-91 -108 0
-91 -103 0
-91 -100 0
-91 -99 0
-91 -96 0
-90 -101 0
-90 -99 0
-90 -95 0
-89 -110 0
-89 -100 0
-89 -96 0
-89 -93 0
-89 -91 0
-88 -104 0
-88 -92 0
-87 -105 0
-87 -100 0
-87 -99 0
-87 -97 0
-87 -95 0
-87 -90 0
-86 -105 0
-86 -100 0
-86 -97 0
-86 -87 0
-85 -105 0
-85 -104 0
-85 -100 0
-85 -97 0
-85 -88 0
-85 -87 0
-85 -86 0
-84 -106 0
-84 -104 0
-84 -101 0
-84 -94 0
-83 -110 0
-83 -108 0
-83 -103 0
-83 -102 0
-83 -99 0
-83 -94 0
-83 -91 0
-82 -110 0
-82 -99 0
-82 -95 0
-82 -93 0
-82 -90 0
-82 -89 0
-82 -87 0
-81 -104 0
-81 -101 0
-81 -90 0
-81 -88 0
-81 -85 0
-80 -104 0
-80 -94 0
-80 -92 0
-80 -84 0
-79 -99 0
-79 -95 0
-79 -90 0
-79 -87 0
-79 -82 0
-78 -108 0
-78 -107 0
-78 -105 0
-78 -93 0
-78 -79 0
-77 -109 0
-77 -103 0
-77 -92 0
-77 -88 0
-76 -104 0
-76 -98 0
-76 -97 0
-76 -94 0
-76 -84 0
-76 -80 0
-75 -110 0
-75 -109 0
-75 -103 0
-75 -93 0
-75 -89 0
-75 -82 0
-75 -77 0
-74 -110 0
-74 -98 0
-74 -97 0
-74 -93 0
-74 -89 0
-74 -82 0
-74 -76 0
-74 -75 0
-73 -110 0
-73 -102 0
-73 -98 0
-73 -94 0
-73 -83 0
-72 -110 0
-72 -93 0
-72 -89 0
-72 -86 0
-72 -82 0
-72 -75 0
-72 -74 0
-71 -108 0
-71 -103 0
-71 -99 0
-71 -92 0
-71 -91 0
-71 -83 0
-71 -80 0
-70 -109 0
-70 -103 0
-70 -79 0
-70 -78 0
-70 -77 0
-70 -75 0
-69 -92 0
-69 -88 0
-69 -86 0
-69 -77 0
-69 -72 0
-68 -108 0
-68 -103 0
-68 -99 0
-68 -91 0
-68 -86 0
-68 -83 0
-68 -72 0
-68 -71 0
-68 -69 0
-67 -110 0
-67 -102 0
-67 -94 0
-67 -83 0
-67 -79 0
-67 -78 0
-67 -73 0
-67 -70 0
-66 -101 0
-66 -92 0
-66 -90 0
-66 -81 0
-66 -80 0
-66 -71 0
-65 -104 0
-65 -99 0
-65 -95 0
-65 -94 0
-65 -90 0
-65 -87 0
-65 -84 0
-65 -82 0
-65 -80 0
-65 -79 0
-65 -76 0
-64 -102 0
-64 -98 0
-64 -97 0
-64 -95 0
-64 -76 0
-64 -74 0
-63 -109 0
-63 -103 0
-63 -98 0
-63 -77 0
-63 -75 0
-63 -73 0
-63 -70 0
-62 -108 0
-62 -107 0
-62 -105 0
-62 -101 0
-62 -93 0
-62 -90 0
-62 -81 0
-62 -78 0
-62 -66 0
-61 -98 0
-61 -97 0
-61 -92 0
-61 -88 0
-61 -77 0
-61 -76 0
-61 -74 0
-61 -69 0
-61 -64 0
-60 -108 0
-60 -107 0
-60 -105 0
-60 -102 0
-60 -95 0
-60 -93 0
-60 -78 0
-60 -64 0
-60 -62 0
-59 -99 0
-59 -98 0
-59 -95 0
-59 -90 0
-59 -87 0
-59 -82 0
-59 -79 0
-59 -73 0
-59 -65 0
-59 -63 0
-58 -110 0
-58 -104 0
-58 -93 0
-58 -89 0
-58 -88 0
-58 -85 0
-58 -82 0
-58 -81 0
-58 -75 0
-58 -74 0
-58 -72 0
-57 -110 0
-57 -93 0
-57 -92 0
-57 -89 0
-57 -82 0
-57 -80 0
-57 -75 0
-57 -74 0
-57 -72 0
-57 -71 0
-57 -66 0
-57 -58 0
-56 -102 0
-56 -95 0
-56 -86 0
-56 -72 0
-56 -69 0
-56 -68 0
-56 -64 0
-56 -60 0
-55 -100 0
-55 -96 0
-55 -92 0
-55 -91 0
-55 -89 0
-55 -88 0
-55 -77 0
-55 -69 0
-55 -61 0
-54 -92 0
-54 -88 0
-54 -77 0
-54 -69 0
-54 -61 0
-54 -55 0
-53 -104 0
-53 -102 0
-53 -95 0
-53 -88 0
-53 -85 0
-53 -81 0
-53 -64 0
-53 -60 0
-53 -58 0
-53 -56 0
-52 -110 0
-52 -102 0
-52 -101 0
-52 -94 0
-52 -90 0
-52 -83 0
-52 -81 0
-52 -73 0
-52 -67 0
-52 -66 0
-52 -62 0
-51 -108 0
-51 -103 0
-51 -99 0
-51 -98 0
-51 -97 0
-51 -91 0
-51 -83 0
-51 -76 0
-51 -74 0
-51 -71 0
-51 -68 0
-51 -64 0
-51 -61 0
-50 -109 0
-50 -107 0
-50 -106 0
-50 -96 0
-50 -92 0
-50 -80 0
-50 -71 0
-50 -66 0
-50 -57 0
-49 -102 0
-49 -100 0
-49 -96 0
-49 -95 0
-49 -91 0
-49 -89 0
-49 -64 0
-49 -60 0
-49 -56 0
-49 -55 0
-49 -53 0
-48 -106 0
-48 -105 0
-48 -101 0
-48 -100 0
-48 -97 0
-48 -87 0
-48 -86 0
-48 -85 0
-48 -84 0
-47 -98 0
-47 -73 0
-47 -63 0
-47 -59 0
-47 -54 0
-46 -92 0
-46 -80 0
-46 -79 0
-46 -78 0
-46 -71 0
-46 -70 0
-46 -67 0
-46 -66 0
-46 -57 0
-46 -50 0
-45 -108 0
-45 -103 0
-45 -99 0
-45 -91 0
-45 -83 0
-45 -71 0
-45 -68 0
-45 -54 0
-45 -51 0
-45 -47 0
-44 -102 0
-44 -95 0
-44 -92 0
-44 -80 0
-44 -71 0
-44 -66 0
-44 -64 0
-44 -60 0
-44 -57 0
-44 -56 0
-44 -53 0
-44 -50 0
-44 -49 0
-44 -46 0
-43 -98 0
-43 -86 0
-43 -73 0
-43 -72 0
-43 -69 0
-43 -68 0
-43 -63 0
-43 -59 0
-43 -56 0
-43 -47 0
-42 -109 0
-42 -104 0
-42 -103 0
-42 -94 0
-42 -84 0
-42 -80 0
-42 -77 0
-42 -76 0
-42 -75 0
-42 -70 0
-42 -65 0
-42 -63 0
-41 -109 0
-41 -103 0
-41 -101 0
-41 -90 0
-41 -81 0
-41 -77 0
-41 -75 0
-41 -70 0
-41 -66 0
-41 -63 0
-41 -62 0
-41 -52 0
-41 -42 0
-40 -98 0
-40 -92 0
-40 -80 0
-40 -73 0
-40 -71 0
-40 -66 0
-40 -63 0
-40 -59 0
-40 -57 0
-40 -50 0
-40 -47 0
-40 -46 0
-40 -44 0
-40 -43 0
-39 -98 0
-39 -97 0
-39 -79 0
-39 -78 0
-39 -76 0
-39 -74 0
-39 -70 0
-39 -67 0
-39 -64 0
-39 -61 0
-39 -51 0
-39 -46 0
-38 -101 0
-38 -90 0
-38 -86 0
-38 -81 0
-38 -72 0
-38 -69 0
-38 -68 0
-38 -66 0
-38 -62 0
-38 -56 0
-38 -52 0
-38 -43 0
-38 -41 0
-37 -101 0
-37 -98 0
-37 -97 0
-37 -90 0
-37 -81 0
-37 -76 0
-37 -74 0
-37 -66 0
-37 -64 0
-37 -62 0
-37 -61 0
-37 -52 0
-37 -51 0
-37 -41 0
-37 -39 0
-37 -38 0
-36 -109 0
-36 -107 0
-36 -106 0
-36 -99 0
-36 -96 0
-36 -95 0
-36 -90 0
-36 -87 0
-36 -82 0
-36 -79 0
-36 -65 0
-36 -59 0
-36 -50 0
-35 -109 0
-35 -107 0
-35 -106 0
-35 -96 0
-35 -54 0
-35 -50 0
-35 -47 0
-35 -45 0
-35 -36 0
-34 -100 0
-34 -96 0
-34 -91 0
-34 -89 0
-34 -79 0
-34 -78 0
-34 -70 0
-34 -67 0
-34 -55 0
-34 -49 0
-34 -46 0
-34 -39 0
-33 -101 0
-33 -90 0
-33 -81 0
-33 -66 0
-33 -62 0
-33 -54 0
-33 -52 0
-33 -47 0
-33 -45 0
-33 -41 0
-33 -38 0
-33 -37 0
-33 -35 0
-32 -106 0
-32 -101 0
-32 -98 0
-32 -84 0
-32 -73 0
-32 -63 0
-32 -59 0
-32 -48 0
-32 -47 0
-32 -43 0
-32 -40 0
-31 -99 0
-31 -95 0
-31 -92 0
-31 -90 0
-31 -88 0
-31 -87 0
-31 -82 0
-31 -79 0
-31 -77 0
-31 -69 0
-31 -65 0
-31 -61 0
-31 -59 0
-31 -55 0
-31 -54 0
-31 -36 0
-30 -108 0
-30 -104 0
-30 -103 0
-30 -99 0
-30 -91 0
-30 -88 0
-30 -85 0
-30 -83 0
-30 -81 0
-30 -71 0
-30 -68 0
-30 -58 0
-30 -53 0
-30 -51 0
-30 -45 0
-29 -110 0
-29 -105 0
-29 -102 0
-29 -100 0
-29 -97 0
-29 -94 0
-29 -87 0
-29 -86 0
-29 -85 0
-29 -83 0
-29 -73 0
-29 -67 0
-29 -52 0
-29 -48 0
-28 -108 0
-28 -107 0
-28 -105 0
-28 -93 0
-28 -92 0
-28 -88 0
-28 -78 0
-28 -77 0
-28 -69 0
-28 -62 0
-28 -61 0
-28 -60 0
-28 -55 0
-28 -54 0
-28 -31 0
-27 -104 0
-27 -94 0
-27 -86 0
-27 -84 0
-27 -80 0
-27 -76 0
-27 -72 0
-27 -69 0
-27 -68 0
-27 -65 0
-27 -56 0
-27 -43 0
-27 -42 0
-27 -38 0
-26 -104 0
-26 -98 0
-26 -88 0
-26 -85 0
-26 -81 0
-26 -73 0
-26 -63 0
-26 -59 0
-26 -58 0
-26 -53 0
-26 -47 0
-26 -43 0
-26 -40 0
-26 -32 0
-26 -30 0
-25 -110 0
-25 -109 0
-25 -107 0
-25 -106 0
-25 -102 0
-25 -96 0
-25 -94 0
-25 -83 0
-25 -73 0
-25 -67 0
-25 -52 0
-25 -50 0
-25 -36 0
-25 -35 0
-25 -29 0
-24 -104 0
-24 -94 0
-24 -84 0
-24 -80 0
-24 -76 0
-24 -65 0
-24 -54 0
-24 -47 0
-24 -45 0
-24 -42 0
-24 -35 0
-24 -33 0
-24 -27 0
-23 -104 0
-23 -100 0
-23 -96 0
-23 -94 0
-23 -91 0
-23 -89 0
-23 -84 0
-23 -80 0
-23 -76 0
-23 -65 0
-23 -55 0
-23 -49 0
-23 -42 0
-23 -34 0
-23 -27 0
-23 -24 0
-22 -109 0
-22 -107 0
-22 -106 0
-22 -98 0
-22 -97 0
-22 -96 0
-22 -76 0
-22 -74 0
-22 -64 0
-22 -61 0
-22 -51 0
-22 -50 0
-22 -39 0
-22 -37 0
-22 -36 0
-22 -35 0
-22 -25 0
-21 -106 0
-21 -101 0
-21 -84 0
-21 -79 0
-21 -78 0
-21 -70 0
-21 -67 0
-21 -48 0
-21 -46 0
-21 -39 0
-21 -34 0
-21 -32 0
-20 -106 0
-20 -101 0
-20 -92 0
-20 -88 0
-20 -84 0
-20 -77 0
-20 -69 0
-20 -61 0
-20 -55 0
-20 -54 0
-20 -48 0
-20 -32 0
-20 -31 0
-20 -28 0
-20 -21 0
-19 -109 0
-19 -107 0
-19 -106 0
-19 -104 0
-19 -96 0
-19 -88 0
-19 -85 0
-19 -81 0
-19 -58 0
-19 -53 0
-19 -50 0
-19 -36 0
-19 -35 0
-19 -30 0
-19 -26 0
-19 -25 0
-19 -22 0
-18 -106 0
-18 -102 0
-18 -101 0
-18 -95 0
-18 -84 0
-18 -64 0
-18 -60 0
-18 -56 0
-18 -53 0
-18 -49 0
-18 -48 0
-18 -44 0
-18 -32 0
-18 -21 0
-18 -20 0
-17 -110 0
-17 -106 0
-17 -101 0
-17 -93 0
-17 -89 0
-17 -84 0
-17 -82 0
-17 -75 0
-17 -74 0
-17 -72 0
-17 -58 0
-17 -57 0
-17 -48 0
-17 -32 0
-17 -21 0
-17 -20 0
-17 -18 0
-16 -110 0
-16 -93 0
-16 -89 0
-16 -82 0
-16 -75 0
-16 -74 0
-16 -72 0
-16 -58 0
-16 -57 0
-16 -54 0
-16 -47 0
-16 -45 0
-16 -35 0
-16 -33 0
-16 -24 0
-16 -17 0
-15 -108 0
-15 -107 0
-15 -105 0
-15 -98 0
-15 -93 0
-15 -78 0
-15 -73 0
-15 -63 0
-15 -62 0
-15 -60 0
-15 -59 0
-15 -47 0
-15 -43 0
-15 -40 0
-15 -32 0
-15 -28 0
-15 -26 0
-14 -86 0
-14 -79 0
-14 -78 0
-14 -72 0
-14 -70 0
-14 -69 0
-14 -68 0
-14 -67 0
-14 -56 0
-14 -46 0
-14 -43 0
-14 -39 0
-14 -38 0
-14 -34 0
-14 -27 0
-14 -21 0
-13 -100 0
-13 -98 0
-13 -96 0
-13 -91 0
-13 -89 0
-13 -73 0
-13 -63 0
-13 -59 0
-13 -55 0
-13 -49 0
-13 -47 0
-13 -43 0
-13 -40 0
-13 -34 0
-13 -32 0
-13 -26 0
-13 -23 0
-13 -15 0
-12 -79 0
-12 -78 0
-12 -70 0
-12 -67 0
-12 -54 0
-12 -47 0
-12 -46 0
-12 -45 0
-12 -39 0
-12 -35 0
-12 -34 0
-12 -33 0
-12 -24 0
-12 -21 0
-12 -16 0
-12 -14 0
-11 -104 0
-11 -88 0
-11 -85 0
-11 -81 0
-11 -79 0
-11 -78 0
-11 -70 0
-11 -67 0
-11 -58 0
-11 -53 0
-11 -46 0
-11 -39 0
-11 -34 0
-11 -30 0
-11 -26 0
-11 -21 0
-11 -19 0
-11 -14 0
-11 -12 0
-10 -101 0
-10 -100 0
-10 -96 0
-10 -91 0
-10 -90 0
-10 -89 0
-10 -81 0
-10 -66 0
-10 -62 0
-10 -55 0
-10 -52 0
-10 -49 0
-10 -41 0
-10 -38 0
-10 -37 0
-10 -34 0
-10 -33 0
-10 -23 0
-10 -13 0
-9 -105 0
-9 -100 0
-9 -97 0
-9 -87 0
-9 -86 0
-9 -85 0
-9 -54 0
-9 -48 0
-9 -47 0
-9 -45 0
-9 -35 0
-9 -33 0
-9 -29 0
-9 -24 0
-9 -16 0
-9 -12 0
-8 -108 0
-8 -107 0
-8 -105 0
-8 -104 0
-8 -94 0
-8 -93 0
-8 -84 0
-8 -80 0
-8 -78 0
-8 -76 0
-8 -65 0
-8 -62 0
-8 -60 0
-8 -42 0
-8 -28 0
-8 -27 0
-8 -24 0
-8 -23 0
-8 -15 0
-7 -108 0
-7 -106 0
-7 -103 0
-7 -101 0
-7 -99 0
-7 -91 0
-7 -84 0
-7 -83 0
-7 -71 0
-7 -68 0
-7 -51 0
-7 -48 0
-7 -45 0
-7 -32 0
-7 -30 0
-7 -21 0
-7 -20 0
-7 -18 0
-7 -17 0
-6 -109 0
-6 -107 0
-6 -106 0
-6 -96 0
-6 -86 0
-6 -72 0
-6 -69 0
-6 -68 0
-6 -56 0
-6 -50 0
-6 -43 0
-6 -38 0
-6 -36 0
-6 -35 0
-6 -27 0
-6 -25 0
-6 -22 0
-6 -19 0
-6 -14 0
-5 -102 0
-5 -95 0
-5 -64 0
-5 -60 0
-5 -56 0
-5 -54 0
-5 -53 0
-5 -49 0
-5 -47 0
-5 -45 0
-5 -44 0
-5 -35 0
-5 -33 0
-5 -24 0
-5 -18 0
-5 -16 0
-5 -12 0
-5 -9 0
-4 -109 0
-4 -105 0
-4 -103 0
-4 -100 0
-4 -97 0
-4 -87 0
-4 -86 0
-4 -85 0
-4 -77 0
-4 -75 0
-4 -70 0
-4 -63 0
-4 -48 0
-4 -42 0
-4 -41 0
-4 -29 0
-4 -9 0
-3 -110 0
-3 -102 0
-3 -94 0
-3 -92 0
-3 -88 0
-3 -83 0
-3 -77 0
-3 -73 0
-3 -69 0
-3 -67 0
-3 -61 0
-3 -55 0
-3 -54 0
-3 -52 0
-3 -31 0
-3 -29 0
-3 -28 0
-3 -25 0
-3 -20 0
-2 -105 0
-2 -100 0
-2 -97 0
-2 -92 0
-2 -87 0
-2 -86 0
-2 -85 0
-2 -80 0
-2 -71 0
-2 -66 0
-2 -57 0
-2 -50 0
-2 -48 0
-2 -46 0
-2 -44 0
-2 -40 0
-2 -29 0
-2 -9 0
-2 -4 0
-1 -109 0
-1 -103 0
-1 -102 0
-1 -95 0
-1 -77 0
-1 -75 0
-1 -70 0
-1 -64 0
-1 -63 0
-1 -60 0
-1 -56 0
-1 -53 0
-1 -49 0
-1 -44 0
-1 -42 0
-1 -41 0
-1 -18 0
-1 -5 0
-1 -4 0
1 4 41 42 63 70 75 77 103 109 0
2 40 44 46 50 57 66 71 80 92 0
3 25 29 52 67 73 83 94 102 110 0
5 9 12 16 24 33 35 45 47 54 0
6 14 27 38 43 56 68 69 72 86 0
7 17 18 20 21 32 48 84 101 106 0
8 15 28 60 62 78 93 105 107 108 0
10 13 23 34 49 55 89 91 96 100 0
11 19 26 30 53 58 81 85 88 104 0
22 37 39 51 61 64 74 76 97 98 0
31 36 59 65 79 82 87 90 95 99 0
