p cnf 30 141
-26 -29 0
-26 -27 0
-25 -30 0
-24 -30 0
-24 -28 0
-23 -29 0
-23 -28 0
-23 -26 0
-23 -24 0
-22 -27 0
-22 -26 0
-22 -25 0
-21 -28 0
-21 -27 0
-21 -26 0
-21 -22 0
-20 -30 0
-20 -29 0
-20 -26 0
-20 -25 0
-20 -23 0
-19 -29 0
-18 -29 0
-18 -26 0
-18 -23 0
-18 -20 0
-17 -27 0
-17 -26 0
-17 -22 0
-17 -21 0
-17 -19 0
-16 -30 0
-16 -27 0
-16 -25 0
-16 -20 0
-15 -29 0
-15 -25 0
-15 -22 0
-15 -19 0
-14 -28 0
-14 -21 0
-14 -18 0
-13 -30 0
-13 -28 0
-13 -25 0
-13 -21 0
-13 -20 0
-13 -16 0
-13 -14 0
-12 -19 0
-12 -18 0
-12 -17 0
-12 -14 0
-11 -28 0
-11 -27 0
-11 -24 0
-11 -23 0
-11 -16 0
-10 -29 0
-10 -27 0
-10 -19 0
-10 -16 0
-10 -15 0
-10 -11 0
-9 -25 0
-9 -22 0
-9 -18 0
-9 -15 0
-9 -14 0
-9 -12 0
-8 -29 0
-8 -28 0
-8 -21 0
-8 -19 0
-8 -15 0
-8 -14 0
-8 -13 0
-8 -10 0
-7 -28 0
-7 -25 0
-7 -24 0
-7 -23 0
-7 -22 0
-7 -15 0
-7 -11 0
-7 -9 0
-6 -30 0
-6 -24 0
-6 -18 0
-6 -14 0
-6 -12 0
-6 -9 0
-5 -28 0
-5 -24 0
-5 -23 0
-5 -19 0
-5 -17 0
-5 -12 0
-5 -11 0
-5 -7 0
-4 -30 0
-4 -25 0
-4 -20 0
-4 -19 0
-4 -17 0
-4 -16 0
-4 -13 0
-4 -12 0
-4 -5 0
-3 -30 0
-3 -27 0
-3 -26 0
-3 -24 0
-3 -22 0
-3 -21 0
-3 -17 0
-3 -6 0
-2 -27 0
-2 -18 0
-2 -16 0
-2 -14 0
-2 -12 0
-2 -11 0
-2 -10 0
-2 -9 0
-2 -6 0
-1 -30 0
-1 -29 0
-1 -24 0
-1 -19 0
-1 -15 0
-1 -10 0
-1 -8 0
-1 -6 0
-1 -3 0
1 3 6 24 30 0
2 10 11 16 27 0
4 5 12 17 19 0
7 9 15 22 25 0
8 13 14 21 28 0
18 20 23 26 29 0
