p cnf 64 400
-63 -64 0
-62 -63 0
-60 -64 0
-60 -61 0
-59 -61 0
-58 -62 0
-57 -63 0
-57 -62 0
-56 -58 0
-56 -57 0
-55 -63 0
-55 -62 0
-55 -59 0
-55 -57 0
-53 -64 0
-53 -60 0
-53 -59 0
-53 -55 0
-52 -54 0
-50 -64 0
-50 -60 0
-50 -57 0
-50 -56 0
-50 -53 0
-49 -51 0
-47 -61 0
-47 -60 0
-47 -49 0
-46 -61 0
-46 -59 0
-46 -57 0
-46 -56 0
-46 -50 0
-45 -64 0
-45 -62 0
-45 -60 0
-45 -58 0
-45 -53 0
-45 -50 0
-44 -61 0
-44 -59 0
-44 -51 0
-44 -49 0
-44 -46 0
-43 -51 0
-43 -49 0
-43 -48 0
-43 -44 0
-42 -64 0
-42 -63 0
-42 -48 0
-42 -43 0
-41 -62 0
-41 -61 0
-41 -59 0
-41 -58 0
-41 -46 0
-41 -45 0
-41 -44 0
-40 -59 0
-40 -55 0
-40 -53 0
-40 -49 0
-40 -47 0
-39 -61 0
-39 -60 0
-39 -47 0
-38 -61 0
-38 -60 0
-38 -51 0
-38 -47 0
-38 -39 0
-37 -62 0
-37 -58 0
-37 -45 0
-37 -41 0
-37 -39 0
-36 -61 0
-36 -60 0
-36 -58 0
-36 -56 0
-36 -47 0
-36 -39 0
-36 -38 0
-35 -57 0
-35 -56 0
-35 -50 0
-35 -48 0
-35 -46 0
-35 -43 0
-35 -42 0
-34 -49 0
-34 -48 0
-34 -47 0
-34 -40 0
-33 -62 0
-33 -58 0
-33 -51 0
-33 -45 0
-33 -41 0
-33 -38 0
-33 -37 0
-32 -64 0
-32 -60 0
-32 -53 0
-32 -51 0
-32 -50 0
-32 -49 0
-32 -45 0
-32 -44 0
-32 -43 0
-31 -54 0
-31 -52 0
-30 -63 0
-30 -62 0
-30 -57 0
-30 -55 0
-30 -51 0
-30 -49 0
-30 -44 0
-30 -43 0
-30 -32 0
-29 -64 0
-29 -63 0
-29 -42 0
-29 -39 0
-29 -37 0
-28 -48 0
-28 -39 0
-28 -37 0
-28 -34 0
-28 -29 0
-27 -51 0
-27 -49 0
-27 -44 0
-27 -43 0
-27 -39 0
-27 -37 0
-27 -32 0
-27 -30 0
-27 -29 0
-27 -28 0
-26 -64 0
-26 -63 0
-26 -58 0
-26 -56 0
-26 -42 0
-26 -36 0
-26 -29 0
-25 -58 0
-25 -56 0
-25 -48 0
-25 -36 0
-25 -34 0
-25 -28 0
-25 -26 0
-24 -59 0
-24 -55 0
-24 -53 0
-24 -48 0
-24 -43 0
-24 -42 0
-24 -40 0
-24 -35 0
-23 -54 0
-23 -52 0
-23 -31 0
-22 -64 0
-22 -63 0
-22 -49 0
-22 -47 0
-22 -42 0
-22 -40 0
-22 -34 0
-22 -29 0
-22 -26 0
-21 -54 0
-21 -52 0
-21 -31 0
-21 -23 0
-20 -54 0
-20 -52 0
-20 -31 0
-20 -23 0
-20 -21 0
-19 -63 0
-19 -62 0
-19 -57 0
-19 -55 0
-19 -48 0
-19 -34 0
-19 -30 0
-19 -28 0
-19 -25 0
-18 -62 0
-18 -58 0
-18 -49 0
-18 -47 0
-18 -45 0
-18 -41 0
-18 -40 0
-18 -37 0
-18 -34 0
-18 -33 0
-18 -22 0
-17 -58 0
-17 -56 0
-17 -51 0
-17 -49 0
-17 -44 0
-17 -43 0
-17 -36 0
-17 -32 0
-17 -30 0
-17 -27 0
-17 -26 0
-17 -25 0
-16 -62 0
-16 -58 0
-16 -48 0
-16 -45 0
-16 -43 0
-16 -42 0
-16 -41 0
-16 -37 0
-16 -35 0
-16 -33 0
-16 -24 0
-16 -18 0
-15 -63 0
-15 -62 0
-15 -61 0
-15 -60 0
-15 -57 0
-15 -55 0
-15 -47 0
-15 -39 0
-15 -38 0
-15 -36 0
-15 -30 0
-15 -19 0
-14 -57 0
-14 -56 0
-14 -50 0
-14 -49 0
-14 -47 0
-14 -46 0
-14 -40 0
-14 -35 0
-14 -34 0
-14 -22 0
-14 -18 0
-13 -61 0
-13 -59 0
-13 -48 0
-13 -46 0
-13 -44 0
-13 -41 0
-13 -34 0
-13 -28 0
-13 -25 0
-13 -19 0
-12 -64 0
-12 -63 0
-12 -61 0
-12 -59 0
-12 -46 0
-12 -44 0
-12 -42 0
-12 -41 0
-12 -29 0
-12 -26 0
-12 -22 0
-12 -13 0
-11 -51 0
-11 -48 0
-11 -38 0
-11 -34 0
-11 -33 0
-11 -28 0
-11 -25 0
-11 -19 0
-11 -13 0
-10 -59 0
-10 -55 0
-10 -53 0
-10 -51 0
-10 -40 0
-10 -38 0
-10 -33 0
-10 -24 0
-10 -11 0
-9 -59 0
-9 -55 0
-9 -53 0
-9 -40 0
-9 -39 0
-9 -37 0
-9 -29 0
-9 -28 0
-9 -27 0
-9 -24 0
-9 -10 0
-8 -54 0
-8 -52 0
-8 -31 0
-8 -23 0
-8 -21 0
-8 -20 0
-7 -57 0
-7 -56 0
-7 -50 0
-7 -46 0
-7 -39 0
-7 -37 0
-7 -35 0
-7 -29 0
-7 -28 0
-7 -27 0
-7 -14 0
-7 -9 0
-6 -64 0
-6 -63 0
-6 -51 0
-6 -42 0
-6 -38 0
-6 -33 0
-6 -29 0
-6 -26 0
-6 -22 0
-6 -12 0
-6 -11 0
-6 -10 0
-5 -54 0
-5 -52 0
-5 -31 0
-5 -23 0
-5 -21 0
-5 -20 0
-5 -8 0
-4 -57 0
-4 -56 0
-4 -51 0
-4 -50 0
-4 -46 0
-4 -38 0
-4 -35 0
-4 -33 0
-4 -14 0
-4 -11 0
-4 -10 0
-4 -7 0
-4 -6 0
-3 -64 0
-3 -60 0
-3 -53 0
-3 -50 0
-3 -48 0
-3 -45 0
-3 -34 0
-3 -32 0
-3 -28 0
-3 -25 0
-3 -19 0
-3 -13 0
-3 -11 0
-2 -61 0
-2 -60 0
-2 -48 0
-2 -47 0
-2 -43 0
-2 -42 0
-2 -39 0
-2 -38 0
-2 -36 0
-2 -35 0
-2 -24 0
-2 -16 0
-2 -15 0
-1 -59 0
-1 -58 0
-1 -56 0
-1 -55 0
-1 -53 0
-1 -40 0
-1 -36 0
-1 -26 0
-1 -25 0
-1 -24 0
-1 -17 0
-1 -10 0
-1 -9 0
1 17 25 26 31 36 56 58 0
2 16 21 24 35 42 43 48 0
3 23 32 45 50 53 60 64 0
4 5 6 10 11 33 38 51 0
7 9 20 27 28 29 37 39 0
8 15 19 30 55 57 62 63 0
12 13 41 44 46 52 59 61 0
14 18 22 34 40 47 49 54 0
