p cnf 64 400
-63 -64 0
-62 -64 0
-60 -62 0
-59 -62 0
-59 -60 0
-58 -64 0
-58 -62 0
-56 -63 0
-55 -57 0
-54 -60 0
-53 -59 0
-53 -56 0
-52 -57 0
-52 -55 0
-51 -64 0
-51 -62 0
-51 -61 0
-51 -58 0
-50 -61 0
-50 -51 0
-49 -63 0
-49 -61 0
-49 -56 0
-49 -51 0
-49 -50 0
-48 -63 0
-48 -56 0
-48 -49 0
-46 -60 0
-46 -56 0
-46 -54 0
-46 -53 0
-45 -61 0
-45 -60 0
-45 -54 0
-45 -51 0
-45 -50 0
-45 -49 0
-45 -46 0
-44 -60 0
-44 -54 0
-44 -47 0
-44 -46 0
-44 -45 0
-43 -64 0
-43 -63 0
-43 -50 0
-42 -61 0
-42 -59 0
-42 -53 0
-42 -51 0
-42 -50 0
-42 -49 0
-42 -45 0
-41 -64 0
-41 -63 0
-41 -60 0
-41 -54 0
-41 -46 0
-41 -45 0
-41 -44 0
-41 -43 0
-40 -60 0
-40 -54 0
-40 -48 0
-40 -46 0
-40 -45 0
-40 -44 0
-40 -41 0
-39 -64 0
-39 -63 0
-39 -59 0
-39 -53 0
-39 -43 0
-39 -42 0
-39 -41 0
-38 -59 0
-38 -58 0
-38 -53 0
-38 -42 0
-38 -39 0
-37 -59 0
-37 -53 0
-37 -48 0
-37 -42 0
-37 -40 0
-37 -39 0
-37 -38 0
-36 -48 0
-36 -47 0
-36 -40 0
-36 -37 0
-35 -59 0
-35 -54 0
-35 -53 0
-35 -42 0
-35 -39 0
-35 -38 0
-35 -37 0
-34 -63 0
-34 -56 0
-34 -49 0
-34 -48 0
-34 -47 0
-34 -44 0
-33 -61 0
-33 -54 0
-33 -35 0
-32 -54 0
-32 -47 0
-32 -36 0
-32 -35 0
-32 -33 0
-31 -57 0
-31 -55 0
-31 -52 0
-30 -57 0
-30 -55 0
-30 -52 0
-30 -31 0
-29 -61 0
-29 -51 0
-29 -50 0
-29 -49 0
-29 -47 0
-29 -45 0
-29 -42 0
-29 -36 0
-29 -32 0
-28 -62 0
-28 -60 0
-28 -59 0
-28 -50 0
-28 -43 0
-27 -64 0
-27 -63 0
-27 -61 0
-27 -43 0
-27 -41 0
-27 -39 0
-27 -33 0
-26 -58 0
-26 -47 0
-26 -38 0
-26 -36 0
-26 -32 0
-26 -29 0
-25 -60 0
-25 -58 0
-25 -54 0
-25 -46 0
-25 -45 0
-25 -44 0
-25 -41 0
-25 -40 0
-25 -38 0
-25 -26 0
-24 -56 0
-24 -53 0
-24 -50 0
-24 -46 0
-24 -43 0
-24 -28 0
-23 -63 0
-23 -58 0
-23 -56 0
-23 -49 0
-23 -48 0
-23 -38 0
-23 -34 0
-23 -26 0
-23 -25 0
-22 -58 0
-22 -50 0
-22 -43 0
-22 -38 0
-22 -28 0
-22 -26 0
-22 -25 0
-22 -24 0
-22 -23 0
-21 -63 0
-21 -56 0
-21 -54 0
-21 -49 0
-21 -48 0
-21 -35 0
-21 -34 0
-21 -33 0
-21 -32 0
-21 -23 0
-20 -61 0
-20 -58 0
-20 -38 0
-20 -33 0
-20 -27 0
-20 -26 0
-20 -25 0
-20 -23 0
-20 -22 0
-19 -63 0
-19 -62 0
-19 -60 0
-19 -59 0
-19 -56 0
-19 -49 0
-19 -48 0
-19 -34 0
-19 -28 0
-19 -23 0
-19 -21 0
-18 -57 0
-18 -55 0
-18 -52 0
-18 -31 0
-18 -30 0
-17 -64 0
-17 -63 0
-17 -47 0
-17 -43 0
-17 -41 0
-17 -39 0
-17 -36 0
-17 -32 0
-17 -29 0
-17 -27 0
-17 -26 0
-16 -62 0
-16 -60 0
-16 -59 0
-16 -47 0
-16 -36 0
-16 -32 0
-16 -29 0
-16 -28 0
-16 -26 0
-16 -19 0
-16 -17 0
-15 -50 0
-15 -48 0
-15 -43 0
-15 -40 0
-15 -37 0
-15 -36 0
-15 -28 0
-15 -24 0
-15 -22 0
-14 -56 0
-14 -53 0
-14 -47 0
-14 -46 0
-14 -36 0
-14 -32 0
-14 -29 0
-14 -26 0
-14 -24 0
-14 -17 0
-14 -16 0
-13 -57 0
-13 -55 0
-13 -52 0
-13 -31 0
-13 -30 0
-13 -18 0
-12 -62 0
-12 -61 0
-12 -60 0
-12 -59 0
-12 -33 0
-12 -28 0
-12 -27 0
-12 -20 0
-12 -19 0
-12 -16 0
-11 -61 0
-11 -47 0
-11 -44 0
-11 -34 0
-11 -33 0
-11 -27 0
-11 -20 0
-11 -12 0
-10 -57 0
-10 -55 0
-10 -52 0
-10 -31 0
-10 -30 0
-10 -18 0
-10 -13 0
-9 -54 0
-9 -50 0
-9 -43 0
-9 -35 0
-9 -33 0
-9 -32 0
-9 -28 0
-9 -24 0
-9 -22 0
-9 -21 0
-9 -15 0
-8 -61 0
-8 -48 0
-8 -40 0
-8 -37 0
-8 -36 0
-8 -33 0
-8 -27 0
-8 -20 0
-8 -15 0
-8 -12 0
-8 -11 0
-7 -61 0
-7 -56 0
-7 -53 0
-7 -46 0
-7 -33 0
-7 -27 0
-7 -24 0
-7 -20 0
-7 -14 0
-7 -12 0
-7 -11 0
-7 -8 0
-6 -64 0
-6 -62 0
-6 -58 0
-6 -54 0
-6 -51 0
-6 -35 0
-6 -33 0
-6 -32 0
-6 -21 0
-6 -9 0
-5 -64 0
-5 -62 0
-5 -58 0
-5 -56 0
-5 -53 0
-5 -51 0
-5 -46 0
-5 -24 0
-5 -14 0
-5 -7 0
-5 -6 0
-4 -50 0
-4 -47 0
-4 -44 0
-4 -43 0
-4 -34 0
-4 -28 0
-4 -24 0
-4 -22 0
-4 -15 0
-4 -11 0
-4 -9 0
-3 -64 0
-3 -62 0
-3 -58 0
-3 -51 0
-3 -48 0
-3 -40 0
-3 -37 0
-3 -36 0
-3 -15 0
-3 -8 0
-3 -6 0
-3 -5 0
-2 -64 0
-2 -62 0
-2 -58 0
-2 -51 0
-2 -47 0
-2 -44 0
-2 -34 0
-2 -11 0
-2 -6 0
-2 -5 0
-2 -4 0
-2 -3 0
-1 -59 0
-1 -53 0
-1 -47 0
-1 -44 0
-1 -42 0
-1 -39 0
-1 -38 0
-1 -37 0
-1 -35 0
-1 -34 0
-1 -11 0
-1 -4 0
-1 -2 0
1 2 4 11 34 44 47 57 0
3 8 15 30 36 37 40 48 0
5 7 14 24 46 53 55 56 0
6 9 18 21 32 33 35 54 0
10 29 42 45 49 50 51 61 0
12 16 19 28 52 59 60 62 0
13 20 22 23 25 26 38 58 0
17 27 31 39 41 43 63 64 0
