p cnf 100 820
-98 -100 0
-96 -97 0
-94 -97 0
-94 -96 0
-94 -95 0
-93 -97 0
-92 -97 0
-92 -96 0
-92 -94 0
-91 -99 0
-91 -93 0
-90 -97 0
-90 -96 0
-90 -94 0
-90 -92 0
-89 -90 0
-88 -100 0
-88 -98 0
-87 -90 0
-87 -89 0
-86 -97 0
-86 -96 0
-86 -94 0
-86 -92 0
-86 -90 0
-85 -86 0
-83 -93 0
-83 -91 0
-83 -90 0
-83 -89 0
-83 -87 0
-82 -96 0
-82 -85 0
-81 -95 0
-81 -86 0
-81 -85 0
-80 -99 0
-80 -91 0
-80 -84 0
-79 -93 0
-79 -91 0
-79 -84 0
-79 -83 0
-78 -97 0
-78 -93 0
-77 -100 0
-77 -98 0
-77 -88 0
-76 -97 0
-76 -95 0
-76 -93 0
-76 -81 0
-76 -78 0
-75 -87 0
-75 -86 0
-75 -85 0
-75 -81 0
-74 -99 0
-74 -90 0
-74 -89 0
-74 -87 0
-74 -83 0
-73 -99 0
-73 -91 0
-73 -80 0
-73 -78 0
-72 -100 0
-72 -98 0
-72 -88 0
-72 -77 0
-71 -99 0
-71 -74 0
-70 -97 0
-70 -93 0
-70 -85 0
-70 -82 0
-70 -78 0
-70 -76 0
-69 -86 0
-69 -85 0
-69 -81 0
-69 -78 0
-69 -75 0
-69 -73 0
-68 -87 0
-68 -75 0
-68 -71 0
-67 -99 0
-67 -96 0
-67 -82 0
-67 -74 0
-67 -71 0
-66 -86 0
-66 -85 0
-66 -84 0
-66 -81 0
-66 -80 0
-66 -75 0
-66 -69 0
-65 -85 0
-65 -82 0
-65 -71 0
-65 -70 0
-65 -68 0
-64 -95 0
-64 -81 0
-64 -76 0
-64 -71 0
-64 -68 0
-64 -65 0
-63 -92 0
-63 -78 0
-63 -73 0
-63 -69 0
-62 -89 0
-62 -86 0
-62 -85 0
-62 -81 0
-62 -75 0
-62 -69 0
-62 -66 0
-61 -92 0
-61 -89 0
-61 -63 0
-61 -62 0
-60 -85 0
-60 -84 0
-60 -82 0
-60 -79 0
-60 -70 0
-60 -65 0
-59 -97 0
-59 -96 0
-59 -94 0
-59 -92 0
-59 -90 0
-59 -86 0
-59 -71 0
-59 -68 0
-59 -65 0
-59 -64 0
-58 -78 0
-58 -73 0
-58 -71 0
-58 -69 0
-58 -68 0
-58 -65 0
-58 -64 0
-58 -63 0
-58 -59 0
-57 -93 0
-57 -91 0
-57 -86 0
-57 -85 0
-57 -83 0
-57 -81 0
-57 -79 0
-57 -75 0
-57 -69 0
-57 -66 0
-57 -62 0
-56 -95 0
-56 -94 0
-56 -78 0
-56 -73 0
-56 -69 0
-56 -63 0
-56 -58 0
-55 -100 0
-55 -98 0
-55 -88 0
-55 -77 0
-55 -72 0
-54 -100 0
-54 -98 0
-54 -88 0
-54 -77 0
-54 -72 0
-54 -55 0
-53 -99 0
-53 -84 0
-53 -79 0
-53 -74 0
-53 -71 0
-53 -67 0
-53 -60 0
-52 -93 0
-52 -91 0
-52 -83 0
-52 -79 0
-52 -71 0
-52 -68 0
-52 -65 0
-52 -64 0
-52 -59 0
-52 -58 0
-52 -57 0
-51 -89 0
-51 -84 0
-51 -79 0
-51 -62 0
-51 -61 0
-51 -60 0
-51 -53 0
-50 -99 0
-50 -91 0
-50 -85 0
-50 -82 0
-50 -80 0
-50 -73 0
-50 -70 0
-50 -65 0
-50 -60 0
-49 -99 0
-49 -74 0
-49 -71 0
-49 -67 0
-49 -53 0
-48 -99 0
-48 -97 0
-48 -93 0
-48 -78 0
-48 -76 0
-48 -74 0
-48 -71 0
-48 -70 0
-48 -67 0
-48 -53 0
-48 -49 0
-47 -100 0
-47 -98 0
-47 -88 0
-47 -77 0
-47 -72 0
-47 -55 0
-47 -54 0
-46 -95 0
-46 -94 0
-46 -89 0
-46 -62 0
-46 -61 0
-46 -56 0
-46 -51 0
-45 -87 0
-45 -75 0
-45 -68 0
-45 -49 0
-44 -92 0
-44 -85 0
-44 -82 0
-44 -70 0
-44 -65 0
-44 -63 0
-44 -61 0
-44 -60 0
-44 -50 0
-43 -92 0
-43 -84 0
-43 -80 0
-43 -66 0
-43 -63 0
-43 -61 0
-43 -44 0
-42 -93 0
-42 -92 0
-42 -91 0
-42 -83 0
-42 -79 0
-42 -63 0
-42 -61 0
-42 -57 0
-42 -52 0
-42 -44 0
-42 -43 0
-41 -96 0
-41 -84 0
-41 -82 0
-41 -80 0
-41 -67 0
-41 -66 0
-41 -43 0
-40 -85 0
-40 -82 0
-40 -70 0
-40 -65 0
-40 -60 0
-40 -50 0
-40 -49 0
-40 -45 0
-40 -44 0
-39 -100 0
-39 -98 0
-39 -88 0
-39 -77 0
-39 -72 0
-39 -55 0
-39 -54 0
-39 -47 0
-38 -93 0
-38 -91 0
-38 -83 0
-38 -79 0
-38 -57 0
-38 -52 0
-38 -49 0
-38 -45 0
-38 -42 0
-38 -40 0
-37 -90 0
-37 -89 0
-37 -87 0
-37 -83 0
-37 -78 0
-37 -74 0
-37 -73 0
-37 -69 0
-37 -63 0
-37 -58 0
-37 -56 0
-36 -95 0
-36 -94 0
-36 -87 0
-36 -75 0
-36 -68 0
-36 -56 0
-36 -46 0
-36 -45 0
-35 -96 0
-35 -93 0
-35 -91 0
-35 -83 0
-35 -82 0
-35 -79 0
-35 -67 0
-35 -57 0
-35 -52 0
-35 -42 0
-35 -41 0
-35 -38 0
-34 -92 0
-34 -87 0
-34 -75 0
-34 -68 0
-34 -63 0
-34 -61 0
-34 -45 0
-34 -44 0
-34 -43 0
-34 -42 0
-34 -36 0
-33 -99 0
-33 -91 0
-33 -87 0
-33 -80 0
-33 -75 0
-33 -73 0
-33 -68 0
-33 -50 0
-33 -45 0
-33 -36 0
-33 -34 0
-32 -100 0
-32 -98 0
-32 -88 0
-32 -77 0
-32 -72 0
-32 -55 0
-32 -54 0
-32 -47 0
-32 -39 0
-31 -90 0
-31 -89 0
-31 -87 0
-31 -85 0
-31 -83 0
-31 -82 0
-31 -74 0
-31 -70 0
-31 -65 0
-31 -60 0
-31 -50 0
-31 -44 0
-31 -40 0
-31 -37 0
-30 -97 0
-30 -96 0
-30 -94 0
-30 -92 0
-30 -90 0
-30 -86 0
-30 -84 0
-30 -79 0
-30 -60 0
-30 -59 0
-30 -53 0
-30 -51 0
-29 -95 0
-29 -94 0
-29 -93 0
-29 -91 0
-29 -83 0
-29 -79 0
-29 -57 0
-29 -56 0
-29 -52 0
-29 -46 0
-29 -42 0
-29 -38 0
-29 -36 0
-29 -35 0
-28 -87 0
-28 -84 0
-28 -79 0
-28 -75 0
-28 -68 0
-28 -60 0
-28 -53 0
-28 -51 0
-28 -45 0
-28 -36 0
-28 -34 0
-28 -33 0
-28 -30 0
-27 -99 0
-27 -86 0
-27 -85 0
-27 -81 0
-27 -75 0
-27 -74 0
-27 -71 0
-27 -69 0
-27 -67 0
-27 -66 0
-27 -62 0
-27 -57 0
-27 -53 0
-27 -49 0
-27 -48 0
-26 -99 0
-26 -91 0
-26 -89 0
-26 -80 0
-26 -73 0
-26 -62 0
-26 -61 0
-26 -51 0
-26 -50 0
-26 -46 0
-26 -33 0
-25 -97 0
-25 -96 0
-25 -94 0
-25 -92 0
-25 -90 0
-25 -86 0
-25 -59 0
-25 -49 0
-25 -45 0
-25 -40 0
-25 -38 0
-25 -30 0
-24 -96 0
-24 -87 0
-24 -82 0
-24 -75 0
-24 -68 0
-24 -67 0
-24 -45 0
-24 -41 0
-24 -36 0
-24 -35 0
-24 -34 0
-24 -33 0
-24 -28 0
-23 -99 0
-23 -95 0
-23 -94 0
-23 -74 0
-23 -71 0
-23 -67 0
-23 -56 0
-23 -53 0
-23 -49 0
-23 -48 0
-23 -46 0
-23 -36 0
-23 -29 0
-23 -27 0
-22 -84 0
-22 -79 0
-22 -78 0
-22 -73 0
-22 -69 0
-22 -63 0
-22 -60 0
-22 -58 0
-22 -56 0
-22 -53 0
-22 -51 0
-22 -37 0
-22 -30 0
-22 -28 0
-21 -89 0
-21 -62 0
-21 -61 0
-21 -51 0
-21 -49 0
-21 -46 0
-21 -45 0
-21 -40 0
-21 -38 0
-21 -26 0
-21 -25 0
-20 -95 0
-20 -94 0
-20 -84 0
-20 -80 0
-20 -66 0
-20 -56 0
-20 -46 0
-20 -43 0
-20 -41 0
-20 -36 0
-20 -29 0
-20 -23 0
-19 -96 0
-19 -82 0
-19 -78 0
-19 -73 0
-19 -69 0
-19 -67 0
-19 -63 0
-19 -58 0
-19 -56 0
-19 -41 0
-19 -37 0
-19 -35 0
-19 -24 0
-19 -22 0
-18 -89 0
-18 -71 0
-18 -68 0
-18 -65 0
-18 -64 0
-18 -62 0
-18 -61 0
-18 -59 0
-18 -58 0
-18 -52 0
-18 -51 0
-18 -46 0
-18 -26 0
-18 -21 0
-17 -95 0
-17 -84 0
-17 -81 0
-17 -79 0
-17 -76 0
-17 -64 0
-17 -60 0
-17 -53 0
-17 -51 0
-17 -30 0
-17 -28 0
-17 -22 0
-16 -99 0
-16 -95 0
-16 -91 0
-16 -81 0
-16 -80 0
-16 -76 0
-16 -73 0
-16 -64 0
-16 -50 0
-16 -33 0
-16 -26 0
-16 -17 0
-15 -95 0
-15 -92 0
-15 -81 0
-15 -76 0
-15 -64 0
-15 -63 0
-15 -61 0
-15 -44 0
-15 -43 0
-15 -42 0
-15 -34 0
-15 -17 0
-15 -16 0
-14 -78 0
-14 -73 0
-14 -69 0
-14 -63 0
-14 -58 0
-14 -56 0
-14 -49 0
-14 -45 0
-14 -40 0
-14 -38 0
-14 -37 0
-14 -25 0
-14 -22 0
-14 -21 0
-14 -19 0
-13 -97 0
-13 -93 0
-13 -87 0
-13 -78 0
-13 -76 0
-13 -75 0
-13 -70 0
-13 -68 0
-13 -48 0
-13 -45 0
-13 -36 0
-13 -34 0
-13 -33 0
-13 -28 0
-13 -24 0
-12 -90 0
-12 -89 0
-12 -87 0
-12 -84 0
-12 -83 0
-12 -80 0
-12 -74 0
-12 -66 0
-12 -43 0
-12 -41 0
-12 -37 0
-12 -31 0
-12 -20 0
-11 -97 0
-11 -93 0
-11 -84 0
-11 -80 0
-11 -78 0
-11 -76 0
-11 -70 0
-11 -66 0
-11 -48 0
-11 -43 0
-11 -41 0
-11 -20 0
-11 -13 0
-11 -12 0
-10 -84 0
-10 -80 0
-10 -71 0
-10 -68 0
-10 -66 0
-10 -65 0
-10 -64 0
-10 -59 0
-10 -58 0
-10 -52 0
-10 -43 0
-10 -41 0
-10 -20 0
-10 -18 0
-10 -12 0
-10 -11 0
-9 -96 0
-9 -89 0
-9 -82 0
-9 -67 0
-9 -62 0
-9 -61 0
-9 -51 0
-9 -46 0
-9 -41 0
-9 -35 0
-9 -26 0
-9 -24 0
-9 -21 0
-9 -19 0
-9 -18 0
-8 -95 0
-8 -81 0
-8 -76 0
-8 -64 0
-8 -49 0
-8 -45 0
-8 -40 0
-8 -38 0
-8 -25 0
-8 -21 0
-8 -17 0
-8 -16 0
-8 -15 0
-8 -14 0
-7 -99 0
-7 -92 0
-7 -74 0
-7 -71 0
-7 -67 0
-7 -63 0
-7 -61 0
-7 -53 0
-7 -49 0
-7 -48 0
-7 -44 0
-7 -43 0
-7 -42 0
-7 -34 0
-7 -27 0
-7 -23 0
-7 -15 0
-6 -99 0
-6 -97 0
-6 -96 0
-6 -94 0
-6 -92 0
-6 -91 0
-6 -90 0
-6 -86 0
-6 -80 0
-6 -73 0
-6 -59 0
-6 -50 0
-6 -33 0
-6 -30 0
-6 -26 0
-6 -25 0
-6 -16 0
-5 -97 0
-5 -93 0
-5 -89 0
-5 -78 0
-5 -76 0
-5 -70 0
-5 -62 0
-5 -61 0
-5 -51 0
-5 -48 0
-5 -46 0
-5 -26 0
-5 -21 0
-5 -18 0
-5 -13 0
-5 -11 0
-5 -9 0
-4 -95 0
-4 -90 0
-4 -89 0
-4 -87 0
-4 -83 0
-4 -81 0
-4 -76 0
-4 -74 0
-4 -64 0
-4 -37 0
-4 -31 0
-4 -17 0
-4 -16 0
-4 -15 0
-4 -12 0
-4 -8 0
-3 -96 0
-3 -95 0
-3 -82 0
-3 -81 0
-3 -76 0
-3 -67 0
-3 -64 0
-3 -41 0
-3 -35 0
-3 -24 0
-3 -19 0
-3 -17 0
-3 -16 0
-3 -15 0
-3 -9 0
-3 -8 0
-3 -4 0
-2 -84 0
-2 -80 0
-2 -66 0
-2 -49 0
-2 -45 0
-2 -43 0
-2 -41 0
-2 -40 0
-2 -38 0
-2 -25 0
-2 -21 0
-2 -20 0
-2 -14 0
-2 -12 0
-2 -11 0
-2 -10 0
-2 -8 0
-1 -95 0
-1 -94 0
-1 -85 0
-1 -82 0
-1 -70 0
-1 -65 0
-1 -60 0
-1 -56 0
-1 -50 0
-1 -46 0
-1 -44 0
-1 -40 0
-1 -36 0
-1 -31 0
-1 -29 0
-1 -23 0
-1 -20 0
1 20 23 29 36 46 56 94 95 100 0
2 8 14 21 25 38 40 45 49 98 0
3 9 19 24 35 41 67 82 88 96 0
4 12 31 37 72 74 83 87 89 90 0
5 11 13 47 48 70 76 78 93 97 0
6 16 26 33 39 50 73 80 91 99 0
7 15 34 42 43 44 55 61 63 92 0
10 18 52 54 58 59 64 65 68 71 0
17 22 28 30 51 53 60 77 79 84 0
27 32 57 62 66 69 75 81 85 86 0
