p cnf 64 400
-60 -61 0
-59 -64 0
-57 -64 0
-57 -63 0
-57 -59 0
-56 -58 0
-55 -62 0
-54 -58 0
-53 -58 0
-53 -55 0
-53 -54 0
-52 -62 0
-52 -55 0
-51 -64 0
-51 -58 0
-51 -54 0
-51 -53 0
-50 -56 0
-50 -55 0
-50 -53 0
-49 -59 0
-49 -56 0
-49 -50 0
-48 -54 0
-47 -58 0
-47 -56 0
-46 -58 0
-46 -54 0
-46 -53 0
-46 -52 0
-46 -51 0
-45 -61 0
-45 -60 0
-44 -54 0
-44 -48 0
-44 -47 0
-43 -63 0
-43 -57 0
-43 -48 0
-42 -62 0
-42 -58 0
-42 -54 0
-42 -53 0
-42 -51 0
-42 -46 0
-41 -63 0
-41 -62 0
-41 -42 0
-40 -59 0
-40 -58 0
-40 -54 0
-40 -53 0
-40 -51 0
-40 -49 0
-40 -46 0
-40 -42 0
-39 -64 0
-39 -59 0
-39 -57 0
-39 -55 0
-39 -53 0
-39 -50 0
-38 -55 0
-38 -53 0
-38 -50 0
-38 -48 0
-38 -43 0
-38 -39 0
-37 -56 0
-37 -52 0
-37 -50 0
-37 -49 0
-37 -46 0
-36 -61 0
-36 -60 0
-36 -45 0
-35 -59 0
-35 -49 0
-35 -48 0
-35 -43 0
-35 -40 0
-35 -38 0
-34 -52 0
-34 -47 0
-34 -46 0
-34 -44 0
-34 -37 0
-33 -63 0
-33 -57 0
-33 -47 0
-33 -44 0
-33 -43 0
-33 -34 0
-32 -63 0
-32 -55 0
-32 -53 0
-32 -50 0
-32 -41 0
-32 -39 0
-32 -38 0
-31 -63 0
-31 -54 0
-31 -48 0
-31 -44 0
-31 -41 0
-31 -32 0
-30 -63 0
-30 -62 0
-30 -57 0
-30 -55 0
-30 -52 0
-30 -43 0
-30 -33 0
-29 -62 0
-29 -59 0
-29 -55 0
-29 -52 0
-29 -49 0
-29 -40 0
-29 -35 0
-29 -30 0
-28 -56 0
-28 -54 0
-28 -50 0
-28 -49 0
-28 -48 0
-28 -44 0
-28 -37 0
-28 -31 0
-27 -64 0
-27 -63 0
-27 -51 0
-27 -41 0
-27 -32 0
-27 -31 0
-26 -64 0
-26 -51 0
-26 -48 0
-26 -43 0
-26 -38 0
-26 -35 0
-26 -27 0
-25 -63 0
-25 -52 0
-25 -46 0
-25 -41 0
-25 -37 0
-25 -34 0
-25 -32 0
-25 -31 0
-25 -27 0
-24 -64 0
-24 -59 0
-24 -57 0
-24 -52 0
-24 -46 0
-24 -39 0
-24 -37 0
-24 -34 0
-24 -25 0
-23 -64 0
-23 -51 0
-23 -47 0
-23 -44 0
-23 -34 0
-23 -33 0
-23 -27 0
-23 -26 0
-22 -62 0
-22 -55 0
-22 -54 0
-22 -52 0
-22 -48 0
-22 -44 0
-22 -31 0
-22 -30 0
-22 -29 0
-22 -28 0
-21 -55 0
-21 -53 0
-21 -50 0
-21 -47 0
-21 -44 0
-21 -39 0
-21 -38 0
-21 -34 0
-21 -33 0
-21 -32 0
-21 -23 0
-20 -64 0
-20 -59 0
-20 -58 0
-20 -57 0
-20 -56 0
-20 -47 0
-20 -39 0
-20 -24 0
-19 -63 0
-19 -58 0
-19 -56 0
-19 -47 0
-19 -41 0
-19 -32 0
-19 -31 0
-19 -27 0
-19 -25 0
-19 -20 0
-18 -61 0
-18 -60 0
-18 -45 0
-18 -36 0
-17 -52 0
-17 -48 0
-17 -46 0
-17 -43 0
-17 -38 0
-17 -37 0
-17 -35 0
-17 -34 0
-17 -26 0
-17 -25 0
-17 -24 0
-16 -63 0
-16 -59 0
-16 -49 0
-16 -41 0
-16 -40 0
-16 -35 0
-16 -32 0
-16 -31 0
-16 -29 0
-16 -27 0
-16 -25 0
-16 -19 0
-15 -58 0
-15 -56 0
-15 -48 0
-15 -47 0
-15 -43 0
-15 -38 0
-15 -35 0
-15 -26 0
-15 -20 0
-15 -19 0
-15 -17 0
-14 -62 0
-14 -47 0
-14 -44 0
-14 -42 0
-14 -41 0
-14 -34 0
-14 -33 0
-14 -23 0
-14 -21 0
-13 -61 0
-13 -60 0
-13 -45 0
-13 -36 0
-13 -18 0
-12 -61 0
-12 -60 0
-12 -45 0
-12 -36 0
-12 -18 0
-12 -13 0
-11 -64 0
-11 -62 0
-11 -59 0
-11 -57 0
-11 -42 0
-11 -41 0
-11 -39 0
-11 -24 0
-11 -20 0
-11 -14 0
-10 -59 0
-10 -49 0
-10 -47 0
-10 -44 0
-10 -40 0
-10 -35 0
-10 -34 0
-10 -33 0
-10 -29 0
-10 -23 0
-10 -21 0
-10 -16 0
-10 -14 0
-9 -62 0
-9 -58 0
-9 -56 0
-9 -55 0
-9 -52 0
-9 -47 0
-9 -30 0
-9 -29 0
-9 -22 0
-9 -20 0
-9 -19 0
-9 -15 0
-8 -64 0
-8 -56 0
-8 -51 0
-8 -50 0
-8 -49 0
-8 -37 0
-8 -28 0
-8 -27 0
-8 -26 0
-8 -23 0
-7 -63 0
-7 -57 0
-7 -56 0
-7 -50 0
-7 -49 0
-7 -43 0
-7 -37 0
-7 -33 0
-7 -30 0
-7 -28 0
-7 -8 0
-6 -62 0
-6 -48 0
-6 -43 0
-6 -42 0
-6 -41 0
-6 -38 0
-6 -35 0
-6 -26 0
-6 -17 0
-6 -15 0
-6 -14 0
-6 -11 0
-5 -64 0
-5 -59 0
-5 -57 0
-5 -54 0
-5 -48 0
-5 -44 0
-5 -39 0
-5 -31 0
-5 -28 0
-5 -24 0
-5 -22 0
-5 -20 0
-5 -11 0
-4 -62 0
-4 -56 0
-4 -50 0
-4 -49 0
-4 -42 0
-4 -41 0
-4 -37 0
-4 -28 0
-4 -14 0
-4 -11 0
-4 -8 0
-4 -7 0
-4 -6 0
-3 -61 0
-3 -60 0
-3 -45 0
-3 -36 0
-3 -18 0
-3 -13 0
-3 -12 0
-2 -63 0
-2 -58 0
-2 -57 0
-2 -54 0
-2 -53 0
-2 -51 0
-2 -46 0
-2 -43 0
-2 -42 0
-2 -40 0
-2 -33 0
-2 -30 0
-2 -7 0
-1 -64 0
-1 -62 0
-1 -55 0
-1 -52 0
-1 -51 0
-1 -30 0
-1 -29 0
-1 -27 0
-1 -26 0
-1 -23 0
-1 -22 0
-1 -9 0
-1 -8 0
1 8 23 26 27 51 60 64 0
2 3 7 30 33 43 57 63 0
4 6 11 13 14 41 42 62 0
5 12 22 28 31 44 48 54 0
9 15 18 19 20 47 56 58 0
10 16 29 35 36 40 49 59 0
17 24 25 34 37 46 52 61 0
21 32 38 39 45 50 53 55 0
