p cnf 49 259
-46 -49 0
-45 -49 0
-45 -48 0
-43 -48 0
-43 -44 0
-42 -48 0
-42 -43 0
-40 -49 0
-40 -47 0
-40 -46 0
-39 -44 0
-39 -43 0
-38 -48 0
-38 -46 0
-38 -45 0
-37 -49 0
-37 -47 0
-37 -45 0
-36 -48 0
-36 -47 0
-36 -43 0
-36 -42 0
-36 -37 0
-34 -35 0
-33 -48 0
-33 -45 0
-33 -41 0
-33 -38 0
-32 -47 0
-32 -44 0
-32 -37 0
-32 -36 0
-31 -49 0
-31 -46 0
-31 -41 0
-31 -40 0
-31 -33 0
-30 -42 0
-30 -39 0
-29 -46 0
-29 -42 0
-29 -38 0
-29 -30 0
-28 -46 0
-28 -41 0
-28 -38 0
-28 -29 0
-27 -44 0
-27 -42 0
-27 -32 0
-27 -30 0
-27 -29 0
-26 -46 0
-26 -44 0
-26 -43 0
-26 -39 0
-26 -38 0
-26 -29 0
-26 -28 0
-25 -47 0
-25 -39 0
-25 -37 0
-25 -36 0
-25 -32 0
-25 -30 0
-24 -47 0
-24 -41 0
-24 -37 0
-24 -36 0
-24 -33 0
-24 -32 0
-24 -31 0
-24 -25 0
-23 -48 0
-23 -43 0
-23 -42 0
-23 -41 0
-23 -36 0
-23 -28 0
-22 -41 0
-22 -39 0
-22 -30 0
-22 -28 0
-22 -25 0
-22 -23 0
-21 -47 0
-21 -46 0
-21 -38 0
-21 -37 0
-21 -36 0
-21 -32 0
-21 -29 0
-21 -28 0
-21 -26 0
-21 -25 0
-21 -24 0
-20 -49 0
-20 -45 0
-20 -41 0
-20 -37 0
-20 -28 0
-20 -23 0
-20 -22 0
-19 -47 0
-19 -42 0
-19 -40 0
-19 -30 0
-19 -29 0
-19 -27 0
-18 -49 0
-18 -45 0
-18 -42 0
-18 -37 0
-18 -30 0
-18 -29 0
-18 -27 0
-18 -20 0
-18 -19 0
-17 -49 0
-17 -48 0
-17 -46 0
-17 -43 0
-17 -42 0
-17 -40 0
-17 -36 0
-17 -31 0
-17 -23 0
-16 -44 0
-16 -41 0
-16 -32 0
-16 -28 0
-16 -27 0
-16 -23 0
-16 -22 0
-16 -20 0
-15 -47 0
-15 -41 0
-15 -40 0
-15 -28 0
-15 -23 0
-15 -22 0
-15 -20 0
-15 -19 0
-15 -16 0
-14 -48 0
-14 -45 0
-14 -44 0
-14 -38 0
-14 -33 0
-14 -32 0
-14 -27 0
-14 -16 0
-13 -49 0
-13 -46 0
-13 -44 0
-13 -40 0
-13 -32 0
-13 -31 0
-13 -27 0
-13 -17 0
-13 -16 0
-13 -14 0
-12 -35 0
-12 -34 0
-11 -48 0
-11 -47 0
-11 -45 0
-11 -40 0
-11 -38 0
-11 -33 0
-11 -19 0
-11 -15 0
-11 -14 0
-10 -47 0
-10 -44 0
-10 -43 0
-10 -40 0
-10 -39 0
-10 -26 0
-10 -19 0
-10 -15 0
-10 -11 0
-9 -35 0
-9 -34 0
-9 -12 0
-8 -49 0
-8 -45 0
-8 -44 0
-8 -43 0
-8 -39 0
-8 -37 0
-8 -26 0
-8 -20 0
-8 -18 0
-8 -10 0
-7 -42 0
-7 -41 0
-7 -33 0
-7 -31 0
-7 -30 0
-7 -29 0
-7 -27 0
-7 -24 0
-7 -19 0
-7 -18 0
-6 -49 0
-6 -46 0
-6 -40 0
-6 -39 0
-6 -31 0
-6 -30 0
-6 -25 0
-6 -22 0
-6 -17 0
-6 -13 0
-5 -48 0
-5 -45 0
-5 -39 0
-5 -38 0
-5 -33 0
-5 -30 0
-5 -25 0
-5 -22 0
-5 -14 0
-5 -11 0
-5 -6 0
-4 -35 0
-4 -34 0
-4 -12 0
-4 -9 0
-3 -35 0
-3 -34 0
-3 -12 0
-3 -9 0
-3 -4 0
-2 -35 0
-2 -34 0
-2 -12 0
-2 -9 0
-2 -4 0
-2 -3 0
-1 -44 0
-1 -43 0
-1 -41 0
-1 -39 0
-1 -33 0
-1 -31 0
-1 -26 0
-1 -24 0
-1 -10 0
-1 -8 0
-1 -7 0
1 4 7 24 31 33 41 0
2 10 11 15 19 40 47 0
3 17 23 36 42 43 48 0
5 6 22 25 30 34 39 0
8 9 18 20 37 45 49 0
12 13 14 16 27 32 44 0
21 26 28 29 35 38 46 0
