p cnf 81 585
-80 -81 0
-78 -81 0
-75 -77 0
-74 -76 0
-73 -79 0
-71 -77 0
-71 -75 0
-71 -73 0
-70 -75 0
-69 -80 0
-68 -79 0
-68 -78 0
-68 -73 0
-67 -72 0
-66 -75 0
-66 -70 0
-65 -80 0
-65 -79 0
-65 -69 0
-64 -81 0
-64 -80 0
-64 -76 0
-64 -74 0
-63 -79 0
-63 -70 0
-63 -65 0
-62 -80 0
-62 -76 0
-62 -69 0
-62 -65 0
-61 -69 0
-61 -66 0
-60 -79 0
-60 -74 0
-60 -73 0
-60 -68 0
-59 -77 0
-59 -75 0
-59 -71 0
-59 -69 0
-59 -61 0
-58 -78 0
-58 -70 0
-58 -68 0
-58 -63 0
-57 -79 0
-57 -77 0
-57 -75 0
-57 -71 0
-57 -65 0
-57 -63 0
-57 -59 0
-56 -80 0
-56 -74 0
-56 -69 0
-56 -65 0
-56 -62 0
-56 -60 0
-55 -81 0
-55 -78 0
-55 -73 0
-55 -71 0
-54 -80 0
-54 -73 0
-54 -71 0
-54 -69 0
-54 -65 0
-54 -62 0
-54 -56 0
-54 -55 0
-53 -72 0
-53 -67 0
-52 -81 0
-52 -80 0
-52 -64 0
-51 -80 0
-51 -77 0
-51 -69 0
-51 -65 0
-51 -62 0
-51 -56 0
-51 -54 0
-50 -80 0
-50 -78 0
-50 -69 0
-50 -68 0
-50 -65 0
-50 -62 0
-50 -58 0
-50 -56 0
-50 -54 0
-50 -51 0
-49 -72 0
-49 -67 0
-49 -53 0
-48 -76 0
-48 -74 0
-48 -69 0
-48 -64 0
-48 -61 0
-48 -59 0
-47 -81 0
-47 -80 0
-47 -77 0
-47 -75 0
-47 -71 0
-47 -64 0
-47 -59 0
-47 -57 0
-47 -52 0
-46 -70 0
-46 -69 0
-46 -63 0
-46 -61 0
-46 -59 0
-46 -58 0
-46 -48 0
-45 -81 0
-45 -78 0
-45 -76 0
-45 -62 0
-45 -55 0
-44 -77 0
-44 -70 0
-44 -63 0
-44 -58 0
-44 -51 0
-44 -46 0
-43 -81 0
-43 -80 0
-43 -79 0
-43 -73 0
-43 -68 0
-43 -64 0
-43 -60 0
-43 -52 0
-43 -47 0
-42 -76 0
-42 -70 0
-42 -63 0
-42 -62 0
-42 -58 0
-42 -46 0
-42 -45 0
-42 -44 0
-41 -72 0
-41 -67 0
-41 -53 0
-41 -49 0
-40 -78 0
-40 -68 0
-40 -58 0
-40 -52 0
-40 -50 0
-39 -79 0
-39 -75 0
-39 -73 0
-39 -70 0
-39 -68 0
-39 -66 0
-39 -60 0
-39 -43 0
-38 -81 0
-38 -78 0
-38 -77 0
-38 -55 0
-38 -51 0
-38 -45 0
-38 -44 0
-37 -80 0
-37 -75 0
-37 -70 0
-37 -69 0
-37 -66 0
-37 -65 0
-37 -62 0
-37 -56 0
-37 -54 0
-37 -51 0
-37 -50 0
-37 -39 0
-36 -79 0
-36 -73 0
-36 -69 0
-36 -68 0
-36 -61 0
-36 -60 0
-36 -59 0
-36 -48 0
-36 -46 0
-36 -43 0
-36 -39 0
-35 -75 0
-35 -70 0
-35 -66 0
-35 -52 0
-35 -40 0
-35 -39 0
-35 -37 0
-34 -79 0
-34 -66 0
-34 -65 0
-34 -63 0
-34 -61 0
-34 -57 0
-33 -78 0
-33 -77 0
-33 -75 0
-33 -71 0
-33 -68 0
-33 -59 0
-33 -58 0
-33 -57 0
-33 -50 0
-33 -47 0
-33 -40 0
-32 -79 0
-32 -77 0
-32 -73 0
-32 -68 0
-32 -60 0
-32 -51 0
-32 -44 0
-32 -43 0
-32 -39 0
-32 -38 0
-32 -36 0
-31 -74 0
-31 -70 0
-31 -63 0
-31 -60 0
-31 -58 0
-31 -56 0
-31 -46 0
-31 -44 0
-31 -42 0
-30 -72 0
-30 -67 0
-30 -53 0
-30 -49 0
-30 -41 0
-29 -81 0
-29 -80 0
-29 -70 0
-29 -64 0
-29 -63 0
-29 -58 0
-29 -52 0
-29 -47 0
-29 -46 0
-29 -44 0
-29 -43 0
-29 -42 0
-29 -31 0
-28 -76 0
-28 -62 0
-28 -52 0
-28 -45 0
-28 -42 0
-28 -40 0
-28 -35 0
-27 -74 0
-27 -66 0
-27 -61 0
-27 -60 0
-27 -56 0
-27 -34 0
-27 -31 0
-26 -77 0
-26 -76 0
-26 -74 0
-26 -64 0
-26 -51 0
-26 -48 0
-26 -44 0
-26 -38 0
-26 -32 0
-25 -81 0
-25 -78 0
-25 -69 0
-25 -61 0
-25 -59 0
-25 -55 0
-25 -48 0
-25 -46 0
-25 -45 0
-25 -38 0
-25 -36 0
-24 -76 0
-24 -66 0
-24 -62 0
-24 -61 0
-24 -45 0
-24 -42 0
-24 -34 0
-24 -28 0
-24 -27 0
-23 -76 0
-23 -74 0
-23 -73 0
-23 -71 0
-23 -64 0
-23 -55 0
-23 -54 0
-23 -48 0
-23 -26 0
-22 -81 0
-22 -78 0
-22 -75 0
-22 -70 0
-22 -66 0
-22 -55 0
-22 -45 0
-22 -39 0
-22 -38 0
-22 -37 0
-22 -35 0
-22 -25 0
-21 -73 0
-21 -71 0
-21 -55 0
-21 -54 0
-21 -52 0
-21 -40 0
-21 -35 0
-21 -28 0
-21 -23 0
-20 -74 0
-20 -60 0
-20 -56 0
-20 -52 0
-20 -40 0
-20 -35 0
-20 -31 0
-20 -28 0
-20 -27 0
-20 -21 0
-19 -78 0
-19 -68 0
-19 -66 0
-19 -61 0
-19 -58 0
-19 -50 0
-19 -40 0
-19 -34 0
-19 -33 0
-19 -27 0
-19 -24 0
-18 -72 0
-18 -67 0
-18 -53 0
-18 -49 0
-18 -41 0
-18 -30 0
-17 -73 0
-17 -71 0
-17 -66 0
-17 -61 0
-17 -55 0
-17 -54 0
-17 -34 0
-17 -27 0
-17 -24 0
-17 -23 0
-17 -21 0
-17 -19 0
-16 -72 0
-16 -67 0
-16 -53 0
-16 -49 0
-16 -41 0
-16 -30 0
-16 -18 0
-15 -77 0
-15 -75 0
-15 -74 0
-15 -71 0
-15 -60 0
-15 -59 0
-15 -57 0
-15 -56 0
-15 -47 0
-15 -33 0
-15 -31 0
-15 -27 0
-15 -20 0
-14 -77 0
-14 -66 0
-14 -61 0
-14 -51 0
-14 -44 0
-14 -38 0
-14 -34 0
-14 -32 0
-14 -27 0
-14 -26 0
-14 -24 0
-14 -19 0
-14 -17 0
-13 -78 0
-13 -76 0
-13 -74 0
-13 -68 0
-13 -64 0
-13 -58 0
-13 -50 0
-13 -48 0
-13 -40 0
-13 -33 0
-13 -26 0
-13 -23 0
-13 -19 0
-12 -79 0
-12 -65 0
-12 -63 0
-12 -57 0
-12 -52 0
-12 -40 0
-12 -35 0
-12 -34 0
-12 -28 0
-12 -21 0
-12 -20 0
-11 -72 0
-11 -67 0
-11 -53 0
-11 -49 0
-11 -41 0
-11 -30 0
-11 -18 0
-11 -16 0
-10 -77 0
-10 -52 0
-10 -51 0
-10 -44 0
-10 -40 0
-10 -38 0
-10 -35 0
-10 -32 0
-10 -28 0
-10 -26 0
-10 -21 0
-10 -20 0
-10 -14 0
-10 -12 0
-9 -77 0
-9 -76 0
-9 -75 0
-9 -71 0
-9 -62 0
-9 -59 0
-9 -57 0
-9 -47 0
-9 -45 0
-9 -42 0
-9 -33 0
-9 -28 0
-9 -24 0
-9 -15 0
-8 -81 0
-8 -78 0
-8 -74 0
-8 -60 0
-8 -56 0
-8 -55 0
-8 -45 0
-8 -38 0
-8 -31 0
-8 -27 0
-8 -25 0
-8 -22 0
-8 -20 0
-8 -15 0
-7 -73 0
-7 -71 0
-7 -70 0
-7 -63 0
-7 -58 0
-7 -55 0
-7 -54 0
-7 -46 0
-7 -44 0
-7 -42 0
-7 -31 0
-7 -29 0
-7 -23 0
-7 -21 0
-7 -17 0
-6 -76 0
-6 -75 0
-6 -74 0
-6 -70 0
-6 -66 0
-6 -64 0
-6 -48 0
-6 -39 0
-6 -37 0
-6 -35 0
-6 -26 0
-6 -23 0
-6 -22 0
-6 -13 0
-5 -69 0
-5 -61 0
-5 -59 0
-5 -52 0
-5 -48 0
-5 -46 0
-5 -40 0
-5 -36 0
-5 -35 0
-5 -28 0
-5 -25 0
-5 -21 0
-5 -20 0
-5 -12 0
-5 -10 0
-4 -81 0
-4 -80 0
-4 -66 0
-4 -64 0
-4 -61 0
-4 -52 0
-4 -47 0
-4 -43 0
-4 -34 0
-4 -29 0
-4 -27 0
-4 -24 0
-4 -19 0
-4 -17 0
-4 -14 0
-3 -81 0
-3 -79 0
-3 -78 0
-3 -65 0
-3 -63 0
-3 -57 0
-3 -55 0
-3 -45 0
-3 -38 0
-3 -34 0
-3 -25 0
-3 -22 0
-3 -12 0
-3 -8 0
-2 -79 0
-2 -76 0
-2 -74 0
-2 -65 0
-2 -64 0
-2 -63 0
-2 -57 0
-2 -48 0
-2 -34 0
-2 -26 0
-2 -23 0
-2 -13 0
-2 -12 0
-2 -6 0
-2 -3 0
-1 -79 0
-1 -76 0
-1 -73 0
-1 -68 0
-1 -62 0
-1 -60 0
-1 -45 0
-1 -43 0
-1 -42 0
-1 -39 0
-1 -36 0
-1 -32 0
-1 -28 0
-1 -24 0
-1 -9 0
1 9 18 24 28 42 45 62 76 0
2 3 12 34 53 57 63 65 79 0
4 16 29 43 47 52 64 80 81 0
5 25 36 46 48 49 59 61 69 0
6 22 35 37 39 66 67 70 75 0
7 17 21 23 54 55 71 72 73 0
8 15 20 27 30 31 56 60 74 0
10 11 14 26 32 38 44 51 77 0
13 19 33 40 41 50 58 68 78 0
