p cnf 64 400
-62 -63 0
-61 -64 0
-61 -63 0
-61 -62 0
-60 -64 0
-59 -64 0
-59 -60 0
-58 -64 0
-58 -61 0
-57 -64 0
-57 -61 0
-57 -58 0
-56 -60 0
-55 -63 0
-55 -62 0
-55 -61 0
-53 -58 0
-53 -55 0
-52 -63 0
-51 -63 0
-51 -62 0
-51 -61 0
-51 -59 0
-51 -55 0
-50 -63 0
-50 -62 0
-50 -61 0
-50 -55 0
-50 -51 0
-49 -59 0
-49 -51 0
-48 -54 0
-47 -62 0
-47 -57 0
-46 -56 0
-46 -50 0
-45 -57 0
-45 -55 0
-45 -53 0
-45 -47 0
-44 -59 0
-44 -58 0
-44 -53 0
-44 -51 0
-44 -49 0
-43 -56 0
-43 -46 0
-42 -60 0
-42 -58 0
-42 -56 0
-42 -53 0
-42 -44 0
-41 -64 0
-41 -61 0
-41 -58 0
-41 -57 0
-41 -52 0
-40 -63 0
-40 -62 0
-40 -61 0
-40 -55 0
-40 -51 0
-40 -50 0
-40 -43 0
-39 -63 0
-39 -56 0
-39 -52 0
-39 -46 0
-39 -43 0
-38 -62 0
-38 -52 0
-38 -47 0
-38 -41 0
-37 -54 0
-37 -48 0
-36 -54 0
-36 -48 0
-36 -37 0
-35 -49 0
-35 -43 0
-35 -40 0
-34 -58 0
-34 -53 0
-34 -50 0
-34 -46 0
-34 -44 0
-34 -42 0
-33 -63 0
-33 -62 0
-33 -61 0
-33 -60 0
-33 -56 0
-33 -55 0
-33 -51 0
-33 -50 0
-33 -42 0
-33 -40 0
-32 -54 0
-32 -48 0
-32 -37 0
-32 -36 0
-31 -63 0
-31 -58 0
-31 -53 0
-31 -52 0
-31 -44 0
-31 -42 0
-31 -39 0
-31 -34 0
-30 -50 0
-30 -49 0
-30 -46 0
-30 -35 0
-30 -34 0
-29 -59 0
-29 -56 0
-29 -51 0
-29 -49 0
-29 -46 0
-29 -44 0
-29 -43 0
-29 -39 0
-28 -55 0
-28 -53 0
-28 -52 0
-28 -45 0
-28 -41 0
-28 -38 0
-27 -63 0
-27 -52 0
-27 -49 0
-27 -39 0
-27 -35 0
-27 -31 0
-27 -30 0
-26 -64 0
-26 -63 0
-26 -60 0
-26 -59 0
-26 -52 0
-26 -39 0
-26 -31 0
-26 -27 0
-25 -62 0
-25 -56 0
-25 -47 0
-25 -46 0
-25 -43 0
-25 -39 0
-25 -38 0
-25 -29 0
-24 -54 0
-24 -48 0
-24 -37 0
-24 -36 0
-24 -32 0
-23 -57 0
-23 -50 0
-23 -47 0
-23 -46 0
-23 -45 0
-23 -34 0
-23 -30 0
-22 -64 0
-22 -60 0
-22 -59 0
-22 -43 0
-22 -40 0
-22 -35 0
-22 -26 0
-21 -64 0
-21 -62 0
-21 -60 0
-21 -59 0
-21 -47 0
-21 -38 0
-21 -26 0
-21 -25 0
-21 -22 0
-20 -64 0
-20 -60 0
-20 -59 0
-20 -50 0
-20 -46 0
-20 -34 0
-20 -30 0
-20 -26 0
-20 -23 0
-20 -22 0
-20 -21 0
-19 -52 0
-19 -43 0
-19 -41 0
-19 -40 0
-19 -38 0
-19 -35 0
-19 -28 0
-19 -22 0
-18 -54 0
-18 -48 0
-18 -37 0
-18 -36 0
-18 -32 0
-18 -24 0
-17 -59 0
-17 -52 0
-17 -51 0
-17 -49 0
-17 -44 0
-17 -41 0
-17 -38 0
-17 -29 0
-17 -28 0
-17 -19 0
-16 -64 0
-16 -61 0
-16 -58 0
-16 -57 0
-16 -49 0
-16 -41 0
-16 -35 0
-16 -30 0
-16 -27 0
-15 -56 0
-15 -55 0
-15 -53 0
-15 -46 0
-15 -45 0
-15 -43 0
-15 -39 0
-15 -29 0
-15 -28 0
-15 -25 0
-14 -60 0
-14 -56 0
-14 -49 0
-14 -42 0
-14 -35 0
-14 -33 0
-14 -30 0
-14 -27 0
-14 -16 0
-13 -57 0
-13 -47 0
-13 -45 0
-13 -43 0
-13 -40 0
-13 -35 0
-13 -23 0
-13 -22 0
-13 -19 0
-12 -64 0
-12 -60 0
-12 -59 0
-12 -55 0
-12 -53 0
-12 -45 0
-12 -28 0
-12 -26 0
-12 -22 0
-12 -21 0
-12 -20 0
-12 -15 0
-11 -63 0
-11 -57 0
-11 -52 0
-11 -47 0
-11 -45 0
-11 -39 0
-11 -31 0
-11 -27 0
-11 -26 0
-11 -23 0
-11 -13 0
-10 -54 0
-10 -48 0
-10 -37 0
-10 -36 0
-10 -32 0
-10 -24 0
-10 -18 0
-9 -59 0
-9 -57 0
-9 -51 0
-9 -49 0
-9 -47 0
-9 -45 0
-9 -44 0
-9 -29 0
-9 -23 0
-9 -17 0
-9 -13 0
-9 -11 0
-8 -58 0
-8 -53 0
-8 -44 0
-8 -43 0
-8 -42 0
-8 -40 0
-8 -35 0
-8 -34 0
-8 -31 0
-8 -22 0
-8 -19 0
-8 -13 0
-7 -60 0
-7 -56 0
-7 -52 0
-7 -42 0
-7 -41 0
-7 -38 0
-7 -33 0
-7 -28 0
-7 -19 0
-7 -17 0
-7 -14 0
-6 -62 0
-6 -58 0
-6 -53 0
-6 -47 0
-6 -44 0
-6 -42 0
-6 -38 0
-6 -34 0
-6 -31 0
-6 -25 0
-6 -21 0
-6 -8 0
-5 -60 0
-5 -57 0
-5 -56 0
-5 -47 0
-5 -45 0
-5 -42 0
-5 -33 0
-5 -23 0
-5 -14 0
-5 -13 0
-5 -11 0
-5 -9 0
-5 -7 0
-4 -55 0
-4 -53 0
-4 -49 0
-4 -45 0
-4 -35 0
-4 -30 0
-4 -28 0
-4 -27 0
-4 -16 0
-4 -15 0
-4 -14 0
-4 -12 0
-3 -64 0
-3 -61 0
-3 -58 0
-3 -57 0
-3 -56 0
-3 -46 0
-3 -43 0
-3 -41 0
-3 -39 0
-3 -29 0
-3 -25 0
-3 -16 0
-3 -15 0
-2 -52 0
-2 -50 0
-2 -46 0
-2 -41 0
-2 -38 0
-2 -34 0
-2 -30 0
-2 -28 0
-2 -23 0
-2 -20 0
-2 -19 0
-2 -17 0
-2 -7 0
-1 -62 0
-1 -49 0
-1 -47 0
-1 -38 0
-1 -35 0
-1 -30 0
-1 -27 0
-1 -25 0
-1 -21 0
-1 -16 0
-1 -14 0
-1 -6 0
-1 -4 0
1 6 21 25 37 38 47 62 0
2 20 23 30 34 46 50 54 0
3 16 18 41 57 58 61 64 0
4 12 15 28 36 45 53 55 0
5 7 14 24 33 42 56 60 0
8 10 13 19 22 35 40 43 0
9 17 29 44 48 49 51 59 0
11 26 27 31 32 39 52 63 0
