p cnf 49 259
-47 -48 0
-44 -45 0
-43 -49 0
-41 -47 0
-41 -46 0
-40 -48 0
-39 -46 0
-39 -40 0
-38 -49 0
-38 -42 0
-37 -47 0
-37 -41 0
-37 -40 0
-37 -39 0
-36 -46 0
-36 -41 0
-35 -48 0
-35 -42 0
-35 -40 0
-35 -38 0
-34 -49 0
-34 -48 0
-34 -43 0
-34 -40 0
-34 -35 0
-33 -48 0
-33 -47 0
-33 -42 0
-32 -49 0
-32 -38 0
-31 -45 0
-31 -44 0
-30 -49 0
-30 -46 0
-30 -43 0
-30 -39 0
-30 -34 0
-29 -46 0
-29 -39 0
-29 -32 0
-29 -30 0
-28 -46 0
-28 -43 0
-28 -41 0
-28 -36 0
-27 -45 0
-27 -44 0
-27 -31 0
-26 -40 0
-26 -39 0
-26 -37 0
-26 -36 0
-25 -48 0
-25 -40 0
-25 -35 0
-25 -34 0
-25 -32 0
-25 -29 0
-24 -49 0
-24 -43 0
-24 -42 0
-24 -34 0
-24 -33 0
-24 -30 0
-23 -49 0
-23 -48 0
-23 -47 0
-23 -38 0
-23 -33 0
-23 -32 0
-22 -46 0
-22 -42 0
-22 -39 0
-22 -38 0
-22 -35 0
-22 -30 0
-22 -29 0
-21 -36 0
-21 -32 0
-21 -29 0
-21 -26 0
-21 -25 0
-20 -45 0
-20 -44 0
-20 -31 0
-20 -27 0
-19 -49 0
-19 -47 0
-19 -43 0
-19 -41 0
-19 -37 0
-19 -34 0
-19 -30 0
-19 -24 0
-18 -48 0
-18 -47 0
-18 -43 0
-18 -33 0
-18 -28 0
-18 -23 0
-17 -47 0
-17 -42 0
-17 -41 0
-17 -38 0
-17 -37 0
-17 -35 0
-17 -22 0
-17 -19 0
-16 -49 0
-16 -40 0
-16 -39 0
-16 -38 0
-16 -37 0
-16 -32 0
-16 -26 0
-16 -23 0
-15 -42 0
-15 -40 0
-15 -39 0
-15 -37 0
-15 -33 0
-15 -26 0
-15 -24 0
-15 -16 0
-14 -48 0
-14 -47 0
-14 -36 0
-14 -33 0
-14 -26 0
-14 -23 0
-14 -21 0
-14 -18 0
-13 -43 0
-13 -32 0
-13 -29 0
-13 -28 0
-13 -25 0
-13 -21 0
-13 -18 0
-12 -46 0
-12 -42 0
-12 -41 0
-12 -36 0
-12 -33 0
-12 -28 0
-12 -24 0
-12 -15 0
-11 -45 0
-11 -44 0
-11 -31 0
-11 -27 0
-11 -20 0
-10 -48 0
-10 -47 0
-10 -46 0
-10 -39 0
-10 -33 0
-10 -30 0
-10 -29 0
-10 -23 0
-10 -22 0
-10 -18 0
-10 -14 0
-9 -49 0
-9 -43 0
-9 -36 0
-9 -34 0
-9 -30 0
-9 -26 0
-9 -24 0
-9 -21 0
-9 -19 0
-9 -14 0
-8 -45 0
-8 -44 0
-8 -31 0
-8 -27 0
-8 -20 0
-8 -11 0
-7 -42 0
-7 -33 0
-7 -32 0
-7 -29 0
-7 -25 0
-7 -24 0
-7 -21 0
-7 -15 0
-7 -13 0
-7 -12 0
-6 -48 0
-6 -46 0
-6 -41 0
-6 -40 0
-6 -36 0
-6 -35 0
-6 -34 0
-6 -28 0
-6 -25 0
-6 -12 0
-5 -43 0
-5 -42 0
-5 -38 0
-5 -35 0
-5 -28 0
-5 -22 0
-5 -18 0
-5 -17 0
-5 -13 0
-4 -47 0
-4 -41 0
-4 -37 0
-4 -32 0
-4 -29 0
-4 -25 0
-4 -21 0
-4 -19 0
-4 -17 0
-4 -13 0
-4 -7 0
-3 -43 0
-3 -40 0
-3 -39 0
-3 -37 0
-3 -28 0
-3 -26 0
-3 -18 0
-3 -16 0
-3 -15 0
-3 -13 0
-3 -5 0
-2 -49 0
-2 -46 0
-2 -41 0
-2 -38 0
-2 -36 0
-2 -32 0
-2 -28 0
-2 -23 0
-2 -16 0
-2 -12 0
-2 -6 0
-1 -42 0
-1 -38 0
-1 -36 0
-1 -35 0
-1 -26 0
-1 -22 0
-1 -21 0
-1 -17 0
-1 -14 0
-1 -9 0
-1 -5 0
1 8 9 14 21 26 36 0
2 16 20 23 32 38 49 0
3 5 13 18 28 43 44 0
4 11 17 19 37 41 47 0
6 25 34 35 40 45 48 0
7 12 15 24 31 33 42 0
10 22 27 29 30 39 46 0
