p cnf 49 259
-47 -48 0
-46 -49 0
-42 -49 0
-42 -44 0
-41 -48 0
-41 -47 0
-40 -48 0
-40 -47 0
-40 -45 0
-40 -41 0
-39 -43 0
-38 -49 0
-38 -46 0
-38 -44 0
-37 -47 0
-36 -44 0
-36 -38 0
-35 -47 0
-35 -44 0
-35 -42 0
-35 -37 0
-34 -44 0
-34 -38 0
-34 -37 0
-34 -36 0
-33 -49 0
-33 -46 0
-33 -41 0
-33 -38 0
-32 -43 0
-32 -39 0
-31 -49 0
-31 -48 0
-31 -46 0
-31 -38 0
-31 -33 0
-30 -46 0
-30 -37 0
-30 -34 0
-29 -48 0
-29 -36 0
-29 -31 0
-28 -47 0
-28 -45 0
-28 -37 0
-28 -35 0
-27 -49 0
-27 -45 0
-27 -42 0
-27 -28 0
-26 -46 0
-26 -45 0
-26 -30 0
-26 -28 0
-26 -27 0
-25 -45 0
-25 -41 0
-25 -33 0
-25 -28 0
-25 -27 0
-25 -26 0
-24 -48 0
-24 -44 0
-24 -42 0
-24 -35 0
-24 -31 0
-24 -29 0
-23 -48 0
-23 -45 0
-23 -31 0
-23 -29 0
-23 -28 0
-23 -27 0
-23 -26 0
-23 -25 0
-23 -24 0
-22 -45 0
-22 -44 0
-22 -42 0
-22 -40 0
-22 -35 0
-22 -24 0
-21 -41 0
-21 -37 0
-21 -34 0
-21 -33 0
-21 -30 0
-21 -25 0
-20 -48 0
-20 -47 0
-20 -46 0
-20 -41 0
-20 -40 0
-20 -30 0
-20 -26 0
-19 -49 0
-19 -42 0
-19 -36 0
-19 -29 0
-19 -27 0
-18 -49 0
-18 -42 0
-18 -37 0
-18 -34 0
-18 -30 0
-18 -27 0
-18 -21 0
-18 -19 0
-17 -46 0
-17 -44 0
-17 -42 0
-17 -35 0
-17 -30 0
-17 -26 0
-17 -24 0
-17 -22 0
-17 -20 0
-16 -45 0
-16 -44 0
-16 -38 0
-16 -36 0
-16 -34 0
-16 -28 0
-16 -27 0
-16 -26 0
-16 -25 0
-16 -23 0
-15 -45 0
-15 -40 0
-15 -36 0
-15 -29 0
-15 -22 0
-15 -19 0
-14 -44 0
-14 -42 0
-14 -41 0
-14 -35 0
-14 -33 0
-14 -25 0
-14 -24 0
-14 -22 0
-14 -21 0
-14 -17 0
-13 -49 0
-13 -47 0
-13 -46 0
-13 -38 0
-13 -37 0
-13 -35 0
-13 -33 0
-13 -31 0
-13 -28 0
-12 -41 0
-12 -36 0
-12 -33 0
-12 -29 0
-12 -25 0
-12 -21 0
-12 -19 0
-12 -15 0
-12 -14 0
-11 -43 0
-11 -39 0
-11 -32 0
-10 -48 0
-10 -37 0
-10 -34 0
-10 -31 0
-10 -30 0
-10 -29 0
-10 -24 0
-10 -23 0
-10 -21 0
-10 -18 0
-9 -49 0
-9 -48 0
-9 -47 0
-9 -42 0
-9 -41 0
-9 -40 0
-9 -27 0
-9 -20 0
-9 -19 0
-9 -18 0
-8 -43 0
-8 -39 0
-8 -32 0
-8 -11 0
-7 -43 0
-7 -39 0
-7 -32 0
-7 -11 0
-7 -8 0
-6 -45 0
-6 -40 0
-6 -37 0
-6 -34 0
-6 -30 0
-6 -22 0
-6 -21 0
-6 -18 0
-6 -15 0
-6 -10 0
-5 -43 0
-5 -39 0
-5 -32 0
-5 -11 0
-5 -8 0
-5 -7 0
-4 -49 0
-4 -46 0
-4 -45 0
-4 -40 0
-4 -38 0
-4 -33 0
-4 -31 0
-4 -22 0
-4 -15 0
-4 -13 0
-4 -6 0
-3 -47 0
-3 -37 0
-3 -36 0
-3 -35 0
-3 -29 0
-3 -28 0
-3 -19 0
-3 -15 0
-3 -13 0
-3 -12 0
-2 -48 0
-2 -47 0
-2 -44 0
-2 -41 0
-2 -40 0
-2 -38 0
-2 -36 0
-2 -34 0
-2 -20 0
-2 -16 0
-2 -9 0
-1 -46 0
-1 -36 0
-1 -30 0
-1 -29 0
-1 -26 0
-1 -20 0
-1 -19 0
-1 -17 0
-1 -15 0
-1 -12 0
-1 -3 0
1 17 20 26 30 32 46 0
2 16 34 36 38 43 44 0
3 13 28 35 37 39 47 0
4 5 6 15 22 40 45 0
7 12 14 21 25 33 41 0
8 9 18 19 27 42 49 0
10 11 23 24 29 31 48 0
