p cnf 81 585
-78 -80 0
-78 -79 0
-77 -81 0
-75 -81 0
-73 -76 0
-72 -79 0
-72 -78 0
-71 -81 0
-71 -77 0
-70 -79 0
-70 -78 0
-70 -75 0
-70 -72 0
-69 -74 0
-68 -74 0
-68 -69 0
-67 -79 0
-67 -77 0
-65 -76 0
-65 -73 0
-65 -72 0
-64 -79 0
-64 -76 0
-64 -73 0
-64 -67 0
-64 -65 0
-63 -79 0
-63 -78 0
-63 -72 0
-63 -70 0
-62 -80 0
-62 -76 0
-61 -77 0
-61 -75 0
-61 -70 0
-61 -67 0
-60 -77 0
-60 -67 0
-60 -63 0
-60 -61 0
-59 -79 0
-59 -78 0
-59 -76 0
-59 -72 0
-59 -70 0
-59 -63 0
-59 -62 0
-58 -72 0
-58 -66 0
-58 -65 0
-57 -77 0
-57 -67 0
-57 -66 0
-57 -61 0
-57 -60 0
-56 -76 0
-56 -73 0
-56 -66 0
-56 -65 0
-56 -64 0
-56 -57 0
-55 -76 0
-55 -73 0
-55 -65 0
-55 -64 0
-55 -63 0
-55 -60 0
-55 -56 0
-54 -71 0
-54 -63 0
-54 -60 0
-54 -55 0
-53 -75 0
-53 -70 0
-53 -66 0
-53 -61 0
-53 -58 0
-52 -81 0
-52 -75 0
-52 -73 0
-51 -66 0
-51 -63 0
-51 -60 0
-51 -58 0
-51 -55 0
-51 -54 0
-51 -53 0
-50 -80 0
-50 -78 0
-50 -76 0
-50 -73 0
-50 -65 0
-50 -64 0
-50 -56 0
-50 -55 0
-49 -81 0
-49 -77 0
-49 -76 0
-49 -73 0
-49 -71 0
-49 -65 0
-49 -64 0
-49 -56 0
-49 -55 0
-49 -50 0
-48 -79 0
-48 -67 0
-48 -64 0
-47 -73 0
-47 -66 0
-47 -58 0
-47 -53 0
-47 -52 0
-47 -51 0
-46 -80 0
-46 -78 0
-46 -71 0
-46 -54 0
-46 -50 0
-45 -80 0
-45 -78 0
-45 -66 0
-45 -58 0
-45 -53 0
-45 -51 0
-45 -50 0
-45 -47 0
-45 -46 0
-44 -81 0
-44 -80 0
-44 -77 0
-44 -71 0
-44 -62 0
-44 -49 0
-43 -80 0
-43 -78 0
-43 -77 0
-43 -67 0
-43 -61 0
-43 -60 0
-43 -57 0
-43 -50 0
-43 -46 0
-43 -45 0
-42 -63 0
-42 -60 0
-42 -55 0
-42 -54 0
-42 -51 0
-42 -48 0
-41 -79 0
-41 -78 0
-41 -72 0
-41 -70 0
-41 -66 0
-41 -63 0
-41 -59 0
-41 -57 0
-41 -56 0
-40 -72 0
-40 -71 0
-40 -65 0
-40 -58 0
-40 -54 0
-40 -46 0
-39 -74 0
-39 -69 0
-39 -68 0
-38 -80 0
-38 -75 0
-38 -70 0
-38 -62 0
-38 -61 0
-38 -53 0
-38 -44 0
-37 -80 0
-37 -73 0
-37 -62 0
-37 -52 0
-37 -47 0
-37 -44 0
-37 -38 0
-36 -80 0
-36 -72 0
-36 -65 0
-36 -62 0
-36 -58 0
-36 -44 0
-36 -40 0
-36 -38 0
-36 -37 0
-35 -81 0
-35 -77 0
-35 -71 0
-35 -49 0
-35 -48 0
-35 -44 0
-35 -42 0
-34 -76 0
-34 -75 0
-34 -73 0
-34 -70 0
-34 -65 0
-34 -64 0
-34 -61 0
-34 -56 0
-34 -55 0
-34 -53 0
-34 -50 0
-34 -49 0
-34 -38 0
-33 -79 0
-33 -67 0
-33 -66 0
-33 -64 0
-33 -58 0
-33 -53 0
-33 -51 0
-33 -48 0
-33 -47 0
-33 -45 0
-32 -75 0
-32 -70 0
-32 -61 0
-32 -53 0
-32 -48 0
-32 -42 0
-32 -38 0
-32 -35 0
-32 -34 0
-31 -77 0
-31 -76 0
-31 -67 0
-31 -62 0
-31 -61 0
-31 -60 0
-31 -59 0
-31 -57 0
-31 -43 0
-30 -80 0
-30 -79 0
-30 -67 0
-30 -64 0
-30 -62 0
-30 -48 0
-30 -44 0
-30 -38 0
-30 -37 0
-30 -36 0
-30 -33 0
-29 -80 0
-29 -78 0
-29 -50 0
-29 -48 0
-29 -46 0
-29 -45 0
-29 -43 0
-29 -42 0
-29 -35 0
-29 -32 0
-28 -76 0
-28 -62 0
-28 -59 0
-28 -48 0
-28 -42 0
-28 -35 0
-28 -32 0
-28 -31 0
-28 -29 0
-27 -81 0
-27 -79 0
-27 -75 0
-27 -67 0
-27 -64 0
-27 -52 0
-27 -48 0
-27 -33 0
-27 -30 0
-26 -66 0
-26 -57 0
-26 -56 0
-26 -48 0
-26 -42 0
-26 -41 0
-26 -35 0
-26 -32 0
-26 -29 0
-26 -28 0
-25 -71 0
-25 -66 0
-25 -57 0
-25 -56 0
-25 -54 0
-25 -46 0
-25 -41 0
-25 -40 0
-25 -26 0
-24 -75 0
-24 -71 0
-24 -70 0
-24 -61 0
-24 -54 0
-24 -53 0
-24 -46 0
-24 -40 0
-24 -38 0
-24 -34 0
-24 -32 0
-24 -25 0
-23 -74 0
-23 -69 0
-23 -68 0
-23 -39 0
-22 -73 0
-22 -52 0
-22 -48 0
-22 -47 0
-22 -42 0
-22 -37 0
-22 -35 0
-22 -32 0
-22 -29 0
-22 -28 0
-22 -26 0
-21 -73 0
-21 -71 0
-21 -54 0
-21 -52 0
-21 -47 0
-21 -46 0
-21 -40 0
-21 -37 0
-21 -25 0
-21 -24 0
-21 -22 0
-20 -77 0
-20 -73 0
-20 -67 0
-20 -61 0
-20 -60 0
-20 -57 0
-20 -52 0
-20 -47 0
-20 -43 0
-20 -37 0
-20 -31 0
-20 -22 0
-20 -21 0
-19 -81 0
-19 -76 0
-19 -75 0
-19 -62 0
-19 -59 0
-19 -52 0
-19 -31 0
-19 -28 0
-19 -27 0
-18 -74 0
-18 -69 0
-18 -68 0
-18 -39 0
-18 -23 0
-17 -79 0
-17 -78 0
-17 -73 0
-17 -72 0
-17 -70 0
-17 -63 0
-17 -59 0
-17 -52 0
-17 -47 0
-17 -41 0
-17 -37 0
-17 -22 0
-17 -21 0
-17 -20 0
-16 -81 0
-16 -75 0
-16 -72 0
-16 -65 0
-16 -58 0
-16 -52 0
-16 -40 0
-16 -36 0
-16 -27 0
-16 -19 0
-15 -81 0
-15 -79 0
-15 -78 0
-15 -77 0
-15 -72 0
-15 -71 0
-15 -70 0
-15 -63 0
-15 -59 0
-15 -49 0
-15 -44 0
-15 -41 0
-15 -35 0
-15 -17 0
-14 -80 0
-14 -66 0
-14 -62 0
-14 -57 0
-14 -56 0
-14 -44 0
-14 -41 0
-14 -38 0
-14 -37 0
-14 -36 0
-14 -30 0
-14 -26 0
-14 -25 0
-13 -77 0
-13 -72 0
-13 -67 0
-13 -65 0
-13 -61 0
-13 -60 0
-13 -58 0
-13 -57 0
-13 -43 0
-13 -40 0
-13 -36 0
-13 -31 0
-13 -20 0
-13 -16 0
-12 -81 0
-12 -77 0
-12 -71 0
-12 -66 0
-12 -58 0
-12 -53 0
-12 -51 0
-12 -49 0
-12 -47 0
-12 -45 0
-12 -44 0
-12 -35 0
-12 -33 0
-12 -15 0
-11 -72 0
-11 -65 0
-11 -58 0
-11 -48 0
-11 -42 0
-11 -40 0
-11 -36 0
-11 -35 0
-11 -32 0
-11 -29 0
-11 -28 0
-11 -26 0
-11 -22 0
-11 -16 0
-11 -13 0
-10 -79 0
-10 -71 0
-10 -67 0
-10 -64 0
-10 -54 0
-10 -48 0
-10 -46 0
-10 -40 0
-10 -33 0
-10 -30 0
-10 -27 0
-10 -25 0
-10 -24 0
-10 -21 0
-9 -81 0
-9 -75 0
-9 -63 0
-9 -60 0
-9 -55 0
-9 -54 0
-9 -52 0
-9 -51 0
-9 -42 0
-9 -27 0
-9 -19 0
-9 -16 0
-8 -81 0
-8 -80 0
-8 -78 0
-8 -75 0
-8 -52 0
-8 -50 0
-8 -46 0
-8 -45 0
-8 -43 0
-8 -29 0
-8 -27 0
-8 -19 0
-8 -16 0
-8 -9 0
-7 -74 0
-7 -69 0
-7 -68 0
-7 -39 0
-7 -23 0
-7 -18 0
-6 -74 0
-6 -69 0
-6 -68 0
-6 -39 0
-6 -23 0
-6 -18 0
-6 -7 0
-5 -76 0
-5 -71 0
-5 -62 0
-5 -59 0
-5 -54 0
-5 -46 0
-5 -40 0
-5 -31 0
-5 -28 0
-5 -25 0
-5 -24 0
-5 -21 0
-5 -19 0
-5 -10 0
-4 -80 0
-4 -63 0
-4 -62 0
-4 -60 0
-4 -55 0
-4 -54 0
-4 -51 0
-4 -44 0
-4 -42 0
-4 -38 0
-4 -37 0
-4 -36 0
-4 -30 0
-4 -14 0
-4 -9 0
-3 -74 0
-3 -69 0
-3 -68 0
-3 -39 0
-3 -23 0
-3 -18 0
-3 -7 0
-3 -6 0
-2 -76 0
-2 -66 0
-2 -62 0
-2 -59 0
-2 -58 0
-2 -53 0
-2 -51 0
-2 -47 0
-2 -45 0
-2 -33 0
-2 -31 0
-2 -28 0
-2 -19 0
-2 -12 0
-2 -5 0
-1 -81 0
-1 -75 0
-1 -66 0
-1 -57 0
-1 -56 0
-1 -52 0
-1 -41 0
-1 -27 0
-1 -26 0
-1 -25 0
-1 -19 0
-1 -16 0
-1 -14 0
-1 -9 0
-1 -8 0
1 14 23 25 26 41 56 57 66 0
2 5 7 19 28 31 59 62 76 0
3 17 20 21 22 37 47 52 73 0
4 9 42 51 54 55 60 63 68 0
6 24 32 34 38 53 61 70 75 0
8 29 43 45 46 50 69 78 80 0
10 27 30 33 39 48 64 67 79 0
11 13 16 36 40 58 65 72 74 0
12 15 18 35 44 49 71 77 81 0
