p cnf 81 585
-73 -80 0
-73 -74 0
-72 -81 0
-72 -78 0
-71 -81 0
-71 -79 0
-70 -74 0
-69 -81 0
-69 -71 0
-68 -77 0
-67 -79 0
-67 -74 0
-67 -71 0
-67 -70 0
-66 -75 0
-66 -69 0
-65 -79 0
-65 -76 0
-64 -77 0
-64 -68 0
-63 -80 0
-63 -74 0
-63 -70 0
-63 -67 0
-62 -81 0
-62 -75 0
-62 -72 0
-62 -66 0
-61 -80 0
-61 -76 0
-61 -63 0
-60 -78 0
-60 -76 0
-60 -72 0
-60 -65 0
-59 -75 0
-58 -80 0
-58 -76 0
-58 -73 0
-58 -65 0
-58 -60 0
-57 -81 0
-57 -79 0
-57 -72 0
-57 -65 0
-57 -62 0
-56 -80 0
-56 -78 0
-56 -73 0
-56 -58 0
-55 -78 0
-55 -74 0
-55 -73 0
-55 -72 0
-55 -60 0
-54 -76 0
-54 -70 0
-54 -61 0
-53 -78 0
-53 -72 0
-53 -69 0
-53 -66 0
-53 -60 0
-53 -55 0
-52 -78 0
-52 -75 0
-52 -66 0
-52 -62 0
-52 -56 0
-51 -81 0
-51 -76 0
-51 -71 0
-51 -69 0
-51 -65 0
-51 -60 0
-51 -58 0
-50 -75 0
-50 -74 0
-50 -70 0
-50 -67 0
-50 -63 0
-50 -59 0
-49 -79 0
-49 -78 0
-49 -65 0
-49 -57 0
-49 -56 0
-49 -52 0
-48 -81 0
-48 -80 0
-48 -73 0
-48 -72 0
-48 -62 0
-48 -58 0
-48 -57 0
-48 -56 0
-47 -76 0
-47 -75 0
-47 -61 0
-47 -59 0
-47 -54 0
-47 -50 0
-46 -81 0
-46 -72 0
-46 -62 0
-46 -59 0
-46 -57 0
-46 -48 0
-45 -80 0
-45 -75 0
-45 -66 0
-45 -63 0
-45 -62 0
-45 -61 0
-45 -52 0
-44 -80 0
-44 -63 0
-44 -61 0
-44 -59 0
-44 -46 0
-44 -45 0
-43 -81 0
-43 -75 0
-43 -71 0
-43 -69 0
-43 -59 0
-43 -51 0
-43 -50 0
-43 -47 0
-42 -81 0
-42 -74 0
-42 -73 0
-42 -71 0
-42 -69 0
-42 -55 0
-42 -51 0
-42 -43 0
-41 -80 0
-41 -79 0
-41 -65 0
-41 -63 0
-41 -61 0
-41 -57 0
-41 -49 0
-41 -45 0
-41 -44 0
-40 -80 0
-40 -79 0
-40 -73 0
-40 -71 0
-40 -67 0
-40 -58 0
-40 -56 0
-40 -48 0
-39 -74 0
-39 -70 0
-39 -69 0
-39 -67 0
-39 -66 0
-39 -63 0
-39 -53 0
-39 -50 0
-38 -79 0
-38 -76 0
-38 -71 0
-38 -67 0
-38 -61 0
-38 -54 0
-38 -47 0
-38 -40 0
-37 -80 0
-37 -75 0
-37 -73 0
-37 -59 0
-37 -58 0
-37 -56 0
-37 -50 0
-37 -48 0
-37 -47 0
-37 -43 0
-37 -40 0
-36 -79 0
-36 -75 0
-36 -65 0
-36 -59 0
-36 -57 0
-36 -50 0
-36 -49 0
-36 -47 0
-36 -43 0
-36 -41 0
-36 -37 0
-35 -70 0
-35 -59 0
-35 -54 0
-35 -46 0
-35 -44 0
-34 -79 0
-34 -70 0
-34 -65 0
-34 -57 0
-34 -54 0
-34 -49 0
-34 -41 0
-34 -36 0
-34 -35 0
-33 -76 0
-33 -75 0
-33 -66 0
-33 -65 0
-33 -62 0
-33 -60 0
-33 -58 0
-33 -52 0
-33 -51 0
-33 -45 0
-32 -77 0
-32 -68 0
-32 -64 0
-31 -81 0
-31 -80 0
-31 -71 0
-31 -69 0
-31 -63 0
-31 -61 0
-31 -51 0
-31 -45 0
-31 -44 0
-31 -43 0
-31 -42 0
-31 -41 0
-30 -79 0
-30 -69 0
-30 -66 0
-30 -65 0
-30 -57 0
-30 -53 0
-30 -49 0
-30 -41 0
-30 -39 0
-30 -36 0
-30 -34 0
-29 -76 0
-29 -74 0
-29 -73 0
-29 -61 0
-29 -55 0
-29 -54 0
-29 -47 0
-29 -42 0
-29 -38 0
-28 -78 0
-28 -59 0
-28 -56 0
-28 -52 0
-28 -49 0
-28 -46 0
-28 -44 0
-28 -35 0
-27 -75 0
-27 -74 0
-27 -73 0
-27 -66 0
-27 -62 0
-27 -55 0
-27 -52 0
-27 -45 0
-27 -42 0
-27 -33 0
-27 -29 0
-26 -80 0
-26 -73 0
-26 -70 0
-26 -58 0
-26 -56 0
-26 -54 0
-26 -48 0
-26 -40 0
-26 -37 0
-26 -35 0
-26 -34 0
-25 -79 0
-25 -71 0
-25 -67 0
-25 -59 0
-25 -46 0
-25 -44 0
-25 -40 0
-25 -38 0
-25 -35 0
-25 -28 0
-24 -74 0
-24 -73 0
-24 -59 0
-24 -55 0
-24 -46 0
-24 -44 0
-24 -42 0
-24 -35 0
-24 -29 0
-24 -28 0
-24 -27 0
-24 -25 0
-23 -76 0
-23 -65 0
-23 -60 0
-23 -59 0
-23 -58 0
-23 -51 0
-23 -46 0
-23 -44 0
-23 -35 0
-23 -33 0
-23 -28 0
-23 -25 0
-23 -24 0
-22 -77 0
-22 -68 0
-22 -64 0
-22 -32 0
-21 -80 0
-21 -78 0
-21 -72 0
-21 -63 0
-21 -61 0
-21 -60 0
-21 -55 0
-21 -53 0
-21 -45 0
-21 -44 0
-21 -41 0
-21 -31 0
-20 -79 0
-20 -74 0
-20 -73 0
-20 -65 0
-20 -57 0
-20 -55 0
-20 -49 0
-20 -42 0
-20 -41 0
-20 -36 0
-20 -34 0
-20 -30 0
-20 -29 0
-20 -27 0
-20 -24 0
-19 -81 0
-19 -76 0
-19 -72 0
-19 -62 0
-19 -61 0
-19 -57 0
-19 -54 0
-19 -48 0
-19 -47 0
-19 -46 0
-19 -38 0
-19 -29 0
-18 -79 0
-18 -75 0
-18 -71 0
-18 -67 0
-18 -66 0
-18 -62 0
-18 -52 0
-18 -45 0
-18 -40 0
-18 -38 0
-18 -33 0
-18 -27 0
-18 -25 0
-17 -75 0
-17 -70 0
-17 -66 0
-17 -62 0
-17 -54 0
-17 -52 0
-17 -45 0
-17 -35 0
-17 -34 0
-17 -33 0
-17 -27 0
-17 -26 0
-17 -18 0
-16 -77 0
-16 -68 0
-16 -64 0
-16 -32 0
-16 -22 0
-15 -79 0
-15 -78 0
-15 -72 0
-15 -71 0
-15 -67 0
-15 -60 0
-15 -55 0
-15 -53 0
-15 -40 0
-15 -38 0
-15 -25 0
-15 -21 0
-15 -18 0
-14 -77 0
-14 -68 0
-14 -64 0
-14 -32 0
-14 -22 0
-14 -16 0
-13 -78 0
-13 -72 0
-13 -70 0
-13 -60 0
-13 -55 0
-13 -54 0
-13 -53 0
-13 -35 0
-13 -34 0
-13 -26 0
-13 -21 0
-13 -17 0
-13 -15 0
-12 -80 0
-12 -73 0
-12 -69 0
-12 -66 0
-12 -58 0
-12 -56 0
-12 -53 0
-12 -48 0
-12 -40 0
-12 -39 0
-12 -37 0
-12 -30 0
-12 -26 0
-11 -76 0
-11 -69 0
-11 -66 0
-11 -61 0
-11 -54 0
-11 -53 0
-11 -47 0
-11 -39 0
-11 -38 0
-11 -30 0
-11 -29 0
-11 -19 0
-11 -12 0
-10 -77 0
-10 -68 0
-10 -64 0
-10 -32 0
-10 -22 0
-10 -16 0
-10 -14 0
-9 -76 0
-9 -74 0
-9 -70 0
-9 -67 0
-9 -65 0
-9 -63 0
-9 -60 0
-9 -58 0
-9 -51 0
-9 -50 0
-9 -39 0
-9 -33 0
-9 -23 0
-8 -78 0
-8 -74 0
-8 -70 0
-8 -67 0
-8 -63 0
-8 -56 0
-8 -52 0
-8 -50 0
-8 -49 0
-8 -39 0
-8 -28 0
-8 -9 0
-7 -81 0
-7 -74 0
-7 -72 0
-7 -70 0
-7 -67 0
-7 -63 0
-7 -62 0
-7 -57 0
-7 -50 0
-7 -48 0
-7 -46 0
-7 -39 0
-7 -19 0
-7 -9 0
-7 -8 0
-6 -81 0
-6 -78 0
-6 -71 0
-6 -69 0
-6 -56 0
-6 -52 0
-6 -51 0
-6 -49 0
-6 -43 0
-6 -42 0
-6 -31 0
-6 -28 0
-6 -8 0
-5 -78 0
-5 -75 0
-5 -72 0
-5 -60 0
-5 -59 0
-5 -55 0
-5 -53 0
-5 -50 0
-5 -47 0
-5 -43 0
-5 -37 0
-5 -36 0
-5 -21 0
-5 -15 0
-5 -13 0
-4 -69 0
-4 -66 0
-4 -59 0
-4 -53 0
-4 -46 0
-4 -44 0
-4 -39 0
-4 -35 0
-4 -30 0
-4 -28 0
-4 -25 0
-4 -24 0
-4 -23 0
-4 -12 0
-4 -11 0
-3 -77 0
-3 -68 0
-3 -64 0
-3 -32 0
-3 -22 0
-3 -16 0
-3 -14 0
-3 -10 0
-2 -81 0
-2 -71 0
-2 -70 0
-2 -69 0
-2 -54 0
-2 -51 0
-2 -43 0
-2 -42 0
-2 -35 0
-2 -34 0
-2 -31 0
-2 -26 0
-2 -17 0
-2 -13 0
-2 -6 0
-1 -78 0
-1 -76 0
-1 -61 0
-1 -56 0
-1 -54 0
-1 -52 0
-1 -49 0
-1 -47 0
-1 -38 0
-1 -29 0
-1 -28 0
-1 -19 0
-1 -11 0
-1 -8 0
-1 -6 0
1 6 8 28 49 52 56 77 78 0
2 3 13 17 26 34 35 54 70 0
4 11 12 14 30 39 53 66 69 0
5 32 36 37 43 47 50 59 75 0
7 19 22 46 48 57 62 72 81 0
9 23 33 51 58 60 65 68 76 0
10 20 24 27 29 42 55 73 74 0
15 18 25 38 40 64 67 71 79 0
16 21 31 41 44 45 61 63 80 0
