p cnf 36 156
-33 -35 0
-33 -34 0
-32 -34 0
-30 -35 0
-30 -33 0
-29 -36 0
-28 -29 0
-27 -31 0
-26 -34 0
-26 -32 0
-26 -30 0
-25 -36 0
-25 -34 0
-25 -32 0
-25 -26 0
-24 -36 0
-24 -35 0
-24 -29 0
-23 -36 0
-23 -32 0
-23 -29 0
-23 -24 0
-22 -34 0
-22 -32 0
-22 -29 0
-22 -28 0
-22 -26 0
-22 -25 0
-21 -30 0
-21 -26 0
-20 -31 0
-20 -27 0
-19 -30 0
-19 -28 0
-19 -26 0
-19 -21 0
-18 -34 0
-18 -33 0
-18 -28 0
-18 -19 0
-17 -36 0
-17 -35 0
-17 -33 0
-17 -30 0
-17 -25 0
-16 -35 0
-16 -24 0
-16 -21 0
-15 -36 0
-15 -28 0
-15 -25 0
-15 -19 0
-15 -18 0
-15 -17 0
-14 -31 0
-14 -27 0
-14 -20 0
-13 -32 0
-13 -23 0
-13 -21 0
-13 -16 0
-12 -32 0
-12 -28 0
-12 -23 0
-12 -19 0
-12 -18 0
-12 -15 0
-12 -13 0
-11 -31 0
-11 -27 0
-11 -20 0
-11 -14 0
-10 -35 0
-10 -34 0
-10 -32 0
-10 -26 0
-10 -25 0
-10 -24 0
-10 -22 0
-10 -16 0
-9 -35 0
-9 -28 0
-9 -24 0
-9 -19 0
-9 -18 0
-9 -16 0
-9 -15 0
-9 -12 0
-9 -10 0
-8 -31 0
-8 -27 0
-8 -20 0
-8 -14 0
-8 -11 0
-7 -29 0
-7 -28 0
-7 -22 0
-7 -21 0
-7 -16 0
-7 -13 0
-6 -34 0
-6 -33 0
-6 -21 0
-6 -18 0
-6 -16 0
-6 -13 0
-6 -7 0
-5 -35 0
-5 -33 0
-5 -30 0
-5 -29 0
-5 -28 0
-5 -22 0
-5 -17 0
-5 -7 0
-4 -36 0
-4 -34 0
-4 -33 0
-4 -29 0
-4 -24 0
-4 -23 0
-4 -18 0
-4 -6 0
-3 -35 0
-3 -33 0
-3 -32 0
-3 -30 0
-3 -23 0
-3 -17 0
-3 -13 0
-3 -12 0
-3 -5 0
-2 -36 0
-2 -30 0
-2 -29 0
-2 -26 0
-2 -24 0
-2 -23 0
-2 -21 0
-2 -19 0
-2 -4 0
-1 -36 0
-1 -25 0
-1 -21 0
-1 -17 0
-1 -16 0
-1 -15 0
-1 -13 0
-1 -7 0
-1 -6 0
1 14 15 17 25 36 0
2 11 19 21 26 30 0
3 12 13 20 23 32 0
4 6 18 27 33 34 0
5 7 8 22 28 29 0
9 10 16 24 31 35 0
