p cnf 49 259
-45 -49 0
-44 -47 0
-43 -46 0
-41 -48 0
-41 -42 0
-40 -47 0
-40 -44 0
-39 -44 0
-38 -47 0
-38 -39 0
-37 -48 0
-36 -49 0
-36 -45 0
-35 -48 0
-35 -47 0
-35 -38 0
-35 -37 0
-34 -48 0
-34 -42 0
-34 -37 0
-34 -35 0
-33 -46 0
-33 -44 0
-33 -39 0
-32 -46 0
-32 -42 0
-32 -34 0
-32 -33 0
-31 -47 0
-31 -46 0
-31 -38 0
-31 -35 0
-31 -33 0
-31 -32 0
-30 -48 0
-30 -44 0
-30 -39 0
-30 -37 0
-30 -35 0
-30 -34 0
-30 -33 0
-29 -46 0
-29 -37 0
-29 -33 0
-29 -32 0
-29 -31 0
-28 -43 0
-28 -37 0
-28 -29 0
-27 -46 0
-27 -43 0
-27 -39 0
-27 -38 0
-26 -47 0
-26 -46 0
-26 -44 0
-26 -43 0
-26 -40 0
-26 -27 0
-25 -43 0
-25 -42 0
-25 -34 0
-25 -32 0
-25 -28 0
-24 -48 0
-24 -41 0
-24 -39 0
-24 -38 0
-24 -27 0
-23 -47 0
-23 -43 0
-23 -38 0
-23 -35 0
-23 -31 0
-23 -28 0
-23 -25 0
-22 -43 0
-22 -40 0
-22 -28 0
-22 -25 0
-22 -23 0
-21 -44 0
-21 -43 0
-21 -39 0
-21 -33 0
-21 -30 0
-21 -28 0
-21 -25 0
-21 -23 0
-21 -22 0
-20 -42 0
-20 -41 0
-20 -37 0
-20 -29 0
-20 -28 0
-19 -42 0
-19 -41 0
-19 -40 0
-19 -22 0
-19 -20 0
-18 -49 0
-18 -45 0
-18 -36 0
-17 -47 0
-17 -44 0
-17 -42 0
-17 -40 0
-17 -34 0
-17 -32 0
-17 -26 0
-17 -25 0
-16 -42 0
-16 -39 0
-16 -38 0
-16 -34 0
-16 -32 0
-16 -27 0
-16 -25 0
-16 -24 0
-16 -17 0
-15 -47 0
-15 -44 0
-15 -40 0
-15 -37 0
-15 -29 0
-15 -28 0
-15 -26 0
-15 -20 0
-15 -17 0
-14 -48 0
-14 -40 0
-14 -37 0
-14 -35 0
-14 -34 0
-14 -30 0
-14 -22 0
-14 -19 0
-13 -49 0
-13 -45 0
-13 -36 0
-13 -18 0
-12 -49 0
-12 -45 0
-12 -36 0
-12 -18 0
-12 -13 0
-11 -47 0
-11 -42 0
-11 -41 0
-11 -38 0
-11 -35 0
-11 -31 0
-11 -23 0
-11 -20 0
-11 -19 0
-10 -48 0
-10 -46 0
-10 -41 0
-10 -33 0
-10 -32 0
-10 -31 0
-10 -29 0
-10 -24 0
-9 -46 0
-9 -40 0
-9 -33 0
-9 -32 0
-9 -31 0
-9 -29 0
-9 -22 0
-9 -19 0
-9 -14 0
-9 -10 0
-8 -48 0
-8 -47 0
-8 -44 0
-8 -41 0
-8 -40 0
-8 -26 0
-8 -24 0
-8 -17 0
-8 -15 0
-8 -10 0
-7 -44 0
-7 -42 0
-7 -41 0
-7 -39 0
-7 -33 0
-7 -30 0
-7 -21 0
-7 -20 0
-7 -19 0
-7 -11 0
-6 -48 0
-6 -43 0
-6 -41 0
-6 -28 0
-6 -25 0
-6 -24 0
-6 -23 0
-6 -22 0
-6 -21 0
-6 -10 0
-6 -8 0
-5 -40 0
-5 -39 0
-5 -38 0
-5 -27 0
-5 -24 0
-5 -22 0
-5 -19 0
-5 -16 0
-5 -14 0
-5 -9 0
-4 -39 0
-4 -38 0
-4 -37 0
-4 -29 0
-4 -28 0
-4 -27 0
-4 -24 0
-4 -20 0
-4 -16 0
-4 -15 0
-4 -5 0
-3 -48 0
-3 -46 0
-3 -43 0
-3 -37 0
-3 -35 0
-3 -34 0
-3 -30 0
-3 -27 0
-3 -26 0
-3 -14 0
-2 -49 0
-2 -45 0
-2 -36 0
-2 -18 0
-2 -13 0
-2 -12 0
-1 -46 0
-1 -43 0
-1 -42 0
-1 -41 0
-1 -27 0
-1 -26 0
-1 -20 0
-1 -19 0
-1 -11 0
-1 -7 0
-1 -3 0
1 3 13 26 27 43 46 0
2 7 21 30 33 39 44 0
4 15 18 20 28 29 37 0
5 9 14 19 22 36 40 0
6 8 10 24 41 48 49 0
11 12 23 31 35 38 47 0
16 17 25 32 34 42 45 0
