p cnf 100 820
-99 -100 0
-95 -98 0
-93 -94 0
-92 -95 0
-91 -97 0
-90 -100 0
-90 -99 0
-90 -91 0
-89 -96 0
-88 -99 0
-88 -94 0
-87 -98 0
-87 -95 0
-87 -91 0
-87 -90 0
-86 -92 0
-84 -99 0
-84 -97 0
-84 -91 0
-84 -88 0
-83 -97 0
-83 -91 0
-83 -86 0
-83 -84 0
-82 -85 0
-81 -94 0
-81 -93 0
-80 -100 0
-80 -99 0
-80 -94 0
-80 -93 0
-80 -90 0
-80 -81 0
-79 -99 0
-79 -92 0
-79 -88 0
-79 -86 0
-79 -84 0
-78 -97 0
-78 -89 0
-77 -85 0
-77 -82 0
-76 -86 0
-76 -83 0
-75 -100 0
-75 -97 0
-75 -91 0
-75 -84 0
-75 -83 0
-74 -99 0
-74 -93 0
-74 -88 0
-74 -84 0
-74 -79 0
-73 -100 0
-73 -92 0
-73 -86 0
-73 -79 0
-73 -75 0
-72 -93 0
-72 -91 0
-72 -90 0
-72 -87 0
-72 -74 0
-71 -92 0
-71 -91 0
-71 -90 0
-71 -87 0
-71 -86 0
-71 -79 0
-71 -73 0
-71 -72 0
-70 -99 0
-70 -88 0
-70 -84 0
-70 -81 0
-70 -79 0
-70 -74 0
-69 -97 0
-69 -95 0
-69 -92 0
-69 -91 0
-69 -84 0
-69 -83 0
-69 -75 0
-68 -100 0
-68 -76 0
-68 -75 0
-68 -73 0
-67 -95 0
-67 -93 0
-67 -92 0
-67 -74 0
-67 -72 0
-67 -69 0
-66 -91 0
-66 -90 0
-66 -87 0
-66 -81 0
-66 -72 0
-66 -71 0
-66 -70 0
-65 -100 0
-65 -93 0
-65 -75 0
-65 -74 0
-65 -73 0
-65 -72 0
-65 -68 0
-65 -67 0
-64 -95 0
-64 -92 0
-64 -81 0
-64 -70 0
-64 -69 0
-64 -67 0
-64 -66 0
-63 -100 0
-63 -96 0
-63 -75 0
-63 -73 0
-63 -68 0
-63 -65 0
-62 -100 0
-62 -99 0
-62 -96 0
-62 -90 0
-62 -89 0
-62 -80 0
-61 -85 0
-61 -82 0
-61 -77 0
-60 -96 0
-60 -89 0
-60 -76 0
-60 -68 0
-60 -62 0
-59 -85 0
-59 -82 0
-59 -77 0
-59 -61 0
-58 -98 0
-58 -97 0
-58 -91 0
-58 -84 0
-58 -83 0
-58 -75 0
-58 -69 0
-57 -98 0
-57 -89 0
-57 -78 0
-57 -58 0
-56 -100 0
-56 -99 0
-56 -95 0
-56 -92 0
-56 -90 0
-56 -80 0
-56 -69 0
-56 -67 0
-56 -64 0
-56 -62 0
-55 -94 0
-55 -88 0
-55 -86 0
-55 -83 0
-55 -76 0
-54 -91 0
-54 -90 0
-54 -87 0
-54 -76 0
-54 -72 0
-54 -71 0
-54 -68 0
-54 -66 0
-54 -60 0
-53 -100 0
-53 -81 0
-53 -75 0
-53 -73 0
-53 -70 0
-53 -68 0
-53 -66 0
-53 -65 0
-53 -64 0
-53 -63 0
-52 -100 0
-52 -89 0
-52 -78 0
-52 -75 0
-52 -73 0
-52 -68 0
-52 -65 0
-52 -63 0
-52 -57 0
-52 -53 0
-51 -98 0
-51 -96 0
-51 -63 0
-51 -58 0
-51 -57 0
-50 -99 0
-50 -98 0
-50 -95 0
-50 -88 0
-50 -87 0
-50 -84 0
-50 -79 0
-50 -74 0
-50 -70 0
-49 -99 0
-49 -89 0
-49 -88 0
-49 -84 0
-49 -79 0
-49 -78 0
-49 -74 0
-49 -70 0
-49 -57 0
-49 -52 0
-49 -50 0
-48 -98 0
-48 -76 0
-48 -68 0
-48 -60 0
-48 -58 0
-48 -57 0
-48 -54 0
-48 -51 0
-47 -100 0
-47 -94 0
-47 -88 0
-47 -75 0
-47 -73 0
-47 -68 0
-47 -65 0
-47 -63 0
-47 -55 0
-47 -53 0
-47 -52 0
-46 -97 0
-46 -94 0
-46 -93 0
-46 -91 0
-46 -84 0
-46 -83 0
-46 -81 0
-46 -80 0
-46 -75 0
-46 -69 0
-46 -58 0
-45 -95 0
-45 -92 0
-45 -76 0
-45 -69 0
-45 -68 0
-45 -67 0
-45 -64 0
-45 -60 0
-45 -56 0
-45 -54 0
-45 -48 0
-44 -96 0
-44 -95 0
-44 -92 0
-44 -69 0
-44 -67 0
-44 -64 0
-44 -63 0
-44 -56 0
-44 -51 0
-44 -45 0
-43 -99 0
-43 -96 0
-43 -88 0
-43 -84 0
-43 -79 0
-43 -74 0
-43 -70 0
-43 -63 0
-43 -51 0
-43 -50 0
-43 -49 0
-43 -44 0
-42 -86 0
-42 -83 0
-42 -81 0
-42 -76 0
-42 -70 0
-42 -66 0
-42 -64 0
-42 -55 0
-42 -53 0
-41 -98 0
-41 -95 0
-41 -94 0
-41 -93 0
-41 -87 0
-41 -81 0
-41 -80 0
-41 -50 0
-41 -46 0
-40 -98 0
-40 -97 0
-40 -95 0
-40 -87 0
-40 -78 0
-40 -50 0
-40 -41 0
-39 -91 0
-39 -90 0
-39 -89 0
-39 -87 0
-39 -78 0
-39 -72 0
-39 -71 0
-39 -66 0
-39 -57 0
-39 -54 0
-39 -52 0
-39 -49 0
-38 -96 0
-38 -91 0
-38 -90 0
-38 -87 0
-38 -72 0
-38 -71 0
-38 -66 0
-38 -63 0
-38 -54 0
-38 -51 0
-38 -44 0
-38 -43 0
-38 -39 0
-37 -96 0
-37 -94 0
-37 -93 0
-37 -81 0
-37 -80 0
-37 -63 0
-37 -51 0
-37 -46 0
-37 -44 0
-37 -43 0
-37 -41 0
-37 -38 0
-36 -85 0
-36 -82 0
-36 -77 0
-36 -61 0
-36 -59 0
-35 -85 0
-35 -82 0
-35 -77 0
-35 -61 0
-35 -59 0
-35 -36 0
-34 -96 0
-34 -89 0
-34 -81 0
-34 -70 0
-34 -66 0
-34 -64 0
-34 -62 0
-34 -60 0
-34 -53 0
-34 -42 0
-33 -100 0
-33 -99 0
-33 -97 0
-33 -90 0
-33 -80 0
-33 -78 0
-33 -62 0
-33 -56 0
-33 -40 0
-32 -100 0
-32 -99 0
-32 -90 0
-32 -86 0
-32 -83 0
-32 -80 0
-32 -76 0
-32 -62 0
-32 -56 0
-32 -55 0
-32 -42 0
-32 -33 0
-31 -85 0
-31 -82 0
-31 -77 0
-31 -61 0
-31 -59 0
-31 -36 0
-31 -35 0
-30 -97 0
-30 -78 0
-30 -76 0
-30 -68 0
-30 -60 0
-30 -54 0
-30 -48 0
-30 -45 0
-30 -40 0
-30 -33 0
-29 -96 0
-29 -92 0
-29 -89 0
-29 -86 0
-29 -79 0
-29 -73 0
-29 -71 0
-29 -62 0
-29 -60 0
-29 -34 0
-28 -96 0
-28 -86 0
-28 -83 0
-28 -76 0
-28 -63 0
-28 -55 0
-28 -51 0
-28 -44 0
-28 -43 0
-28 -42 0
-28 -38 0
-28 -37 0
-28 -32 0
-27 -97 0
-27 -94 0
-27 -88 0
-27 -78 0
-27 -55 0
-27 -47 0
-27 -40 0
-27 -33 0
-27 -30 0
-26 -97 0
-26 -96 0
-26 -91 0
-26 -89 0
-26 -84 0
-26 -83 0
-26 -75 0
-26 -69 0
-26 -62 0
-26 -60 0
-26 -58 0
-26 -46 0
-26 -34 0
-26 -29 0
-25 -85 0
-25 -82 0
-25 -77 0
-25 -61 0
-25 -59 0
-25 -36 0
-25 -35 0
-25 -31 0
-24 -97 0
-24 -96 0
-24 -78 0
-24 -63 0
-24 -51 0
-24 -44 0
-24 -43 0
-24 -40 0
-24 -38 0
-24 -37 0
-24 -33 0
-24 -30 0
-24 -28 0
-24 -27 0
-23 -97 0
-23 -93 0
-23 -78 0
-23 -74 0
-23 -72 0
-23 -67 0
-23 -65 0
-23 -40 0
-23 -33 0
-23 -30 0
-23 -27 0
-23 -24 0
-22 -94 0
-22 -93 0
-22 -81 0
-22 -80 0
-22 -76 0
-22 -68 0
-22 -60 0
-22 -54 0
-22 -48 0
-22 -46 0
-22 -45 0
-22 -41 0
-22 -37 0
-22 -30 0
-21 -96 0
-21 -93 0
-21 -89 0
-21 -74 0
-21 -72 0
-21 -67 0
-21 -65 0
-21 -62 0
-21 -60 0
-21 -34 0
-21 -29 0
-21 -26 0
-21 -23 0
-20 -85 0
-20 -82 0
-20 -77 0
-20 -61 0
-20 -59 0
-20 -36 0
-20 -35 0
-20 -31 0
-20 -25 0
-19 -100 0
-19 -98 0
-19 -95 0
-19 -87 0
-19 -75 0
-19 -73 0
-19 -68 0
-19 -65 0
-19 -63 0
-19 -53 0
-19 -52 0
-19 -50 0
-19 -47 0
-19 -41 0
-19 -40 0
-18 -98 0
-18 -81 0
-18 -70 0
-18 -66 0
-18 -64 0
-18 -58 0
-18 -57 0
-18 -53 0
-18 -51 0
-18 -48 0
-18 -42 0
-18 -34 0
-17 -94 0
-17 -93 0
-17 -92 0
-17 -86 0
-17 -81 0
-17 -80 0
-17 -79 0
-17 -73 0
-17 -71 0
-17 -46 0
-17 -41 0
-17 -37 0
-17 -29 0
-17 -22 0
-16 -97 0
-16 -92 0
-16 -86 0
-16 -79 0
-16 -78 0
-16 -73 0
-16 -71 0
-16 -40 0
-16 -33 0
-16 -30 0
-16 -29 0
-16 -27 0
-16 -24 0
-16 -23 0
-16 -17 0
-15 -93 0
-15 -86 0
-15 -83 0
-15 -76 0
-15 -74 0
-15 -72 0
-15 -67 0
-15 -65 0
-15 -55 0
-15 -42 0
-15 -32 0
-15 -28 0
-15 -23 0
-15 -21 0
-14 -98 0
-14 -95 0
-14 -87 0
-14 -86 0
-14 -83 0
-14 -76 0
-14 -55 0
-14 -50 0
-14 -42 0
-14 -41 0
-14 -40 0
-14 -32 0
-14 -28 0
-14 -19 0
-14 -15 0
-13 -95 0
-13 -94 0
-13 -92 0
-13 -88 0
-13 -69 0
-13 -67 0
-13 -64 0
-13 -56 0
-13 -55 0
-13 -47 0
-13 -45 0
-13 -44 0
-13 -27 0
-12 -96 0
-12 -94 0
-12 -89 0
-12 -88 0
-12 -62 0
-12 -60 0
-12 -55 0
-12 -47 0
-12 -34 0
-12 -29 0
-12 -27 0
-12 -26 0
-12 -21 0
-12 -13 0
-11 -97 0
-11 -81 0
-11 -78 0
-11 -70 0
-11 -66 0
-11 -64 0
-11 -53 0
-11 -42 0
-11 -40 0
-11 -34 0
-11 -33 0
-11 -30 0
-11 -27 0
-11 -24 0
-11 -23 0
-11 -18 0
-11 -16 0
-10 -98 0
-10 -94 0
-10 -88 0
-10 -58 0
-10 -57 0
-10 -55 0
-10 -51 0
-10 -48 0
-10 -47 0
-10 -27 0
-10 -18 0
-10 -13 0
-10 -12 0
-9 -89 0
-9 -86 0
-9 -83 0
-9 -78 0
-9 -76 0
-9 -57 0
-9 -55 0
-9 -52 0
-9 -49 0
-9 -42 0
-9 -39 0
-9 -32 0
-9 -28 0
-9 -15 0
-9 -14 0
-8 -94 0
-8 -93 0
-8 -89 0
-8 -81 0
-8 -80 0
-8 -78 0
-8 -57 0
-8 -52 0
-8 -49 0
-8 -46 0
-8 -41 0
-8 -39 0
-8 -37 0
-8 -22 0
-8 -17 0
-8 -9 0
-7 -98 0
-7 -93 0
-7 -74 0
-7 -72 0
-7 -67 0
-7 -65 0
-7 -58 0
-7 -57 0
-7 -51 0
-7 -48 0
-7 -23 0
-7 -21 0
-7 -18 0
-7 -15 0
-7 -10 0
-6 -98 0
-6 -92 0
-6 -86 0
-6 -79 0
-6 -73 0
-6 -71 0
-6 -58 0
-6 -57 0
-6 -51 0
-6 -48 0
-6 -29 0
-6 -18 0
-6 -17 0
-6 -16 0
-6 -10 0
-6 -7 0
-5 -100 0
-5 -99 0
-5 -98 0
-5 -90 0
-5 -80 0
-5 -62 0
-5 -58 0
-5 -57 0
-5 -56 0
-5 -51 0
-5 -48 0
-5 -33 0
-5 -32 0
-5 -18 0
-5 -10 0
-5 -7 0
-5 -6 0
-4 -94 0
-4 -91 0
-4 -90 0
-4 -88 0
-4 -87 0
-4 -72 0
-4 -71 0
-4 -66 0
-4 -55 0
-4 -54 0
-4 -47 0
-4 -39 0
-4 -38 0
-4 -27 0
-4 -13 0
-4 -12 0
-4 -10 0
-3 -99 0
-3 -88 0
-3 -84 0
-3 -79 0
-3 -76 0
-3 -74 0
-3 -70 0
-3 -68 0
-3 -60 0
-3 -54 0
-3 -50 0
-3 -49 0
-3 -48 0
-3 -45 0
-3 -43 0
-3 -30 0
-3 -22 0
-2 -95 0
-2 -92 0
-2 -89 0
-2 -78 0
-2 -69 0
-2 -67 0
-2 -64 0
-2 -57 0
-2 -56 0
-2 -52 0
-2 -49 0
-2 -45 0
-2 -44 0
-2 -39 0
-2 -13 0
-2 -9 0
-2 -8 0
-1 -98 0
-1 -96 0
-1 -95 0
-1 -89 0
-1 -87 0
-1 -62 0
-1 -60 0
-1 -50 0
-1 -41 0
-1 -40 0
-1 -34 0
-1 -29 0
-1 -26 0
-1 -21 0
-1 -19 0
-1 -14 0
-1 -12 0
1 14 19 36 40 41 50 87 95 98 0
2 8 9 25 39 49 52 57 78 89 0
3 20 22 30 45 48 54 60 68 76 0
4 10 12 13 27 47 55 59 88 94 0
5 32 33 56 62 80 85 90 99 100 0
6 16 17 29 35 71 73 79 86 92 0
7 15 21 23 61 65 67 72 74 93 0
11 18 31 34 42 53 64 66 70 81 0
24 28 37 38 43 44 51 63 82 96 0
26 46 58 69 75 77 83 84 91 97 0
