p cnf 36 156
-35 -36 0
-32 -36 0
-32 -35 0
-31 -36 0
-31 -35 0
-31 -33 0
-31 -32 0
-30 -35 0
-30 -33 0
-28 -36 0
-28 -34 0
-27 -35 0
-27 -30 0
-26 -36 0
-26 -28 0
-26 -27 0
-25 -34 0
-24 -33 0
-24 -32 0
-24 -30 0
-23 -34 0
-23 -33 0
-23 -31 0
-23 -28 0
-22 -35 0
-22 -30 0
-22 -27 0
-21 -32 0
-21 -25 0
-21 -24 0
-20 -29 0
-19 -36 0
-19 -28 0
-19 -26 0
-19 -25 0
-19 -21 0
-18 -36 0
-18 -28 0
-18 -26 0
-18 -22 0
-18 -19 0
-17 -29 0
-17 -20 0
-16 -34 0
-16 -32 0
-16 -28 0
-16 -24 0
-16 -23 0
-16 -21 0
-15 -33 0
-15 -31 0
-15 -23 0
-15 -22 0
-15 -18 0
-14 -29 0
-14 -20 0
-14 -17 0
-13 -29 0
-13 -20 0
-13 -17 0
-13 -14 0
-12 -35 0
-12 -34 0
-12 -30 0
-12 -28 0
-12 -27 0
-12 -23 0
-12 -22 0
-12 -16 0
-11 -34 0
-11 -27 0
-11 -26 0
-11 -25 0
-10 -29 0
-10 -20 0
-10 -17 0
-10 -14 0
-10 -13 0
-9 -36 0
-9 -33 0
-9 -30 0
-9 -28 0
-9 -26 0
-9 -24 0
-9 -19 0
-9 -18 0
-8 -32 0
-8 -27 0
-8 -26 0
-8 -24 0
-8 -21 0
-8 -16 0
-8 -11 0
-7 -35 0
-7 -30 0
-7 -27 0
-7 -25 0
-7 -22 0
-7 -21 0
-7 -19 0
-7 -12 0
-6 -33 0
-6 -31 0
-6 -25 0
-6 -23 0
-6 -21 0
-6 -19 0
-6 -15 0
-6 -7 0
-5 -34 0
-5 -33 0
-5 -30 0
-5 -25 0
-5 -24 0
-5 -11 0
-5 -9 0
-4 -33 0
-4 -31 0
-4 -27 0
-4 -26 0
-4 -23 0
-4 -15 0
-4 -11 0
-4 -8 0
-4 -6 0
-3 -36 0
-3 -35 0
-3 -34 0
-3 -32 0
-3 -31 0
-3 -25 0
-3 -11 0
-3 -5 0
-2 -32 0
-2 -24 0
-2 -22 0
-2 -21 0
-2 -18 0
-2 -16 0
-2 -15 0
-2 -8 0
-1 -34 0
-1 -25 0
-1 -22 0
-1 -18 0
-1 -15 0
-1 -11 0
-1 -5 0
-1 -3 0
-1 -2 0
1 2 13 15 18 22 0
3 29 31 32 35 36 0
4 8 11 17 26 27 0
5 9 10 24 30 33 0
6 7 19 20 21 25 0
12 14 16 23 28 34 0
