p cnf 100 820
-96 -98 0
-95 -99 0
-93 -97 0
-92 -98 0
-90 -97 0
-89 -99 0
-89 -95 0
-89 -90 0
-88 -95 0
-88 -94 0
-87 -91 0
-87 -90 0
-87 -89 0
-86 -100 0
-85 -91 0
-84 -92 0
-84 -91 0
-84 -85 0
-83 -93 0
-82 -91 0
-82 -85 0
-82 -84 0
-81 -91 0
-81 -87 0
-81 -83 0
-80 -94 0
-80 -92 0
-80 -84 0
-79 -97 0
-79 -90 0
-78 -83 0
-78 -82 0
-78 -81 0
-77 -99 0
-77 -95 0
-77 -91 0
-77 -89 0
-77 -85 0
-77 -84 0
-77 -82 0
-76 -85 0
-76 -83 0
-76 -81 0
-76 -78 0
-75 -98 0
-75 -96 0
-75 -91 0
-75 -85 0
-75 -84 0
-75 -82 0
-75 -77 0
-74 -98 0
-74 -92 0
-74 -91 0
-74 -87 0
-74 -81 0
-73 -99 0
-73 -91 0
-73 -87 0
-73 -81 0
-73 -74 0
-72 -92 0
-72 -84 0
-72 -80 0
-72 -79 0
-71 -94 0
-71 -88 0
-71 -83 0
-71 -81 0
-71 -78 0
-71 -76 0
-70 -93 0
-70 -90 0
-70 -89 0
-70 -87 0
-70 -83 0
-69 -97 0
-69 -93 0
-69 -82 0
-69 -78 0
-68 -97 0
-68 -90 0
-68 -83 0
-68 -81 0
-68 -79 0
-68 -78 0
-68 -76 0
-68 -71 0
-67 -91 0
-67 -87 0
-67 -81 0
-67 -79 0
-67 -74 0
-67 -73 0
-67 -72 0
-66 -99 0
-66 -98 0
-66 -96 0
-66 -75 0
-66 -73 0
-65 -99 0
-65 -97 0
-65 -90 0
-65 -79 0
-65 -73 0
-65 -68 0
-65 -66 0
-64 -97 0
-64 -91 0
-64 -90 0
-64 -85 0
-64 -84 0
-64 -82 0
-64 -79 0
-64 -77 0
-64 -75 0
-64 -68 0
-64 -65 0
-63 -95 0
-63 -92 0
-63 -88 0
-63 -84 0
-63 -80 0
-63 -72 0
-62 -97 0
-62 -94 0
-62 -93 0
-62 -88 0
-62 -71 0
-62 -69 0
-61 -98 0
-61 -96 0
-61 -95 0
-61 -88 0
-61 -75 0
-61 -66 0
-61 -63 0
-60 -100 0
-60 -86 0
-59 -99 0
-59 -92 0
-59 -84 0
-59 -80 0
-59 -73 0
-59 -72 0
-59 -66 0
-59 -65 0
-59 -63 0
-58 -98 0
-58 -94 0
-58 -92 0
-58 -88 0
-58 -74 0
-58 -71 0
-58 -62 0
-57 -98 0
-57 -92 0
-57 -85 0
-57 -76 0
-57 -74 0
-57 -58 0
-56 -90 0
-56 -89 0
-56 -87 0
-56 -82 0
-56 -78 0
-56 -70 0
-56 -69 0
-55 -100 0
-55 -86 0
-55 -60 0
-54 -92 0
-54 -84 0
-54 -83 0
-54 -81 0
-54 -80 0
-54 -78 0
-54 -76 0
-54 -72 0
-54 -71 0
-54 -68 0
-54 -63 0
-54 -59 0
-53 -94 0
-53 -82 0
-53 -80 0
-53 -78 0
-53 -69 0
-53 -56 0
-52 -100 0
-52 -86 0
-52 -60 0
-52 -55 0
-51 -100 0
-51 -86 0
-51 -60 0
-51 -55 0
-51 -52 0
-50 -94 0
-50 -85 0
-50 -80 0
-50 -76 0
-50 -57 0
-50 -53 0
-49 -99 0
-49 -95 0
-49 -89 0
-49 -79 0
-49 -77 0
-49 -72 0
-49 -67 0
-48 -98 0
-48 -93 0
-48 -92 0
-48 -83 0
-48 -74 0
-48 -70 0
-48 -58 0
-48 -57 0
-47 -95 0
-47 -93 0
-47 -88 0
-47 -83 0
-47 -70 0
-47 -63 0
-47 -61 0
-47 -48 0
-46 -99 0
-46 -98 0
-46 -95 0
-46 -92 0
-46 -89 0
-46 -77 0
-46 -74 0
-46 -58 0
-46 -57 0
-46 -49 0
-46 -48 0
-45 -99 0
-45 -96 0
-45 -95 0
-45 -89 0
-45 -77 0
-45 -49 0
-45 -46 0
-44 -96 0
-44 -93 0
-44 -83 0
-44 -70 0
-44 -48 0
-44 -47 0
-44 -45 0
-43 -95 0
-43 -88 0
-43 -85 0
-43 -76 0
-43 -63 0
-43 -61 0
-43 -57 0
-43 -50 0
-43 -47 0
-42 -96 0
-42 -85 0
-42 -76 0
-42 -57 0
-42 -50 0
-42 -45 0
-42 -44 0
-42 -43 0
-41 -99 0
-41 -97 0
-41 -95 0
-41 -93 0
-41 -89 0
-41 -77 0
-41 -69 0
-41 -62 0
-41 -49 0
-41 -46 0
-41 -45 0
-40 -99 0
-40 -95 0
-40 -94 0
-40 -89 0
-40 -80 0
-40 -77 0
-40 -53 0
-40 -50 0
-40 -49 0
-40 -46 0
-40 -45 0
-40 -41 0
-39 -95 0
-39 -88 0
-39 -82 0
-39 -78 0
-39 -69 0
-39 -63 0
-39 -61 0
-39 -56 0
-39 -53 0
-39 -47 0
-39 -43 0
-38 -97 0
-38 -93 0
-38 -91 0
-38 -87 0
-38 -81 0
-38 -74 0
-38 -73 0
-38 -69 0
-38 -67 0
-38 -62 0
-38 -41 0
-37 -97 0
-37 -93 0
-37 -92 0
-37 -84 0
-37 -80 0
-37 -72 0
-37 -69 0
-37 -63 0
-37 -62 0
-37 -59 0
-37 -54 0
-37 -41 0
-37 -38 0
-36 -99 0
-36 -82 0
-36 -78 0
-36 -73 0
-36 -69 0
-36 -66 0
-36 -65 0
-36 -59 0
-36 -56 0
-36 -53 0
-36 -39 0
-35 -94 0
-35 -88 0
-35 -79 0
-35 -72 0
-35 -71 0
-35 -67 0
-35 -62 0
-35 -58 0
-35 -49 0
-34 -98 0
-34 -96 0
-34 -83 0
-34 -81 0
-34 -78 0
-34 -76 0
-34 -75 0
-34 -71 0
-34 -68 0
-34 -66 0
-34 -61 0
-34 -54 0
-33 -100 0
-33 -86 0
-33 -60 0
-33 -55 0
-33 -52 0
-33 -51 0
-32 -99 0
-32 -94 0
-32 -88 0
-32 -73 0
-32 -71 0
-32 -66 0
-32 -65 0
-32 -62 0
-32 -59 0
-32 -58 0
-32 -36 0
-32 -35 0
-31 -93 0
-31 -91 0
-31 -85 0
-31 -84 0
-31 -83 0
-31 -82 0
-31 -77 0
-31 -75 0
-31 -70 0
-31 -64 0
-31 -48 0
-31 -47 0
-31 -44 0
-30 -93 0
-30 -83 0
-30 -79 0
-30 -72 0
-30 -70 0
-30 -67 0
-30 -49 0
-30 -48 0
-30 -47 0
-30 -44 0
-30 -35 0
-30 -31 0
-29 -96 0
-29 -92 0
-29 -84 0
-29 -80 0
-29 -72 0
-29 -63 0
-29 -59 0
-29 -54 0
-29 -45 0
-29 -44 0
-29 -42 0
-29 -37 0
-28 -97 0
-28 -95 0
-28 -90 0
-28 -88 0
-28 -79 0
-28 -68 0
-28 -65 0
-28 -64 0
-28 -63 0
-28 -61 0
-28 -47 0
-28 -43 0
-28 -39 0
-27 -98 0
-27 -96 0
-27 -90 0
-27 -89 0
-27 -87 0
-27 -75 0
-27 -70 0
-27 -66 0
-27 -61 0
-27 -56 0
-27 -34 0
-26 -92 0
-26 -90 0
-26 -89 0
-26 -87 0
-26 -84 0
-26 -80 0
-26 -72 0
-26 -70 0
-26 -63 0
-26 -59 0
-26 -56 0
-26 -54 0
-26 -37 0
-26 -29 0
-26 -27 0
-25 -82 0
-25 -79 0
-25 -78 0
-25 -72 0
-25 -69 0
-25 -67 0
-25 -56 0
-25 -53 0
-25 -49 0
-25 -39 0
-25 -36 0
-25 -35 0
-25 -30 0
-24 -99 0
-24 -95 0
-24 -89 0
-24 -83 0
-24 -81 0
-24 -78 0
-24 -77 0
-24 -76 0
-24 -71 0
-24 -68 0
-24 -54 0
-24 -49 0
-24 -46 0
-24 -45 0
-24 -41 0
-24 -40 0
-24 -34 0
-23 -96 0
-23 -91 0
-23 -87 0
-23 -81 0
-23 -74 0
-23 -73 0
-23 -67 0
-23 -45 0
-23 -44 0
-23 -42 0
-23 -38 0
-23 -29 0
-22 -97 0
-22 -96 0
-22 -90 0
-22 -79 0
-22 -68 0
-22 -65 0
-22 -64 0
-22 -45 0
-22 -44 0
-22 -42 0
-22 -29 0
-22 -28 0
-22 -23 0
-21 -97 0
-21 -94 0
-21 -90 0
-21 -80 0
-21 -79 0
-21 -68 0
-21 -65 0
-21 -64 0
-21 -53 0
-21 -50 0
-21 -40 0
-21 -28 0
-21 -22 0
-20 -94 0
-20 -93 0
-20 -83 0
-20 -80 0
-20 -70 0
-20 -53 0
-20 -50 0
-20 -48 0
-20 -47 0
-20 -44 0
-20 -40 0
-20 -31 0
-20 -30 0
-20 -21 0
-19 -98 0
-19 -97 0
-19 -92 0
-19 -90 0
-19 -79 0
-19 -74 0
-19 -68 0
-19 -65 0
-19 -64 0
-19 -58 0
-19 -57 0
-19 -48 0
-19 -46 0
-19 -28 0
-19 -22 0
-19 -21 0
-18 -95 0
-18 -91 0
-18 -88 0
-18 -87 0
-18 -81 0
-18 -74 0
-18 -73 0
-18 -67 0
-18 -63 0
-18 -61 0
-18 -47 0
-18 -43 0
-18 -39 0
-18 -38 0
-18 -28 0
-18 -23 0
-17 -96 0
-17 -94 0
-17 -88 0
-17 -71 0
-17 -62 0
-17 -58 0
-17 -45 0
-17 -44 0
-17 -42 0
-17 -35 0
-17 -32 0
-17 -29 0
-17 -23 0
-17 -22 0
-16 -98 0
-16 -96 0
-16 -94 0
-16 -80 0
-16 -75 0
-16 -66 0
-16 -61 0
-16 -53 0
-16 -50 0
-16 -40 0
-16 -34 0
-16 -27 0
-16 -21 0
-16 -20 0
-15 -100 0
-15 -86 0
-15 -60 0
-15 -55 0
-15 -52 0
-15 -51 0
-15 -33 0
-14 -90 0
-14 -89 0
-14 -87 0
-14 -85 0
-14 -76 0
-14 -70 0
-14 -57 0
-14 -56 0
-14 -50 0
-14 -43 0
-14 -42 0
-14 -27 0
-14 -26 0
-13 -99 0
-13 -85 0
-13 -76 0
-13 -73 0
-13 -66 0
-13 -65 0
-13 -59 0
-13 -57 0
-13 -50 0
-13 -43 0
-13 -42 0
-13 -36 0
-13 -32 0
-13 -14 0
-12 -98 0
-12 -97 0
-12 -96 0
-12 -93 0
-12 -75 0
-12 -69 0
-12 -66 0
-12 -62 0
-12 -61 0
-12 -41 0
-12 -38 0
-12 -37 0
-12 -34 0
-12 -27 0
-12 -16 0
-11 -97 0
-11 -93 0
-11 -85 0
-11 -76 0
-11 -69 0
-11 -62 0
-11 -57 0
-11 -50 0
-11 -43 0
-11 -42 0
-11 -41 0
-11 -38 0
-11 -37 0
-11 -14 0
-11 -13 0
-11 -12 0
-10 -98 0
-10 -96 0
-10 -79 0
-10 -75 0
-10 -72 0
-10 -67 0
-10 -66 0
-10 -61 0
-10 -49 0
-10 -35 0
-10 -34 0
-10 -30 0
-10 -27 0
-10 -25 0
-10 -16 0
-10 -12 0
-9 -99 0
-9 -93 0
-9 -83 0
-9 -73 0
-9 -70 0
-9 -66 0
-9 -65 0
-9 -59 0
-9 -48 0
-9 -47 0
-9 -44 0
-9 -36 0
-9 -32 0
-9 -31 0
-9 -30 0
-9 -20 0
-9 -13 0
-8 -100 0
-8 -86 0
-8 -60 0
-8 -55 0
-8 -52 0
-8 -51 0
-8 -33 0
-8 -15 0
-7 -100 0
-7 -86 0
-7 -60 0
-7 -55 0
-7 -52 0
-7 -51 0
-7 -33 0
-7 -15 0
-7 -8 0
-6 -94 0
-6 -90 0
-6 -89 0
-6 -88 0
-6 -87 0
-6 -71 0
-6 -70 0
-6 -62 0
-6 -58 0
-6 -56 0
-6 -35 0
-6 -32 0
-6 -27 0
-6 -26 0
-6 -17 0
-6 -14 0
-5 -96 0
-5 -82 0
-5 -78 0
-5 -69 0
-5 -56 0
-5 -53 0
-5 -45 0
-5 -44 0
-5 -42 0
-5 -39 0
-5 -36 0
-5 -29 0
-5 -25 0
-5 -23 0
-5 -22 0
-5 -17 0
-4 -94 0
-4 -91 0
-4 -88 0
-4 -85 0
-4 -84 0
-4 -82 0
-4 -77 0
-4 -75 0
-4 -71 0
-4 -64 0
-4 -62 0
-4 -58 0
-4 -35 0
-4 -32 0
-4 -31 0
-4 -17 0
-4 -6 0
-3 -98 0
-3 -92 0
-3 -82 0
-3 -78 0
-3 -74 0
-3 -69 0
-3 -58 0
-3 -57 0
-3 -56 0
-3 -53 0
-3 -48 0
-3 -46 0
-3 -39 0
-3 -36 0
-3 -25 0
-3 -19 0
-3 -5 0
-2 -85 0
-2 -79 0
-2 -76 0
-2 -72 0
-2 -67 0
-2 -57 0
-2 -50 0
-2 -49 0
-2 -43 0
-2 -42 0
-2 -35 0
-2 -30 0
-2 -25 0
-2 -14 0
-2 -13 0
-2 -11 0
-2 -10 0
-1 -94 0
-1 -91 0
-1 -87 0
-1 -81 0
-1 -80 0
-1 -74 0
-1 -73 0
-1 -67 0
-1 -53 0
-1 -50 0
-1 -40 0
-1 -38 0
-1 -23 0
-1 -21 0
-1 -20 0
-1 -18 0
-1 -16 0
1 16 20 21 33 40 50 53 80 94 0
2 10 15 25 30 35 49 67 72 79 0
3 19 46 48 55 57 58 74 92 98 0
4 8 31 64 75 77 82 84 85 91 0
5 17 22 23 29 42 44 45 96 100 0
6 14 26 27 52 56 70 87 89 90 0
7 24 34 54 68 71 76 78 81 83 0
9 13 32 36 59 60 65 66 73 99 0
11 12 37 38 41 62 69 86 93 97 0
18 28 39 43 47 51 61 63 88 95 0
