p cnf 36 156
-33 -35 0
-32 -36 0
-31 -32 0
-30 -34 0
-29 -36 0
-28 -36 0
-28 -31 0
-28 -29 0
-26 -35 0
-26 -33 0
-25 -36 0
-25 -29 0
-25 -28 0
-25 -27 0
-24 -32 0
-24 -31 0
-24 -27 0
-24 -25 0
-23 -34 0
-22 -30 0
-22 -27 0
-22 -25 0
-22 -24 0
-21 -35 0
-21 -33 0
-21 -26 0
-20 -29 0
-20 -27 0
-19 -36 0
-19 -34 0
-19 -32 0
-19 -23 0
-18 -34 0
-18 -27 0
-18 -25 0
-18 -24 0
-18 -23 0
-18 -22 0
-18 -19 0
-17 -30 0
-17 -23 0
-17 -22 0
-16 -31 0
-16 -30 0
-16 -28 0
-16 -22 0
-16 -17 0
-15 -30 0
-15 -29 0
-15 -22 0
-15 -20 0
-15 -17 0
-15 -16 0
-14 -36 0
-14 -32 0
-14 -27 0
-14 -20 0
-14 -19 0
-13 -35 0
-13 -33 0
-13 -26 0
-13 -21 0
-12 -35 0
-12 -33 0
-12 -26 0
-12 -21 0
-12 -13 0
-11 -34 0
-11 -32 0
-11 -31 0
-11 -30 0
-11 -24 0
-10 -34 0
-10 -29 0
-10 -23 0
-10 -20 0
-10 -19 0
-10 -18 0
-10 -15 0
-9 -31 0
-9 -28 0
-9 -27 0
-9 -20 0
-9 -16 0
-9 -14 0
-8 -36 0
-8 -34 0
-8 -30 0
-8 -29 0
-8 -28 0
-8 -25 0
-8 -11 0
-7 -32 0
-7 -31 0
-7 -29 0
-7 -24 0
-7 -20 0
-7 -15 0
-7 -11 0
-7 -10 0
-6 -27 0
-6 -23 0
-6 -20 0
-6 -17 0
-6 -14 0
-6 -9 0
-5 -36 0
-5 -32 0
-5 -30 0
-5 -22 0
-5 -19 0
-5 -17 0
-5 -16 0
-5 -15 0
-5 -14 0
-4 -32 0
-4 -31 0
-4 -24 0
-4 -23 0
-4 -17 0
-4 -11 0
-4 -7 0
-4 -6 0
-3 -36 0
-3 -29 0
-3 -28 0
-3 -25 0
-3 -23 0
-3 -17 0
-3 -8 0
-3 -6 0
-3 -4 0
-2 -34 0
-2 -31 0
-2 -28 0
-2 -23 0
-2 -19 0
-2 -18 0
-2 -16 0
-2 -10 0
-2 -9 0
-1 -34 0
-1 -30 0
-1 -27 0
-1 -20 0
-1 -14 0
-1 -11 0
-1 -9 0
-1 -8 0
-1 -6 0
1 8 11 21 30 34 0
2 9 16 28 31 33 0
3 4 6 13 17 23 0
5 14 19 26 32 36 0
7 10 12 15 20 29 0
18 22 24 25 27 35 0
