p cnf 49 259
-47 -48 0
-46 -49 0
-46 -48 0
-46 -47 0
-45 -49 0
-45 -47 0
-44 -47 0
-44 -45 0
-43 -47 0
-43 -45 0
-43 -44 0
-41 -48 0
-41 -43 0
-40 -49 0
-40 -46 0
-40 -43 0
-40 -41 0
-39 -47 0
-39 -45 0
-39 -44 0
-39 -43 0
-38 -49 0
-38 -46 0
-38 -42 0
-38 -40 0
-37 -47 0
-37 -45 0
-37 -44 0
-37 -43 0
-37 -42 0
-37 -39 0
-37 -38 0
-36 -44 0
-34 -49 0
-34 -45 0
-33 -43 0
-33 -41 0
-33 -40 0
-33 -34 0
-32 -48 0
-32 -47 0
-32 -46 0
-32 -34 0
-32 -33 0
-31 -39 0
-31 -34 0
-31 -33 0
-31 -32 0
-30 -35 0
-29 -34 0
-29 -33 0
-29 -32 0
-29 -31 0
-28 -48 0
-28 -47 0
-28 -46 0
-28 -36 0
-28 -32 0
-27 -36 0
-27 -29 0
-27 -28 0
-26 -35 0
-26 -30 0
-25 -47 0
-25 -45 0
-25 -44 0
-25 -43 0
-25 -39 0
-25 -37 0
-25 -29 0
-25 -27 0
-24 -49 0
-24 -46 0
-24 -40 0
-24 -39 0
-24 -38 0
-24 -31 0
-23 -48 0
-23 -41 0
-23 -39 0
-23 -31 0
-23 -24 0
-22 -35 0
-22 -30 0
-22 -26 0
-21 -42 0
-21 -39 0
-21 -31 0
-21 -24 0
-21 -23 0
-20 -35 0
-20 -30 0
-20 -26 0
-20 -22 0
-19 -49 0
-19 -45 0
-19 -42 0
-19 -34 0
-19 -21 0
-18 -42 0
-18 -29 0
-18 -27 0
-18 -25 0
-18 -21 0
-18 -19 0
-17 -42 0
-17 -38 0
-17 -37 0
-17 -36 0
-17 -28 0
-17 -27 0
-16 -35 0
-16 -30 0
-16 -26 0
-16 -22 0
-16 -20 0
-15 -49 0
-15 -46 0
-15 -44 0
-15 -40 0
-15 -38 0
-15 -36 0
-15 -24 0
-14 -48 0
-14 -41 0
-14 -29 0
-14 -27 0
-14 -25 0
-14 -23 0
-14 -18 0
-13 -43 0
-13 -42 0
-13 -41 0
-13 -40 0
-13 -33 0
-13 -21 0
-13 -19 0
-13 -18 0
-12 -48 0
-12 -42 0
-12 -41 0
-12 -38 0
-12 -37 0
-12 -23 0
-12 -17 0
-12 -14 0
-11 -49 0
-11 -48 0
-11 -45 0
-11 -41 0
-11 -34 0
-11 -23 0
-11 -19 0
-11 -14 0
-11 -12 0
-10 -39 0
-10 -36 0
-10 -31 0
-10 -28 0
-10 -27 0
-10 -24 0
-10 -23 0
-10 -21 0
-10 -17 0
-9 -44 0
-9 -42 0
-9 -36 0
-9 -21 0
-9 -19 0
-9 -18 0
-9 -15 0
-9 -13 0
-8 -35 0
-8 -30 0
-8 -26 0
-8 -22 0
-8 -20 0
-8 -16 0
-7 -49 0
-7 -46 0
-7 -40 0
-7 -38 0
-7 -29 0
-7 -27 0
-7 -25 0
-7 -24 0
-7 -18 0
-7 -15 0
-7 -14 0
-6 -43 0
-6 -41 0
-6 -40 0
-6 -36 0
-6 -33 0
-6 -28 0
-6 -27 0
-6 -17 0
-6 -13 0
-6 -10 0
-5 -48 0
-5 -44 0
-5 -41 0
-5 -36 0
-5 -23 0
-5 -15 0
-5 -14 0
-5 -12 0
-5 -11 0
-5 -9 0
-4 -48 0
-4 -47 0
-4 -46 0
-4 -42 0
-4 -32 0
-4 -28 0
-4 -21 0
-4 -19 0
-4 -18 0
-4 -13 0
-4 -9 0
-3 -49 0
-3 -45 0
-3 -36 0
-3 -34 0
-3 -28 0
-3 -27 0
-3 -19 0
-3 -17 0
-3 -11 0
-3 -10 0
-3 -6 0
-2 -44 0
-2 -36 0
-2 -34 0
-2 -33 0
-2 -32 0
-2 -31 0
-2 -29 0
-2 -15 0
-2 -9 0
-2 -5 0
-1 -42 0
-1 -38 0
-1 -37 0
-1 -34 0
-1 -33 0
-1 -32 0
-1 -31 0
-1 -29 0
-1 -17 0
-1 -12 0
-1 -2 0
1 12 17 22 37 38 42 0
2 5 8 9 15 36 44 0
3 11 19 20 34 45 49 0
4 26 28 32 46 47 48 0
6 13 33 35 40 41 43 0
7 14 18 25 27 29 30 0
10 16 21 23 24 31 39 0
