p cnf 49 259
-45 -47 0
-43 -48 0
-42 -49 0
-42 -46 0
-41 -49 0
-41 -48 0
-41 -43 0
-41 -42 0
-40 -46 0
-40 -45 0
-40 -42 0
-39 -48 0
-39 -46 0
-39 -43 0
-39 -41 0
-38 -47 0
-38 -45 0
-38 -44 0
-37 -45 0
-37 -40 0
-36 -45 0
-36 -44 0
-36 -40 0
-36 -37 0
-35 -49 0
-35 -46 0
-35 -39 0
-34 -49 0
-34 -48 0
-34 -35 0
-32 -47 0
-32 -44 0
-32 -36 0
-31 -33 0
-30 -48 0
-30 -47 0
-30 -43 0
-30 -41 0
-30 -39 0
-30 -32 0
-29 -48 0
-29 -45 0
-29 -43 0
-29 -41 0
-29 -40 0
-29 -39 0
-29 -37 0
-29 -36 0
-29 -30 0
-28 -47 0
-28 -46 0
-28 -42 0
-28 -40 0
-28 -32 0
-28 -30 0
-27 -46 0
-27 -39 0
-27 -37 0
-27 -35 0
-26 -49 0
-26 -43 0
-26 -35 0
-26 -34 0
-25 -43 0
-25 -37 0
-25 -27 0
-25 -26 0
-24 -49 0
-24 -47 0
-24 -35 0
-24 -34 0
-24 -32 0
-24 -30 0
-24 -28 0
-24 -26 0
-23 -33 0
-23 -31 0
-22 -49 0
-22 -47 0
-22 -45 0
-22 -42 0
-22 -41 0
-22 -38 0
-21 -33 0
-21 -31 0
-21 -23 0
-20 -33 0
-20 -31 0
-20 -23 0
-20 -21 0
-19 -48 0
-19 -47 0
-19 -45 0
-19 -38 0
-19 -34 0
-19 -22 0
-18 -47 0
-18 -46 0
-18 -45 0
-18 -39 0
-18 -38 0
-18 -35 0
-18 -27 0
-18 -22 0
-18 -19 0
-17 -47 0
-17 -45 0
-17 -43 0
-17 -38 0
-17 -26 0
-17 -25 0
-17 -22 0
-17 -19 0
-17 -18 0
-16 -48 0
-16 -37 0
-16 -34 0
-16 -27 0
-16 -25 0
-16 -19 0
-15 -49 0
-15 -44 0
-15 -42 0
-15 -41 0
-15 -36 0
-15 -32 0
-15 -22 0
-14 -47 0
-14 -37 0
-14 -32 0
-14 -30 0
-14 -28 0
-14 -27 0
-14 -25 0
-14 -24 0
-14 -16 0
-13 -48 0
-13 -46 0
-13 -42 0
-13 -40 0
-13 -34 0
-13 -28 0
-13 -19 0
-13 -16 0
-12 -49 0
-12 -45 0
-12 -40 0
-12 -37 0
-12 -36 0
-12 -35 0
-12 -34 0
-12 -29 0
-12 -26 0
-12 -24 0
-11 -44 0
-11 -38 0
-11 -37 0
-11 -27 0
-11 -25 0
-11 -16 0
-11 -14 0
-10 -46 0
-10 -44 0
-10 -42 0
-10 -40 0
-10 -38 0
-10 -28 0
-10 -13 0
-10 -11 0
-9 -44 0
-9 -43 0
-9 -36 0
-9 -32 0
-9 -26 0
-9 -25 0
-9 -17 0
-9 -15 0
-8 -33 0
-8 -31 0
-8 -23 0
-8 -21 0
-8 -20 0
-7 -46 0
-7 -44 0
-7 -39 0
-7 -36 0
-7 -35 0
-7 -32 0
-7 -27 0
-7 -18 0
-7 -15 0
-7 -9 0
-6 -49 0
-6 -44 0
-6 -38 0
-6 -35 0
-6 -34 0
-6 -26 0
-6 -24 0
-6 -12 0
-6 -11 0
-6 -10 0
-5 -48 0
-5 -44 0
-5 -36 0
-5 -34 0
-5 -32 0
-5 -19 0
-5 -16 0
-5 -15 0
-5 -13 0
-5 -9 0
-5 -7 0
-4 -48 0
-4 -44 0
-4 -43 0
-4 -41 0
-4 -39 0
-4 -38 0
-4 -30 0
-4 -29 0
-4 -11 0
-4 -10 0
-4 -6 0
-3 -33 0
-3 -31 0
-3 -23 0
-3 -21 0
-3 -20 0
-3 -8 0
-2 -49 0
-2 -42 0
-2 -41 0
-2 -37 0
-2 -27 0
-2 -25 0
-2 -22 0
-2 -16 0
-2 -15 0
-2 -14 0
-2 -11 0
-1 -46 0
-1 -43 0
-1 -42 0
-1 -40 0
-1 -28 0
-1 -26 0
-1 -25 0
-1 -17 0
-1 -13 0
-1 -10 0
-1 -9 0
1 9 17 25 26 31 43 0
2 15 22 33 41 42 49 0
3 4 6 10 11 38 44 0
5 13 16 19 23 34 48 0
7 18 21 27 35 39 46 0
8 14 24 28 30 32 47 0
12 20 29 36 37 40 45 0
