p cnf 81 585
-77 -79 0
-75 -81 0
-74 -78 0
-73 -79 0
-72 -77 0
-72 -76 0
-71 -80 0
-70 -75 0
-69 -81 0
-69 -76 0
-69 -75 0
-69 -72 0
-68 -76 0
-67 -81 0
-67 -75 0
-67 -69 0
-67 -68 0
-66 -81 0
-66 -80 0
-66 -75 0
-66 -71 0
-66 -69 0
-66 -67 0
-65 -81 0
-65 -77 0
-65 -72 0
-64 -81 0
-64 -70 0
-64 -65 0
-63 -80 0
-63 -77 0
-63 -72 0
-63 -71 0
-63 -66 0
-63 -65 0
-62 -78 0
-62 -74 0
-61 -78 0
-61 -74 0
-61 -62 0
-60 -79 0
-60 -77 0
-60 -71 0
-59 -76 0
-59 -72 0
-59 -71 0
-59 -69 0
-59 -60 0
-58 -70 0
-58 -64 0
-57 -77 0
-57 -72 0
-57 -65 0
-57 -63 0
-57 -58 0
-56 -80 0
-56 -76 0
-56 -72 0
-56 -69 0
-56 -59 0
-55 -76 0
-55 -72 0
-55 -69 0
-55 -59 0
-55 -56 0
-54 -78 0
-54 -74 0
-54 -62 0
-54 -61 0
-53 -81 0
-53 -65 0
-53 -64 0
-53 -55 0
-52 -79 0
-52 -76 0
-52 -73 0
-52 -72 0
-52 -69 0
-52 -59 0
-52 -56 0
-52 -55 0
-51 -79 0
-51 -73 0
-51 -58 0
-51 -57 0
-51 -52 0
-50 -80 0
-50 -75 0
-50 -70 0
-50 -56 0
-49 -76 0
-49 -73 0
-49 -68 0
-48 -71 0
-48 -68 0
-48 -67 0
-48 -60 0
-48 -59 0
-47 -80 0
-47 -71 0
-47 -70 0
-47 -66 0
-47 -64 0
-47 -63 0
-47 -58 0
-46 -81 0
-46 -71 0
-46 -65 0
-46 -64 0
-46 -60 0
-46 -59 0
-46 -53 0
-46 -48 0
-45 -76 0
-45 -68 0
-45 -58 0
-45 -57 0
-45 -51 0
-45 -49 0
-44 -81 0
-44 -79 0
-44 -73 0
-44 -65 0
-44 -64 0
-44 -53 0
-44 -52 0
-44 -51 0
-44 -46 0
-43 -75 0
-43 -70 0
-43 -50 0
-42 -80 0
-42 -68 0
-42 -67 0
-42 -56 0
-42 -50 0
-42 -48 0
-41 -71 0
-41 -60 0
-41 -59 0
-41 -58 0
-41 -57 0
-41 -51 0
-41 -48 0
-41 -46 0
-41 -45 0
-40 -78 0
-40 -74 0
-40 -62 0
-40 -61 0
-40 -54 0
-39 -79 0
-39 -77 0
-39 -76 0
-39 -68 0
-39 -60 0
-39 -49 0
-39 -45 0
-38 -81 0
-38 -65 0
-38 -64 0
-38 -53 0
-38 -46 0
-38 -44 0
-38 -43 0
-37 -80 0
-37 -71 0
-37 -66 0
-37 -63 0
-37 -55 0
-37 -53 0
-37 -47 0
-36 -75 0
-36 -70 0
-36 -55 0
-36 -53 0
-36 -50 0
-36 -43 0
-36 -37 0
-35 -79 0
-35 -77 0
-35 -70 0
-35 -64 0
-35 -60 0
-35 -58 0
-35 -47 0
-35 -39 0
-34 -68 0
-34 -67 0
-34 -55 0
-34 -53 0
-34 -48 0
-34 -42 0
-34 -37 0
-34 -36 0
-33 -80 0
-33 -79 0
-33 -73 0
-33 -71 0
-33 -66 0
-33 -63 0
-33 -52 0
-33 -51 0
-33 -47 0
-33 -44 0
-33 -37 0
-32 -76 0
-32 -75 0
-32 -70 0
-32 -68 0
-32 -50 0
-32 -49 0
-32 -45 0
-32 -43 0
-32 -39 0
-32 -36 0
-31 -77 0
-31 -75 0
-31 -72 0
-31 -70 0
-31 -65 0
-31 -63 0
-31 -57 0
-31 -50 0
-31 -43 0
-31 -36 0
-31 -32 0
-30 -80 0
-30 -76 0
-30 -71 0
-30 -68 0
-30 -66 0
-30 -63 0
-30 -49 0
-30 -47 0
-30 -45 0
-30 -39 0
-30 -37 0
-30 -33 0
-30 -32 0
-29 -76 0
-29 -72 0
-29 -70 0
-29 -69 0
-29 -64 0
-29 -59 0
-29 -58 0
-29 -56 0
-29 -55 0
-29 -52 0
-29 -47 0
-29 -35 0
-28 -75 0
-28 -71 0
-28 -70 0
-28 -60 0
-28 -59 0
-28 -50 0
-28 -48 0
-28 -46 0
-28 -43 0
-28 -41 0
-28 -36 0
-28 -32 0
-28 -31 0
-27 -80 0
-27 -79 0
-27 -77 0
-27 -60 0
-27 -56 0
-27 -50 0
-27 -42 0
-27 -39 0
-27 -35 0
-26 -79 0
-26 -77 0
-26 -60 0
-26 -43 0
-26 -39 0
-26 -38 0
-26 -35 0
-26 -27 0
-25 -79 0
-25 -77 0
-25 -60 0
-25 -55 0
-25 -53 0
-25 -39 0
-25 -37 0
-25 -36 0
-25 -35 0
-25 -34 0
-25 -27 0
-25 -26 0
-24 -79 0
-24 -73 0
-24 -68 0
-24 -67 0
-24 -52 0
-24 -51 0
-24 -48 0
-24 -44 0
-24 -42 0
-24 -34 0
-24 -33 0
-23 -68 0
-23 -67 0
-23 -48 0
-23 -43 0
-23 -42 0
-23 -38 0
-23 -34 0
-23 -26 0
-23 -24 0
-22 -81 0
-22 -76 0
-22 -68 0
-22 -65 0
-22 -64 0
-22 -53 0
-22 -49 0
-22 -46 0
-22 -45 0
-22 -44 0
-22 -39 0
-22 -38 0
-22 -32 0
-22 -30 0
-21 -78 0
-21 -74 0
-21 -62 0
-21 -61 0
-21 -54 0
-21 -40 0
-20 -73 0
-20 -55 0
-20 -53 0
-20 -49 0
-20 -37 0
-20 -36 0
-20 -34 0
-20 -25 0
-19 -73 0
-19 -71 0
-19 -60 0
-19 -59 0
-19 -49 0
-19 -48 0
-19 -46 0
-19 -41 0
-19 -28 0
-19 -20 0
-18 -81 0
-18 -75 0
-18 -69 0
-18 -67 0
-18 -66 0
-18 -58 0
-18 -57 0
-18 -51 0
-18 -45 0
-18 -41 0
-17 -80 0
-17 -58 0
-17 -57 0
-17 -56 0
-17 -51 0
-17 -50 0
-17 -45 0
-17 -42 0
-17 -41 0
-17 -27 0
-17 -18 0
-16 -78 0
-16 -74 0
-16 -62 0
-16 -61 0
-16 -54 0
-16 -40 0
-16 -21 0
-15 -80 0
-15 -73 0
-15 -56 0
-15 -50 0
-15 -49 0
-15 -42 0
-15 -27 0
-15 -20 0
-15 -19 0
-15 -17 0
-14 -70 0
-14 -68 0
-14 -67 0
-14 -64 0
-14 -58 0
-14 -48 0
-14 -47 0
-14 -42 0
-14 -35 0
-14 -34 0
-14 -29 0
-14 -24 0
-14 -23 0
-13 -79 0
-13 -75 0
-13 -73 0
-13 -70 0
-13 -52 0
-13 -51 0
-13 -50 0
-13 -44 0
-13 -43 0
-13 -36 0
-13 -33 0
-13 -32 0
-13 -31 0
-13 -28 0
-13 -24 0
-12 -58 0
-12 -57 0
-12 -51 0
-12 -45 0
-12 -43 0
-12 -41 0
-12 -38 0
-12 -26 0
-12 -23 0
-12 -18 0
-12 -17 0
-11 -80 0
-11 -71 0
-11 -66 0
-11 -63 0
-11 -47 0
-11 -43 0
-11 -38 0
-11 -37 0
-11 -33 0
-11 -30 0
-11 -26 0
-11 -23 0
-11 -12 0
-10 -81 0
-10 -75 0
-10 -73 0
-10 -69 0
-10 -67 0
-10 -66 0
-10 -49 0
-10 -20 0
-10 -19 0
-10 -18 0
-10 -15 0
-9 -77 0
-9 -72 0
-9 -68 0
-9 -67 0
-9 -65 0
-9 -63 0
-9 -57 0
-9 -48 0
-9 -42 0
-9 -34 0
-9 -31 0
-9 -24 0
-9 -23 0
-9 -14 0
-8 -73 0
-8 -70 0
-8 -64 0
-8 -58 0
-8 -49 0
-8 -47 0
-8 -35 0
-8 -29 0
-8 -20 0
-8 -19 0
-8 -15 0
-8 -14 0
-8 -10 0
-7 -78 0
-7 -74 0
-7 -62 0
-7 -61 0
-7 -54 0
-7 -40 0
-7 -21 0
-7 -16 0
-6 -77 0
-6 -73 0
-6 -72 0
-6 -65 0
-6 -63 0
-6 -57 0
-6 -49 0
-6 -31 0
-6 -20 0
-6 -19 0
-6 -15 0
-6 -10 0
-6 -9 0
-6 -8 0
-5 -58 0
-5 -57 0
-5 -55 0
-5 -53 0
-5 -51 0
-5 -45 0
-5 -41 0
-5 -37 0
-5 -36 0
-5 -34 0
-5 -25 0
-5 -20 0
-5 -18 0
-5 -17 0
-5 -12 0
-4 -73 0
-4 -49 0
-4 -43 0
-4 -38 0
-4 -26 0
-4 -23 0
-4 -20 0
-4 -19 0
-4 -15 0
-4 -12 0
-4 -11 0
-4 -10 0
-4 -8 0
-4 -6 0
-3 -81 0
-3 -79 0
-3 -77 0
-3 -75 0
-3 -69 0
-3 -67 0
-3 -66 0
-3 -60 0
-3 -39 0
-3 -35 0
-3 -27 0
-3 -26 0
-3 -25 0
-3 -18 0
-3 -10 0
-2 -76 0
-2 -72 0
-2 -69 0
-2 -59 0
-2 -56 0
-2 -55 0
-2 -52 0
-2 -43 0
-2 -38 0
-2 -29 0
-2 -26 0
-2 -23 0
-2 -12 0
-2 -11 0
-2 -4 0
-1 -81 0
-1 -80 0
-1 -65 0
-1 -64 0
-1 -56 0
-1 -53 0
-1 -50 0
-1 -46 0
-1 -44 0
-1 -42 0
-1 -38 0
-1 -27 0
-1 -22 0
-1 -17 0
-1 -15 0
1 15 16 17 27 42 50 56 80 0
2 4 11 12 23 26 38 43 74 0
3 10 18 61 66 67 69 75 81 0
5 20 21 25 34 36 37 53 55 0
6 9 31 54 57 63 65 72 77 0
7 13 24 33 44 51 52 73 79 0
8 14 29 35 47 58 62 64 70 0
19 28 41 46 48 59 60 71 78 0
22 30 32 39 40 45 49 68 76 0
