p cnf 64 400
-63 -64 0
-62 -63 0
-56 -59 0
-55 -61 0
-55 -59 0
-54 -60 0
-54 -58 0
-53 -61 0
-52 -64 0
-52 -56 0
-51 -57 0
-50 -59 0
-50 -58 0
-50 -55 0
-50 -54 0
-49 -58 0
-49 -53 0
-48 -63 0
-48 -62 0
-48 -58 0
-48 -49 0
-47 -64 0
-47 -63 0
-47 -61 0
-47 -55 0
-46 -60 0
-46 -56 0
-46 -52 0
-45 -62 0
-45 -53 0
-45 -49 0
-44 -62 0
-44 -58 0
-44 -54 0
-44 -50 0
-44 -45 0
-43 -60 0
-43 -54 0
-42 -64 0
-42 -63 0
-42 -58 0
-42 -54 0
-42 -50 0
-42 -47 0
-42 -44 0
-41 -64 0
-41 -63 0
-41 -47 0
-41 -43 0
-41 -42 0
-40 -63 0
-40 -62 0
-40 -56 0
-40 -52 0
-40 -48 0
-40 -46 0
-39 -64 0
-39 -58 0
-39 -52 0
-39 -49 0
-39 -48 0
-38 -61 0
-38 -56 0
-38 -55 0
-38 -52 0
-38 -47 0
-38 -46 0
-38 -40 0
-37 -60 0
-37 -59 0
-37 -55 0
-37 -50 0
-37 -46 0
-36 -63 0
-36 -62 0
-36 -61 0
-36 -53 0
-36 -48 0
-36 -40 0
-35 -57 0
-35 -51 0
-34 -57 0
-34 -51 0
-34 -35 0
-33 -61 0
-33 -53 0
-33 -43 0
-33 -41 0
-33 -36 0
-32 -64 0
-32 -63 0
-32 -53 0
-32 -49 0
-32 -47 0
-32 -45 0
-32 -42 0
-32 -41 0
-31 -62 0
-31 -59 0
-31 -56 0
-31 -45 0
-31 -44 0
-30 -56 0
-30 -53 0
-30 -52 0
-30 -49 0
-30 -46 0
-30 -45 0
-30 -40 0
-30 -38 0
-30 -32 0
-29 -61 0
-29 -58 0
-29 -54 0
-29 -53 0
-29 -50 0
-29 -44 0
-29 -42 0
-29 -36 0
-29 -33 0
-28 -63 0
-28 -62 0
-28 -60 0
-28 -54 0
-28 -48 0
-28 -43 0
-28 -40 0
-28 -36 0
-27 -61 0
-27 -59 0
-27 -56 0
-27 -53 0
-27 -36 0
-27 -33 0
-27 -31 0
-27 -29 0
-26 -63 0
-26 -62 0
-26 -59 0
-26 -55 0
-26 -50 0
-26 -48 0
-26 -40 0
-26 -37 0
-26 -36 0
-26 -28 0
-25 -64 0
-25 -59 0
-25 -55 0
-25 -52 0
-25 -50 0
-25 -39 0
-25 -37 0
-25 -26 0
-24 -59 0
-24 -55 0
-24 -50 0
-24 -43 0
-24 -41 0
-24 -37 0
-24 -33 0
-24 -26 0
-24 -25 0
-23 -59 0
-23 -55 0
-23 -53 0
-23 -50 0
-23 -49 0
-23 -45 0
-23 -37 0
-23 -32 0
-23 -30 0
-23 -26 0
-23 -25 0
-23 -24 0
-22 -64 0
-22 -62 0
-22 -52 0
-22 -45 0
-22 -44 0
-22 -39 0
-22 -31 0
-22 -25 0
-21 -62 0
-21 -61 0
-21 -55 0
-21 -47 0
-21 -45 0
-21 -44 0
-21 -38 0
-21 -31 0
-21 -22 0
-20 -62 0
-20 -60 0
-20 -46 0
-20 -45 0
-20 -44 0
-20 -37 0
-20 -31 0
-20 -22 0
-20 -21 0
-19 -61 0
-19 -58 0
-19 -55 0
-19 -49 0
-19 -48 0
-19 -47 0
-19 -39 0
-19 -38 0
-19 -21 0
-18 -57 0
-18 -51 0
-18 -35 0
-18 -34 0
-17 -58 0
-17 -56 0
-17 -54 0
-17 -52 0
-17 -50 0
-17 -46 0
-17 -44 0
-17 -42 0
-17 -40 0
-17 -38 0
-17 -30 0
-17 -29 0
-16 -61 0
-16 -60 0
-16 -55 0
-16 -54 0
-16 -47 0
-16 -43 0
-16 -38 0
-16 -28 0
-16 -21 0
-16 -19 0
-15 -62 0
-15 -45 0
-15 -44 0
-15 -43 0
-15 -41 0
-15 -33 0
-15 -31 0
-15 -24 0
-15 -22 0
-15 -21 0
-15 -20 0
-14 -64 0
-14 -63 0
-14 -59 0
-14 -56 0
-14 -47 0
-14 -42 0
-14 -41 0
-14 -32 0
-14 -31 0
-14 -27 0
-13 -60 0
-13 -54 0
-13 -53 0
-13 -49 0
-13 -45 0
-13 -43 0
-13 -32 0
-13 -30 0
-13 -28 0
-13 -23 0
-13 -16 0
-12 -64 0
-12 -63 0
-12 -60 0
-12 -47 0
-12 -46 0
-12 -42 0
-12 -41 0
-12 -37 0
-12 -32 0
-12 -20 0
-12 -14 0
-11 -56 0
-11 -52 0
-11 -46 0
-11 -43 0
-11 -41 0
-11 -40 0
-11 -38 0
-11 -33 0
-11 -30 0
-11 -24 0
-11 -17 0
-11 -15 0
-10 -58 0
-10 -49 0
-10 -48 0
-10 -43 0
-10 -41 0
-10 -39 0
-10 -33 0
-10 -24 0
-10 -19 0
-10 -15 0
-10 -11 0
-9 -60 0
-9 -58 0
-9 -49 0
-9 -48 0
-9 -46 0
-9 -39 0
-9 -37 0
-9 -20 0
-9 -19 0
-9 -12 0
-9 -10 0
-8 -61 0
-8 -60 0
-8 -53 0
-8 -46 0
-8 -37 0
-8 -36 0
-8 -33 0
-8 -29 0
-8 -27 0
-8 -20 0
-8 -12 0
-8 -9 0
-7 -60 0
-7 -59 0
-7 -56 0
-7 -54 0
-7 -43 0
-7 -31 0
-7 -28 0
-7 -27 0
-7 -16 0
-7 -14 0
-7 -13 0
-6 -64 0
-6 -61 0
-6 -53 0
-6 -52 0
-6 -39 0
-6 -36 0
-6 -33 0
-6 -29 0
-6 -27 0
-6 -25 0
-6 -22 0
-6 -8 0
-5 -64 0
-5 -60 0
-5 -54 0
-5 -52 0
-5 -43 0
-5 -39 0
-5 -28 0
-5 -25 0
-5 -22 0
-5 -16 0
-5 -13 0
-5 -7 0
-5 -6 0
-4 -57 0
-4 -51 0
-4 -35 0
-4 -34 0
-4 -18 0
-3 -57 0
-3 -51 0
-3 -35 0
-3 -34 0
-3 -18 0
-3 -4 0
-2 -57 0
-2 -51 0
-2 -35 0
-2 -34 0
-2 -18 0
-2 -4 0
-2 -3 0
-1 -59 0
-1 -58 0
-1 -56 0
-1 -49 0
-1 -48 0
-1 -39 0
-1 -31 0
-1 -27 0
-1 -19 0
-1 -14 0
-1 -10 0
-1 -9 0
-1 -7 0
1 4 7 14 27 31 56 59 0
2 16 19 21 38 47 55 61 0
3 13 23 30 32 45 49 53 0
5 6 22 25 34 39 52 64 0
8 9 12 18 20 37 46 60 0
10 11 15 24 33 41 43 51 0
17 29 35 42 44 50 54 58 0
26 28 36 40 48 57 62 63 0
