p cnf 81 585
-78 -81 0
-77 -78 0
-76 -80 0
-75 -80 0
-73 -81 0
-72 -79 0
-72 -77 0
-71 -79 0
-71 -78 0
-71 -77 0
-70 -78 0
-70 -77 0
-70 -75 0
-70 -71 0
-69 -80 0
-69 -76 0
-68 -79 0
-68 -72 0
-67 -75 0
-67 -70 0
-67 -69 0
-66 -79 0
-66 -73 0
-66 -72 0
-66 -68 0
-65 -73 0
-65 -66 0
-64 -79 0
-64 -71 0
-63 -81 0
-63 -74 0
-63 -73 0
-62 -80 0
-62 -79 0
-62 -76 0
-62 -72 0
-62 -69 0
-62 -68 0
-62 -66 0
-61 -79 0
-61 -71 0
-61 -65 0
-61 -64 0
-60 -73 0
-60 -66 0
-60 -65 0
-60 -64 0
-59 -81 0
-59 -73 0
-59 -68 0
-59 -63 0
-58 -79 0
-58 -71 0
-58 -69 0
-58 -67 0
-58 -64 0
-58 -61 0
-57 -68 0
-57 -65 0
-57 -61 0
-57 -59 0
-56 -80 0
-56 -75 0
-56 -68 0
-56 -59 0
-56 -57 0
-55 -80 0
-55 -75 0
-55 -73 0
-55 -66 0
-55 -65 0
-55 -60 0
-55 -56 0
-54 -68 0
-54 -64 0
-54 -60 0
-54 -59 0
-54 -57 0
-54 -56 0
-53 -80 0
-53 -75 0
-53 -74 0
-53 -63 0
-53 -56 0
-53 -55 0
-51 -77 0
-51 -72 0
-51 -64 0
-51 -60 0
-51 -54 0
-50 -80 0
-50 -76 0
-50 -74 0
-50 -69 0
-50 -62 0
-49 -52 0
-48 -74 0
-48 -73 0
-48 -66 0
-48 -65 0
-48 -60 0
-48 -55 0
-48 -50 0
-47 -81 0
-47 -78 0
-47 -64 0
-47 -60 0
-47 -54 0
-47 -51 0
-46 -80 0
-46 -78 0
-46 -77 0
-46 -76 0
-46 -71 0
-46 -70 0
-46 -69 0
-46 -62 0
-46 -50 0
-45 -81 0
-45 -78 0
-45 -76 0
-45 -47 0
-44 -77 0
-44 -72 0
-44 -65 0
-44 -61 0
-44 -57 0
-44 -51 0
-43 -81 0
-43 -77 0
-43 -73 0
-43 -72 0
-43 -63 0
-43 -59 0
-43 -51 0
-43 -44 0
-42 -52 0
-42 -49 0
-41 -74 0
-41 -68 0
-41 -59 0
-41 -57 0
-41 -56 0
-41 -54 0
-41 -50 0
-41 -48 0
-40 -81 0
-40 -78 0
-40 -69 0
-40 -67 0
-40 -58 0
-40 -47 0
-40 -45 0
-39 -74 0
-39 -65 0
-39 -63 0
-39 -61 0
-39 -57 0
-39 -53 0
-39 -44 0
-38 -75 0
-38 -74 0
-38 -70 0
-38 -67 0
-38 -50 0
-38 -48 0
-38 -41 0
-37 -52 0
-37 -49 0
-37 -42 0
-36 -77 0
-36 -72 0
-36 -69 0
-36 -67 0
-36 -58 0
-36 -51 0
-36 -44 0
-36 -43 0
-36 -40 0
-35 -76 0
-35 -75 0
-35 -70 0
-35 -67 0
-35 -45 0
-35 -38 0
-34 -52 0
-34 -49 0
-34 -42 0
-34 -37 0
-33 -78 0
-33 -77 0
-33 -74 0
-33 -71 0
-33 -70 0
-33 -63 0
-33 -53 0
-33 -46 0
-33 -39 0
-32 -81 0
-32 -78 0
-32 -65 0
-32 -61 0
-32 -57 0
-32 -47 0
-32 -45 0
-32 -44 0
-32 -40 0
-32 -39 0
-31 -81 0
-31 -80 0
-31 -76 0
-31 -73 0
-31 -69 0
-31 -63 0
-31 -62 0
-31 -59 0
-31 -50 0
-31 -46 0
-31 -43 0
-30 -80 0
-30 -76 0
-30 -69 0
-30 -65 0
-30 -62 0
-30 -61 0
-30 -57 0
-30 -50 0
-30 -46 0
-30 -44 0
-30 -39 0
-30 -32 0
-30 -31 0
-29 -81 0
-29 -80 0
-29 -78 0
-29 -75 0
-29 -56 0
-29 -55 0
-29 -53 0
-29 -47 0
-29 -45 0
-29 -40 0
-29 -32 0
-28 -77 0
-28 -76 0
-28 -72 0
-28 -51 0
-28 -45 0
-28 -44 0
-28 -43 0
-28 -36 0
-28 -35 0
-27 -79 0
-27 -76 0
-27 -71 0
-27 -64 0
-27 -61 0
-27 -58 0
-27 -45 0
-27 -35 0
-27 -28 0
-26 -79 0
-26 -74 0
-26 -71 0
-26 -64 0
-26 -61 0
-26 -58 0
-26 -50 0
-26 -48 0
-26 -41 0
-26 -38 0
-26 -27 0
-25 -76 0
-25 -74 0
-25 -63 0
-25 -53 0
-25 -45 0
-25 -39 0
-25 -35 0
-25 -33 0
-25 -28 0
-25 -27 0
-24 -79 0
-24 -74 0
-24 -72 0
-24 -68 0
-24 -66 0
-24 -63 0
-24 -62 0
-24 -53 0
-24 -39 0
-24 -33 0
-24 -25 0
-23 -52 0
-23 -49 0
-23 -42 0
-23 -37 0
-23 -34 0
-22 -76 0
-22 -68 0
-22 -59 0
-22 -57 0
-22 -56 0
-22 -54 0
-22 -45 0
-22 -41 0
-22 -35 0
-22 -28 0
-22 -27 0
-22 -25 0
-21 -80 0
-21 -77 0
-21 -75 0
-21 -72 0
-21 -56 0
-21 -55 0
-21 -53 0
-21 -51 0
-21 -44 0
-21 -43 0
-21 -36 0
-21 -29 0
-21 -28 0
-20 -81 0
-20 -75 0
-20 -73 0
-20 -70 0
-20 -67 0
-20 -63 0
-20 -59 0
-20 -43 0
-20 -38 0
-20 -35 0
-20 -31 0
-19 -52 0
-19 -49 0
-19 -42 0
-19 -37 0
-19 -34 0
-19 -23 0
-18 -79 0
-18 -75 0
-18 -72 0
-18 -70 0
-18 -68 0
-18 -67 0
-18 -66 0
-18 -62 0
-18 -38 0
-18 -35 0
-18 -24 0
-18 -20 0
-17 -75 0
-17 -70 0
-17 -67 0
-17 -65 0
-17 -61 0
-17 -57 0
-17 -44 0
-17 -39 0
-17 -38 0
-17 -35 0
-17 -32 0
-17 -30 0
-17 -20 0
-17 -18 0
-16 -52 0
-16 -49 0
-16 -42 0
-16 -37 0
-16 -34 0
-16 -23 0
-16 -19 0
-15 -52 0
-15 -49 0
-15 -42 0
-15 -37 0
-15 -34 0
-15 -23 0
-15 -19 0
-15 -16 0
-14 -78 0
-14 -77 0
-14 -73 0
-14 -71 0
-14 -70 0
-14 -66 0
-14 -65 0
-14 -60 0
-14 -55 0
-14 -48 0
-14 -46 0
-14 -33 0
-13 -73 0
-13 -69 0
-13 -67 0
-13 -66 0
-13 -65 0
-13 -60 0
-13 -58 0
-13 -55 0
-13 -48 0
-13 -40 0
-13 -36 0
-13 -14 0
-12 -78 0
-12 -77 0
-12 -71 0
-12 -70 0
-12 -68 0
-12 -59 0
-12 -57 0
-12 -56 0
-12 -54 0
-12 -46 0
-12 -41 0
-12 -33 0
-12 -22 0
-12 -14 0
-11 -74 0
-11 -69 0
-11 -67 0
-11 -63 0
-11 -58 0
-11 -53 0
-11 -40 0
-11 -39 0
-11 -36 0
-11 -33 0
-11 -25 0
-11 -24 0
-11 -13 0
-10 -81 0
-10 -79 0
-10 -73 0
-10 -71 0
-10 -64 0
-10 -63 0
-10 -61 0
-10 -59 0
-10 -58 0
-10 -43 0
-10 -31 0
-10 -27 0
-10 -26 0
-10 -20 0
-9 -81 0
-9 -78 0
-9 -74 0
-9 -50 0
-9 -48 0
-9 -47 0
-9 -45 0
-9 -41 0
-9 -40 0
-9 -38 0
-9 -32 0
-9 -29 0
-9 -26 0
-8 -69 0
-8 -68 0
-8 -67 0
-8 -59 0
-8 -58 0
-8 -57 0
-8 -56 0
-8 -54 0
-8 -41 0
-8 -40 0
-8 -36 0
-8 -22 0
-8 -13 0
-8 -12 0
-8 -11 0
-7 -80 0
-7 -79 0
-7 -75 0
-7 -71 0
-7 -64 0
-7 -61 0
-7 -58 0
-7 -56 0
-7 -55 0
-7 -53 0
-7 -29 0
-7 -27 0
-7 -26 0
-7 -21 0
-7 -10 0
-6 -74 0
-6 -64 0
-6 -63 0
-6 -60 0
-6 -54 0
-6 -53 0
-6 -51 0
-6 -47 0
-6 -39 0
-6 -33 0
-6 -25 0
-6 -24 0
-6 -11 0
-5 -76 0
-5 -73 0
-5 -66 0
-5 -65 0
-5 -60 0
-5 -55 0
-5 -48 0
-5 -45 0
-5 -35 0
-5 -28 0
-5 -27 0
-5 -25 0
-5 -22 0
-5 -14 0
-5 -13 0
-4 -77 0
-4 -74 0
-4 -72 0
-4 -51 0
-4 -50 0
-4 -48 0
-4 -44 0
-4 -43 0
-4 -41 0
-4 -38 0
-4 -36 0
-4 -28 0
-4 -26 0
-4 -21 0
-4 -9 0
-3 -80 0
-3 -76 0
-3 -69 0
-3 -64 0
-3 -62 0
-3 -60 0
-3 -54 0
-3 -51 0
-3 -50 0
-3 -47 0
-3 -46 0
-3 -31 0
-3 -30 0
-3 -6 0
-2 -81 0
-2 -79 0
-2 -78 0
-2 -72 0
-2 -68 0
-2 -66 0
-2 -62 0
-2 -47 0
-2 -45 0
-2 -40 0
-2 -32 0
-2 -29 0
-2 -24 0
-2 -18 0
-2 -9 0
-1 -75 0
-1 -70 0
-1 -67 0
-1 -64 0
-1 -60 0
-1 -54 0
-1 -51 0
-1 -47 0
-1 -38 0
-1 -35 0
-1 -20 0
-1 -18 0
-1 -17 0
-1 -6 0
-1 -3 0
1 3 6 37 47 51 54 60 64 0
2 18 24 49 62 66 68 72 79 0
4 9 26 38 41 42 48 50 74 0
5 22 25 27 28 34 35 45 76 0
7 16 21 29 53 55 56 75 80 0
8 11 13 23 36 40 58 67 69 0
10 19 20 31 43 59 63 73 81 0
12 14 15 33 46 70 71 77 78 0
17 30 32 39 44 52 57 61 65 0
