p cnf 49 259
-46 -48 0
-45 -48 0
-45 -47 0
-44 -49 0
-43 -48 0
-43 -45 0
-41 -42 0
-40 -46 0
-39 -49 0
-39 -44 0
-38 -46 0
-38 -43 0
-38 -40 0
-37 -48 0
-37 -45 0
-37 -43 0
-37 -42 0
-36 -49 0
-36 -44 0
-36 -39 0
-35 -40 0
-34 -47 0
-34 -42 0
-34 -37 0
-33 -42 0
-33 -41 0
-32 -43 0
-32 -42 0
-32 -41 0
-32 -38 0
-32 -33 0
-31 -47 0
-31 -45 0
-31 -42 0
-31 -41 0
-31 -33 0
-31 -32 0
-30 -40 0
-30 -35 0
-29 -47 0
-29 -34 0
-29 -33 0
-28 -48 0
-28 -45 0
-28 -43 0
-28 -41 0
-28 -37 0
-27 -47 0
-27 -41 0
-27 -34 0
-27 -29 0
-27 -28 0
-26 -43 0
-26 -38 0
-26 -35 0
-26 -32 0
-25 -41 0
-25 -30 0
-25 -28 0
-25 -27 0
-24 -49 0
-24 -44 0
-24 -39 0
-24 -36 0
-23 -47 0
-23 -43 0
-23 -38 0
-23 -34 0
-23 -32 0
-23 -29 0
-23 -27 0
-23 -26 0
-22 -47 0
-22 -45 0
-22 -31 0
-22 -30 0
-22 -25 0
-21 -43 0
-21 -38 0
-21 -32 0
-21 -30 0
-21 -26 0
-21 -25 0
-21 -23 0
-21 -22 0
-20 -49 0
-20 -44 0
-20 -39 0
-20 -36 0
-20 -24 0
-19 -33 0
-19 -30 0
-19 -29 0
-19 -25 0
-19 -22 0
-19 -21 0
-18 -47 0
-18 -45 0
-18 -35 0
-18 -31 0
-18 -26 0
-18 -22 0
-17 -41 0
-17 -35 0
-17 -28 0
-17 -27 0
-17 -26 0
-17 -25 0
-17 -18 0
-16 -49 0
-16 -44 0
-16 -39 0
-16 -36 0
-16 -24 0
-16 -20 0
-15 -47 0
-15 -46 0
-15 -45 0
-15 -40 0
-15 -38 0
-15 -31 0
-15 -22 0
-15 -18 0
-14 -42 0
-14 -37 0
-14 -35 0
-14 -34 0
-14 -26 0
-14 -18 0
-14 -17 0
-13 -48 0
-13 -47 0
-13 -46 0
-13 -34 0
-13 -29 0
-13 -27 0
-13 -23 0
-12 -42 0
-12 -41 0
-12 -40 0
-12 -35 0
-12 -33 0
-12 -32 0
-12 -31 0
-12 -30 0
-11 -35 0
-11 -33 0
-11 -29 0
-11 -26 0
-11 -19 0
-11 -18 0
-11 -17 0
-11 -14 0
-10 -47 0
-10 -40 0
-10 -35 0
-10 -34 0
-10 -30 0
-10 -29 0
-10 -27 0
-10 -23 0
-10 -13 0
-10 -12 0
-9 -46 0
-9 -40 0
-9 -38 0
-9 -33 0
-9 -29 0
-9 -19 0
-9 -15 0
-9 -11 0
-8 -48 0
-8 -46 0
-8 -30 0
-8 -25 0
-8 -22 0
-8 -21 0
-8 -19 0
-8 -13 0
-7 -48 0
-7 -46 0
-7 -42 0
-7 -41 0
-7 -33 0
-7 -32 0
-7 -31 0
-7 -13 0
-7 -12 0
-7 -8 0
-6 -48 0
-6 -46 0
-6 -35 0
-6 -26 0
-6 -18 0
-6 -17 0
-6 -14 0
-6 -13 0
-6 -11 0
-6 -8 0
-6 -7 0
-5 -42 0
-5 -37 0
-5 -34 0
-5 -30 0
-5 -25 0
-5 -22 0
-5 -21 0
-5 -19 0
-5 -14 0
-5 -8 0
-4 -48 0
-4 -45 0
-4 -43 0
-4 -37 0
-4 -33 0
-4 -29 0
-4 -28 0
-4 -19 0
-4 -11 0
-4 -9 0
-3 -46 0
-3 -41 0
-3 -40 0
-3 -38 0
-3 -28 0
-3 -27 0
-3 -25 0
-3 -17 0
-3 -15 0
-3 -9 0
-2 -48 0
-2 -45 0
-2 -43 0
-2 -40 0
-2 -37 0
-2 -35 0
-2 -30 0
-2 -28 0
-2 -12 0
-2 -10 0
-2 -4 0
-1 -46 0
-1 -42 0
-1 -40 0
-1 -38 0
-1 -37 0
-1 -34 0
-1 -15 0
-1 -14 0
-1 -9 0
-1 -5 0
-1 -3 0
1 5 14 16 34 37 42 0
2 10 12 30 35 40 44 0
3 17 20 25 27 28 41 0
4 9 11 19 29 33 49 0
6 7 8 13 24 46 48 0
15 18 22 31 36 45 47 0
21 23 26 32 38 39 43 0
