p cnf 64 400
-62 -63 0
-61 -64 0
-59 -61 0
-59 -60 0
-58 -63 0
-58 -62 0
-58 -60 0
-57 -62 0
-56 -64 0
-56 -63 0
-56 -62 0
-56 -58 0
-55 -64 0
-55 -60 0
-55 -59 0
-55 -56 0
-54 -57 0
-53 -63 0
-53 -62 0
-53 -61 0
-53 -59 0
-53 -58 0
-53 -56 0
-52 -63 0
-52 -60 0
-52 -59 0
-52 -55 0
-51 -60 0
-51 -58 0
-50 -63 0
-50 -57 0
-50 -54 0
-50 -52 0
-47 -64 0
-47 -61 0
-47 -49 0
-46 -48 0
-45 -62 0
-45 -60 0
-45 -59 0
-45 -57 0
-45 -55 0
-45 -52 0
-44 -54 0
-43 -51 0
-43 -49 0
-43 -47 0
-42 -63 0
-42 -62 0
-42 -58 0
-42 -56 0
-42 -54 0
-42 -53 0
-42 -44 0
-41 -60 0
-41 -59 0
-41 -55 0
-41 -54 0
-41 -52 0
-41 -45 0
-41 -44 0
-41 -42 0
-40 -60 0
-40 -59 0
-40 -55 0
-40 -52 0
-40 -49 0
-40 -47 0
-40 -45 0
-40 -43 0
-40 -41 0
-39 -57 0
-39 -54 0
-39 -50 0
-38 -57 0
-38 -54 0
-38 -50 0
-38 -49 0
-38 -47 0
-38 -43 0
-38 -40 0
-38 -39 0
-37 -49 0
-37 -39 0
-36 -48 0
-36 -46 0
-35 -64 0
-35 -56 0
-35 -55 0
-35 -44 0
-34 -63 0
-34 -52 0
-34 -50 0
-34 -44 0
-34 -35 0
-33 -62 0
-33 -57 0
-33 -45 0
-33 -44 0
-33 -35 0
-33 -34 0
-32 -61 0
-32 -59 0
-32 -53 0
-32 -51 0
-32 -43 0
-31 -61 0
-31 -59 0
-31 -53 0
-31 -49 0
-31 -37 0
-31 -32 0
-30 -49 0
-30 -47 0
-30 -44 0
-30 -43 0
-30 -40 0
-30 -38 0
-30 -35 0
-30 -34 0
-30 -33 0
-29 -64 0
-29 -56 0
-29 -55 0
-29 -51 0
-29 -43 0
-29 -35 0
-29 -32 0
-28 -60 0
-28 -58 0
-28 -51 0
-28 -49 0
-28 -37 0
-28 -31 0
-27 -48 0
-27 -46 0
-27 -36 0
-26 -63 0
-26 -62 0
-26 -58 0
-26 -56 0
-26 -53 0
-26 -49 0
-26 -47 0
-26 -43 0
-26 -42 0
-26 -40 0
-26 -38 0
-26 -30 0
-25 -54 0
-25 -49 0
-25 -44 0
-25 -42 0
-25 -41 0
-25 -37 0
-25 -31 0
-25 -28 0
-24 -64 0
-24 -63 0
-24 -61 0
-24 -52 0
-24 -50 0
-24 -47 0
-24 -34 0
-23 -60 0
-23 -58 0
-23 -57 0
-23 -54 0
-23 -51 0
-23 -50 0
-23 -39 0
-23 -38 0
-23 -28 0
-22 -51 0
-22 -43 0
-22 -39 0
-22 -37 0
-22 -32 0
-22 -29 0
-21 -48 0
-21 -46 0
-21 -36 0
-21 -27 0
-20 -62 0
-20 -57 0
-20 -49 0
-20 -45 0
-20 -37 0
-20 -33 0
-20 -31 0
-20 -28 0
-20 -25 0
-19 -64 0
-19 -62 0
-19 -61 0
-19 -57 0
-19 -47 0
-19 -45 0
-19 -33 0
-19 -24 0
-19 -20 0
-18 -62 0
-18 -57 0
-18 -51 0
-18 -45 0
-18 -43 0
-18 -33 0
-18 -32 0
-18 -29 0
-18 -22 0
-18 -20 0
-18 -19 0
-17 -61 0
-17 -59 0
-17 -53 0
-17 -44 0
-17 -35 0
-17 -34 0
-17 -33 0
-17 -32 0
-17 -31 0
-17 -30 0
-16 -48 0
-16 -46 0
-16 -36 0
-16 -27 0
-16 -21 0
-15 -48 0
-15 -46 0
-15 -36 0
-15 -27 0
-15 -21 0
-15 -16 0
-14 -60 0
-14 -59 0
-14 -55 0
-14 -52 0
-14 -45 0
-14 -41 0
-14 -40 0
-14 -39 0
-14 -37 0
-14 -22 0
-13 -61 0
-13 -59 0
-13 -57 0
-13 -54 0
-13 -53 0
-13 -50 0
-13 -39 0
-13 -38 0
-13 -32 0
-13 -31 0
-13 -23 0
-13 -17 0
-12 -63 0
-12 -52 0
-12 -50 0
-12 -49 0
-12 -37 0
-12 -34 0
-12 -31 0
-12 -28 0
-12 -25 0
-12 -24 0
-12 -20 0
-11 -54 0
-11 -51 0
-11 -44 0
-11 -43 0
-11 -42 0
-11 -41 0
-11 -32 0
-11 -29 0
-11 -25 0
-11 -22 0
-11 -18 0
-10 -63 0
-10 -62 0
-10 -58 0
-10 -56 0
-10 -53 0
-10 -42 0
-10 -39 0
-10 -37 0
-10 -26 0
-10 -22 0
-10 -14 0
-9 -48 0
-9 -46 0
-9 -36 0
-9 -27 0
-9 -21 0
-9 -16 0
-9 -15 0
-8 -44 0
-8 -39 0
-8 -37 0
-8 -35 0
-8 -34 0
-8 -33 0
-8 -30 0
-8 -22 0
-8 -17 0
-8 -14 0
-8 -10 0
-7 -64 0
-7 -61 0
-7 -60 0
-7 -58 0
-7 -51 0
-7 -47 0
-7 -28 0
-7 -24 0
-7 -23 0
-7 -19 0
-6 -64 0
-6 -61 0
-6 -54 0
-6 -47 0
-6 -44 0
-6 -42 0
-6 -41 0
-6 -25 0
-6 -24 0
-6 -19 0
-6 -11 0
-6 -7 0
-5 -60 0
-5 -58 0
-5 -51 0
-5 -44 0
-5 -35 0
-5 -34 0
-5 -33 0
-5 -30 0
-5 -28 0
-5 -23 0
-5 -17 0
-5 -8 0
-5 -7 0
-4 -64 0
-4 -56 0
-4 -55 0
-4 -49 0
-4 -37 0
-4 -35 0
-4 -31 0
-4 -29 0
-4 -28 0
-4 -25 0
-4 -20 0
-4 -12 0
-3 -64 0
-3 -57 0
-3 -56 0
-3 -55 0
-3 -54 0
-3 -50 0
-3 -39 0
-3 -38 0
-3 -35 0
-3 -29 0
-3 -23 0
-3 -13 0
-3 -4 0
-2 -64 0
-2 -61 0
-2 -47 0
-2 -39 0
-2 -37 0
-2 -24 0
-2 -22 0
-2 -19 0
-2 -14 0
-2 -10 0
-2 -8 0
-2 -7 0
-2 -6 0
-1 -63 0
-1 -52 0
-1 -51 0
-1 -50 0
-1 -43 0
-1 -34 0
-1 -32 0
-1 -29 0
-1 -24 0
-1 -22 0
-1 -18 0
-1 -12 0
-1 -11 0
1 12 15 24 34 50 52 63 0
2 8 10 14 22 36 37 39 0
3 4 29 35 48 55 56 64 0
5 7 9 23 28 51 58 60 0
6 11 16 25 41 42 44 54 0
13 17 31 32 46 53 59 61 0
18 19 20 27 33 45 57 62 0
21 26 30 38 40 43 47 49 0
