p cnf 64 400
-61 -62 0
-60 -62 0
-60 -61 0
-58 -64 0
-57 -59 0
-56 -58 0
-55 -58 0
-55 -56 0
-54 -62 0
-54 -61 0
-54 -60 0
-54 -58 0
-54 -56 0
-54 -55 0
-52 -64 0
-52 -61 0
-52 -58 0
-51 -62 0
-51 -61 0
-51 -60 0
-51 -54 0
-50 -64 0
-50 -58 0
-50 -53 0
-50 -52 0
-49 -58 0
-49 -56 0
-49 -55 0
-49 -54 0
-48 -63 0
-48 -61 0
-48 -52 0
-47 -64 0
-47 -53 0
-46 -53 0
-46 -51 0
-46 -47 0
-45 -63 0
-45 -58 0
-45 -56 0
-45 -55 0
-45 -54 0
-45 -49 0
-45 -48 0
-44 -59 0
-44 -57 0
-43 -56 0
-43 -53 0
-43 -50 0
-42 -61 0
-42 -53 0
-42 -52 0
-42 -48 0
-42 -47 0
-42 -46 0
-41 -61 0
-41 -52 0
-41 -49 0
-41 -48 0
-41 -42 0
-40 -55 0
-40 -51 0
-40 -46 0
-39 -63 0
-39 -60 0
-39 -48 0
-39 -45 0
-38 -62 0
-38 -53 0
-38 -47 0
-38 -46 0
-38 -42 0
-37 -61 0
-37 -55 0
-37 -52 0
-37 -48 0
-37 -42 0
-37 -41 0
-37 -40 0
-36 -53 0
-36 -50 0
-36 -49 0
-36 -43 0
-36 -41 0
-35 -60 0
-35 -53 0
-35 -47 0
-35 -46 0
-35 -42 0
-35 -39 0
-35 -38 0
-34 -64 0
-34 -62 0
-34 -61 0
-34 -60 0
-34 -54 0
-34 -51 0
-34 -47 0
-33 -62 0
-33 -56 0
-33 -43 0
-33 -38 0
-32 -63 0
-32 -51 0
-32 -48 0
-32 -46 0
-32 -45 0
-32 -40 0
-32 -39 0
-31 -59 0
-31 -57 0
-31 -44 0
-30 -64 0
-30 -62 0
-30 -58 0
-30 -52 0
-30 -50 0
-30 -38 0
-30 -33 0
-29 -60 0
-29 -55 0
-29 -40 0
-29 -39 0
-29 -37 0
-29 -35 0
-28 -64 0
-28 -63 0
-28 -58 0
-28 -52 0
-28 -50 0
-28 -30 0
-27 -59 0
-27 -57 0
-27 -44 0
-27 -31 0
-26 -64 0
-26 -55 0
-26 -47 0
-26 -40 0
-26 -37 0
-26 -34 0
-26 -29 0
-25 -62 0
-25 -49 0
-25 -41 0
-25 -38 0
-25 -36 0
-25 -33 0
-25 -30 0
-24 -60 0
-24 -56 0
-24 -43 0
-24 -39 0
-24 -35 0
-24 -33 0
-24 -29 0
-23 -62 0
-23 -55 0
-23 -40 0
-23 -38 0
-23 -37 0
-23 -33 0
-23 -30 0
-23 -29 0
-23 -26 0
-23 -25 0
-22 -64 0
-22 -56 0
-22 -47 0
-22 -43 0
-22 -34 0
-22 -33 0
-22 -26 0
-22 -24 0
-21 -59 0
-21 -57 0
-21 -44 0
-21 -31 0
-21 -27 0
-20 -59 0
-20 -57 0
-20 -44 0
-20 -31 0
-20 -27 0
-20 -21 0
-19 -63 0
-19 -49 0
-19 -41 0
-19 -36 0
-19 -28 0
-19 -25 0
-18 -63 0
-18 -62 0
-18 -61 0
-18 -60 0
-18 -54 0
-18 -51 0
-18 -34 0
-18 -28 0
-18 -19 0
-17 -63 0
-17 -56 0
-17 -43 0
-17 -33 0
-17 -28 0
-17 -24 0
-17 -22 0
-17 -19 0
-17 -18 0
-16 -58 0
-16 -56 0
-16 -55 0
-16 -54 0
-16 -53 0
-16 -49 0
-16 -47 0
-16 -46 0
-16 -45 0
-16 -42 0
-16 -38 0
-16 -35 0
-15 -64 0
-15 -49 0
-15 -47 0
-15 -41 0
-15 -36 0
-15 -34 0
-15 -26 0
-15 -25 0
-15 -22 0
-15 -19 0
-14 -64 0
-14 -60 0
-14 -58 0
-14 -52 0
-14 -50 0
-14 -39 0
-14 -35 0
-14 -30 0
-14 -29 0
-14 -28 0
-14 -24 0
-13 -63 0
-13 -55 0
-13 -40 0
-13 -37 0
-13 -29 0
-13 -28 0
-13 -26 0
-13 -23 0
-13 -19 0
-13 -18 0
-13 -17 0
-12 -51 0
-12 -49 0
-12 -46 0
-12 -41 0
-12 -40 0
-12 -36 0
-12 -32 0
-12 -25 0
-12 -19 0
-12 -15 0
-11 -64 0
-11 -58 0
-11 -52 0
-11 -51 0
-11 -50 0
-11 -46 0
-11 -40 0
-11 -32 0
-11 -30 0
-11 -28 0
-11 -14 0
-11 -12 0
-10 -60 0
-10 -49 0
-10 -41 0
-10 -39 0
-10 -36 0
-10 -35 0
-10 -29 0
-10 -25 0
-10 -24 0
-10 -19 0
-10 -15 0
-10 -14 0
-10 -12 0
-9 -63 0
-9 -62 0
-9 -48 0
-9 -45 0
-9 -39 0
-9 -38 0
-9 -33 0
-9 -32 0
-9 -30 0
-9 -25 0
-9 -23 0
-8 -59 0
-8 -57 0
-8 -44 0
-8 -31 0
-8 -27 0
-8 -21 0
-8 -20 0
-7 -62 0
-7 -61 0
-7 -60 0
-7 -54 0
-7 -53 0
-7 -51 0
-7 -50 0
-7 -43 0
-7 -36 0
-7 -34 0
-7 -18 0
-6 -64 0
-6 -63 0
-6 -48 0
-6 -47 0
-6 -45 0
-6 -39 0
-6 -34 0
-6 -32 0
-6 -26 0
-6 -22 0
-6 -15 0
-6 -9 0
-5 -63 0
-5 -53 0
-5 -50 0
-5 -48 0
-5 -45 0
-5 -43 0
-5 -39 0
-5 -36 0
-5 -32 0
-5 -9 0
-5 -7 0
-5 -6 0
-4 -61 0
-4 -56 0
-4 -52 0
-4 -48 0
-4 -43 0
-4 -42 0
-4 -41 0
-4 -37 0
-4 -33 0
-4 -24 0
-4 -22 0
-4 -17 0
-3 -63 0
-3 -53 0
-3 -47 0
-3 -46 0
-3 -42 0
-3 -38 0
-3 -35 0
-3 -28 0
-3 -19 0
-3 -18 0
-3 -17 0
-3 -16 0
-3 -13 0
-2 -56 0
-2 -51 0
-2 -46 0
-2 -43 0
-2 -40 0
-2 -33 0
-2 -32 0
-2 -24 0
-2 -22 0
-2 -17 0
-2 -12 0
-2 -11 0
-2 -4 0
-1 -55 0
-1 -53 0
-1 -50 0
-1 -43 0
-1 -40 0
-1 -37 0
-1 -36 0
-1 -29 0
-1 -26 0
-1 -23 0
-1 -13 0
-1 -7 0
-1 -5 0
1 5 7 31 36 43 50 53 0
2 11 12 32 40 46 51 59 0
3 13 17 18 19 28 57 63 0
4 21 37 41 42 48 52 61 0
6 15 22 26 27 34 47 64 0
8 16 45 49 54 55 56 58 0
9 20 23 25 30 33 38 62 0
10 14 24 29 35 39 44 60 0
