p cnf 49 259
-47 -49 0
-46 -47 0
-44 -47 0
-44 -46 0
-44 -45 0
-43 -49 0
-42 -45 0
-42 -44 0
-40 -45 0
-40 -44 0
-40 -42 0
-39 -48 0
-38 -41 0
-37 -49 0
-37 -43 0
-37 -41 0
-36 -45 0
-36 -44 0
-36 -42 0
-36 -40 0
-35 -49 0
-35 -47 0
-35 -45 0
-34 -38 0
-34 -36 0
-33 -46 0
-33 -42 0
-32 -49 0
-32 -47 0
-32 -36 0
-32 -35 0
-32 -34 0
-31 -48 0
-31 -39 0
-30 -48 0
-30 -39 0
-30 -31 0
-29 -40 0
-29 -38 0
-29 -34 0
-28 -42 0
-28 -38 0
-28 -34 0
-28 -33 0
-28 -29 0
-27 -46 0
-27 -45 0
-27 -35 0
-27 -33 0
-26 -49 0
-26 -43 0
-26 -38 0
-26 -37 0
-26 -34 0
-26 -29 0
-26 -28 0
-25 -43 0
-25 -40 0
-25 -29 0
-24 -47 0
-24 -46 0
-24 -44 0
-24 -41 0
-24 -37 0
-23 -46 0
-23 -41 0
-23 -38 0
-23 -33 0
-23 -27 0
-22 -45 0
-22 -44 0
-22 -42 0
-22 -41 0
-22 -40 0
-22 -38 0
-22 -36 0
-22 -23 0
-21 -42 0
-21 -41 0
-21 -37 0
-21 -33 0
-21 -28 0
-21 -24 0
-20 -46 0
-20 -40 0
-20 -33 0
-20 -29 0
-20 -27 0
-20 -25 0
-20 -23 0
-19 -41 0
-19 -37 0
-19 -36 0
-19 -34 0
-19 -32 0
-19 -24 0
-19 -21 0
-18 -43 0
-18 -42 0
-18 -33 0
-18 -28 0
-18 -25 0
-18 -21 0
-17 -45 0
-17 -41 0
-17 -37 0
-17 -35 0
-17 -27 0
-17 -24 0
-17 -21 0
-17 -19 0
-16 -43 0
-16 -41 0
-16 -38 0
-16 -25 0
-16 -23 0
-16 -22 0
-16 -18 0
-15 -46 0
-15 -36 0
-15 -34 0
-15 -33 0
-15 -32 0
-15 -27 0
-15 -23 0
-15 -20 0
-15 -19 0
-14 -48 0
-14 -39 0
-14 -31 0
-14 -30 0
-13 -49 0
-13 -46 0
-13 -43 0
-13 -37 0
-13 -33 0
-13 -27 0
-13 -26 0
-13 -23 0
-13 -20 0
-13 -15 0
-12 -49 0
-12 -47 0
-12 -40 0
-12 -35 0
-12 -32 0
-12 -29 0
-12 -25 0
-12 -20 0
-11 -43 0
-11 -36 0
-11 -34 0
-11 -32 0
-11 -25 0
-11 -19 0
-11 -18 0
-11 -16 0
-11 -15 0
-10 -49 0
-10 -47 0
-10 -41 0
-10 -38 0
-10 -35 0
-10 -32 0
-10 -23 0
-10 -22 0
-10 -16 0
-10 -12 0
-9 -41 0
-9 -40 0
-9 -37 0
-9 -29 0
-9 -25 0
-9 -24 0
-9 -21 0
-9 -20 0
-9 -19 0
-9 -17 0
-9 -12 0
-8 -48 0
-8 -39 0
-8 -31 0
-8 -30 0
-8 -14 0
-7 -47 0
-7 -46 0
-7 -44 0
-7 -43 0
-7 -25 0
-7 -24 0
-7 -18 0
-7 -16 0
-7 -11 0
-6 -47 0
-6 -46 0
-6 -44 0
-6 -38 0
-6 -34 0
-6 -29 0
-6 -28 0
-6 -26 0
-6 -24 0
-6 -7 0
-5 -49 0
-5 -47 0
-5 -42 0
-5 -35 0
-5 -33 0
-5 -32 0
-5 -28 0
-5 -21 0
-5 -18 0
-5 -12 0
-5 -10 0
-4 -48 0
-4 -39 0
-4 -31 0
-4 -30 0
-4 -14 0
-4 -8 0
-3 -45 0
-3 -43 0
-3 -35 0
-3 -27 0
-3 -25 0
-3 -18 0
-3 -17 0
-3 -16 0
-3 -11 0
-3 -7 0
-2 -49 0
-2 -45 0
-2 -44 0
-2 -43 0
-2 -42 0
-2 -40 0
-2 -37 0
-2 -36 0
-2 -26 0
-2 -22 0
-2 -13 0
-1 -45 0
-1 -38 0
-1 -35 0
-1 -34 0
-1 -29 0
-1 -28 0
-1 -27 0
-1 -26 0
-1 -17 0
-1 -6 0
-1 -3 0
1 3 14 17 27 35 45 0
2 13 26 31 37 43 49 0
4 9 12 20 25 29 40 0
5 18 21 28 33 39 42 0
6 7 24 44 46 47 48 0
8 11 15 19 32 34 36 0
10 16 22 23 30 38 41 0
