p cnf 49 259
-46 -49 0
-45 -49 0
-44 -49 0
-44 -45 0
-43 -48 0
-43 -46 0
-42 -48 0
-42 -47 0
-39 -48 0
-39 -42 0
-39 -41 0
-38 -49 0
-38 -48 0
-38 -45 0
-38 -44 0
-38 -43 0
-37 -40 0
-36 -41 0
-36 -39 0
-35 -46 0
-35 -43 0
-35 -41 0
-35 -39 0
-35 -36 0
-34 -40 0
-34 -37 0
-33 -48 0
-33 -44 0
-33 -42 0
-33 -39 0
-32 -46 0
-32 -45 0
-32 -43 0
-32 -35 0
-31 -47 0
-31 -42 0
-31 -41 0
-30 -45 0
-30 -41 0
-30 -32 0
-30 -31 0
-29 -40 0
-29 -37 0
-29 -34 0
-28 -45 0
-28 -32 0
-28 -30 0
-27 -47 0
-27 -45 0
-27 -32 0
-27 -30 0
-27 -28 0
-26 -49 0
-26 -47 0
-26 -46 0
-26 -27 0
-25 -49 0
-25 -46 0
-25 -36 0
-25 -26 0
-24 -44 0
-24 -41 0
-24 -33 0
-24 -31 0
-24 -30 0
-23 -46 0
-23 -44 0
-23 -43 0
-23 -35 0
-23 -33 0
-23 -32 0
-23 -24 0
-22 -49 0
-22 -48 0
-22 -46 0
-22 -42 0
-22 -39 0
-22 -33 0
-22 -26 0
-22 -25 0
-21 -48 0
-21 -47 0
-21 -43 0
-21 -38 0
-21 -27 0
-21 -26 0
-20 -40 0
-20 -37 0
-20 -34 0
-20 -29 0
-19 -48 0
-19 -43 0
-19 -41 0
-19 -38 0
-19 -31 0
-19 -30 0
-19 -24 0
-19 -21 0
-18 -45 0
-18 -36 0
-18 -32 0
-18 -30 0
-18 -28 0
-18 -27 0
-18 -25 0
-17 -49 0
-17 -45 0
-17 -44 0
-17 -41 0
-17 -39 0
-17 -38 0
-17 -36 0
-17 -35 0
-16 -47 0
-16 -41 0
-16 -39 0
-16 -36 0
-16 -35 0
-16 -27 0
-16 -26 0
-16 -21 0
-16 -17 0
-15 -44 0
-15 -33 0
-15 -28 0
-15 -24 0
-15 -23 0
-14 -40 0
-14 -37 0
-14 -34 0
-14 -29 0
-14 -20 0
-13 -40 0
-13 -37 0
-13 -34 0
-13 -29 0
-13 -20 0
-13 -14 0
-12 -44 0
-12 -36 0
-12 -33 0
-12 -25 0
-12 -24 0
-12 -23 0
-12 -18 0
-12 -15 0
-11 -49 0
-11 -47 0
-11 -45 0
-11 -44 0
-11 -42 0
-11 -38 0
-11 -31 0
-11 -17 0
-10 -47 0
-10 -42 0
-10 -36 0
-10 -31 0
-10 -25 0
-10 -18 0
-10 -12 0
-10 -11 0
-9 -48 0
-9 -43 0
-9 -38 0
-9 -28 0
-9 -21 0
-9 -19 0
-9 -15 0
-8 -47 0
-8 -42 0
-8 -31 0
-8 -28 0
-8 -15 0
-8 -11 0
-8 -10 0
-8 -9 0
-7 -48 0
-7 -45 0
-7 -42 0
-7 -39 0
-7 -33 0
-7 -32 0
-7 -30 0
-7 -28 0
-7 -27 0
-7 -22 0
-7 -18 0
-6 -49 0
-6 -46 0
-6 -41 0
-6 -31 0
-6 -30 0
-6 -26 0
-6 -25 0
-6 -24 0
-6 -22 0
-6 -19 0
-5 -47 0
-5 -44 0
-5 -33 0
-5 -27 0
-5 -26 0
-5 -24 0
-5 -23 0
-5 -21 0
-5 -16 0
-5 -15 0
-5 -12 0
-4 -49 0
-4 -46 0
-4 -28 0
-4 -26 0
-4 -25 0
-4 -22 0
-4 -15 0
-4 -9 0
-4 -8 0
-4 -6 0
-3 -47 0
-3 -46 0
-3 -43 0
-3 -42 0
-3 -35 0
-3 -32 0
-3 -31 0
-3 -23 0
-3 -11 0
-3 -10 0
-3 -8 0
-2 -48 0
-2 -43 0
-2 -38 0
-2 -36 0
-2 -25 0
-2 -21 0
-2 -19 0
-2 -18 0
-2 -12 0
-2 -10 0
-2 -9 0
-1 -41 0
-1 -39 0
-1 -36 0
-1 -35 0
-1 -28 0
-1 -17 0
-1 -16 0
-1 -15 0
-1 -9 0
-1 -8 0
-1 -4 0
1 4 8 9 14 15 28 0
2 10 12 18 25 34 36 0
3 23 32 35 40 43 46 0
5 16 21 26 27 37 47 0
6 19 24 29 30 31 41 0
7 13 22 33 39 42 48 0
11 17 20 38 44 45 49 0
