p cnf 36 156
-32 -33 0
-31 -34 0
-31 -32 0
-30 -35 0
-30 -34 0
-29 -32 0
-29 -31 0
-27 -33 0
-27 -28 0
-26 -29 0
-26 -28 0
-25 -35 0
-25 -34 0
-25 -31 0
-24 -34 0
-24 -33 0
-24 -32 0
-24 -30 0
-23 -28 0
-23 -26 0
-22 -35 0
-22 -25 0
-22 -23 0
-21 -34 0
-21 -30 0
-21 -28 0
-21 -27 0
-21 -24 0
-20 -34 0
-20 -31 0
-20 -28 0
-20 -26 0
-20 -25 0
-20 -23 0
-19 -33 0
-19 -29 0
-19 -27 0
-19 -26 0
-18 -36 0
-17 -36 0
-17 -18 0
-16 -34 0
-16 -30 0
-16 -29 0
-16 -26 0
-16 -24 0
-16 -21 0
-16 -19 0
-15 -33 0
-15 -27 0
-15 -23 0
-15 -22 0
-15 -19 0
-14 -35 0
-14 -30 0
-14 -28 0
-14 -26 0
-14 -23 0
-14 -20 0
-13 -36 0
-13 -18 0
-13 -17 0
-12 -36 0
-12 -18 0
-12 -17 0
-12 -13 0
-11 -35 0
-11 -29 0
-11 -26 0
-11 -25 0
-11 -22 0
-11 -19 0
-11 -16 0
-10 -35 0
-10 -28 0
-10 -27 0
-10 -25 0
-10 -22 0
-10 -21 0
-10 -11 0
-9 -34 0
-9 -33 0
-9 -31 0
-9 -27 0
-9 -25 0
-9 -20 0
-9 -19 0
-9 -15 0
-8 -32 0
-8 -31 0
-8 -29 0
-8 -28 0
-8 -27 0
-8 -21 0
-8 -10 0
-7 -35 0
-7 -33 0
-7 -32 0
-7 -25 0
-7 -24 0
-7 -22 0
-7 -11 0
-7 -10 0
-6 -34 0
-6 -30 0
-6 -24 0
-6 -23 0
-6 -22 0
-6 -21 0
-6 -16 0
-6 -15 0
-5 -35 0
-5 -33 0
-5 -30 0
-5 -27 0
-5 -19 0
-5 -15 0
-5 -14 0
-5 -9 0
-4 -32 0
-4 -31 0
-4 -29 0
-4 -23 0
-4 -22 0
-4 -15 0
-4 -8 0
-4 -6 0
-3 -35 0
-3 -32 0
-3 -31 0
-3 -30 0
-3 -29 0
-3 -14 0
-3 -8 0
-3 -5 0
-3 -4 0
-2 -36 0
-2 -18 0
-2 -17 0
-2 -13 0
-2 -12 0
-1 -33 0
-1 -32 0
-1 -28 0
-1 -26 0
-1 -24 0
-1 -23 0
-1 -20 0
-1 -14 0
-1 -7 0
1 7 24 32 33 36 0
2 4 6 15 22 23 0
3 5 14 17 30 35 0
8 10 12 21 27 28 0
9 13 20 25 31 34 0
11 16 18 19 26 29 0
