p cnf 36 156
-35 -36 0
-34 -36 0
-33 -34 0
-32 -34 0
-32 -33 0
-31 -33 0
-30 -36 0
-30 -34 0
-29 -31 0
-28 -36 0
-28 -35 0
-27 -32 0
-25 -36 0
-25 -35 0
-25 -33 0
-25 -31 0
-25 -28 0
-24 -29 0
-24 -27 0
-23 -32 0
-23 -30 0
-23 -27 0
-22 -26 0
-21 -31 0
-21 -29 0
-21 -28 0
-20 -26 0
-20 -22 0
-19 -34 0
-19 -33 0
-19 -32 0
-19 -29 0
-19 -24 0
-18 -28 0
-18 -27 0
-18 -24 0
-18 -21 0
-17 -33 0
-17 -31 0
-17 -30 0
-17 -25 0
-17 -23 0
-16 -26 0
-16 -22 0
-16 -20 0
-15 -26 0
-15 -22 0
-15 -20 0
-15 -16 0
-14 -36 0
-14 -35 0
-14 -29 0
-14 -28 0
-14 -25 0
-14 -24 0
-14 -19 0
-13 -36 0
-13 -35 0
-13 -32 0
-13 -28 0
-13 -27 0
-13 -25 0
-13 -23 0
-13 -14 0
-12 -36 0
-12 -34 0
-12 -30 0
-12 -27 0
-12 -24 0
-12 -18 0
-11 -32 0
-11 -31 0
-11 -29 0
-11 -27 0
-11 -23 0
-11 -21 0
-11 -13 0
-10 -33 0
-10 -31 0
-10 -27 0
-10 -25 0
-10 -24 0
-10 -18 0
-10 -17 0
-10 -12 0
-9 -35 0
-9 -30 0
-9 -23 0
-9 -17 0
-8 -26 0
-8 -22 0
-8 -20 0
-8 -16 0
-8 -15 0
-7 -30 0
-7 -29 0
-7 -24 0
-7 -23 0
-7 -19 0
-7 -17 0
-7 -14 0
-7 -9 0
-6 -35 0
-6 -27 0
-6 -24 0
-6 -18 0
-6 -12 0
-6 -10 0
-6 -9 0
-5 -36 0
-5 -34 0
-5 -31 0
-5 -30 0
-5 -29 0
-5 -21 0
-5 -12 0
-5 -11 0
-4 -30 0
-4 -28 0
-4 -23 0
-4 -21 0
-4 -18 0
-4 -17 0
-4 -9 0
-4 -7 0
-3 -35 0
-3 -31 0
-3 -29 0
-3 -21 0
-3 -11 0
-3 -9 0
-3 -6 0
-3 -5 0
-2 -34 0
-2 -33 0
-2 -32 0
-2 -28 0
-2 -21 0
-2 -19 0
-2 -18 0
-2 -4 0
-1 -35 0
-1 -34 0
-1 -33 0
-1 -32 0
-1 -19 0
-1 -9 0
-1 -6 0
-1 -3 0
-1 -2 0
1 3 6 9 20 35 0
2 4 18 21 26 28 0
5 12 16 30 34 36 0
7 14 19 22 24 29 0
8 11 13 23 27 32 0
10 15 17 25 31 33 0
