p cnf 36 156
-35 -36 0
-34 -36 0
-34 -35 0
-33 -35 0
-32 -36 0
-32 -35 0
-32 -34 0
-30 -34 0
-29 -32 0
-29 -30 0
-28 -36 0
-28 -35 0
-28 -34 0
-28 -32 0
-28 -31 0
-27 -36 0
-25 -26 0
-24 -34 0
-24 -31 0
-24 -30 0
-23 -30 0
-23 -29 0
-22 -32 0
-22 -31 0
-22 -29 0
-22 -24 0
-21 -26 0
-21 -25 0
-20 -33 0
-20 -32 0
-20 -29 0
-20 -22 0
-19 -31 0
-19 -24 0
-19 -23 0
-19 -22 0
-18 -34 0
-18 -33 0
-18 -30 0
-18 -24 0
-18 -20 0
-17 -31 0
-17 -28 0
-17 -27 0
-16 -31 0
-16 -30 0
-16 -29 0
-16 -28 0
-16 -23 0
-16 -17 0
-15 -35 0
-15 -33 0
-15 -31 0
-15 -24 0
-15 -22 0
-15 -19 0
-14 -36 0
-14 -31 0
-14 -27 0
-14 -24 0
-14 -22 0
-14 -19 0
-14 -15 0
-13 -27 0
-13 -23 0
-13 -19 0
-13 -17 0
-12 -26 0
-12 -25 0
-12 -21 0
-11 -35 0
-11 -33 0
-11 -30 0
-11 -29 0
-11 -23 0
-11 -16 0
-11 -15 0
-10 -26 0
-10 -25 0
-10 -21 0
-10 -12 0
-9 -32 0
-9 -29 0
-9 -27 0
-9 -22 0
-9 -20 0
-9 -17 0
-9 -13 0
-8 -26 0
-8 -25 0
-8 -21 0
-8 -12 0
-8 -10 0
-7 -35 0
-7 -33 0
-7 -27 0
-7 -17 0
-7 -15 0
-7 -13 0
-7 -11 0
-7 -9 0
-6 -36 0
-6 -35 0
-6 -34 0
-6 -32 0
-6 -28 0
-6 -23 0
-6 -19 0
-6 -13 0
-5 -36 0
-5 -33 0
-5 -27 0
-5 -20 0
-5 -18 0
-5 -14 0
-4 -36 0
-4 -30 0
-4 -29 0
-4 -27 0
-4 -23 0
-4 -16 0
-4 -14 0
-4 -11 0
-4 -5 0
-3 -34 0
-3 -30 0
-3 -27 0
-3 -24 0
-3 -18 0
-3 -17 0
-3 -13 0
-3 -9 0
-3 -7 0
-2 -33 0
-2 -23 0
-2 -20 0
-2 -19 0
-2 -18 0
-2 -13 0
-2 -6 0
-2 -5 0
-1 -33 0
-1 -31 0
-1 -28 0
-1 -20 0
-1 -18 0
-1 -17 0
-1 -16 0
-1 -5 0
-1 -2 0
1 16 17 26 28 31 0
2 6 13 19 21 23 0
3 10 18 24 30 34 0
4 5 14 25 27 36 0
7 11 12 15 33 35 0
8 9 20 22 29 32 0
