p cnf 36 156
-35 -36 0
-32 -36 0
-31 -32 0
-30 -32 0
-30 -31 0
-29 -30 0
-28 -36 0
-28 -35 0
-27 -34 0
-26 -35 0
-26 -29 0
-25 -33 0
-25 -29 0
-25 -26 0
-24 -33 0
-24 -32 0
-24 -31 0
-24 -30 0
-24 -25 0
-23 -34 0
-23 -27 0
-22 -36 0
-22 -32 0
-22 -29 0
-22 -26 0
-22 -25 0
-21 -34 0
-21 -27 0
-21 -23 0
-20 -36 0
-20 -35 0
-20 -31 0
-20 -28 0
-19 -33 0
-19 -25 0
-19 -24 0
-18 -33 0
-18 -28 0
-17 -30 0
-17 -29 0
-17 -19 0
-16 -36 0
-16 -35 0
-16 -33 0
-16 -28 0
-16 -25 0
-16 -24 0
-16 -20 0
-16 -19 0
-15 -34 0
-15 -27 0
-15 -23 0
-15 -21 0
-14 -35 0
-14 -32 0
-14 -31 0
-14 -30 0
-14 -26 0
-14 -24 0
-13 -36 0
-13 -32 0
-13 -22 0
-13 -19 0
-13 -17 0
-12 -29 0
-12 -28 0
-12 -26 0
-12 -25 0
-12 -22 0
-12 -18 0
-11 -28 0
-11 -19 0
-11 -18 0
-11 -17 0
-11 -13 0
-11 -12 0
-10 -33 0
-10 -31 0
-10 -20 0
-10 -18 0
-9 -31 0
-9 -29 0
-9 -26 0
-9 -25 0
-9 -22 0
-9 -20 0
-9 -12 0
-9 -10 0
-8 -34 0
-8 -27 0
-8 -23 0
-8 -21 0
-8 -15 0
-7 -35 0
-7 -26 0
-7 -19 0
-7 -17 0
-7 -14 0
-7 -13 0
-7 -11 0
-6 -36 0
-6 -35 0
-6 -30 0
-6 -29 0
-6 -28 0
-6 -20 0
-6 -17 0
-6 -16 0
-5 -36 0
-5 -33 0
-5 -32 0
-5 -22 0
-5 -18 0
-5 -13 0
-5 -10 0
-4 -35 0
-4 -33 0
-4 -26 0
-4 -18 0
-4 -14 0
-4 -10 0
-4 -7 0
-4 -5 0
-3 -33 0
-3 -30 0
-3 -29 0
-3 -18 0
-3 -17 0
-3 -10 0
-3 -6 0
-3 -5 0
-3 -4 0
-2 -31 0
-2 -20 0
-2 -19 0
-2 -17 0
-2 -13 0
-2 -11 0
-2 -10 0
-2 -9 0
-2 -7 0
-1 -32 0
-1 -31 0
-1 -30 0
-1 -28 0
-1 -24 0
-1 -18 0
-1 -14 0
-1 -12 0
-1 -11 0
1 11 12 15 18 28 0
2 9 10 20 27 31 0
3 6 8 17 29 30 0
4 7 14 21 26 35 0
5 13 22 32 34 36 0
16 19 23 24 25 33 0
