p cnf 25 85
-23 -25 0
-22 -23 0
-21 -24 0
-20 -24 0
-20 -22 0
-20 -21 0
-19 -25 0
-19 -22 0
-19 -20 0
-18 -25 0
-18 -24 0
-18 -23 0
-18 -21 0
-18 -20 0
-16 -25 0
-16 -23 0
-16 -18 0
-15 -25 0
-15 -21 0
-15 -19 0
-14 -22 0
-14 -20 0
-14 -19 0
-13 -17 0
-12 -25 0
-12 -23 0
-12 -18 0
-12 -16 0
-12 -14 0
-11 -17 0
-11 -13 0
-10 -21 0
-10 -16 0
-10 -15 0
-9 -22 0
-9 -20 0
-9 -19 0
-9 -16 0
-9 -14 0
-9 -10 0
-8 -25 0
-8 -24 0
-8 -19 0
-8 -15 0
-7 -17 0
-7 -13 0
-7 -11 0
-6 -17 0
-6 -13 0
-6 -11 0
-6 -7 0
-5 -24 0
-5 -16 0
-5 -10 0
-5 -9 0
-5 -8 0
-4 -24 0
-4 -23 0
-4 -22 0
-4 -8 0
-4 -5 0
-3 -23 0
-3 -22 0
-3 -21 0
-3 -15 0
-3 -10 0
-3 -4 0
-2 -24 0
-2 -14 0
-2 -12 0
-2 -8 0
-2 -5 0
-2 -4 0
-1 -21 0
-1 -15 0
-1 -14 0
-1 -12 0
-1 -10 0
-1 -3 0
-1 -2 0
1 2 6 12 14 0
3 4 7 22 23 0
5 9 10 16 17 0
8 13 15 19 25 0
11 18 20 21 24 0
