p cnf 81 585
-79 -80 0
-77 -78 0
-75 -80 0
-75 -79 0
-73 -75 0
-72 -81 0
-71 -73 0
-70 -80 0
-70 -73 0
-70 -71 0
-69 -74 0
-67 -76 0
-67 -69 0
-66 -78 0
-66 -76 0
-66 -67 0
-65 -73 0
-65 -71 0
-65 -70 0
-65 -68 0
-64 -75 0
-64 -73 0
-63 -68 0
-63 -65 0
-63 -64 0
-62 -80 0
-62 -70 0
-62 -68 0
-61 -80 0
-61 -77 0
-61 -70 0
-61 -62 0
-60 -79 0
-60 -73 0
-60 -71 0
-60 -70 0
-60 -65 0
-59 -79 0
-59 -77 0
-59 -61 0
-59 -60 0
-58 -77 0
-58 -68 0
-58 -65 0
-58 -63 0
-58 -61 0
-58 -59 0
-57 -77 0
-57 -76 0
-57 -67 0
-57 -66 0
-57 -61 0
-57 -59 0
-57 -58 0
-56 -78 0
-56 -71 0
-56 -66 0
-55 -81 0
-55 -72 0
-54 -81 0
-54 -72 0
-54 -55 0
-53 -76 0
-53 -67 0
-53 -66 0
-53 -64 0
-53 -63 0
-53 -57 0
-52 -74 0
-52 -69 0
-52 -68 0
-52 -62 0
-51 -76 0
-51 -73 0
-51 -71 0
-51 -70 0
-51 -67 0
-51 -66 0
-51 -65 0
-51 -60 0
-51 -57 0
-51 -53 0
-50 -81 0
-50 -72 0
-50 -55 0
-50 -54 0
-49 -76 0
-49 -71 0
-49 -56 0
-48 -76 0
-48 -74 0
-48 -67 0
-48 -66 0
-48 -57 0
-48 -53 0
-48 -51 0
-47 -81 0
-47 -72 0
-47 -55 0
-47 -54 0
-47 -50 0
-46 -78 0
-46 -74 0
-46 -69 0
-46 -66 0
-46 -56 0
-46 -52 0
-45 -80 0
-45 -76 0
-45 -70 0
-45 -62 0
-45 -61 0
-45 -49 0
-44 -79 0
-44 -68 0
-44 -62 0
-44 -60 0
-44 -59 0
-44 -52 0
-43 -71 0
-43 -68 0
-43 -62 0
-43 -56 0
-43 -52 0
-43 -49 0
-43 -44 0
-42 -78 0
-42 -77 0
-42 -76 0
-42 -49 0
-42 -45 0
-41 -76 0
-41 -68 0
-41 -65 0
-41 -63 0
-41 -58 0
-41 -49 0
-41 -45 0
-41 -42 0
-40 -76 0
-40 -74 0
-40 -69 0
-40 -52 0
-40 -49 0
-40 -46 0
-40 -45 0
-40 -42 0
-40 -41 0
-39 -81 0
-39 -72 0
-39 -55 0
-39 -54 0
-39 -50 0
-39 -47 0
-38 -79 0
-38 -74 0
-38 -60 0
-38 -59 0
-38 -48 0
-38 -44 0
-37 -78 0
-37 -75 0
-37 -73 0
-37 -66 0
-37 -64 0
-37 -56 0
-37 -46 0
-36 -71 0
-36 -64 0
-36 -63 0
-36 -56 0
-36 -53 0
-36 -49 0
-36 -43 0
-35 -80 0
-35 -78 0
-35 -70 0
-35 -66 0
-35 -62 0
-35 -61 0
-35 -56 0
-35 -46 0
-35 -45 0
-35 -37 0
-34 -77 0
-34 -74 0
-34 -69 0
-34 -61 0
-34 -59 0
-34 -58 0
-34 -57 0
-34 -52 0
-34 -46 0
-34 -40 0
-33 -81 0
-33 -72 0
-33 -55 0
-33 -54 0
-33 -50 0
-33 -47 0
-33 -39 0
-32 -81 0
-32 -72 0
-32 -55 0
-32 -54 0
-32 -50 0
-32 -47 0
-32 -39 0
-32 -33 0
-31 -71 0
-31 -69 0
-31 -67 0
-31 -56 0
-31 -49 0
-31 -43 0
-31 -36 0
-30 -79 0
-30 -76 0
-30 -60 0
-30 -59 0
-30 -49 0
-30 -45 0
-30 -44 0
-30 -42 0
-30 -41 0
-30 -40 0
-30 -38 0
-29 -79 0
-29 -64 0
-29 -63 0
-29 -60 0
-29 -59 0
-29 -53 0
-29 -44 0
-29 -38 0
-29 -36 0
-29 -30 0
-28 -76 0
-28 -75 0
-28 -73 0
-28 -64 0
-28 -49 0
-28 -45 0
-28 -42 0
-28 -41 0
-28 -40 0
-28 -37 0
-28 -30 0
-27 -77 0
-27 -75 0
-27 -73 0
-27 -64 0
-27 -61 0
-27 -59 0
-27 -58 0
-27 -57 0
-27 -37 0
-27 -34 0
-27 -28 0
-26 -80 0
-26 -79 0
-26 -76 0
-26 -75 0
-26 -67 0
-26 -66 0
-26 -57 0
-26 -53 0
-26 -51 0
-26 -48 0
-25 -79 0
-25 -69 0
-25 -67 0
-25 -60 0
-25 -59 0
-25 -44 0
-25 -38 0
-25 -31 0
-25 -30 0
-25 -29 0
-24 -80 0
-24 -74 0
-24 -70 0
-24 -62 0
-24 -61 0
-24 -48 0
-24 -45 0
-24 -38 0
-24 -35 0
-23 -78 0
-23 -77 0
-23 -73 0
-23 -71 0
-23 -70 0
-23 -65 0
-23 -60 0
-23 -51 0
-23 -42 0
-22 -75 0
-22 -73 0
-22 -69 0
-22 -67 0
-22 -64 0
-22 -37 0
-22 -31 0
-22 -28 0
-22 -27 0
-22 -25 0
-21 -75 0
-21 -73 0
-21 -68 0
-21 -64 0
-21 -62 0
-21 -52 0
-21 -44 0
-21 -43 0
-21 -37 0
-21 -28 0
-21 -27 0
-21 -22 0
-20 -78 0
-20 -77 0
-20 -74 0
-20 -48 0
-20 -42 0
-20 -38 0
-20 -24 0
-20 -23 0
-19 -74 0
-19 -73 0
-19 -71 0
-19 -70 0
-19 -69 0
-19 -65 0
-19 -60 0
-19 -52 0
-19 -51 0
-19 -46 0
-19 -40 0
-19 -34 0
-19 -23 0
-18 -76 0
-18 -68 0
-18 -67 0
-18 -66 0
-18 -62 0
-18 -57 0
-18 -53 0
-18 -52 0
-18 -51 0
-18 -48 0
-18 -44 0
-18 -43 0
-18 -26 0
-18 -21 0
-17 -79 0
-17 -78 0
-17 -66 0
-17 -60 0
-17 -59 0
-17 -56 0
-17 -46 0
-17 -44 0
-17 -38 0
-17 -37 0
-17 -35 0
-17 -30 0
-17 -29 0
-17 -25 0
-16 -80 0
-16 -79 0
-16 -75 0
-16 -74 0
-16 -69 0
-16 -52 0
-16 -46 0
-16 -40 0
-16 -34 0
-16 -26 0
-16 -19 0
-15 -80 0
-15 -70 0
-15 -69 0
-15 -67 0
-15 -62 0
-15 -61 0
-15 -45 0
-15 -35 0
-15 -31 0
-15 -25 0
-15 -24 0
-15 -22 0
-14 -77 0
-14 -71 0
-14 -61 0
-14 -59 0
-14 -58 0
-14 -57 0
-14 -56 0
-14 -49 0
-14 -43 0
-14 -36 0
-14 -34 0
-14 -31 0
-14 -27 0
-13 -80 0
-13 -79 0
-13 -75 0
-13 -71 0
-13 -56 0
-13 -49 0
-13 -43 0
-13 -36 0
-13 -31 0
-13 -26 0
-13 -16 0
-13 -14 0
-12 -78 0
-12 -77 0
-12 -68 0
-12 -62 0
-12 -52 0
-12 -44 0
-12 -43 0
-12 -42 0
-12 -23 0
-12 -21 0
-12 -20 0
-12 -18 0
-11 -80 0
-11 -79 0
-11 -75 0
-11 -68 0
-11 -65 0
-11 -63 0
-11 -58 0
-11 -41 0
-11 -26 0
-11 -16 0
-11 -13 0
-10 -78 0
-10 -77 0
-10 -64 0
-10 -63 0
-10 -53 0
-10 -42 0
-10 -36 0
-10 -29 0
-10 -23 0
-10 -20 0
-10 -12 0
-9 -78 0
-9 -68 0
-9 -66 0
-9 -65 0
-9 -63 0
-9 -58 0
-9 -56 0
-9 -46 0
-9 -41 0
-9 -37 0
-9 -35 0
-9 -17 0
-9 -11 0
-8 -74 0
-8 -71 0
-8 -56 0
-8 -49 0
-8 -48 0
-8 -43 0
-8 -38 0
-8 -36 0
-8 -31 0
-8 -24 0
-8 -20 0
-8 -14 0
-8 -13 0
-7 -78 0
-7 -77 0
-7 -69 0
-7 -67 0
-7 -42 0
-7 -31 0
-7 -25 0
-7 -23 0
-7 -22 0
-7 -20 0
-7 -15 0
-7 -12 0
-7 -10 0
-6 -80 0
-6 -79 0
-6 -78 0
-6 -77 0
-6 -75 0
-6 -42 0
-6 -26 0
-6 -23 0
-6 -20 0
-6 -16 0
-6 -13 0
-6 -12 0
-6 -11 0
-6 -10 0
-6 -7 0
-5 -75 0
-5 -74 0
-5 -73 0
-5 -64 0
-5 -48 0
-5 -38 0
-5 -37 0
-5 -28 0
-5 -27 0
-5 -24 0
-5 -22 0
-5 -21 0
-5 -20 0
-5 -8 0
-4 -69 0
-4 -68 0
-4 -67 0
-4 -65 0
-4 -63 0
-4 -58 0
-4 -41 0
-4 -31 0
-4 -25 0
-4 -22 0
-4 -15 0
-4 -11 0
-4 -9 0
-4 -7 0
-3 -74 0
-3 -68 0
-3 -65 0
-3 -63 0
-3 -58 0
-3 -48 0
-3 -41 0
-3 -38 0
-3 -24 0
-3 -20 0
-3 -11 0
-3 -9 0
-3 -8 0
-3 -5 0
-3 -4 0
-2 -80 0
-2 -70 0
-2 -64 0
-2 -63 0
-2 -62 0
-2 -61 0
-2 -53 0
-2 -45 0
-2 -36 0
-2 -35 0
-2 -29 0
-2 -24 0
-2 -15 0
-2 -10 0
-1 -74 0
-1 -69 0
-1 -64 0
-1 -63 0
-1 -53 0
-1 -52 0
-1 -46 0
-1 -40 0
-1 -36 0
-1 -34 0
-1 -29 0
-1 -19 0
-1 -16 0
-1 -10 0
-1 -2 0
1 2 10 29 32 36 53 63 64 0
3 5 8 20 24 38 47 48 74 0
4 7 15 22 25 31 50 67 69 0
6 11 13 16 26 39 75 79 80 0
9 17 33 35 37 46 56 66 78 0
12 18 21 43 44 52 62 68 81 0
14 27 34 54 57 58 59 61 77 0
19 23 51 60 65 70 71 72 73 0
28 30 40 41 42 45 49 55 76 0
