p cnf 81 585
-77 -78 0
-74 -80 0
-74 -79 0
-72 -79 0
-72 -74 0
-71 -79 0
-71 -75 0
-70 -79 0
-70 -78 0
-70 -77 0
-70 -74 0
-70 -72 0
-69 -80 0
-68 -79 0
-68 -74 0
-68 -73 0
-68 -72 0
-68 -70 0
-67 -79 0
-67 -76 0
-67 -71 0
-66 -77 0
-66 -76 0
-65 -77 0
-65 -73 0
-65 -68 0
-65 -66 0
-64 -78 0
-64 -77 0
-64 -76 0
-64 -70 0
-64 -67 0
-63 -69 0
-62 -79 0
-62 -77 0
-62 -71 0
-62 -67 0
-62 -66 0
-62 -65 0
-61 -78 0
-61 -76 0
-61 -66 0
-60 -81 0
-59 -76 0
-59 -72 0
-59 -67 0
-59 -64 0
-58 -80 0
-58 -77 0
-58 -74 0
-58 -66 0
-58 -65 0
-58 -62 0
-57 -80 0
-57 -76 0
-57 -74 0
-57 -67 0
-57 -64 0
-57 -59 0
-57 -58 0
-56 -78 0
-56 -72 0
-56 -61 0
-56 -59 0
-55 -81 0
-55 -60 0
-54 -78 0
-54 -77 0
-54 -73 0
-54 -70 0
-54 -64 0
-53 -76 0
-53 -75 0
-53 -67 0
-53 -64 0
-53 -59 0
-53 -57 0
-52 -81 0
-52 -60 0
-52 -55 0
-51 -81 0
-51 -60 0
-51 -55 0
-51 -52 0
-50 -77 0
-50 -72 0
-50 -66 0
-50 -65 0
-50 -62 0
-50 -59 0
-50 -58 0
-50 -56 0
-49 -63 0
-48 -80 0
-48 -75 0
-48 -74 0
-48 -71 0
-48 -58 0
-48 -57 0
-47 -77 0
-47 -66 0
-47 -65 0
-47 -62 0
-47 -58 0
-47 -50 0
-47 -49 0
-46 -80 0
-46 -74 0
-46 -63 0
-46 -58 0
-46 -57 0
-46 -49 0
-46 -48 0
-45 -73 0
-45 -68 0
-45 -65 0
-45 -63 0
-45 -49 0
-45 -46 0
-44 -77 0
-44 -75 0
-44 -66 0
-44 -65 0
-44 -62 0
-44 -58 0
-44 -53 0
-44 -50 0
-44 -47 0
-43 -80 0
-43 -69 0
-43 -49 0
-43 -47 0
-42 -79 0
-42 -74 0
-42 -72 0
-42 -70 0
-42 -68 0
-42 -49 0
-42 -47 0
-42 -43 0
-41 -80 0
-41 -76 0
-41 -69 0
-41 -66 0
-41 -61 0
-41 -43 0
-40 -75 0
-40 -72 0
-40 -71 0
-40 -59 0
-40 -56 0
-40 -50 0
-40 -48 0
-39 -76 0
-39 -67 0
-39 -64 0
-39 -59 0
-39 -57 0
-39 -53 0
-39 -49 0
-39 -47 0
-39 -43 0
-39 -42 0
-38 -78 0
-38 -77 0
-38 -70 0
-38 -64 0
-38 -63 0
-38 -54 0
-38 -49 0
-38 -46 0
-38 -45 0
-37 -80 0
-37 -75 0
-37 -69 0
-37 -53 0
-37 -44 0
-37 -43 0
-37 -41 0
-36 -75 0
-36 -71 0
-36 -49 0
-36 -48 0
-36 -47 0
-36 -43 0
-36 -42 0
-36 -40 0
-36 -39 0
-35 -79 0
-35 -71 0
-35 -67 0
-35 -63 0
-35 -62 0
-35 -49 0
-35 -46 0
-35 -45 0
-35 -38 0
-34 -76 0
-34 -66 0
-34 -63 0
-34 -61 0
-34 -49 0
-34 -46 0
-34 -45 0
-34 -41 0
-34 -38 0
-34 -35 0
-33 -81 0
-33 -60 0
-33 -55 0
-33 -52 0
-33 -51 0
-32 -75 0
-32 -71 0
-32 -69 0
-32 -63 0
-32 -48 0
-32 -40 0
-32 -36 0
-31 -78 0
-31 -73 0
-31 -68 0
-31 -65 0
-31 -61 0
-31 -56 0
-31 -45 0
-30 -79 0
-30 -74 0
-30 -72 0
-30 -70 0
-30 -69 0
-30 -68 0
-30 -63 0
-30 -42 0
-30 -32 0
-29 -79 0
-29 -75 0
-29 -74 0
-29 -72 0
-29 -70 0
-29 -68 0
-29 -53 0
-29 -44 0
-29 -42 0
-29 -37 0
-29 -30 0
-28 -78 0
-28 -75 0
-28 -61 0
-28 -56 0
-28 -53 0
-28 -44 0
-28 -37 0
-28 -31 0
-28 -29 0
-27 -73 0
-27 -72 0
-27 -59 0
-27 -56 0
-27 -54 0
-27 -50 0
-27 -40 0
-26 -80 0
-26 -73 0
-26 -69 0
-26 -68 0
-26 -65 0
-26 -45 0
-26 -43 0
-26 -41 0
-26 -37 0
-26 -31 0
-25 -73 0
-25 -54 0
-25 -49 0
-25 -47 0
-25 -43 0
-25 -42 0
-25 -39 0
-25 -36 0
-25 -27 0
-24 -76 0
-24 -69 0
-24 -67 0
-24 -64 0
-24 -63 0
-24 -59 0
-24 -57 0
-24 -53 0
-24 -39 0
-24 -32 0
-24 -30 0
-23 -75 0
-23 -63 0
-23 -53 0
-23 -49 0
-23 -46 0
-23 -45 0
-23 -44 0
-23 -38 0
-23 -37 0
-23 -35 0
-23 -34 0
-23 -29 0
-23 -28 0
-22 -80 0
-22 -79 0
-22 -71 0
-22 -69 0
-22 -67 0
-22 -62 0
-22 -43 0
-22 -41 0
-22 -37 0
-22 -35 0
-22 -26 0
-21 -79 0
-21 -73 0
-21 -71 0
-21 -67 0
-21 -62 0
-21 -54 0
-21 -35 0
-21 -27 0
-21 -25 0
-21 -22 0
-20 -78 0
-20 -69 0
-20 -63 0
-20 -61 0
-20 -56 0
-20 -32 0
-20 -31 0
-20 -30 0
-20 -28 0
-20 -24 0
-19 -80 0
-19 -74 0
-19 -73 0
-19 -58 0
-19 -57 0
-19 -54 0
-19 -48 0
-19 -46 0
-19 -27 0
-19 -25 0
-19 -21 0
-18 -80 0
-18 -72 0
-18 -69 0
-18 -59 0
-18 -56 0
-18 -50 0
-18 -43 0
-18 -41 0
-18 -40 0
-18 -37 0
-18 -27 0
-18 -26 0
-18 -22 0
-17 -75 0
-17 -73 0
-17 -54 0
-17 -53 0
-17 -44 0
-17 -37 0
-17 -29 0
-17 -28 0
-17 -27 0
-17 -25 0
-17 -23 0
-17 -21 0
-17 -19 0
-16 -76 0
-16 -73 0
-16 -66 0
-16 -61 0
-16 -54 0
-16 -41 0
-16 -34 0
-16 -27 0
-16 -25 0
-16 -21 0
-16 -19 0
-16 -17 0
-15 -81 0
-15 -60 0
-15 -55 0
-15 -52 0
-15 -51 0
-15 -33 0
-14 -77 0
-14 -69 0
-14 -66 0
-14 -65 0
-14 -63 0
-14 -62 0
-14 -58 0
-14 -50 0
-14 -47 0
-14 -44 0
-14 -32 0
-14 -30 0
-14 -24 0
-14 -20 0
-13 -76 0
-13 -75 0
-13 -71 0
-13 -66 0
-13 -61 0
-13 -48 0
-13 -41 0
-13 -40 0
-13 -36 0
-13 -34 0
-13 -32 0
-13 -16 0
-12 -80 0
-12 -78 0
-12 -77 0
-12 -70 0
-12 -69 0
-12 -64 0
-12 -54 0
-12 -43 0
-12 -41 0
-12 -38 0
-12 -37 0
-12 -26 0
-12 -22 0
-12 -18 0
-11 -76 0
-11 -73 0
-11 -68 0
-11 -67 0
-11 -65 0
-11 -64 0
-11 -59 0
-11 -57 0
-11 -53 0
-11 -45 0
-11 -39 0
-11 -31 0
-11 -26 0
-11 -24 0
-10 -78 0
-10 -61 0
-10 -56 0
-10 -49 0
-10 -47 0
-10 -43 0
-10 -42 0
-10 -39 0
-10 -36 0
-10 -31 0
-10 -28 0
-10 -25 0
-10 -20 0
-9 -73 0
-9 -69 0
-9 -63 0
-9 -54 0
-9 -32 0
-9 -30 0
-9 -27 0
-9 -25 0
-9 -24 0
-9 -21 0
-9 -20 0
-9 -19 0
-9 -17 0
-9 -16 0
-9 -14 0
-8 -81 0
-8 -60 0
-8 -55 0
-8 -52 0
-8 -51 0
-8 -33 0
-8 -15 0
-7 -81 0
-7 -60 0
-7 -55 0
-7 -52 0
-7 -51 0
-7 -33 0
-7 -15 0
-7 -8 0
-6 -79 0
-6 -78 0
-6 -71 0
-6 -67 0
-6 -62 0
-6 -61 0
-6 -56 0
-6 -35 0
-6 -31 0
-6 -28 0
-6 -22 0
-6 -21 0
-6 -20 0
-6 -10 0
-5 -79 0
-5 -76 0
-5 -74 0
-5 -72 0
-5 -70 0
-5 -68 0
-5 -66 0
-5 -61 0
-5 -42 0
-5 -41 0
-5 -34 0
-5 -30 0
-5 -29 0
-5 -16 0
-5 -13 0
-4 -75 0
-4 -73 0
-4 -71 0
-4 -68 0
-4 -65 0
-4 -48 0
-4 -45 0
-4 -40 0
-4 -36 0
-4 -32 0
-4 -31 0
-4 -26 0
-4 -13 0
-4 -11 0
-3 -80 0
-3 -78 0
-3 -74 0
-3 -61 0
-3 -58 0
-3 -57 0
-3 -56 0
-3 -48 0
-3 -46 0
-3 -31 0
-3 -28 0
-3 -20 0
-3 -19 0
-3 -10 0
-3 -6 0
-2 -72 0
-2 -63 0
-2 -59 0
-2 -56 0
-2 -50 0
-2 -49 0
-2 -46 0
-2 -45 0
-2 -40 0
-2 -38 0
-2 -35 0
-2 -34 0
-2 -27 0
-2 -23 0
-2 -18 0
-1 -78 0
-1 -77 0
-1 -75 0
-1 -71 0
-1 -70 0
-1 -64 0
-1 -54 0
-1 -48 0
-1 -40 0
-1 -38 0
-1 -36 0
-1 -32 0
-1 -13 0
-1 -12 0
-1 -4 0
1 12 38 54 60 64 70 77 78 0
2 8 18 27 40 50 56 59 72 0
3 19 46 48 55 57 58 74 80 0
4 11 26 31 45 51 65 68 73 0
5 13 16 33 34 41 61 66 76 0
6 21 22 35 52 62 67 71 79 0
7 10 25 36 39 42 43 47 49 0
9 14 15 20 24 30 32 63 69 0
17 23 28 29 37 44 53 75 81 0
