p cnf 36 156
-34 -36 0
-31 -34 0
-31 -32 0
-30 -32 0
-28 -35 0
-27 -36 0
-27 -34 0
-26 -35 0
-26 -28 0
-25 -30 0
-25 -29 0
-24 -30 0
-24 -27 0
-24 -25 0
-23 -32 0
-23 -31 0
-23 -29 0
-23 -25 0
-22 -34 0
-22 -33 0
-22 -31 0
-21 -36 0
-21 -34 0
-21 -33 0
-21 -27 0
-20 -33 0
-20 -32 0
-20 -31 0
-20 -23 0
-20 -21 0
-19 -36 0
-19 -29 0
-18 -33 0
-18 -29 0
-18 -21 0
-18 -20 0
-18 -19 0
-17 -33 0
-17 -30 0
-17 -25 0
-17 -24 0
-17 -21 0
-17 -20 0
-17 -18 0
-16 -32 0
-16 -30 0
-16 -29 0
-16 -19 0
-16 -18 0
-15 -32 0
-15 -31 0
-15 -27 0
-15 -24 0
-15 -23 0
-15 -20 0
-14 -33 0
-14 -27 0
-14 -24 0
-14 -22 0
-14 -15 0
-13 -36 0
-13 -32 0
-13 -31 0
-13 -23 0
-13 -20 0
-13 -19 0
-13 -15 0
-12 -36 0
-12 -34 0
-12 -29 0
-12 -27 0
-12 -25 0
-12 -23 0
-12 -21 0
-11 -33 0
-11 -32 0
-11 -30 0
-11 -22 0
-11 -16 0
-11 -14 0
-10 -36 0
-10 -34 0
-10 -32 0
-10 -30 0
-10 -27 0
-10 -21 0
-10 -16 0
-10 -12 0
-10 -11 0
-9 -35 0
-9 -28 0
-9 -26 0
-8 -35 0
-8 -28 0
-8 -26 0
-8 -9 0
-7 -34 0
-7 -31 0
-7 -29 0
-7 -22 0
-7 -19 0
-7 -18 0
-7 -16 0
-6 -34 0
-6 -31 0
-6 -30 0
-6 -25 0
-6 -24 0
-6 -22 0
-6 -17 0
-6 -7 0
-5 -33 0
-5 -29 0
-5 -25 0
-5 -23 0
-5 -22 0
-5 -14 0
-5 -12 0
-5 -11 0
-4 -35 0
-4 -28 0
-4 -26 0
-4 -9 0
-4 -8 0
-3 -36 0
-3 -33 0
-3 -22 0
-3 -19 0
-3 -14 0
-3 -13 0
-3 -11 0
-3 -5 0
-2 -29 0
-2 -27 0
-2 -24 0
-2 -19 0
-2 -18 0
-2 -16 0
-2 -15 0
-2 -14 0
-2 -7 0
-1 -36 0
-1 -30 0
-1 -25 0
-1 -24 0
-1 -19 0
-1 -17 0
-1 -13 0
-1 -6 0
-1 -3 0
1 3 13 19 35 36 0
2 14 15 24 27 28 0
4 6 7 22 31 34 0
5 12 23 25 26 29 0
8 17 18 20 21 33 0
9 10 11 16 30 32 0
