p cnf 49 259
-47 -49 0
-45 -49 0
-45 -46 0
-44 -46 0
-42 -44 0
-41 -48 0
-40 -49 0
-40 -47 0
-40 -46 0
-40 -44 0
-39 -43 0
-38 -48 0
-37 -46 0
-37 -44 0
-37 -40 0
-36 -47 0
-36 -46 0
-36 -45 0
-35 -49 0
-35 -48 0
-35 -45 0
-35 -41 0
-34 -48 0
-34 -38 0
-34 -37 0
-33 -47 0
-33 -36 0
-32 -46 0
-32 -44 0
-32 -40 0
-32 -37 0
-32 -33 0
-31 -48 0
-31 -42 0
-31 -41 0
-31 -35 0
-30 -43 0
-30 -39 0
-29 -49 0
-29 -47 0
-29 -42 0
-29 -40 0
-29 -31 0
-28 -48 0
-28 -46 0
-28 -45 0
-28 -38 0
-28 -36 0
-28 -34 0
-27 -48 0
-27 -47 0
-27 -41 0
-27 -36 0
-27 -35 0
-27 -33 0
-27 -31 0
-26 -49 0
-26 -45 0
-26 -35 0
-26 -33 0
-26 -32 0
-25 -47 0
-25 -38 0
-25 -36 0
-25 -33 0
-25 -27 0
-24 -46 0
-24 -45 0
-24 -42 0
-24 -36 0
-24 -31 0
-24 -29 0
-24 -28 0
-23 -47 0
-23 -37 0
-23 -36 0
-23 -34 0
-23 -33 0
-23 -27 0
-23 -25 0
-22 -46 0
-22 -44 0
-22 -40 0
-22 -38 0
-22 -37 0
-22 -32 0
-22 -25 0
-21 -48 0
-21 -38 0
-21 -34 0
-21 -33 0
-21 -32 0
-21 -28 0
-21 -26 0
-20 -47 0
-20 -44 0
-20 -42 0
-20 -36 0
-20 -33 0
-20 -27 0
-20 -25 0
-20 -23 0
-19 -44 0
-19 -42 0
-19 -41 0
-19 -20 0
-18 -43 0
-18 -39 0
-18 -30 0
-17 -48 0
-17 -46 0
-17 -44 0
-17 -41 0
-17 -40 0
-17 -37 0
-17 -35 0
-17 -32 0
-17 -31 0
-17 -27 0
-17 -22 0
-16 -43 0
-16 -39 0
-16 -30 0
-16 -18 0
-15 -42 0
-15 -37 0
-15 -34 0
-15 -31 0
-15 -29 0
-15 -24 0
-15 -23 0
-14 -49 0
-14 -45 0
-14 -37 0
-14 -35 0
-14 -34 0
-14 -26 0
-14 -23 0
-14 -15 0
-13 -43 0
-13 -39 0
-13 -30 0
-13 -18 0
-13 -16 0
-12 -41 0
-12 -38 0
-12 -25 0
-12 -22 0
-12 -19 0
-11 -46 0
-11 -45 0
-11 -41 0
-11 -36 0
-11 -28 0
-11 -24 0
-11 -19 0
-11 -12 0
-10 -43 0
-10 -39 0
-10 -30 0
-10 -18 0
-10 -16 0
-10 -13 0
-9 -41 0
-9 -33 0
-9 -32 0
-9 -26 0
-9 -21 0
-9 -19 0
-9 -12 0
-9 -11 0
-8 -48 0
-8 -44 0
-8 -42 0
-8 -38 0
-8 -34 0
-8 -28 0
-8 -21 0
-8 -20 0
-8 -19 0
-7 -49 0
-7 -45 0
-7 -38 0
-7 -35 0
-7 -26 0
-7 -25 0
-7 -22 0
-7 -14 0
-7 -12 0
-6 -42 0
-6 -33 0
-6 -32 0
-6 -31 0
-6 -29 0
-6 -26 0
-6 -24 0
-6 -21 0
-6 -15 0
-6 -9 0
-5 -49 0
-5 -47 0
-5 -41 0
-5 -40 0
-5 -29 0
-5 -19 0
-5 -12 0
-5 -11 0
-5 -9 0
-4 -49 0
-4 -48 0
-4 -47 0
-4 -40 0
-4 -38 0
-4 -34 0
-4 -29 0
-4 -28 0
-4 -21 0
-4 -8 0
-4 -5 0
-3 -42 0
-3 -38 0
-3 -31 0
-3 -29 0
-3 -25 0
-3 -24 0
-3 -22 0
-3 -15 0
-3 -12 0
-3 -7 0
-3 -6 0
-2 -49 0
-2 -45 0
-2 -44 0
-2 -42 0
-2 -35 0
-2 -26 0
-2 -20 0
-2 -19 0
-2 -14 0
-2 -8 0
-2 -7 0
-1 -41 0
-1 -37 0
-1 -34 0
-1 -23 0
-1 -19 0
-1 -15 0
-1 -14 0
-1 -12 0
-1 -11 0
-1 -9 0
-1 -5 0
1 14 15 23 34 37 39 0
2 8 19 20 30 42 44 0
3 7 12 13 22 25 38 0
4 5 10 29 40 47 49 0
6 9 18 21 26 32 33 0
11 24 28 36 43 45 46 0
16 17 27 31 35 41 48 0
