p cnf 100 820
-97 -100 0
-95 -99 0
-95 -96 0
-94 -99 0
-92 -99 0
-92 -95 0
-90 -100 0
-89 -100 0
-89 -94 0
-89 -90 0
-88 -100 0
-88 -97 0
-87 -98 0
-87 -93 0
-86 -100 0
-86 -97 0
-86 -92 0
-86 -88 0
-85 -97 0
-85 -96 0
-84 -100 0
-84 -99 0
-84 -95 0
-84 -92 0
-84 -90 0
-84 -89 0
-83 -91 0
-82 -96 0
-82 -93 0
-82 -85 0
-81 -99 0
-81 -94 0
-80 -94 0
-80 -89 0
-79 -99 0
-79 -96 0
-79 -94 0
-79 -85 0
-79 -82 0
-79 -81 0
-78 -97 0
-78 -85 0
-77 -88 0
-77 -81 0
-76 -94 0
-76 -89 0
-76 -88 0
-76 -80 0
-76 -77 0
-75 -98 0
-75 -94 0
-75 -89 0
-75 -87 0
-75 -80 0
-75 -76 0
-74 -92 0
-74 -90 0
-74 -86 0
-73 -99 0
-73 -98 0
-73 -94 0
-73 -81 0
-73 -79 0
-72 -100 0
-72 -97 0
-72 -93 0
-72 -88 0
-72 -86 0
-72 -82 0
-71 -96 0
-71 -85 0
-71 -82 0
-71 -80 0
-71 -79 0
-70 -100 0
-70 -90 0
-70 -89 0
-70 -84 0
-70 -78 0
-69 -96 0
-69 -95 0
-69 -78 0
-69 -70 0
-68 -91 0
-68 -83 0
-67 -98 0
-67 -96 0
-67 -87 0
-67 -85 0
-67 -82 0
-67 -79 0
-67 -75 0
-67 -71 0
-66 -91 0
-66 -83 0
-66 -68 0
-65 -93 0
-65 -82 0
-65 -81 0
-65 -77 0
-65 -72 0
-64 -98 0
-64 -87 0
-64 -81 0
-64 -77 0
-64 -75 0
-64 -67 0
-64 -65 0
-63 -100 0
-63 -98 0
-63 -97 0
-63 -88 0
-63 -87 0
-63 -86 0
-63 -75 0
-63 -72 0
-63 -67 0
-63 -64 0
-62 -96 0
-62 -95 0
-62 -94 0
-62 -89 0
-62 -80 0
-62 -76 0
-62 -75 0
-62 -69 0
-61 -96 0
-61 -88 0
-61 -85 0
-61 -82 0
-61 -79 0
-61 -77 0
-61 -76 0
-61 -71 0
-61 -67 0
-60 -98 0
-60 -92 0
-60 -86 0
-60 -74 0
-60 -73 0
-59 -96 0
-59 -95 0
-59 -81 0
-59 -77 0
-59 -69 0
-59 -65 0
-59 -64 0
-59 -62 0
-58 -99 0
-58 -95 0
-58 -92 0
-58 -88 0
-58 -84 0
-58 -77 0
-58 -76 0
-58 -61 0
-57 -94 0
-57 -93 0
-57 -89 0
-57 -82 0
-57 -80 0
-57 -76 0
-57 -75 0
-57 -72 0
-57 -65 0
-57 -62 0
-56 -98 0
-56 -88 0
-56 -77 0
-56 -76 0
-56 -73 0
-56 -61 0
-56 -60 0
-56 -58 0
-55 -99 0
-55 -94 0
-55 -93 0
-55 -87 0
-55 -81 0
-55 -79 0
-55 -73 0
-54 -99 0
-54 -94 0
-54 -90 0
-54 -81 0
-54 -79 0
-54 -74 0
-54 -73 0
-54 -55 0
-53 -97 0
-53 -85 0
-53 -81 0
-53 -78 0
-53 -77 0
-53 -65 0
-53 -64 0
-53 -59 0
-52 -91 0
-52 -83 0
-52 -68 0
-52 -66 0
-51 -100 0
-51 -98 0
-51 -90 0
-51 -89 0
-51 -84 0
-51 -73 0
-51 -70 0
-51 -60 0
-51 -56 0
-50 -99 0
-50 -98 0
-50 -95 0
-50 -92 0
-50 -87 0
-50 -84 0
-50 -75 0
-50 -67 0
-50 -64 0
-50 -63 0
-50 -58 0
-49 -97 0
-49 -90 0
-49 -85 0
-49 -78 0
-49 -74 0
-49 -54 0
-49 -53 0
-48 -100 0
-48 -93 0
-48 -90 0
-48 -89 0
-48 -87 0
-48 -84 0
-48 -70 0
-48 -55 0
-48 -51 0
-47 -100 0
-47 -99 0
-47 -97 0
-47 -94 0
-47 -88 0
-47 -86 0
-47 -81 0
-47 -79 0
-47 -73 0
-47 -72 0
-47 -63 0
-47 -55 0
-47 -54 0
-46 -93 0
-46 -90 0
-46 -82 0
-46 -74 0
-46 -72 0
-46 -65 0
-46 -57 0
-46 -54 0
-46 -49 0
-45 -93 0
-45 -82 0
-45 -72 0
-45 -65 0
-45 -57 0
-45 -46 0
-44 -96 0
-44 -92 0
-44 -86 0
-44 -85 0
-44 -82 0
-44 -79 0
-44 -74 0
-44 -71 0
-44 -67 0
-44 -61 0
-44 -60 0
-43 -100 0
-43 -90 0
-43 -89 0
-43 -84 0
-43 -70 0
-43 -51 0
-43 -48 0
-43 -45 0
-42 -96 0
-42 -95 0
-42 -90 0
-42 -74 0
-42 -69 0
-42 -62 0
-42 -59 0
-42 -54 0
-42 -49 0
-42 -46 0
-41 -91 0
-41 -83 0
-41 -68 0
-41 -66 0
-41 -52 0
-40 -81 0
-40 -80 0
-40 -77 0
-40 -71 0
-40 -65 0
-40 -64 0
-40 -59 0
-40 -53 0
-39 -80 0
-39 -71 0
-39 -45 0
-39 -43 0
-39 -40 0
-38 -100 0
-38 -90 0
-38 -89 0
-38 -84 0
-38 -81 0
-38 -77 0
-38 -70 0
-38 -65 0
-38 -64 0
-38 -59 0
-38 -53 0
-38 -51 0
-38 -48 0
-38 -43 0
-38 -40 0
-37 -99 0
-37 -94 0
-37 -81 0
-37 -79 0
-37 -78 0
-37 -73 0
-37 -70 0
-37 -69 0
-37 -55 0
-37 -54 0
-37 -47 0
-36 -92 0
-36 -86 0
-36 -81 0
-36 -77 0
-36 -74 0
-36 -65 0
-36 -64 0
-36 -60 0
-36 -59 0
-36 -53 0
-36 -44 0
-36 -40 0
-36 -38 0
-35 -93 0
-35 -92 0
-35 -87 0
-35 -86 0
-35 -74 0
-35 -60 0
-35 -55 0
-35 -48 0
-35 -44 0
-35 -36 0
-34 -92 0
-34 -86 0
-34 -78 0
-34 -74 0
-34 -70 0
-34 -69 0
-34 -60 0
-34 -44 0
-34 -37 0
-34 -36 0
-34 -35 0
-33 -97 0
-33 -93 0
-33 -87 0
-33 -85 0
-33 -78 0
-33 -55 0
-33 -53 0
-33 -49 0
-33 -48 0
-33 -35 0
-32 -100 0
-32 -97 0
-32 -88 0
-32 -86 0
-32 -80 0
-32 -72 0
-32 -71 0
-32 -63 0
-32 -47 0
-32 -40 0
-32 -39 0
-31 -97 0
-31 -94 0
-31 -89 0
-31 -85 0
-31 -80 0
-31 -78 0
-31 -76 0
-31 -75 0
-31 -62 0
-31 -57 0
-31 -53 0
-31 -49 0
-31 -33 0
-30 -97 0
-30 -85 0
-30 -78 0
-30 -53 0
-30 -49 0
-30 -45 0
-30 -43 0
-30 -39 0
-30 -33 0
-30 -31 0
-29 -100 0
-29 -97 0
-29 -96 0
-29 -95 0
-29 -88 0
-29 -86 0
-29 -72 0
-29 -69 0
-29 -63 0
-29 -62 0
-29 -59 0
-29 -47 0
-29 -42 0
-29 -32 0
-28 -99 0
-28 -94 0
-28 -81 0
-28 -79 0
-28 -73 0
-28 -55 0
-28 -54 0
-28 -47 0
-28 -45 0
-28 -43 0
-28 -39 0
-28 -37 0
-28 -30 0
-27 -94 0
-27 -92 0
-27 -89 0
-27 -86 0
-27 -80 0
-27 -76 0
-27 -75 0
-27 -74 0
-27 -62 0
-27 -60 0
-27 -57 0
-27 -44 0
-27 -36 0
-27 -35 0
-27 -34 0
-27 -31 0
-26 -98 0
-26 -90 0
-26 -87 0
-26 -75 0
-26 -74 0
-26 -67 0
-26 -64 0
-26 -63 0
-26 -54 0
-26 -50 0
-26 -49 0
-26 -46 0
-26 -42 0
-25 -91 0
-25 -83 0
-25 -68 0
-25 -66 0
-25 -52 0
-25 -41 0
-24 -91 0
-24 -83 0
-24 -68 0
-24 -66 0
-24 -52 0
-24 -41 0
-24 -25 0
-23 -98 0
-23 -87 0
-23 -78 0
-23 -75 0
-23 -70 0
-23 -69 0
-23 -67 0
-23 -64 0
-23 -63 0
-23 -50 0
-23 -37 0
-23 -34 0
-23 -26 0
-22 -99 0
-22 -95 0
-22 -92 0
-22 -84 0
-22 -80 0
-22 -71 0
-22 -58 0
-22 -50 0
-22 -40 0
-22 -39 0
-22 -32 0
-21 -88 0
-21 -77 0
-21 -76 0
-21 -61 0
-21 -58 0
-21 -56 0
-21 -45 0
-21 -43 0
-21 -39 0
-21 -30 0
-21 -28 0
-20 -98 0
-20 -80 0
-20 -73 0
-20 -71 0
-20 -60 0
-20 -56 0
-20 -51 0
-20 -40 0
-20 -39 0
-20 -32 0
-20 -22 0
-19 -90 0
-19 -88 0
-19 -77 0
-19 -76 0
-19 -74 0
-19 -61 0
-19 -58 0
-19 -56 0
-19 -54 0
-19 -49 0
-19 -46 0
-19 -42 0
-19 -26 0
-19 -21 0
-18 -98 0
-18 -93 0
-18 -82 0
-18 -73 0
-18 -72 0
-18 -65 0
-18 -60 0
-18 -57 0
-18 -56 0
-18 -51 0
-18 -46 0
-18 -45 0
-18 -20 0
-17 -98 0
-17 -96 0
-17 -95 0
-17 -73 0
-17 -69 0
-17 -62 0
-17 -60 0
-17 -59 0
-17 -56 0
-17 -51 0
-17 -42 0
-17 -29 0
-17 -20 0
-17 -18 0
-16 -80 0
-16 -78 0
-16 -71 0
-16 -70 0
-16 -69 0
-16 -40 0
-16 -39 0
-16 -37 0
-16 -34 0
-16 -32 0
-16 -23 0
-16 -22 0
-16 -20 0
-15 -98 0
-15 -87 0
-15 -75 0
-15 -67 0
-15 -64 0
-15 -63 0
-15 -50 0
-15 -45 0
-15 -43 0
-15 -39 0
-15 -30 0
-15 -28 0
-15 -26 0
-15 -23 0
-15 -21 0
-14 -91 0
-14 -83 0
-14 -68 0
-14 -66 0
-14 -52 0
-14 -41 0
-14 -25 0
-14 -24 0
-13 -96 0
-13 -95 0
-13 -93 0
-13 -87 0
-13 -69 0
-13 -62 0
-13 -59 0
-13 -55 0
-13 -48 0
-13 -42 0
-13 -35 0
-13 -33 0
-13 -29 0
-13 -17 0
-12 -96 0
-12 -95 0
-12 -69 0
-12 -62 0
-12 -59 0
-12 -45 0
-12 -43 0
-12 -42 0
-12 -39 0
-12 -30 0
-12 -29 0
-12 -28 0
-12 -21 0
-12 -17 0
-12 -15 0
-12 -13 0
-11 -100 0
-11 -96 0
-11 -90 0
-11 -89 0
-11 -85 0
-11 -84 0
-11 -82 0
-11 -79 0
-11 -71 0
-11 -70 0
-11 -67 0
-11 -61 0
-11 -51 0
-11 -48 0
-11 -44 0
-11 -43 0
-11 -38 0
-10 -99 0
-10 -95 0
-10 -93 0
-10 -92 0
-10 -84 0
-10 -82 0
-10 -72 0
-10 -65 0
-10 -58 0
-10 -57 0
-10 -50 0
-10 -46 0
-10 -45 0
-10 -22 0
-10 -18 0
-9 -91 0
-9 -83 0
-9 -68 0
-9 -66 0
-9 -52 0
-9 -41 0
-9 -25 0
-9 -24 0
-9 -14 0
-8 -99 0
-8 -97 0
-8 -95 0
-8 -92 0
-8 -85 0
-8 -84 0
-8 -78 0
-8 -58 0
-8 -53 0
-8 -50 0
-8 -49 0
-8 -33 0
-8 -31 0
-8 -30 0
-8 -22 0
-8 -10 0
-7 -90 0
-7 -80 0
-7 -74 0
-7 -71 0
-7 -54 0
-7 -49 0
-7 -46 0
-7 -42 0
-7 -40 0
-7 -39 0
-7 -32 0
-7 -26 0
-7 -22 0
-7 -20 0
-7 -19 0
-7 -16 0
-6 -93 0
-6 -88 0
-6 -87 0
-6 -77 0
-6 -76 0
-6 -61 0
-6 -58 0
-6 -56 0
-6 -55 0
-6 -48 0
-6 -35 0
-6 -33 0
-6 -21 0
-6 -19 0
-6 -13 0
-5 -93 0
-5 -82 0
-5 -78 0
-5 -72 0
-5 -70 0
-5 -69 0
-5 -65 0
-5 -57 0
-5 -46 0
-5 -45 0
-5 -37 0
-5 -34 0
-5 -23 0
-5 -18 0
-5 -16 0
-5 -10 0
-4 -93 0
-4 -87 0
-4 -80 0
-4 -71 0
-4 -55 0
-4 -48 0
-4 -40 0
-4 -39 0
-4 -35 0
-4 -33 0
-4 -32 0
-4 -22 0
-4 -20 0
-4 -16 0
-4 -13 0
-4 -7 0
-4 -6 0
-3 -98 0
-3 -97 0
-3 -85 0
-3 -78 0
-3 -73 0
-3 -60 0
-3 -56 0
-3 -53 0
-3 -51 0
-3 -49 0
-3 -33 0
-3 -31 0
-3 -30 0
-3 -20 0
-3 -18 0
-3 -17 0
-3 -8 0
-2 -88 0
-2 -78 0
-2 -77 0
-2 -76 0
-2 -70 0
-2 -69 0
-2 -61 0
-2 -58 0
-2 -56 0
-2 -37 0
-2 -34 0
-2 -23 0
-2 -21 0
-2 -19 0
-2 -16 0
-2 -6 0
-2 -5 0
-1 -92 0
-1 -86 0
-1 -74 0
-1 -60 0
-1 -45 0
-1 -44 0
-1 -43 0
-1 -39 0
-1 -36 0
-1 -35 0
-1 -34 0
-1 -30 0
-1 -28 0
-1 -27 0
-1 -21 0
-1 -15 0
-1 -12 0
1 12 15 21 25 28 30 39 43 45 0
2 5 16 23 34 37 52 69 70 78 0
3 17 18 20 51 56 60 73 83 98 0
4 6 13 14 33 35 48 55 87 93 0
7 19 26 42 46 49 54 68 74 90 0
8 10 22 41 50 58 84 92 95 99 0
9 29 32 47 63 72 86 88 97 100 0
11 44 61 67 71 79 82 85 91 96 0
24 27 31 57 62 75 76 80 89 94 0
36 38 40 53 59 64 65 66 77 81 0
