p cnf 100 820
-97 -100 0
-97 -99 0
-96 -99 0
-96 -97 0
-95 -100 0
-94 -98 0
-93 -96 0
-92 -100 0
-92 -95 0
-91 -100 0
-91 -97 0
-90 -98 0
-90 -95 0
-90 -94 0
-89 -95 0
-89 -90 0
-88 -99 0
-87 -94 0
-87 -93 0
-86 -95 0
-86 -93 0
-86 -90 0
-86 -89 0
-86 -87 0
-84 -95 0
-84 -90 0
-84 -89 0
-84 -86 0
-83 -99 0
-83 -88 0
-82 -85 0
-81 -99 0
-81 -98 0
-81 -97 0
-81 -96 0
-80 -94 0
-80 -91 0
-80 -87 0
-79 -93 0
-79 -87 0
-79 -86 0
-78 -98 0
-78 -84 0
-78 -81 0
-77 -85 0
-77 -82 0
-76 -92 0
-76 -89 0
-75 -99 0
-75 -93 0
-75 -88 0
-75 -87 0
-75 -86 0
-75 -83 0
-75 -79 0
-74 -92 0
-74 -83 0
-74 -76 0
-73 -98 0
-73 -89 0
-73 -81 0
-73 -78 0
-73 -76 0
-72 -100 0
-72 -99 0
-72 -95 0
-72 -92 0
-72 -88 0
-72 -83 0
-72 -75 0
-71 -92 0
-71 -88 0
-71 -76 0
-71 -74 0
-70 -98 0
-70 -91 0
-70 -81 0
-70 -80 0
-70 -78 0
-70 -73 0
-69 -100 0
-69 -98 0
-69 -97 0
-69 -94 0
-69 -91 0
-69 -90 0
-68 -99 0
-68 -91 0
-68 -88 0
-68 -83 0
-68 -80 0
-68 -75 0
-68 -72 0
-68 -70 0
-67 -96 0
-67 -93 0
-67 -91 0
-67 -80 0
-67 -70 0
-67 -68 0
-66 -100 0
-66 -97 0
-66 -91 0
-66 -88 0
-66 -71 0
-66 -69 0
-65 -96 0
-65 -93 0
-65 -84 0
-65 -78 0
-65 -67 0
-64 -85 0
-64 -82 0
-64 -77 0
-63 -89 0
-63 -76 0
-63 -73 0
-62 -99 0
-62 -88 0
-62 -84 0
-62 -83 0
-62 -78 0
-62 -75 0
-62 -72 0
-62 -68 0
-62 -65 0
-61 -99 0
-61 -97 0
-61 -96 0
-61 -81 0
-61 -63 0
-60 -94 0
-60 -88 0
-60 -87 0
-60 -80 0
-60 -71 0
-60 -66 0
-59 -84 0
-59 -78 0
-59 -65 0
-59 -62 0
-58 -100 0
-58 -95 0
-58 -92 0
-58 -79 0
-58 -72 0
-57 -91 0
-57 -80 0
-57 -70 0
-57 -68 0
-57 -67 0
-57 -59 0
-56 -100 0
-56 -97 0
-56 -93 0
-56 -91 0
-56 -87 0
-56 -86 0
-56 -79 0
-56 -75 0
-56 -69 0
-56 -66 0
-55 -100 0
-55 -97 0
-55 -91 0
-55 -89 0
-55 -76 0
-55 -73 0
-55 -69 0
-55 -66 0
-55 -63 0
-55 -56 0
-54 -88 0
-54 -79 0
-54 -71 0
-54 -66 0
-54 -60 0
-54 -58 0
-53 -88 0
-53 -71 0
-53 -66 0
-53 -60 0
-53 -59 0
-53 -57 0
-53 -54 0
-52 -98 0
-52 -94 0
-52 -90 0
-52 -69 0
-52 -63 0
-52 -61 0
-51 -98 0
-51 -88 0
-51 -81 0
-51 -78 0
-51 -73 0
-51 -71 0
-51 -70 0
-51 -66 0
-51 -60 0
-51 -54 0
-51 -53 0
-50 -84 0
-50 -79 0
-50 -78 0
-50 -65 0
-50 -62 0
-50 -59 0
-50 -58 0
-50 -54 0
-49 -98 0
-49 -93 0
-49 -87 0
-49 -86 0
-49 -81 0
-49 -79 0
-49 -78 0
-49 -75 0
-49 -73 0
-49 -70 0
-49 -56 0
-49 -51 0
-48 -100 0
-48 -95 0
-48 -92 0
-48 -72 0
-48 -59 0
-48 -58 0
-48 -57 0
-48 -53 0
-47 -100 0
-47 -95 0
-47 -92 0
-47 -72 0
-47 -63 0
-47 -61 0
-47 -58 0
-47 -52 0
-47 -48 0
-46 -99 0
-46 -89 0
-46 -88 0
-46 -83 0
-46 -76 0
-46 -75 0
-46 -73 0
-46 -72 0
-46 -68 0
-46 -63 0
-46 -62 0
-46 -55 0
-45 -100 0
-45 -96 0
-45 -95 0
-45 -93 0
-45 -92 0
-45 -72 0
-45 -67 0
-45 -65 0
-45 -58 0
-45 -48 0
-45 -47 0
-44 -94 0
-44 -87 0
-44 -84 0
-44 -80 0
-44 -78 0
-44 -65 0
-44 -62 0
-44 -60 0
-44 -59 0
-44 -50 0
-43 -100 0
-43 -98 0
-43 -95 0
-43 -92 0
-43 -81 0
-43 -78 0
-43 -73 0
-43 -72 0
-43 -70 0
-43 -58 0
-43 -51 0
-43 -49 0
-43 -48 0
-43 -47 0
-43 -45 0
-42 -100 0
-42 -95 0
-42 -94 0
-42 -92 0
-42 -87 0
-42 -80 0
-42 -72 0
-42 -60 0
-42 -58 0
-42 -48 0
-42 -47 0
-42 -45 0
-42 -44 0
-42 -43 0
-41 -92 0
-41 -91 0
-41 -80 0
-41 -76 0
-41 -74 0
-41 -71 0
-41 -70 0
-41 -68 0
-41 -67 0
-41 -57 0
-40 -91 0
-40 -80 0
-40 -70 0
-40 -68 0
-40 -67 0
-40 -63 0
-40 -61 0
-40 -57 0
-40 -52 0
-40 -47 0
-40 -41 0
-39 -83 0
-39 -79 0
-39 -74 0
-39 -58 0
-39 -54 0
-39 -50 0
-38 -99 0
-38 -97 0
-38 -96 0
-38 -81 0
-38 -79 0
-38 -61 0
-38 -58 0
-38 -54 0
-38 -50 0
-38 -39 0
-37 -89 0
-37 -76 0
-37 -73 0
-37 -63 0
-37 -59 0
-37 -57 0
-37 -55 0
-37 -53 0
-37 -48 0
-37 -46 0
-36 -95 0
-36 -90 0
-36 -89 0
-36 -88 0
-36 -86 0
-36 -84 0
-36 -71 0
-36 -66 0
-36 -60 0
-36 -54 0
-36 -53 0
-36 -51 0
-35 -99 0
-35 -97 0
-35 -96 0
-35 -95 0
-35 -90 0
-35 -89 0
-35 -86 0
-35 -84 0
-35 -81 0
-35 -61 0
-35 -38 0
-35 -36 0
-34 -96 0
-34 -93 0
-34 -83 0
-34 -74 0
-34 -67 0
-34 -65 0
-34 -45 0
-34 -39 0
-33 -94 0
-33 -89 0
-33 -87 0
-33 -80 0
-33 -76 0
-33 -73 0
-33 -63 0
-33 -60 0
-33 -55 0
-33 -46 0
-33 -44 0
-33 -42 0
-33 -37 0
-32 -85 0
-32 -82 0
-32 -77 0
-32 -64 0
-31 -96 0
-31 -93 0
-31 -88 0
-31 -71 0
-31 -67 0
-31 -66 0
-31 -65 0
-31 -60 0
-31 -54 0
-31 -53 0
-31 -51 0
-31 -45 0
-31 -36 0
-31 -34 0
-30 -98 0
-30 -94 0
-30 -90 0
-30 -79 0
-30 -69 0
-30 -58 0
-30 -54 0
-30 -52 0
-30 -50 0
-30 -39 0
-30 -38 0
-29 -93 0
-29 -87 0
-29 -86 0
-29 -79 0
-29 -75 0
-29 -63 0
-29 -61 0
-29 -56 0
-29 -52 0
-29 -49 0
-29 -47 0
-29 -40 0
-28 -88 0
-28 -71 0
-28 -66 0
-28 -63 0
-28 -61 0
-28 -60 0
-28 -54 0
-28 -53 0
-28 -52 0
-28 -51 0
-28 -47 0
-28 -40 0
-28 -36 0
-28 -31 0
-28 -29 0
-27 -95 0
-27 -91 0
-27 -90 0
-27 -89 0
-27 -86 0
-27 -84 0
-27 -80 0
-27 -70 0
-27 -68 0
-27 -67 0
-27 -57 0
-27 -41 0
-27 -40 0
-27 -36 0
-27 -35 0
-26 -99 0
-26 -97 0
-26 -96 0
-26 -94 0
-26 -87 0
-26 -81 0
-26 -80 0
-26 -61 0
-26 -60 0
-26 -44 0
-26 -42 0
-26 -38 0
-26 -35 0
-26 -33 0
-25 -99 0
-25 -97 0
-25 -96 0
-25 -92 0
-25 -81 0
-25 -76 0
-25 -74 0
-25 -71 0
-25 -61 0
-25 -41 0
-25 -38 0
-25 -35 0
-25 -26 0
-24 -95 0
-24 -90 0
-24 -89 0
-24 -86 0
-24 -84 0
-24 -83 0
-24 -74 0
-24 -39 0
-24 -36 0
-24 -35 0
-24 -34 0
-24 -27 0
-23 -91 0
-23 -80 0
-23 -79 0
-23 -70 0
-23 -68 0
-23 -67 0
-23 -58 0
-23 -57 0
-23 -54 0
-23 -50 0
-23 -41 0
-23 -40 0
-23 -39 0
-23 -38 0
-23 -30 0
-23 -27 0
-22 -85 0
-22 -82 0
-22 -77 0
-22 -64 0
-22 -32 0
-21 -99 0
-21 -97 0
-21 -96 0
-21 -81 0
-21 -61 0
-21 -59 0
-21 -57 0
-21 -53 0
-21 -48 0
-21 -38 0
-21 -37 0
-21 -35 0
-21 -26 0
-21 -25 0
-20 -94 0
-20 -87 0
-20 -83 0
-20 -80 0
-20 -74 0
-20 -60 0
-20 -44 0
-20 -42 0
-20 -39 0
-20 -34 0
-20 -33 0
-20 -26 0
-20 -24 0
-19 -99 0
-19 -98 0
-19 -94 0
-19 -90 0
-19 -88 0
-19 -83 0
-19 -75 0
-19 -72 0
-19 -69 0
-19 -68 0
-19 -62 0
-19 -52 0
-19 -46 0
-19 -30 0
-18 -100 0
-18 -97 0
-18 -91 0
-18 -83 0
-18 -74 0
-18 -69 0
-18 -66 0
-18 -56 0
-18 -55 0
-18 -39 0
-18 -34 0
-18 -24 0
-18 -20 0
-17 -96 0
-17 -93 0
-17 -89 0
-17 -76 0
-17 -73 0
-17 -67 0
-17 -65 0
-17 -63 0
-17 -55 0
-17 -46 0
-17 -45 0
-17 -37 0
-17 -34 0
-17 -33 0
-17 -31 0
-16 -85 0
-16 -82 0
-16 -77 0
-16 -64 0
-16 -32 0
-16 -22 0
-15 -92 0
-15 -84 0
-15 -78 0
-15 -76 0
-15 -74 0
-15 -71 0
-15 -65 0
-15 -62 0
-15 -59 0
-15 -50 0
-15 -44 0
-15 -41 0
-15 -25 0
-14 -85 0
-14 -82 0
-14 -77 0
-14 -64 0
-14 -32 0
-14 -22 0
-14 -16 0
-13 -98 0
-13 -94 0
-13 -90 0
-13 -69 0
-13 -59 0
-13 -57 0
-13 -53 0
-13 -52 0
-13 -48 0
-13 -37 0
-13 -30 0
-13 -21 0
-13 -19 0
-12 -100 0
-12 -97 0
-12 -91 0
-12 -84 0
-12 -78 0
-12 -69 0
-12 -66 0
-12 -65 0
-12 -62 0
-12 -59 0
-12 -56 0
-12 -55 0
-12 -50 0
-12 -44 0
-12 -18 0
-12 -15 0
-11 -93 0
-11 -92 0
-11 -87 0
-11 -86 0
-11 -79 0
-11 -76 0
-11 -75 0
-11 -74 0
-11 -71 0
-11 -56 0
-11 -49 0
-11 -41 0
-11 -29 0
-11 -25 0
-11 -15 0
-10 -85 0
-10 -82 0
-10 -77 0
-10 -64 0
-10 -32 0
-10 -22 0
-10 -16 0
-10 -14 0
-9 -98 0
-9 -83 0
-9 -81 0
-9 -78 0
-9 -74 0
-9 -73 0
-9 -70 0
-9 -51 0
-9 -49 0
-9 -43 0
-9 -39 0
-9 -34 0
-9 -24 0
-9 -20 0
-9 -18 0
-8 -83 0
-8 -74 0
-8 -59 0
-8 -57 0
-8 -53 0
-8 -48 0
-8 -39 0
-8 -37 0
-8 -34 0
-8 -24 0
-8 -21 0
-8 -20 0
-8 -18 0
-8 -13 0
-8 -9 0
-7 -93 0
-7 -87 0
-7 -86 0
-7 -79 0
-7 -75 0
-7 -59 0
-7 -57 0
-7 -56 0
-7 -53 0
-7 -49 0
-7 -48 0
-7 -37 0
-7 -29 0
-7 -21 0
-7 -13 0
-7 -11 0
-7 -8 0
-6 -83 0
-6 -74 0
-6 -63 0
-6 -61 0
-6 -52 0
-6 -47 0
-6 -40 0
-6 -39 0
-6 -34 0
-6 -29 0
-6 -28 0
-6 -24 0
-6 -20 0
-6 -18 0
-6 -9 0
-6 -8 0
-5 -89 0
-5 -79 0
-5 -76 0
-5 -73 0
-5 -63 0
-5 -58 0
-5 -55 0
-5 -54 0
-5 -50 0
-5 -46 0
-5 -39 0
-5 -38 0
-5 -37 0
-5 -33 0
-5 -30 0
-5 -23 0
-5 -17 0
-4 -98 0
-4 -96 0
-4 -94 0
-4 -93 0
-4 -90 0
-4 -69 0
-4 -67 0
-4 -65 0
-4 -52 0
-4 -45 0
-4 -34 0
-4 -31 0
-4 -30 0
-4 -19 0
-4 -17 0
-4 -13 0
-3 -85 0
-3 -82 0
-3 -77 0
-3 -64 0
-3 -32 0
-3 -22 0
-3 -16 0
-3 -14 0
-3 -10 0
-2 -98 0
-2 -94 0
-2 -92 0
-2 -90 0
-2 -76 0
-2 -74 0
-2 -71 0
-2 -69 0
-2 -52 0
-2 -41 0
-2 -30 0
-2 -25 0
-2 -19 0
-2 -15 0
-2 -13 0
-2 -11 0
-2 -4 0
-1 -84 0
-1 -78 0
-1 -65 0
-1 -63 0
-1 -62 0
-1 -61 0
-1 -59 0
-1 -52 0
-1 -50 0
-1 -47 0
-1 -44 0
-1 -40 0
-1 -29 0
-1 -28 0
-1 -15 0
-1 -12 0
-1 -6 0
1 6 28 29 40 47 52 61 63 64 0
2 11 15 25 32 41 71 74 76 92 0
3 20 26 33 42 44 60 80 87 94 0
4 17 31 34 45 65 67 82 93 96 0
5 14 23 30 38 39 50 54 58 79 0
7 8 13 21 22 37 48 53 57 59 0
9 16 43 49 51 70 73 78 81 98 0
10 12 18 55 56 66 69 91 97 100 0
19 46 62 68 72 75 83 85 88 99 0
24 27 35 36 77 84 86 89 90 95 0
