p cnf 81 585
-76 -81 0
-76 -77 0
-75 -78 0
-75 -77 0
-75 -76 0
-73 -80 0
-72 -77 0
-71 -79 0
-71 -78 0
-70 -78 0
-70 -75 0
-69 -79 0
-69 -71 0
-69 -70 0
-68 -81 0
-68 -79 0
-68 -76 0
-67 -81 0
-67 -77 0
-67 -72 0
-66 -79 0
-66 -72 0
-66 -71 0
-66 -69 0
-65 -78 0
-65 -75 0
-65 -72 0
-65 -70 0
-65 -66 0
-64 -81 0
-64 -78 0
-64 -75 0
-64 -70 0
-64 -67 0
-64 -65 0
-63 -79 0
-63 -68 0
-62 -80 0
-62 -73 0
-61 -81 0
-61 -76 0
-61 -68 0
-60 -80 0
-60 -73 0
-60 -62 0
-59 -79 0
-59 -74 0
-59 -68 0
-59 -63 0
-58 -79 0
-58 -78 0
-58 -75 0
-58 -70 0
-58 -68 0
-58 -65 0
-58 -64 0
-58 -63 0
-58 -59 0
-57 -70 0
-57 -69 0
-56 -61 0
-55 -79 0
-55 -68 0
-55 -63 0
-55 -59 0
-55 -58 0
-55 -56 0
-54 -74 0
-54 -61 0
-54 -59 0
-54 -56 0
-53 -77 0
-53 -74 0
-53 -72 0
-53 -67 0
-52 -80 0
-52 -73 0
-52 -62 0
-52 -60 0
-51 -81 0
-51 -67 0
-51 -64 0
-51 -57 0
-50 -81 0
-50 -76 0
-50 -70 0
-50 -69 0
-50 -68 0
-50 -61 0
-50 -57 0
-49 -74 0
-49 -63 0
-49 -53 0
-48 -72 0
-48 -66 0
-48 -65 0
-48 -63 0
-48 -49 0
-47 -78 0
-47 -77 0
-47 -72 0
-47 -71 0
-47 -67 0
-47 -53 0
-46 -74 0
-46 -56 0
-46 -55 0
-46 -53 0
-46 -49 0
-45 -63 0
-45 -61 0
-45 -56 0
-45 -54 0
-45 -49 0
-45 -48 0
-44 -72 0
-44 -66 0
-44 -65 0
-44 -56 0
-44 -55 0
-44 -48 0
-44 -46 0
-43 -79 0
-43 -71 0
-43 -69 0
-43 -66 0
-43 -61 0
-43 -56 0
-43 -54 0
-43 -45 0
-42 -81 0
-42 -76 0
-42 -72 0
-42 -68 0
-42 -66 0
-42 -65 0
-42 -61 0
-42 -50 0
-42 -48 0
-42 -44 0
-41 -77 0
-41 -76 0
-41 -75 0
-41 -74 0
-41 -59 0
-41 -54 0
-40 -78 0
-40 -74 0
-40 -71 0
-40 -59 0
-40 -54 0
-40 -47 0
-40 -41 0
-39 -78 0
-39 -75 0
-39 -70 0
-39 -65 0
-39 -64 0
-39 -61 0
-39 -58 0
-39 -56 0
-39 -54 0
-39 -45 0
-39 -43 0
-38 -70 0
-38 -69 0
-38 -63 0
-38 -57 0
-38 -50 0
-38 -49 0
-38 -48 0
-38 -45 0
-37 -81 0
-37 -79 0
-37 -71 0
-37 -69 0
-37 -67 0
-37 -66 0
-37 -64 0
-37 -51 0
-37 -43 0
-36 -77 0
-36 -76 0
-36 -75 0
-36 -56 0
-36 -55 0
-36 -46 0
-36 -44 0
-36 -41 0
-35 -79 0
-35 -68 0
-35 -63 0
-35 -59 0
-35 -58 0
-35 -57 0
-35 -55 0
-35 -51 0
-34 -77 0
-34 -72 0
-34 -70 0
-34 -69 0
-34 -67 0
-34 -57 0
-34 -53 0
-34 -50 0
-34 -47 0
-34 -38 0
-33 -77 0
-33 -76 0
-33 -75 0
-33 -63 0
-33 -49 0
-33 -48 0
-33 -45 0
-33 -41 0
-33 -38 0
-33 -36 0
-32 -72 0
-32 -66 0
-32 -65 0
-32 -57 0
-32 -51 0
-32 -48 0
-32 -44 0
-32 -42 0
-32 -35 0
-31 -74 0
-31 -57 0
-31 -53 0
-31 -51 0
-31 -49 0
-31 -46 0
-31 -35 0
-31 -32 0
-30 -74 0
-30 -70 0
-30 -69 0
-30 -59 0
-30 -57 0
-30 -54 0
-30 -50 0
-30 -41 0
-30 -40 0
-30 -38 0
-30 -34 0
-29 -81 0
-29 -74 0
-29 -67 0
-29 -64 0
-29 -59 0
-29 -54 0
-29 -51 0
-29 -41 0
-29 -40 0
-29 -37 0
-29 -30 0
-28 -80 0
-28 -73 0
-28 -62 0
-28 -60 0
-28 -52 0
-27 -81 0
-27 -76 0
-27 -68 0
-27 -61 0
-27 -50 0
-27 -42 0
-26 -57 0
-26 -51 0
-26 -35 0
-26 -32 0
-26 -31 0
-26 -27 0
-25 -80 0
-25 -73 0
-25 -62 0
-25 -60 0
-25 -52 0
-25 -28 0
-24 -78 0
-24 -71 0
-24 -56 0
-24 -55 0
-24 -47 0
-24 -46 0
-24 -44 0
-24 -40 0
-24 -36 0
-23 -78 0
-23 -71 0
-23 -57 0
-23 -51 0
-23 -47 0
-23 -40 0
-23 -35 0
-23 -32 0
-23 -31 0
-23 -26 0
-23 -24 0
-22 -81 0
-22 -67 0
-22 -64 0
-22 -63 0
-22 -51 0
-22 -49 0
-22 -48 0
-22 -45 0
-22 -38 0
-22 -37 0
-22 -33 0
-22 -29 0
-21 -74 0
-21 -72 0
-21 -66 0
-21 -65 0
-21 -59 0
-21 -54 0
-21 -48 0
-21 -44 0
-21 -42 0
-21 -41 0
-21 -40 0
-21 -32 0
-21 -30 0
-21 -29 0
-20 -77 0
-20 -72 0
-20 -67 0
-20 -61 0
-20 -56 0
-20 -54 0
-20 -53 0
-20 -47 0
-20 -45 0
-20 -43 0
-20 -39 0
-20 -34 0
-19 -78 0
-19 -75 0
-19 -74 0
-19 -70 0
-19 -65 0
-19 -64 0
-19 -58 0
-19 -53 0
-19 -49 0
-19 -46 0
-19 -39 0
-19 -31 0
-18 -81 0
-18 -78 0
-18 -76 0
-18 -71 0
-18 -68 0
-18 -61 0
-18 -50 0
-18 -47 0
-18 -42 0
-18 -40 0
-18 -27 0
-18 -24 0
-18 -23 0
-17 -61 0
-17 -57 0
-17 -56 0
-17 -54 0
-17 -51 0
-17 -45 0
-17 -43 0
-17 -39 0
-17 -35 0
-17 -32 0
-17 -31 0
-17 -26 0
-17 -23 0
-17 -20 0
-16 -63 0
-16 -49 0
-16 -48 0
-16 -45 0
-16 -38 0
-16 -33 0
-16 -27 0
-16 -26 0
-16 -22 0
-15 -80 0
-15 -73 0
-15 -62 0
-15 -60 0
-15 -52 0
-15 -28 0
-15 -25 0
-14 -81 0
-14 -76 0
-14 -74 0
-14 -68 0
-14 -61 0
-14 -53 0
-14 -50 0
-14 -49 0
-14 -46 0
-14 -42 0
-14 -31 0
-14 -27 0
-14 -19 0
-14 -18 0
-13 -79 0
-13 -77 0
-13 -72 0
-13 -68 0
-13 -67 0
-13 -63 0
-13 -59 0
-13 -58 0
-13 -55 0
-13 -53 0
-13 -47 0
-13 -35 0
-13 -34 0
-13 -20 0
-12 -78 0
-12 -71 0
-12 -63 0
-12 -49 0
-12 -48 0
-12 -47 0
-12 -45 0
-12 -40 0
-12 -38 0
-12 -33 0
-12 -24 0
-12 -23 0
-12 -22 0
-12 -18 0
-12 -16 0
-11 -77 0
-11 -76 0
-11 -75 0
-11 -57 0
-11 -51 0
-11 -41 0
-11 -36 0
-11 -35 0
-11 -33 0
-11 -32 0
-11 -31 0
-11 -26 0
-11 -23 0
-11 -17 0
-10 -79 0
-10 -77 0
-10 -76 0
-10 -75 0
-10 -71 0
-10 -69 0
-10 -66 0
-10 -43 0
-10 -41 0
-10 -37 0
-10 -36 0
-10 -33 0
-10 -11 0
-9 -78 0
-9 -75 0
-9 -70 0
-9 -65 0
-9 -64 0
-9 -58 0
-9 -39 0
-9 -27 0
-9 -26 0
-9 -19 0
-9 -16 0
-8 -80 0
-8 -73 0
-8 -62 0
-8 -60 0
-8 -52 0
-8 -28 0
-8 -25 0
-8 -15 0
-7 -70 0
-7 -69 0
-7 -57 0
-7 -56 0
-7 -55 0
-7 -50 0
-7 -46 0
-7 -44 0
-7 -38 0
-7 -36 0
-7 -34 0
-7 -30 0
-7 -24 0
-6 -56 0
-6 -55 0
-6 -46 0
-6 -44 0
-6 -36 0
-6 -27 0
-6 -26 0
-6 -24 0
-6 -16 0
-6 -9 0
-6 -7 0
-5 -77 0
-5 -72 0
-5 -67 0
-5 -53 0
-5 -47 0
-5 -34 0
-5 -27 0
-5 -26 0
-5 -20 0
-5 -16 0
-5 -13 0
-5 -9 0
-5 -6 0
-4 -79 0
-4 -71 0
-4 -69 0
-4 -66 0
-4 -43 0
-4 -37 0
-4 -27 0
-4 -26 0
-4 -16 0
-4 -10 0
-4 -9 0
-4 -6 0
-4 -5 0
-3 -81 0
-3 -67 0
-3 -64 0
-3 -56 0
-3 -55 0
-3 -51 0
-3 -46 0
-3 -44 0
-3 -37 0
-3 -36 0
-3 -29 0
-3 -24 0
-3 -22 0
-3 -7 0
-3 -6 0
-2 -74 0
-2 -59 0
-2 -54 0
-2 -41 0
-2 -40 0
-2 -30 0
-2 -29 0
-2 -27 0
-2 -26 0
-2 -21 0
-2 -16 0
-2 -9 0
-2 -6 0
-2 -5 0
-2 -4 0
-1 -79 0
-1 -74 0
-1 -71 0
-1 -69 0
-1 -66 0
-1 -53 0
-1 -49 0
-1 -46 0
-1 -43 0
-1 -37 0
-1 -31 0
-1 -19 0
-1 -14 0
-1 -10 0
-1 -4 0
1 14 19 31 46 49 52 53 74 0
2 4 5 6 8 9 16 26 27 0
3 22 29 37 51 62 64 67 81 0
7 28 30 34 38 50 57 69 70 0
10 11 25 33 36 41 75 76 77 0
12 18 23 24 40 47 60 71 78 0
13 35 55 58 59 63 68 73 79 0
15 17 20 39 43 45 54 56 61 0
21 32 42 44 48 65 66 72 80 0
