p cnf 81 585
-80 -81 0
-78 -80 0
-76 -81 0
-76 -77 0
-75 -78 0
-74 -77 0
-74 -76 0
-73 -77 0
-73 -76 0
-73 -74 0
-72 -79 0
-71 -75 0
-70 -77 0
-70 -71 0
-69 -81 0
-69 -80 0
-69 -79 0
-69 -72 0
-67 -78 0
-67 -77 0
-67 -75 0
-67 -70 0
-66 -68 0
-65 -77 0
-65 -72 0
-65 -70 0
-65 -67 0
-64 -75 0
-64 -71 0
-62 -74 0
-62 -71 0
-62 -70 0
-61 -78 0
-61 -75 0
-61 -74 0
-61 -67 0
-61 -62 0
-60 -81 0
-60 -80 0
-60 -74 0
-60 -69 0
-60 -62 0
-60 -61 0
-59 -79 0
-59 -78 0
-59 -75 0
-59 -72 0
-59 -69 0
-59 -67 0
-59 -61 0
-58 -81 0
-58 -79 0
-58 -76 0
-57 -81 0
-57 -76 0
-57 -71 0
-57 -70 0
-57 -62 0
-57 -58 0
-56 -73 0
-56 -72 0
-56 -65 0
-55 -78 0
-55 -75 0
-55 -67 0
-55 -63 0
-55 -61 0
-55 -59 0
-54 -74 0
-54 -63 0
-54 -62 0
-54 -61 0
-54 -60 0
-53 -75 0
-53 -72 0
-53 -71 0
-53 -65 0
-53 -64 0
-53 -56 0
-52 -68 0
-52 -66 0
-51 -77 0
-51 -76 0
-51 -75 0
-51 -74 0
-51 -73 0
-51 -71 0
-51 -64 0
-51 -53 0
-50 -81 0
-50 -76 0
-50 -64 0
-50 -58 0
-50 -57 0
-49 -79 0
-49 -72 0
-49 -69 0
-49 -63 0
-49 -59 0
-49 -54 0
-48 -79 0
-48 -77 0
-48 -70 0
-48 -67 0
-48 -65 0
-48 -58 0
-47 -79 0
-47 -72 0
-47 -69 0
-47 -64 0
-47 -59 0
-47 -50 0
-47 -49 0
-46 -81 0
-46 -76 0
-46 -63 0
-46 -58 0
-46 -57 0
-46 -54 0
-46 -50 0
-46 -49 0
-45 -78 0
-45 -75 0
-45 -67 0
-45 -61 0
-45 -59 0
-45 -55 0
-44 -81 0
-44 -80 0
-44 -69 0
-44 -63 0
-44 -60 0
-44 -55 0
-43 -79 0
-43 -58 0
-43 -48 0
-43 -45 0
-42 -81 0
-42 -80 0
-42 -77 0
-42 -70 0
-42 -69 0
-42 -67 0
-42 -65 0
-42 -60 0
-42 -48 0
-42 -44 0
-41 -68 0
-41 -66 0
-41 -52 0
-40 -73 0
-40 -63 0
-40 -56 0
-40 -54 0
-40 -49 0
-40 -46 0
-39 -81 0
-39 -80 0
-39 -69 0
-39 -60 0
-39 -45 0
-39 -44 0
-39 -43 0
-39 -42 0
-38 -79 0
-38 -63 0
-38 -58 0
-38 -55 0
-38 -48 0
-38 -44 0
-38 -43 0
-37 -77 0
-37 -70 0
-37 -67 0
-37 -65 0
-37 -63 0
-37 -54 0
-37 -49 0
-37 -48 0
-37 -46 0
-37 -42 0
-37 -40 0
-36 -71 0
-36 -70 0
-36 -63 0
-36 -62 0
-36 -57 0
-36 -55 0
-36 -44 0
-36 -38 0
-35 -75 0
-35 -71 0
-35 -64 0
-35 -63 0
-35 -54 0
-35 -53 0
-35 -51 0
-35 -49 0
-35 -46 0
-35 -40 0
-35 -37 0
-34 -79 0
-34 -73 0
-34 -58 0
-34 -56 0
-34 -48 0
-34 -43 0
-34 -40 0
-34 -38 0
-33 -79 0
-33 -75 0
-33 -71 0
-33 -64 0
-33 -58 0
-33 -53 0
-33 -51 0
-33 -48 0
-33 -43 0
-33 -38 0
-33 -35 0
-33 -34 0
-32 -81 0
-32 -80 0
-32 -75 0
-32 -71 0
-32 -69 0
-32 -64 0
-32 -60 0
-32 -53 0
-32 -51 0
-32 -44 0
-32 -42 0
-32 -39 0
-32 -35 0
-32 -33 0
-31 -64 0
-31 -63 0
-31 -55 0
-31 -50 0
-31 -47 0
-31 -44 0
-31 -38 0
-31 -36 0
-30 -77 0
-30 -76 0
-30 -74 0
-30 -73 0
-30 -51 0
-30 -45 0
-30 -43 0
-30 -39 0
-29 -77 0
-29 -76 0
-29 -74 0
-29 -73 0
-29 -63 0
-29 -55 0
-29 -51 0
-29 -44 0
-29 -38 0
-29 -36 0
-29 -31 0
-29 -30 0
-28 -72 0
-28 -65 0
-28 -56 0
-28 -53 0
-28 -45 0
-28 -43 0
-28 -39 0
-28 -30 0
-27 -79 0
-27 -72 0
-27 -71 0
-27 -70 0
-27 -69 0
-27 -62 0
-27 -59 0
-27 -57 0
-27 -49 0
-27 -47 0
-27 -36 0
-26 -74 0
-26 -72 0
-26 -65 0
-26 -62 0
-26 -61 0
-26 -60 0
-26 -56 0
-26 -54 0
-26 -53 0
-26 -28 0
-25 -68 0
-25 -66 0
-25 -52 0
-25 -41 0
-24 -68 0
-24 -66 0
-24 -52 0
-24 -41 0
-24 -25 0
-23 -74 0
-23 -64 0
-23 -62 0
-23 -61 0
-23 -60 0
-23 -54 0
-23 -50 0
-23 -47 0
-23 -31 0
-23 -26 0
-22 -73 0
-22 -64 0
-22 -56 0
-22 -50 0
-22 -47 0
-22 -40 0
-22 -34 0
-22 -31 0
-22 -23 0
-21 -68 0
-21 -66 0
-21 -52 0
-21 -41 0
-21 -25 0
-21 -24 0
-20 -79 0
-20 -74 0
-20 -62 0
-20 -61 0
-20 -60 0
-20 -58 0
-20 -54 0
-20 -48 0
-20 -43 0
-20 -38 0
-20 -34 0
-20 -33 0
-20 -26 0
-20 -23 0
-19 -80 0
-19 -78 0
-19 -63 0
-19 -54 0
-19 -49 0
-19 -46 0
-19 -40 0
-19 -37 0
-19 -35 0
-18 -80 0
-18 -78 0
-18 -72 0
-18 -65 0
-18 -56 0
-18 -53 0
-18 -28 0
-18 -26 0
-18 -19 0
-17 -80 0
-17 -78 0
-17 -71 0
-17 -70 0
-17 -62 0
-17 -57 0
-17 -36 0
-17 -27 0
-17 -19 0
-17 -18 0
-16 -81 0
-16 -80 0
-16 -73 0
-16 -69 0
-16 -60 0
-16 -56 0
-16 -44 0
-16 -42 0
-16 -40 0
-16 -39 0
-16 -34 0
-16 -32 0
-16 -22 0
-15 -71 0
-15 -70 0
-15 -62 0
-15 -57 0
-15 -45 0
-15 -43 0
-15 -39 0
-15 -36 0
-15 -30 0
-15 -28 0
-15 -27 0
-15 -17 0
-14 -68 0
-14 -66 0
-14 -52 0
-14 -41 0
-14 -25 0
-14 -24 0
-14 -21 0
-13 -79 0
-13 -77 0
-13 -76 0
-13 -74 0
-13 -73 0
-13 -72 0
-13 -69 0
-13 -59 0
-13 -51 0
-13 -49 0
-13 -47 0
-13 -30 0
-13 -29 0
-13 -27 0
-12 -64 0
-12 -50 0
-12 -47 0
-12 -45 0
-12 -43 0
-12 -39 0
-12 -31 0
-12 -30 0
-12 -28 0
-12 -23 0
-12 -22 0
-12 -15 0
-11 -73 0
-11 -71 0
-11 -70 0
-11 -62 0
-11 -57 0
-11 -56 0
-11 -40 0
-11 -36 0
-11 -34 0
-11 -27 0
-11 -22 0
-11 -17 0
-11 -16 0
-11 -15 0
-10 -80 0
-10 -79 0
-10 -78 0
-10 -58 0
-10 -48 0
-10 -43 0
-10 -38 0
-10 -34 0
-10 -33 0
-10 -20 0
-10 -19 0
-10 -18 0
-10 -17 0
-9 -68 0
-9 -66 0
-9 -52 0
-9 -41 0
-9 -25 0
-9 -24 0
-9 -21 0
-9 -14 0
-8 -80 0
-8 -78 0
-8 -64 0
-8 -50 0
-8 -47 0
-8 -31 0
-8 -23 0
-8 -22 0
-8 -19 0
-8 -18 0
-8 -17 0
-8 -12 0
-8 -10 0
-7 -72 0
-7 -65 0
-7 -63 0
-7 -56 0
-7 -55 0
-7 -53 0
-7 -44 0
-7 -38 0
-7 -36 0
-7 -31 0
-7 -29 0
-7 -28 0
-7 -26 0
-7 -18 0
-6 -78 0
-6 -75 0
-6 -73 0
-6 -67 0
-6 -61 0
-6 -59 0
-6 -56 0
-6 -55 0
-6 -45 0
-6 -40 0
-6 -34 0
-6 -22 0
-6 -16 0
-6 -11 0
-5 -81 0
-5 -76 0
-5 -72 0
-5 -65 0
-5 -58 0
-5 -57 0
-5 -56 0
-5 -53 0
-5 -50 0
-5 -46 0
-5 -28 0
-5 -26 0
-5 -18 0
-5 -7 0
-4 -81 0
-4 -78 0
-4 -76 0
-4 -75 0
-4 -67 0
-4 -61 0
-4 -59 0
-4 -58 0
-4 -57 0
-4 -55 0
-4 -50 0
-4 -46 0
-4 -45 0
-4 -6 0
-4 -5 0
-3 -80 0
-3 -78 0
-3 -77 0
-3 -76 0
-3 -74 0
-3 -73 0
-3 -51 0
-3 -30 0
-3 -29 0
-3 -19 0
-3 -18 0
-3 -17 0
-3 -13 0
-3 -10 0
-3 -8 0
-2 -77 0
-2 -70 0
-2 -67 0
-2 -65 0
-2 -64 0
-2 -50 0
-2 -48 0
-2 -47 0
-2 -42 0
-2 -37 0
-2 -31 0
-2 -23 0
-2 -22 0
-2 -12 0
-2 -8 0
-1 -63 0
-1 -54 0
-1 -49 0
-1 -46 0
-1 -45 0
-1 -43 0
-1 -40 0
-1 -39 0
-1 -37 0
-1 -35 0
-1 -30 0
-1 -28 0
-1 -19 0
-1 -15 0
-1 -12 0
1 12 15 25 28 30 39 43 45 0
2 37 42 48 52 65 67 70 77 0
3 8 10 14 17 18 19 78 80 0
4 5 41 46 50 57 58 76 81 0
6 11 16 22 24 34 40 56 73 0
7 29 31 36 38 44 55 63 66 0
9 32 33 35 51 53 64 71 75 0
13 27 47 49 59 68 69 72 79 0
20 21 23 26 54 60 61 62 74 0
