p cnf 64 400
-61 -64 0
-60 -64 0
-59 -61 0
-58 -63 0
-58 -62 0
-57 -61 0
-57 -60 0
-57 -59 0
-56 -63 0
-56 -58 0
-55 -61 0
-55 -59 0
-55 -57 0
-55 -56 0
-54 -62 0
-54 -60 0
-54 -57 0
-53 -59 0
-52 -53 0
-50 -64 0
-50 -60 0
-50 -56 0
-50 -55 0
-49 -63 0
-49 -62 0
-49 -54 0
-48 -59 0
-48 -53 0
-47 -63 0
-47 -53 0
-47 -52 0
-47 -49 0
-46 -56 0
-46 -55 0
-46 -53 0
-46 -52 0
-46 -50 0
-46 -47 0
-45 -64 0
-45 -62 0
-45 -60 0
-45 -58 0
-45 -50 0
-44 -63 0
-44 -58 0
-44 -56 0
-44 -52 0
-43 -64 0
-43 -63 0
-43 -60 0
-43 -50 0
-43 -49 0
-43 -47 0
-43 -45 0
-42 -62 0
-42 -54 0
-42 -49 0
-41 -52 0
-41 -44 0
-40 -62 0
-40 -59 0
-40 -54 0
-40 -53 0
-40 -49 0
-40 -48 0
-40 -42 0
-39 -51 0
-38 -64 0
-38 -60 0
-38 -52 0
-38 -50 0
-38 -45 0
-38 -44 0
-38 -43 0
-38 -41 0
-37 -64 0
-37 -63 0
-37 -61 0
-37 -58 0
-37 -56 0
-37 -44 0
-36 -52 0
-36 -48 0
-36 -44 0
-36 -41 0
-36 -38 0
-35 -59 0
-35 -53 0
-35 -48 0
-35 -41 0
-35 -40 0
-34 -61 0
-34 -59 0
-34 -57 0
-34 -55 0
-34 -52 0
-34 -44 0
-34 -41 0
-34 -38 0
-34 -36 0
-33 -60 0
-33 -57 0
-33 -54 0
-33 -53 0
-33 -52 0
-33 -47 0
-33 -46 0
-32 -51 0
-32 -39 0
-31 -48 0
-31 -42 0
-31 -36 0
-30 -62 0
-30 -56 0
-30 -55 0
-30 -54 0
-30 -50 0
-30 -49 0
-30 -46 0
-30 -42 0
-30 -40 0
-29 -53 0
-29 -52 0
-29 -47 0
-29 -46 0
-29 -42 0
-29 -33 0
-29 -31 0
-28 -64 0
-28 -61 0
-28 -53 0
-28 -52 0
-28 -47 0
-28 -46 0
-28 -37 0
-28 -33 0
-28 -29 0
-27 -63 0
-27 -61 0
-27 -59 0
-27 -57 0
-27 -55 0
-27 -49 0
-27 -47 0
-27 -43 0
-27 -34 0
-26 -63 0
-26 -60 0
-26 -58 0
-26 -57 0
-26 -56 0
-26 -54 0
-26 -44 0
-26 -37 0
-26 -33 0
-25 -64 0
-25 -61 0
-25 -41 0
-25 -37 0
-25 -35 0
-25 -28 0
-24 -63 0
-24 -49 0
-24 -47 0
-24 -43 0
-24 -41 0
-24 -35 0
-24 -27 0
-24 -25 0
-23 -42 0
-23 -41 0
-23 -35 0
-23 -31 0
-23 -29 0
-23 -25 0
-23 -24 0
-22 -51 0
-22 -39 0
-22 -32 0
-21 -64 0
-21 -62 0
-21 -61 0
-21 -54 0
-21 -49 0
-21 -42 0
-21 -40 0
-21 -37 0
-21 -30 0
-21 -28 0
-21 -25 0
-20 -64 0
-20 -61 0
-20 -48 0
-20 -37 0
-20 -36 0
-20 -31 0
-20 -28 0
-20 -25 0
-20 -21 0
-19 -63 0
-19 -49 0
-19 -48 0
-19 -47 0
-19 -43 0
-19 -36 0
-19 -31 0
-19 -27 0
-19 -24 0
-19 -20 0
-18 -60 0
-18 -57 0
-18 -54 0
-18 -48 0
-18 -36 0
-18 -33 0
-18 -31 0
-18 -26 0
-18 -20 0
-18 -19 0
-17 -60 0
-17 -57 0
-17 -54 0
-17 -41 0
-17 -35 0
-17 -33 0
-17 -26 0
-17 -25 0
-17 -24 0
-17 -23 0
-17 -18 0
-16 -51 0
-16 -39 0
-16 -32 0
-16 -22 0
-15 -62 0
-15 -61 0
-15 -59 0
-15 -58 0
-15 -57 0
-15 -55 0
-15 -45 0
-15 -34 0
-15 -27 0
-14 -56 0
-14 -55 0
-14 -50 0
-14 -48 0
-14 -46 0
-14 -36 0
-14 -31 0
-14 -30 0
-14 -20 0
-14 -19 0
-14 -18 0
-13 -64 0
-13 -60 0
-13 -59 0
-13 -53 0
-13 -50 0
-13 -48 0
-13 -45 0
-13 -43 0
-13 -40 0
-13 -38 0
-13 -35 0
-12 -56 0
-12 -55 0
-12 -50 0
-12 -46 0
-12 -41 0
-12 -35 0
-12 -30 0
-12 -25 0
-12 -24 0
-12 -23 0
-12 -17 0
-12 -14 0
-11 -61 0
-11 -59 0
-11 -57 0
-11 -55 0
-11 -42 0
-11 -34 0
-11 -31 0
-11 -29 0
-11 -27 0
-11 -23 0
-11 -15 0
-10 -64 0
-10 -60 0
-10 -50 0
-10 -45 0
-10 -43 0
-10 -42 0
-10 -38 0
-10 -31 0
-10 -29 0
-10 -23 0
-10 -13 0
-10 -11 0
-9 -63 0
-9 -59 0
-9 -58 0
-9 -56 0
-9 -53 0
-9 -48 0
-9 -44 0
-9 -40 0
-9 -37 0
-9 -35 0
-9 -26 0
-9 -13 0
-8 -51 0
-8 -39 0
-8 -32 0
-8 -22 0
-8 -16 0
-7 -51 0
-7 -39 0
-7 -32 0
-7 -22 0
-7 -16 0
-7 -8 0
-6 -62 0
-6 -58 0
-6 -45 0
-6 -41 0
-6 -35 0
-6 -25 0
-6 -24 0
-6 -23 0
-6 -17 0
-6 -15 0
-6 -12 0
-5 -51 0
-5 -39 0
-5 -32 0
-5 -22 0
-5 -16 0
-5 -8 0
-5 -7 0
-4 -63 0
-4 -58 0
-4 -56 0
-4 -44 0
-4 -42 0
-4 -37 0
-4 -31 0
-4 -29 0
-4 -26 0
-4 -23 0
-4 -11 0
-4 -10 0
-4 -9 0
-3 -62 0
-3 -58 0
-3 -48 0
-3 -45 0
-3 -36 0
-3 -31 0
-3 -20 0
-3 -19 0
-3 -18 0
-3 -15 0
-3 -14 0
-3 -6 0
-2 -62 0
-2 -54 0
-2 -52 0
-2 -49 0
-2 -44 0
-2 -42 0
-2 -41 0
-2 -40 0
-2 -38 0
-2 -36 0
-2 -34 0
-2 -30 0
-2 -21 0
-1 -62 0
-1 -58 0
-1 -53 0
-1 -52 0
-1 -47 0
-1 -46 0
-1 -45 0
-1 -33 0
-1 -29 0
-1 -28 0
-1 -15 0
-1 -6 0
-1 -3 0
1 3 6 8 15 45 58 62 0
2 22 34 36 38 41 44 52 0
4 7 10 11 23 29 31 42 0
5 19 24 27 43 47 49 63 0
9 13 35 39 40 48 53 59 0
12 14 30 32 46 50 55 56 0
16 17 18 26 33 54 57 60 0
20 21 25 28 37 51 61 64 0
