p cnf 100 820
-96 -98 0
-94 -98 0
-94 -97 0
-93 -99 0
-92 -96 0
-90 -96 0
-90 -93 0
-90 -92 0
-89 -100 0
-88 -95 0
-88 -93 0
-88 -90 0
-87 -97 0
-87 -94 0
-86 -100 0
-86 -89 0
-85 -93 0
-85 -90 0
-85 -88 0
-84 -98 0
-84 -94 0
-84 -92 0
-83 -95 0
-83 -85 0
-82 -91 0
-81 -91 0
-80 -85 0
-80 -83 0
-80 -81 0
-79 -97 0
-79 -94 0
-79 -91 0
-79 -87 0
-79 -81 0
-78 -99 0
-78 -96 0
-78 -92 0
-78 -90 0
-77 -97 0
-77 -92 0
-77 -84 0
-76 -99 0
-76 -97 0
-76 -78 0
-76 -77 0
-75 -98 0
-75 -94 0
-75 -93 0
-75 -90 0
-75 -88 0
-75 -85 0
-75 -84 0
-74 -98 0
-74 -96 0
-74 -95 0
-74 -88 0
-73 -99 0
-73 -85 0
-73 -83 0
-73 -80 0
-73 -78 0
-73 -76 0
-72 -99 0
-72 -95 0
-72 -93 0
-72 -83 0
-71 -100 0
-71 -89 0
-71 -86 0
-70 -98 0
-70 -96 0
-70 -87 0
-70 -74 0
-69 -95 0
-69 -91 0
-69 -83 0
-69 -81 0
-69 -79 0
-69 -72 0
-68 -99 0
-68 -82 0
-68 -78 0
-68 -76 0
-68 -73 0
-67 -97 0
-67 -94 0
-67 -87 0
-67 -85 0
-67 -83 0
-67 -80 0
-67 -79 0
-67 -73 0
-66 -95 0
-66 -92 0
-66 -88 0
-66 -84 0
-66 -77 0
-66 -74 0
-65 -100 0
-65 -89 0
-65 -86 0
-65 -71 0
-64 -93 0
-64 -90 0
-64 -88 0
-64 -87 0
-64 -85 0
-64 -75 0
-64 -70 0
-63 -99 0
-63 -98 0
-63 -94 0
-63 -84 0
-63 -78 0
-63 -76 0
-63 -75 0
-63 -73 0
-63 -68 0
-62 -97 0
-62 -94 0
-62 -87 0
-62 -82 0
-62 -79 0
-62 -68 0
-62 -67 0
-61 -91 0
-61 -87 0
-61 -82 0
-61 -70 0
-61 -64 0
-60 -97 0
-60 -93 0
-60 -90 0
-60 -88 0
-60 -85 0
-60 -77 0
-60 -76 0
-60 -75 0
-60 -64 0
-59 -87 0
-59 -70 0
-59 -64 0
-59 -61 0
-58 -95 0
-58 -88 0
-58 -74 0
-58 -66 0
-57 -99 0
-57 -93 0
-57 -72 0
-57 -58 0
-56 -92 0
-56 -85 0
-56 -84 0
-56 -83 0
-56 -80 0
-56 -77 0
-56 -73 0
-56 -67 0
-56 -66 0
-55 -98 0
-55 -95 0
-55 -94 0
-55 -84 0
-55 -83 0
-55 -75 0
-55 -72 0
-55 -69 0
-55 -63 0
-54 -92 0
-54 -91 0
-54 -84 0
-54 -81 0
-54 -79 0
-54 -77 0
-54 -69 0
-54 -66 0
-54 -56 0
-53 -82 0
-53 -68 0
-53 -62 0
-53 -58 0
-53 -57 0
-52 -87 0
-52 -81 0
-52 -80 0
-52 -70 0
-52 -64 0
-52 -61 0
-52 -59 0
-51 -82 0
-51 -68 0
-51 -62 0
-51 -59 0
-51 -53 0
-50 -99 0
-50 -93 0
-50 -91 0
-50 -82 0
-50 -72 0
-50 -61 0
-50 -57 0
-49 -99 0
-49 -95 0
-49 -88 0
-49 -78 0
-49 -76 0
-49 -74 0
-49 -73 0
-49 -68 0
-49 -66 0
-49 -63 0
-49 -58 0
-48 -99 0
-48 -87 0
-48 -78 0
-48 -76 0
-48 -73 0
-48 -70 0
-48 -68 0
-48 -64 0
-48 -63 0
-48 -61 0
-48 -59 0
-48 -52 0
-48 -49 0
-47 -95 0
-47 -88 0
-47 -74 0
-47 -66 0
-47 -59 0
-47 -58 0
-47 -51 0
-47 -49 0
-46 -96 0
-46 -92 0
-46 -91 0
-46 -90 0
-46 -82 0
-46 -78 0
-46 -61 0
-46 -50 0
-45 -96 0
-45 -92 0
-45 -90 0
-45 -78 0
-45 -59 0
-45 -51 0
-45 -47 0
-45 -46 0
-44 -96 0
-44 -95 0
-44 -92 0
-44 -90 0
-44 -83 0
-44 -78 0
-44 -72 0
-44 -69 0
-44 -55 0
-44 -46 0
-44 -45 0
-43 -82 0
-43 -81 0
-43 -80 0
-43 -68 0
-43 -62 0
-43 -53 0
-43 -52 0
-43 -51 0
-42 -92 0
-42 -87 0
-42 -84 0
-42 -77 0
-42 -70 0
-42 -66 0
-42 -64 0
-42 -61 0
-42 -59 0
-42 -56 0
-42 -54 0
-42 -52 0
-42 -48 0
-41 -93 0
-41 -91 0
-41 -90 0
-41 -88 0
-41 -85 0
-41 -81 0
-41 -79 0
-41 -75 0
-41 -69 0
-41 -64 0
-41 -60 0
-41 -54 0
-40 -92 0
-40 -84 0
-40 -82 0
-40 -77 0
-40 -68 0
-40 -66 0
-40 -62 0
-40 -56 0
-40 -54 0
-40 -53 0
-40 -51 0
-40 -43 0
-40 -42 0
-39 -96 0
-39 -92 0
-39 -90 0
-39 -78 0
-39 -58 0
-39 -57 0
-39 -53 0
-39 -46 0
-39 -45 0
-39 -44 0
-38 -98 0
-38 -94 0
-38 -84 0
-38 -81 0
-38 -80 0
-38 -75 0
-38 -63 0
-38 -55 0
-38 -52 0
-38 -43 0
-37 -95 0
-37 -83 0
-37 -82 0
-37 -72 0
-37 -69 0
-37 -68 0
-37 -62 0
-37 -55 0
-37 -53 0
-37 -51 0
-37 -44 0
-37 -43 0
-37 -40 0
-36 -99 0
-36 -93 0
-36 -72 0
-36 -59 0
-36 -57 0
-36 -51 0
-36 -50 0
-36 -47 0
-36 -45 0
-35 -100 0
-35 -89 0
-35 -86 0
-35 -71 0
-35 -65 0
-34 -98 0
-34 -96 0
-34 -85 0
-34 -83 0
-34 -80 0
-34 -74 0
-34 -73 0
-34 -70 0
-34 -67 0
-34 -56 0
-33 -99 0
-33 -91 0
-33 -81 0
-33 -79 0
-33 -78 0
-33 -76 0
-33 -73 0
-33 -69 0
-33 -68 0
-33 -63 0
-33 -54 0
-33 -49 0
-33 -48 0
-33 -41 0
-32 -97 0
-32 -91 0
-32 -82 0
-32 -77 0
-32 -76 0
-32 -61 0
-32 -60 0
-32 -50 0
-32 -46 0
-31 -91 0
-31 -85 0
-31 -83 0
-31 -82 0
-31 -80 0
-31 -73 0
-31 -67 0
-31 -61 0
-31 -56 0
-31 -50 0
-31 -46 0
-31 -34 0
-31 -32 0
-30 -97 0
-30 -77 0
-30 -76 0
-30 -60 0
-30 -58 0
-30 -57 0
-30 -53 0
-30 -39 0
-30 -32 0
-29 -98 0
-29 -96 0
-29 -91 0
-29 -81 0
-29 -79 0
-29 -74 0
-29 -70 0
-29 -69 0
-29 -54 0
-29 -41 0
-29 -34 0
-29 -33 0
-28 -98 0
-28 -96 0
-28 -82 0
-28 -74 0
-28 -70 0
-28 -68 0
-28 -62 0
-28 -53 0
-28 -51 0
-28 -43 0
-28 -40 0
-28 -37 0
-28 -34 0
-28 -29 0
-27 -85 0
-27 -83 0
-27 -80 0
-27 -73 0
-27 -67 0
-27 -58 0
-27 -57 0
-27 -56 0
-27 -53 0
-27 -39 0
-27 -34 0
-27 -31 0
-27 -30 0
-26 -99 0
-26 -97 0
-26 -94 0
-26 -93 0
-26 -87 0
-26 -79 0
-26 -72 0
-26 -67 0
-26 -62 0
-26 -57 0
-26 -50 0
-26 -36 0
-25 -100 0
-25 -89 0
-25 -86 0
-25 -71 0
-25 -65 0
-25 -35 0
-24 -93 0
-24 -90 0
-24 -88 0
-24 -85 0
-24 -82 0
-24 -75 0
-24 -68 0
-24 -64 0
-24 -62 0
-24 -60 0
-24 -53 0
-24 -51 0
-24 -43 0
-24 -41 0
-24 -40 0
-24 -37 0
-24 -28 0
-23 -100 0
-23 -89 0
-23 -86 0
-23 -71 0
-23 -65 0
-23 -35 0
-23 -25 0
-22 -98 0
-22 -94 0
-22 -91 0
-22 -84 0
-22 -82 0
-22 -75 0
-22 -63 0
-22 -61 0
-22 -55 0
-22 -50 0
-22 -46 0
-22 -38 0
-22 -32 0
-22 -31 0
-21 -95 0
-21 -87 0
-21 -83 0
-21 -72 0
-21 -70 0
-21 -69 0
-21 -64 0
-21 -61 0
-21 -59 0
-21 -55 0
-21 -52 0
-21 -48 0
-21 -44 0
-21 -42 0
-21 -37 0
-20 -95 0
-20 -91 0
-20 -88 0
-20 -82 0
-20 -74 0
-20 -66 0
-20 -61 0
-20 -58 0
-20 -50 0
-20 -49 0
-20 -47 0
-20 -46 0
-20 -32 0
-20 -31 0
-20 -22 0
-19 -99 0
-19 -93 0
-19 -81 0
-19 -80 0
-19 -72 0
-19 -57 0
-19 -52 0
-19 -50 0
-19 -43 0
-19 -38 0
-19 -36 0
-19 -26 0
-18 -87 0
-18 -70 0
-18 -64 0
-18 -61 0
-18 -59 0
-18 -58 0
-18 -57 0
-18 -53 0
-18 -52 0
-18 -48 0
-18 -42 0
-18 -39 0
-18 -30 0
-18 -27 0
-18 -21 0
-17 -97 0
-17 -95 0
-17 -94 0
-17 -88 0
-17 -87 0
-17 -79 0
-17 -74 0
-17 -67 0
-17 -66 0
-17 -62 0
-17 -58 0
-17 -49 0
-17 -47 0
-17 -26 0
-17 -20 0
-16 -96 0
-16 -92 0
-16 -90 0
-16 -81 0
-16 -80 0
-16 -78 0
-16 -52 0
-16 -46 0
-16 -45 0
-16 -44 0
-16 -43 0
-16 -39 0
-16 -38 0
-16 -19 0
-15 -97 0
-15 -77 0
-15 -76 0
-15 -60 0
-15 -59 0
-15 -51 0
-15 -47 0
-15 -45 0
-15 -36 0
-15 -32 0
-15 -30 0
-14 -99 0
-14 -98 0
-14 -96 0
-14 -93 0
-14 -74 0
-14 -72 0
-14 -70 0
-14 -57 0
-14 -50 0
-14 -36 0
-14 -34 0
-14 -29 0
-14 -28 0
-14 -26 0
-14 -19 0
-13 -100 0
-13 -89 0
-13 -86 0
-13 -71 0
-13 -65 0
-13 -35 0
-13 -25 0
-13 -23 0
-12 -98 0
-12 -94 0
-12 -84 0
-12 -75 0
-12 -63 0
-12 -58 0
-12 -57 0
-12 -55 0
-12 -53 0
-12 -39 0
-12 -38 0
-12 -30 0
-12 -27 0
-12 -22 0
-12 -18 0
-11 -97 0
-11 -96 0
-11 -94 0
-11 -92 0
-11 -90 0
-11 -87 0
-11 -79 0
-11 -78 0
-11 -67 0
-11 -62 0
-11 -46 0
-11 -45 0
-11 -44 0
-11 -39 0
-11 -26 0
-11 -17 0
-11 -16 0
-10 -91 0
-10 -81 0
-10 -79 0
-10 -69 0
-10 -59 0
-10 -54 0
-10 -51 0
-10 -47 0
-10 -45 0
-10 -41 0
-10 -36 0
-10 -33 0
-10 -29 0
-10 -15 0
-9 -99 0
-9 -93 0
-9 -92 0
-9 -84 0
-9 -77 0
-9 -72 0
-9 -66 0
-9 -57 0
-9 -56 0
-9 -54 0
-9 -50 0
-9 -42 0
-9 -40 0
-9 -36 0
-9 -26 0
-9 -19 0
-9 -14 0
-8 -98 0
-8 -94 0
-8 -84 0
-8 -75 0
-8 -63 0
-8 -59 0
-8 -55 0
-8 -51 0
-8 -47 0
-8 -45 0
-8 -38 0
-8 -36 0
-8 -22 0
-8 -15 0
-8 -12 0
-8 -10 0
-7 -91 0
-7 -81 0
-7 -79 0
-7 -69 0
-7 -58 0
-7 -57 0
-7 -54 0
-7 -53 0
-7 -41 0
-7 -39 0
-7 -33 0
-7 -30 0
-7 -29 0
-7 -27 0
-7 -18 0
-7 -12 0
-7 -10 0
-6 -98 0
-6 -97 0
-6 -96 0
-6 -77 0
-6 -76 0
-6 -74 0
-6 -70 0
-6 -60 0
-6 -34 0
-6 -32 0
-6 -30 0
-6 -29 0
-6 -28 0
-6 -15 0
-6 -14 0
-5 -97 0
-5 -95 0
-5 -83 0
-5 -77 0
-5 -76 0
-5 -72 0
-5 -69 0
-5 -60 0
-5 -55 0
-5 -44 0
-5 -37 0
-5 -32 0
-5 -30 0
-5 -21 0
-5 -15 0
-5 -6 0
-4 -97 0
-4 -81 0
-4 -80 0
-4 -77 0
-4 -76 0
-4 -60 0
-4 -52 0
-4 -43 0
-4 -38 0
-4 -32 0
-4 -30 0
-4 -19 0
-4 -16 0
-4 -15 0
-4 -6 0
-4 -5 0
-3 -100 0
-3 -89 0
-3 -86 0
-3 -71 0
-3 -65 0
-3 -35 0
-3 -25 0
-3 -23 0
-3 -13 0
-2 -95 0
-2 -88 0
-2 -81 0
-2 -80 0
-2 -74 0
-2 -66 0
-2 -58 0
-2 -52 0
-2 -49 0
-2 -47 0
-2 -43 0
-2 -38 0
-2 -20 0
-2 -19 0
-2 -17 0
-2 -16 0
-2 -4 0
-1 -85 0
-1 -83 0
-1 -80 0
-1 -73 0
-1 -67 0
-1 -59 0
-1 -56 0
-1 -51 0
-1 -47 0
-1 -45 0
-1 -36 0
-1 -34 0
-1 -31 0
-1 -27 0
-1 -15 0
-1 -10 0
-1 -8 0
1 8 10 15 35 36 45 47 51 59 0
2 4 16 19 38 43 52 80 81 86 0
3 24 41 60 64 75 85 88 90 93 0
5 21 37 44 55 69 71 72 83 95 0
6 14 28 29 34 70 74 96 98 100 0
7 12 18 25 27 30 39 53 57 58 0
9 13 40 42 54 56 66 77 84 92 0
11 17 26 62 65 67 79 87 94 97 0
20 22 23 31 32 46 50 61 82 91 0
33 48 49 63 68 73 76 78 89 99 0
