p cnf 64 400
-62 -64 0
-59 -61 0
-58 -60 0
-57 -63 0
-56 -60 0
-55 -64 0
-55 -62 0
-54 -64 0
-54 -62 0
-54 -55 0
-52 -59 0
-51 -58 0
-51 -56 0
-50 -61 0
-50 -59 0
-50 -53 0
-49 -61 0
-49 -60 0
-49 -58 0
-48 -57 0
-47 -64 0
-47 -62 0
-47 -55 0
-47 -54 0
-46 -56 0
-46 -51 0
-45 -63 0
-45 -60 0
-45 -56 0
-44 -60 0
-44 -57 0
-44 -56 0
-44 -48 0
-44 -45 0
-43 -57 0
-43 -48 0
-43 -46 0
-43 -44 0
-42 -63 0
-42 -60 0
-42 -58 0
-42 -57 0
-42 -49 0
-41 -61 0
-41 -53 0
-41 -49 0
-40 -56 0
-40 -53 0
-40 -51 0
-40 -50 0
-40 -46 0
-39 -63 0
-39 -59 0
-39 -52 0
-39 -45 0
-38 -53 0
-38 -52 0
-38 -50 0
-38 -40 0
-37 -59 0
-37 -53 0
-37 -52 0
-37 -41 0
-37 -39 0
-36 -52 0
-36 -46 0
-36 -43 0
-36 -38 0
-35 -60 0
-35 -56 0
-35 -52 0
-35 -45 0
-35 -44 0
-35 -38 0
-35 -36 0
-34 -63 0
-34 -57 0
-34 -56 0
-34 -51 0
-34 -46 0
-34 -42 0
-34 -40 0
-33 -60 0
-33 -58 0
-33 -49 0
-33 -46 0
-33 -43 0
-33 -42 0
-33 -36 0
-32 -60 0
-32 -58 0
-32 -53 0
-32 -50 0
-32 -49 0
-32 -42 0
-32 -40 0
-32 -38 0
-32 -33 0
-31 -63 0
-31 -61 0
-31 -59 0
-31 -57 0
-31 -50 0
-31 -42 0
-31 -34 0
-30 -64 0
-30 -62 0
-30 -55 0
-30 -54 0
-30 -47 0
-29 -56 0
-29 -51 0
-29 -48 0
-29 -46 0
-29 -40 0
-29 -34 0
-28 -61 0
-28 -59 0
-28 -50 0
-28 -46 0
-28 -43 0
-28 -36 0
-28 -33 0
-28 -31 0
-27 -61 0
-27 -59 0
-27 -58 0
-27 -51 0
-27 -50 0
-27 -31 0
-27 -28 0
-26 -60 0
-26 -59 0
-26 -58 0
-26 -52 0
-26 -49 0
-26 -42 0
-26 -39 0
-26 -37 0
-26 -33 0
-26 -32 0
-25 -63 0
-25 -61 0
-25 -49 0
-25 -45 0
-25 -41 0
-25 -39 0
-24 -53 0
-24 -48 0
-24 -41 0
-24 -37 0
-24 -29 0
-23 -58 0
-23 -53 0
-23 -51 0
-23 -41 0
-23 -37 0
-23 -27 0
-23 -24 0
-22 -58 0
-22 -57 0
-22 -51 0
-22 -48 0
-22 -44 0
-22 -43 0
-22 -27 0
-22 -23 0
-21 -63 0
-21 -46 0
-21 -45 0
-21 -43 0
-21 -39 0
-21 -36 0
-21 -33 0
-21 -28 0
-21 -25 0
-20 -63 0
-20 -48 0
-20 -45 0
-20 -39 0
-20 -29 0
-20 -25 0
-20 -24 0
-20 -21 0
-19 -57 0
-19 -53 0
-19 -50 0
-19 -48 0
-19 -44 0
-19 -43 0
-19 -40 0
-19 -38 0
-19 -32 0
-19 -22 0
-18 -60 0
-18 -58 0
-18 -49 0
-18 -48 0
-18 -42 0
-18 -33 0
-18 -32 0
-18 -29 0
-18 -26 0
-18 -24 0
-18 -20 0
-17 -61 0
-17 -59 0
-17 -50 0
-17 -48 0
-17 -31 0
-17 -29 0
-17 -28 0
-17 -27 0
-17 -24 0
-17 -20 0
-17 -18 0
-16 -61 0
-16 -56 0
-16 -51 0
-16 -49 0
-16 -46 0
-16 -41 0
-16 -40 0
-16 -34 0
-16 -29 0
-16 -25 0
-15 -63 0
-15 -57 0
-15 -53 0
-15 -42 0
-15 -41 0
-15 -37 0
-15 -34 0
-15 -31 0
-15 -24 0
-15 -23 0
-14 -59 0
-14 -57 0
-14 -52 0
-14 -48 0
-14 -44 0
-14 -43 0
-14 -39 0
-14 -37 0
-14 -26 0
-14 -22 0
-14 -19 0
-13 -59 0
-13 -56 0
-13 -52 0
-13 -51 0
-13 -46 0
-13 -40 0
-13 -39 0
-13 -37 0
-13 -34 0
-13 -29 0
-13 -26 0
-13 -16 0
-13 -14 0
-12 -52 0
-12 -48 0
-12 -38 0
-12 -36 0
-12 -35 0
-12 -29 0
-12 -24 0
-12 -20 0
-12 -18 0
-12 -17 0
-11 -63 0
-11 -53 0
-11 -50 0
-11 -45 0
-11 -40 0
-11 -39 0
-11 -38 0
-11 -32 0
-11 -25 0
-11 -21 0
-11 -20 0
-11 -19 0
-10 -61 0
-10 -52 0
-10 -49 0
-10 -41 0
-10 -38 0
-10 -36 0
-10 -35 0
-10 -25 0
-10 -16 0
-10 -12 0
-9 -61 0
-9 -57 0
-9 -49 0
-9 -48 0
-9 -44 0
-9 -43 0
-9 -41 0
-9 -25 0
-9 -22 0
-9 -19 0
-9 -16 0
-9 -14 0
-9 -10 0
-8 -64 0
-8 -62 0
-8 -55 0
-8 -54 0
-8 -47 0
-8 -30 0
-7 -53 0
-7 -46 0
-7 -43 0
-7 -41 0
-7 -37 0
-7 -36 0
-7 -33 0
-7 -28 0
-7 -24 0
-7 -23 0
-7 -21 0
-7 -15 0
-6 -61 0
-6 -60 0
-6 -59 0
-6 -56 0
-6 -50 0
-6 -45 0
-6 -44 0
-6 -35 0
-6 -31 0
-6 -28 0
-6 -27 0
-6 -17 0
-5 -58 0
-5 -52 0
-5 -51 0
-5 -38 0
-5 -36 0
-5 -35 0
-5 -27 0
-5 -23 0
-5 -22 0
-5 -12 0
-5 -10 0
-4 -64 0
-4 -62 0
-4 -55 0
-4 -54 0
-4 -47 0
-4 -30 0
-4 -8 0
-3 -60 0
-3 -56 0
-3 -53 0
-3 -45 0
-3 -44 0
-3 -41 0
-3 -37 0
-3 -35 0
-3 -24 0
-3 -23 0
-3 -15 0
-3 -7 0
-3 -6 0
-2 -63 0
-2 -57 0
-2 -52 0
-2 -42 0
-2 -38 0
-2 -36 0
-2 -35 0
-2 -34 0
-2 -31 0
-2 -15 0
-2 -12 0
-2 -10 0
-2 -5 0
-1 -63 0
-1 -58 0
-1 -51 0
-1 -45 0
-1 -39 0
-1 -27 0
-1 -25 0
-1 -23 0
-1 -22 0
-1 -21 0
-1 -20 0
-1 -11 0
-1 -5 0
1 5 22 23 27 47 51 58 0
2 15 31 34 42 54 57 63 0
3 4 6 35 44 45 56 60 0
7 21 28 33 36 43 46 64 0
8 11 19 32 38 40 50 53 0
9 10 16 25 41 49 55 61 0
12 17 18 20 24 29 30 48 0
13 14 26 37 39 52 59 62 0
