p cnf 100 820
-98 -99 0
-96 -99 0
-96 -98 0
-93 -96 0
-93 -94 0
-91 -95 0
-90 -99 0
-90 -94 0
-90 -93 0
-89 -98 0
-88 -92 0
-87 -95 0
-87 -91 0
-86 -97 0
-86 -94 0
-86 -93 0
-86 -90 0
-85 -88 0
-84 -85 0
-83 -97 0
-83 -92 0
-83 -86 0
-82 -92 0
-82 -83 0
-81 -97 0
-81 -86 0
-81 -84 0
-81 -83 0
-80 -100 0
-80 -82 0
-79 -97 0
-79 -85 0
-79 -84 0
-78 -98 0
-78 -89 0
-78 -84 0
-78 -81 0
-77 -100 0
-77 -98 0
-77 -89 0
-77 -80 0
-77 -78 0
-76 -99 0
-76 -97 0
-76 -90 0
-76 -79 0
-75 -97 0
-75 -96 0
-75 -93 0
-75 -79 0
-75 -76 0
-74 -100 0
-73 -97 0
-73 -86 0
-73 -83 0
-73 -81 0
-72 -95 0
-72 -91 0
-72 -87 0
-71 -99 0
-71 -90 0
-71 -76 0
-71 -73 0
-70 -99 0
-70 -98 0
-70 -96 0
-70 -85 0
-70 -84 0
-70 -79 0
-69 -94 0
-69 -84 0
-69 -81 0
-69 -78 0
-68 -100 0
-68 -99 0
-68 -98 0
-68 -96 0
-68 -74 0
-68 -70 0
-67 -95 0
-67 -91 0
-67 -87 0
-67 -72 0
-66 -99 0
-66 -92 0
-66 -90 0
-66 -83 0
-66 -82 0
-66 -76 0
-66 -71 0
-65 -94 0
-65 -93 0
-65 -92 0
-65 -90 0
-65 -88 0
-65 -86 0
-64 -96 0
-64 -93 0
-64 -75 0
-64 -73 0
-64 -71 0
-63 -89 0
-63 -85 0
-63 -84 0
-63 -79 0
-63 -70 0
-62 -100 0
-62 -74 0
-62 -73 0
-62 -71 0
-62 -68 0
-62 -64 0
-61 -100 0
-61 -89 0
-61 -74 0
-61 -68 0
-61 -63 0
-61 -62 0
-60 -97 0
-60 -89 0
-60 -86 0
-60 -83 0
-60 -81 0
-60 -73 0
-60 -63 0
-60 -61 0
-59 -97 0
-59 -94 0
-59 -79 0
-59 -76 0
-59 -75 0
-59 -69 0
-58 -96 0
-58 -93 0
-58 -84 0
-58 -81 0
-58 -78 0
-58 -75 0
-58 -69 0
-58 -64 0
-57 -97 0
-57 -86 0
-57 -83 0
-57 -81 0
-57 -74 0
-57 -73 0
-57 -60 0
-56 -100 0
-56 -85 0
-56 -84 0
-56 -80 0
-56 -79 0
-56 -77 0
-56 -70 0
-56 -63 0
-55 -100 0
-55 -97 0
-55 -79 0
-55 -76 0
-55 -75 0
-55 -74 0
-55 -68 0
-55 -62 0
-55 -61 0
-55 -59 0
-54 -92 0
-54 -88 0
-54 -74 0
-54 -65 0
-54 -57 0
-53 -95 0
-53 -91 0
-53 -87 0
-53 -72 0
-53 -67 0
-52 -92 0
-52 -88 0
-52 -73 0
-52 -71 0
-52 -65 0
-52 -64 0
-52 -62 0
-52 -54 0
-51 -100 0
-51 -88 0
-51 -85 0
-51 -74 0
-51 -68 0
-51 -62 0
-51 -61 0
-51 -55 0
-50 -94 0
-50 -74 0
-50 -69 0
-50 -59 0
-50 -57 0
-50 -54 0
-49 -92 0
-49 -85 0
-49 -84 0
-49 -83 0
-49 -82 0
-49 -79 0
-49 -70 0
-49 -66 0
-49 -63 0
-49 -56 0
-48 -100 0
-48 -99 0
-48 -90 0
-48 -80 0
-48 -77 0
-48 -76 0
-48 -71 0
-48 -66 0
-48 -56 0
-47 -94 0
-47 -89 0
-47 -69 0
-47 -63 0
-47 -61 0
-47 -60 0
-47 -59 0
-47 -50 0
-46 -98 0
-46 -89 0
-46 -88 0
-46 -85 0
-46 -78 0
-46 -77 0
-46 -51 0
-45 -94 0
-45 -88 0
-45 -85 0
-45 -69 0
-45 -59 0
-45 -51 0
-45 -50 0
-45 -47 0
-45 -46 0
-44 -100 0
-44 -94 0
-44 -80 0
-44 -77 0
-44 -69 0
-44 -59 0
-44 -56 0
-44 -50 0
-44 -48 0
-44 -47 0
-44 -45 0
-43 -88 0
-43 -85 0
-43 -82 0
-43 -80 0
-43 -51 0
-43 -46 0
-43 -45 0
-42 -96 0
-42 -93 0
-42 -75 0
-42 -74 0
-42 -64 0
-42 -58 0
-42 -57 0
-42 -54 0
-42 -50 0
-41 -95 0
-41 -91 0
-41 -87 0
-41 -72 0
-41 -67 0
-41 -53 0
-40 -96 0
-40 -93 0
-40 -89 0
-40 -75 0
-40 -64 0
-40 -63 0
-40 -61 0
-40 -60 0
-40 -58 0
-40 -47 0
-40 -42 0
-39 -96 0
-39 -93 0
-39 -92 0
-39 -83 0
-39 -82 0
-39 -75 0
-39 -66 0
-39 -64 0
-39 -58 0
-39 -49 0
-39 -42 0
-39 -40 0
-38 -82 0
-38 -80 0
-38 -74 0
-38 -57 0
-38 -54 0
-38 -50 0
-38 -43 0
-38 -42 0
-37 -98 0
-37 -92 0
-37 -89 0
-37 -83 0
-37 -82 0
-37 -78 0
-37 -77 0
-37 -66 0
-37 -49 0
-37 -46 0
-37 -39 0
-36 -94 0
-36 -93 0
-36 -90 0
-36 -86 0
-36 -85 0
-36 -84 0
-36 -79 0
-36 -70 0
-36 -65 0
-36 -63 0
-36 -56 0
-36 -49 0
-35 -84 0
-35 -82 0
-35 -81 0
-35 -80 0
-35 -78 0
-35 -69 0
-35 -58 0
-35 -43 0
-35 -38 0
-34 -99 0
-34 -90 0
-34 -88 0
-34 -85 0
-34 -76 0
-34 -71 0
-34 -66 0
-34 -51 0
-34 -48 0
-34 -46 0
-34 -45 0
-34 -43 0
-33 -99 0
-33 -90 0
-33 -89 0
-33 -76 0
-33 -71 0
-33 -66 0
-33 -63 0
-33 -61 0
-33 -60 0
-33 -48 0
-33 -47 0
-33 -40 0
-33 -34 0
-32 -99 0
-32 -90 0
-32 -84 0
-32 -81 0
-32 -78 0
-32 -76 0
-32 -71 0
-32 -69 0
-32 -66 0
-32 -58 0
-32 -48 0
-32 -35 0
-32 -34 0
-32 -33 0
-31 -100 0
-31 -92 0
-31 -88 0
-31 -80 0
-31 -77 0
-31 -65 0
-31 -56 0
-31 -54 0
-31 -52 0
-31 -48 0
-31 -44 0
-30 -95 0
-30 -91 0
-30 -87 0
-30 -72 0
-30 -67 0
-30 -53 0
-30 -41 0
-29 -98 0
-29 -94 0
-29 -93 0
-29 -90 0
-29 -89 0
-29 -86 0
-29 -78 0
-29 -77 0
-29 -65 0
-29 -46 0
-29 -37 0
-29 -36 0
-28 -98 0
-28 -97 0
-28 -89 0
-28 -79 0
-28 -78 0
-28 -77 0
-28 -76 0
-28 -75 0
-28 -59 0
-28 -55 0
-28 -46 0
-28 -37 0
-28 -29 0
-27 -97 0
-27 -82 0
-27 -80 0
-27 -79 0
-27 -76 0
-27 -75 0
-27 -59 0
-27 -55 0
-27 -43 0
-27 -38 0
-27 -35 0
-27 -28 0
-26 -85 0
-26 -84 0
-26 -79 0
-26 -74 0
-26 -70 0
-26 -63 0
-26 -57 0
-26 -56 0
-26 -54 0
-26 -50 0
-26 -49 0
-26 -42 0
-26 -38 0
-26 -36 0
-25 -89 0
-25 -82 0
-25 -80 0
-25 -63 0
-25 -61 0
-25 -60 0
-25 -47 0
-25 -43 0
-25 -40 0
-25 -38 0
-25 -35 0
-25 -33 0
-25 -27 0
-24 -99 0
-24 -98 0
-24 -97 0
-24 -96 0
-24 -86 0
-24 -83 0
-24 -81 0
-24 -73 0
-24 -70 0
-24 -68 0
-24 -60 0
-24 -57 0
-23 -100 0
-23 -94 0
-23 -93 0
-23 -90 0
-23 -86 0
-23 -74 0
-23 -68 0
-23 -65 0
-23 -62 0
-23 -61 0
-23 -55 0
-23 -51 0
-23 -36 0
-23 -29 0
-22 -94 0
-22 -92 0
-22 -83 0
-22 -82 0
-22 -69 0
-22 -66 0
-22 -59 0
-22 -50 0
-22 -49 0
-22 -47 0
-22 -45 0
-22 -44 0
-22 -39 0
-22 -37 0
-21 -96 0
-21 -93 0
-21 -88 0
-21 -85 0
-21 -75 0
-21 -64 0
-21 -58 0
-21 -51 0
-21 -46 0
-21 -45 0
-21 -43 0
-21 -42 0
-21 -40 0
-21 -39 0
-21 -34 0
-20 -100 0
-20 -97 0
-20 -86 0
-20 -83 0
-20 -81 0
-20 -80 0
-20 -77 0
-20 -73 0
-20 -60 0
-20 -57 0
-20 -56 0
-20 -48 0
-20 -44 0
-20 -31 0
-20 -24 0
-19 -97 0
-19 -92 0
-19 -88 0
-19 -79 0
-19 -76 0
-19 -75 0
-19 -65 0
-19 -59 0
-19 -55 0
-19 -54 0
-19 -52 0
-19 -31 0
-19 -28 0
-19 -27 0
-18 -95 0
-18 -91 0
-18 -87 0
-18 -72 0
-18 -67 0
-18 -53 0
-18 -41 0
-18 -30 0
-17 -97 0
-17 -88 0
-17 -86 0
-17 -85 0
-17 -83 0
-17 -81 0
-17 -73 0
-17 -60 0
-17 -57 0
-17 -51 0
-17 -46 0
-17 -45 0
-17 -43 0
-17 -34 0
-17 -24 0
-17 -21 0
-17 -20 0
-16 -95 0
-16 -91 0
-16 -87 0
-16 -72 0
-16 -67 0
-16 -53 0
-16 -41 0
-16 -30 0
-16 -18 0
-15 -82 0
-15 -80 0
-15 -73 0
-15 -71 0
-15 -64 0
-15 -62 0
-15 -52 0
-15 -43 0
-15 -38 0
-15 -35 0
-15 -27 0
-15 -25 0
-14 -92 0
-14 -89 0
-14 -88 0
-14 -65 0
-14 -63 0
-14 -61 0
-14 -60 0
-14 -54 0
-14 -52 0
-14 -47 0
-14 -40 0
-14 -33 0
-14 -31 0
-14 -25 0
-14 -19 0
-13 -94 0
-13 -73 0
-13 -71 0
-13 -69 0
-13 -64 0
-13 -62 0
-13 -59 0
-13 -52 0
-13 -50 0
-13 -47 0
-13 -45 0
-13 -44 0
-13 -22 0
-13 -15 0
-12 -99 0
-12 -98 0
-12 -96 0
-12 -94 0
-12 -70 0
-12 -69 0
-12 -68 0
-12 -59 0
-12 -50 0
-12 -47 0
-12 -45 0
-12 -44 0
-12 -24 0
-12 -22 0
-12 -13 0
-11 -100 0
-11 -92 0
-11 -83 0
-11 -82 0
-11 -74 0
-11 -68 0
-11 -66 0
-11 -62 0
-11 -61 0
-11 -55 0
-11 -51 0
-11 -49 0
-11 -39 0
-11 -37 0
-11 -23 0
-11 -22 0
-10 -98 0
-10 -89 0
-10 -78 0
-10 -77 0
-10 -73 0
-10 -71 0
-10 -64 0
-10 -62 0
-10 -52 0
-10 -46 0
-10 -37 0
-10 -29 0
-10 -28 0
-10 -15 0
-10 -13 0
-9 -85 0
-9 -84 0
-9 -79 0
-9 -73 0
-9 -71 0
-9 -70 0
-9 -64 0
-9 -63 0
-9 -62 0
-9 -56 0
-9 -52 0
-9 -49 0
-9 -36 0
-9 -26 0
-9 -15 0
-9 -13 0
-9 -10 0
-8 -92 0
-8 -88 0
-8 -84 0
-8 -81 0
-8 -78 0
-8 -69 0
-8 -65 0
-8 -58 0
-8 -54 0
-8 -52 0
-8 -35 0
-8 -32 0
-8 -31 0
-8 -19 0
-8 -14 0
-7 -94 0
-7 -93 0
-7 -90 0
-7 -86 0
-7 -82 0
-7 -80 0
-7 -65 0
-7 -43 0
-7 -38 0
-7 -36 0
-7 -35 0
-7 -29 0
-7 -27 0
-7 -25 0
-7 -23 0
-7 -15 0
-6 -100 0
-6 -84 0
-6 -81 0
-6 -78 0
-6 -74 0
-6 -69 0
-6 -68 0
-6 -62 0
-6 -61 0
-6 -58 0
-6 -55 0
-6 -51 0
-6 -35 0
-6 -32 0
-6 -23 0
-6 -11 0
-6 -8 0
-5 -99 0
-5 -98 0
-5 -96 0
-5 -82 0
-5 -80 0
-5 -70 0
-5 -68 0
-5 -43 0
-5 -38 0
-5 -35 0
-5 -27 0
-5 -25 0
-5 -24 0
-5 -15 0
-5 -12 0
-5 -7 0
-4 -98 0
-4 -89 0
-4 -78 0
-4 -77 0
-4 -74 0
-4 -57 0
-4 -54 0
-4 -50 0
-4 -46 0
-4 -42 0
-4 -38 0
-4 -37 0
-4 -29 0
-4 -28 0
-4 -26 0
-4 -10 0
-3 -99 0
-3 -98 0
-3 -96 0
-3 -92 0
-3 -88 0
-3 -70 0
-3 -68 0
-3 -65 0
-3 -54 0
-3 -52 0
-3 -31 0
-3 -24 0
-3 -19 0
-3 -14 0
-3 -12 0
-3 -8 0
-3 -5 0
-2 -100 0
-2 -96 0
-2 -93 0
-2 -80 0
-2 -77 0
-2 -75 0
-2 -64 0
-2 -58 0
-2 -56 0
-2 -48 0
-2 -44 0
-2 -42 0
-2 -40 0
-2 -39 0
-2 -31 0
-2 -21 0
-2 -20 0
-1 -99 0
-1 -90 0
-1 -76 0
-1 -74 0
-1 -71 0
-1 -66 0
-1 -57 0
-1 -54 0
-1 -50 0
-1 -48 0
-1 -42 0
-1 -38 0
-1 -34 0
-1 -33 0
-1 -32 0
-1 -26 0
-1 -4 0
1 4 26 38 41 42 50 54 57 74 0
2 20 31 44 48 56 77 80 95 100 0
3 5 12 24 53 68 70 96 98 99 0
6 8 16 32 35 58 69 78 81 84 0
7 23 29 36 65 72 86 90 93 94 0
9 10 13 15 52 62 64 71 73 91 0
11 22 37 39 49 66 67 82 83 92 0
14 18 25 33 40 47 60 61 63 89 0
17 21 30 34 43 45 46 51 85 88 0
19 27 28 55 59 75 76 79 87 97 0
