p cnf 49 259
-45 -47 0
-44 -48 0
-42 -49 0
-41 -43 0
-40 -47 0
-40 -42 0
-39 -44 0
-39 -42 0
-39 -40 0
-38 -49 0
-38 -45 0
-37 -46 0
-36 -46 0
-36 -37 0
-35 -49 0
-35 -48 0
-35 -38 0
-34 -47 0
-34 -45 0
-34 -41 0
-33 -49 0
-33 -47 0
-33 -45 0
-33 -42 0
-33 -34 0
-32 -46 0
-32 -37 0
-32 -36 0
-31 -49 0
-31 -43 0
-31 -38 0
-31 -35 0
-30 -47 0
-30 -40 0
-29 -49 0
-29 -41 0
-29 -38 0
-29 -35 0
-29 -34 0
-29 -31 0
-28 -48 0
-28 -44 0
-28 -43 0
-28 -31 0
-27 -48 0
-27 -35 0
-27 -30 0
-26 -41 0
-26 -34 0
-26 -30 0
-26 -29 0
-26 -27 0
-25 -45 0
-25 -43 0
-25 -41 0
-25 -38 0
-24 -44 0
-24 -39 0
-24 -30 0
-24 -27 0
-24 -26 0
-23 -47 0
-23 -43 0
-23 -41 0
-23 -40 0
-23 -30 0
-23 -25 0
-22 -47 0
-22 -45 0
-22 -44 0
-22 -39 0
-22 -34 0
-22 -33 0
-22 -24 0
-21 -43 0
-21 -42 0
-21 -40 0
-21 -39 0
-21 -31 0
-21 -28 0
-20 -49 0
-20 -47 0
-20 -40 0
-20 -38 0
-20 -35 0
-20 -31 0
-20 -30 0
-20 -29 0
-20 -23 0
-19 -48 0
-19 -42 0
-19 -40 0
-19 -39 0
-19 -35 0
-19 -27 0
-19 -21 0
-18 -46 0
-18 -37 0
-18 -36 0
-18 -32 0
-17 -45 0
-17 -38 0
-17 -30 0
-17 -27 0
-17 -26 0
-17 -25 0
-17 -24 0
-16 -48 0
-16 -44 0
-16 -41 0
-16 -34 0
-16 -29 0
-16 -28 0
-16 -26 0
-15 -42 0
-15 -41 0
-15 -40 0
-15 -39 0
-15 -34 0
-15 -29 0
-15 -26 0
-15 -21 0
-15 -19 0
-15 -16 0
-14 -49 0
-14 -42 0
-14 -33 0
-14 -30 0
-14 -27 0
-14 -26 0
-14 -24 0
-14 -17 0
-13 -44 0
-13 -43 0
-13 -41 0
-13 -39 0
-13 -25 0
-13 -24 0
-13 -23 0
-13 -22 0
-12 -46 0
-12 -37 0
-12 -36 0
-12 -32 0
-12 -18 0
-11 -48 0
-11 -43 0
-11 -41 0
-11 -35 0
-11 -27 0
-11 -25 0
-11 -23 0
-11 -19 0
-11 -13 0
-10 -46 0
-10 -37 0
-10 -36 0
-10 -32 0
-10 -18 0
-10 -12 0
-9 -47 0
-9 -45 0
-9 -43 0
-9 -34 0
-9 -33 0
-9 -31 0
-9 -28 0
-9 -22 0
-9 -21 0
-8 -45 0
-8 -42 0
-8 -40 0
-8 -39 0
-8 -38 0
-8 -25 0
-8 -21 0
-8 -19 0
-8 -17 0
-8 -15 0
-7 -49 0
-7 -48 0
-7 -44 0
-7 -42 0
-7 -33 0
-7 -28 0
-7 -16 0
-7 -14 0
-6 -48 0
-6 -45 0
-6 -44 0
-6 -38 0
-6 -28 0
-6 -25 0
-6 -17 0
-6 -16 0
-6 -8 0
-6 -7 0
-5 -49 0
-5 -43 0
-5 -42 0
-5 -41 0
-5 -33 0
-5 -25 0
-5 -23 0
-5 -14 0
-5 -13 0
-5 -11 0
-5 -7 0
-4 -43 0
-4 -31 0
-4 -30 0
-4 -28 0
-4 -27 0
-4 -26 0
-4 -24 0
-4 -21 0
-4 -17 0
-4 -14 0
-4 -9 0
-3 -49 0
-3 -44 0
-3 -39 0
-3 -38 0
-3 -35 0
-3 -31 0
-3 -29 0
-3 -24 0
-3 -22 0
-3 -20 0
-3 -13 0
-2 -48 0
-2 -47 0
-2 -44 0
-2 -40 0
-2 -30 0
-2 -28 0
-2 -23 0
-2 -20 0
-2 -16 0
-2 -7 0
-2 -6 0
-1 -48 0
-1 -47 0
-1 -45 0
-1 -35 0
-1 -34 0
-1 -33 0
-1 -27 0
-1 -22 0
-1 -19 0
-1 -11 0
-1 -9 0
1 11 19 27 35 37 48 0
2 12 20 23 30 40 47 0
3 10 13 22 24 39 44 0
4 9 21 28 31 36 43 0
5 7 14 33 42 46 49 0
6 8 17 18 25 38 45 0
15 16 26 29 32 34 41 0
