p cnf 81 585
-78 -80 0
-77 -81 0
-73 -79 0
-72 -79 0
-72 -73 0
-71 -81 0
-71 -75 0
-69 -80 0
-69 -78 0
-69 -74 0
-68 -70 0
-67 -81 0
-67 -78 0
-67 -71 0
-66 -78 0
-66 -77 0
-66 -67 0
-65 -75 0
-65 -70 0
-65 -68 0
-64 -81 0
-64 -74 0
-64 -71 0
-64 -69 0
-64 -67 0
-63 -79 0
-63 -73 0
-63 -72 0
-62 -80 0
-62 -77 0
-62 -66 0
-61 -81 0
-61 -80 0
-61 -71 0
-61 -67 0
-61 -64 0
-61 -62 0
-60 -76 0
-60 -70 0
-59 -81 0
-59 -77 0
-59 -75 0
-59 -65 0
-58 -78 0
-58 -70 0
-58 -67 0
-58 -66 0
-58 -60 0
-57 -74 0
-57 -69 0
-57 -68 0
-57 -64 0
-56 -77 0
-56 -76 0
-56 -66 0
-56 -62 0
-56 -60 0
-55 -78 0
-55 -74 0
-55 -67 0
-55 -66 0
-55 -58 0
-54 -75 0
-54 -71 0
-54 -70 0
-54 -60 0
-54 -58 0
-53 -81 0
-53 -77 0
-53 -59 0
-52 -81 0
-52 -71 0
-52 -67 0
-52 -64 0
-52 -61 0
-51 -74 0
-51 -69 0
-51 -64 0
-51 -57 0
-51 -53 0
-50 -81 0
-50 -71 0
-50 -70 0
-50 -68 0
-50 -67 0
-50 -65 0
-50 -64 0
-50 -61 0
-50 -52 0
-49 -76 0
-49 -74 0
-49 -69 0
-49 -64 0
-49 -57 0
-49 -51 0
-48 -81 0
-48 -80 0
-48 -78 0
-48 -77 0
-48 -69 0
-48 -59 0
-48 -53 0
-47 -78 0
-47 -76 0
-47 -67 0
-47 -66 0
-47 -58 0
-47 -55 0
-47 -49 0
-46 -81 0
-46 -77 0
-46 -74 0
-46 -59 0
-46 -55 0
-46 -53 0
-46 -48 0
-45 -78 0
-45 -75 0
-45 -67 0
-45 -66 0
-45 -65 0
-45 -59 0
-45 -58 0
-45 -55 0
-45 -47 0
-44 -77 0
-44 -74 0
-44 -69 0
-44 -66 0
-44 -64 0
-44 -62 0
-44 -57 0
-44 -56 0
-44 -51 0
-44 -49 0
-43 -80 0
-43 -62 0
-43 -61 0
-43 -53 0
-43 -51 0
-42 -76 0
-42 -74 0
-42 -60 0
-42 -56 0
-42 -55 0
-42 -46 0
-41 -78 0
-41 -68 0
-41 -67 0
-41 -66 0
-41 -58 0
-41 -57 0
-41 -55 0
-41 -47 0
-41 -45 0
-40 -80 0
-40 -75 0
-40 -65 0
-40 -62 0
-40 -61 0
-40 -59 0
-40 -45 0
-40 -43 0
-39 -75 0
-39 -71 0
-39 -68 0
-39 -57 0
-39 -54 0
-39 -41 0
-38 -53 0
-38 -52 0
-38 -51 0
-38 -43 0
-37 -74 0
-37 -70 0
-37 -69 0
-37 -64 0
-37 -60 0
-37 -58 0
-37 -57 0
-37 -54 0
-37 -51 0
-37 -49 0
-37 -44 0
-36 -79 0
-36 -73 0
-36 -72 0
-36 -63 0
-35 -80 0
-35 -78 0
-35 -69 0
-35 -52 0
-35 -48 0
-35 -38 0
-34 -75 0
-34 -71 0
-34 -54 0
-34 -53 0
-34 -51 0
-34 -43 0
-34 -39 0
-34 -38 0
-33 -80 0
-33 -78 0
-33 -70 0
-33 -69 0
-33 -68 0
-33 -65 0
-33 -50 0
-33 -48 0
-33 -35 0
-32 -76 0
-32 -52 0
-32 -49 0
-32 -47 0
-32 -38 0
-32 -35 0
-31 -76 0
-31 -70 0
-31 -68 0
-31 -65 0
-31 -50 0
-31 -49 0
-31 -47 0
-31 -33 0
-31 -32 0
-30 -74 0
-30 -55 0
-30 -52 0
-30 -46 0
-30 -42 0
-30 -38 0
-30 -35 0
-30 -32 0
-29 -68 0
-29 -57 0
-29 -52 0
-29 -41 0
-29 -39 0
-29 -38 0
-29 -35 0
-29 -32 0
-29 -30 0
-28 -79 0
-28 -73 0
-28 -72 0
-28 -63 0
-28 -36 0
-27 -80 0
-27 -68 0
-27 -62 0
-27 -61 0
-27 -57 0
-27 -43 0
-27 -41 0
-27 -40 0
-27 -39 0
-27 -29 0
-26 -74 0
-26 -70 0
-26 -68 0
-26 -65 0
-26 -55 0
-26 -50 0
-26 -46 0
-26 -42 0
-26 -33 0
-26 -31 0
-26 -30 0
-25 -77 0
-25 -75 0
-25 -71 0
-25 -66 0
-25 -62 0
-25 -56 0
-25 -54 0
-25 -44 0
-25 -39 0
-25 -34 0
-24 -79 0
-24 -73 0
-24 -72 0
-24 -63 0
-24 -36 0
-24 -28 0
-23 -70 0
-23 -60 0
-23 -58 0
-23 -54 0
-23 -52 0
-23 -38 0
-23 -37 0
-23 -35 0
-23 -32 0
-23 -30 0
-23 -29 0
-22 -75 0
-22 -74 0
-22 -71 0
-22 -55 0
-22 -54 0
-22 -46 0
-22 -42 0
-22 -39 0
-22 -34 0
-22 -30 0
-22 -26 0
-22 -25 0
-21 -80 0
-21 -70 0
-21 -62 0
-21 -61 0
-21 -60 0
-21 -58 0
-21 -54 0
-21 -43 0
-21 -40 0
-21 -37 0
-21 -27 0
-21 -23 0
-20 -75 0
-20 -65 0
-20 -59 0
-20 -52 0
-20 -45 0
-20 -40 0
-20 -38 0
-20 -35 0
-20 -32 0
-20 -30 0
-20 -29 0
-20 -23 0
-19 -79 0
-19 -73 0
-19 -72 0
-19 -63 0
-19 -36 0
-19 -28 0
-19 -24 0
-18 -81 0
-18 -76 0
-18 -71 0
-18 -67 0
-18 -64 0
-18 -61 0
-18 -60 0
-18 -56 0
-18 -52 0
-18 -50 0
-18 -42 0
-17 -81 0
-17 -77 0
-17 -68 0
-17 -59 0
-17 -57 0
-17 -53 0
-17 -48 0
-17 -46 0
-17 -41 0
-17 -39 0
-17 -29 0
-17 -27 0
-16 -78 0
-16 -67 0
-16 -66 0
-16 -58 0
-16 -55 0
-16 -53 0
-16 -51 0
-16 -47 0
-16 -45 0
-16 -43 0
-16 -41 0
-16 -38 0
-16 -34 0
-15 -81 0
-15 -77 0
-15 -76 0
-15 -59 0
-15 -53 0
-15 -49 0
-15 -48 0
-15 -47 0
-15 -46 0
-15 -32 0
-15 -31 0
-15 -17 0
-14 -76 0
-14 -75 0
-14 -65 0
-14 -60 0
-14 -59 0
-14 -56 0
-14 -45 0
-14 -42 0
-14 -40 0
-14 -20 0
-14 -18 0
-13 -80 0
-13 -78 0
-13 -75 0
-13 -71 0
-13 -69 0
-13 -54 0
-13 -48 0
-13 -39 0
-13 -35 0
-13 -34 0
-13 -33 0
-13 -25 0
-13 -22 0
-12 -80 0
-12 -76 0
-12 -62 0
-12 -61 0
-12 -49 0
-12 -47 0
-12 -43 0
-12 -40 0
-12 -32 0
-12 -31 0
-12 -27 0
-12 -21 0
-12 -15 0
-11 -80 0
-11 -78 0
-11 -76 0
-11 -69 0
-11 -60 0
-11 -56 0
-11 -48 0
-11 -42 0
-11 -35 0
-11 -33 0
-11 -18 0
-11 -14 0
-11 -13 0
-10 -79 0
-10 -73 0
-10 -72 0
-10 -63 0
-10 -36 0
-10 -28 0
-10 -24 0
-10 -19 0
-9 -77 0
-9 -66 0
-9 -62 0
-9 -56 0
-9 -52 0
-9 -44 0
-9 -38 0
-9 -35 0
-9 -32 0
-9 -30 0
-9 -29 0
-9 -25 0
-9 -23 0
-9 -20 0
-8 -76 0
-8 -68 0
-8 -60 0
-8 -57 0
-8 -56 0
-8 -42 0
-8 -41 0
-8 -39 0
-8 -29 0
-8 -27 0
-8 -18 0
-8 -17 0
-8 -14 0
-8 -11 0
-7 -70 0
-7 -68 0
-7 -65 0
-7 -53 0
-7 -51 0
-7 -50 0
-7 -43 0
-7 -38 0
-7 -34 0
-7 -33 0
-7 -31 0
-7 -26 0
-7 -16 0
-6 -77 0
-6 -70 0
-6 -68 0
-6 -66 0
-6 -65 0
-6 -62 0
-6 -56 0
-6 -50 0
-6 -44 0
-6 -33 0
-6 -31 0
-6 -26 0
-6 -25 0
-6 -9 0
-6 -7 0
-5 -76 0
-5 -75 0
-5 -71 0
-5 -54 0
-5 -49 0
-5 -47 0
-5 -39 0
-5 -34 0
-5 -32 0
-5 -31 0
-5 -25 0
-5 -22 0
-5 -15 0
-5 -13 0
-5 -12 0
-4 -76 0
-4 -60 0
-4 -56 0
-4 -53 0
-4 -51 0
-4 -43 0
-4 -42 0
-4 -38 0
-4 -34 0
-4 -18 0
-4 -16 0
-4 -14 0
-4 -11 0
-4 -8 0
-4 -7 0
-3 -75 0
-3 -74 0
-3 -69 0
-3 -65 0
-3 -64 0
-3 -59 0
-3 -57 0
-3 -51 0
-3 -49 0
-3 -45 0
-3 -44 0
-3 -40 0
-3 -37 0
-3 -20 0
-3 -14 0
-2 -80 0
-2 -74 0
-2 -62 0
-2 -61 0
-2 -55 0
-2 -46 0
-2 -43 0
-2 -42 0
-2 -40 0
-2 -30 0
-2 -27 0
-2 -26 0
-2 -22 0
-2 -21 0
-2 -12 0
-1 -81 0
-1 -77 0
-1 -70 0
-1 -60 0
-1 -59 0
-1 -58 0
-1 -54 0
-1 -53 0
-1 -48 0
-1 -46 0
-1 -37 0
-1 -23 0
-1 -21 0
-1 -17 0
-1 -15 0
1 21 23 37 54 58 60 70 73 0
2 10 22 26 30 42 46 55 74 0
3 14 20 24 40 45 59 65 75 0
4 7 16 34 38 43 51 53 72 0
5 12 15 31 32 47 49 63 76 0
6 9 19 25 44 56 62 66 77 0
8 17 27 29 36 39 41 57 68 0
11 13 28 33 35 48 69 78 80 0
18 50 52 61 64 67 71 79 81 0
