p cnf 81 585
-78 -80 0
-78 -79 0
-76 -80 0
-75 -79 0
-74 -76 0
-73 -80 0
-73 -78 0
-73 -77 0
-72 -77 0
-72 -75 0
-71 -81 0
-70 -77 0
-70 -72 0
-69 -74 0
-68 -79 0
-68 -75 0
-68 -70 0
-67 -79 0
-67 -78 0
-66 -80 0
-66 -76 0
-66 -69 0
-65 -81 0
-65 -71 0
-64 -76 0
-64 -75 0
-64 -74 0
-64 -72 0
-63 -75 0
-63 -72 0
-63 -64 0
-62 -77 0
-62 -72 0
-62 -70 0
-61 -79 0
-61 -78 0
-61 -67 0
-60 -81 0
-60 -71 0
-60 -65 0
-59 -80 0
-59 -78 0
-59 -73 0
-58 -79 0
-58 -75 0
-58 -68 0
-58 -59 0
-57 -67 0
-57 -62 0
-56 -80 0
-56 -78 0
-56 -73 0
-56 -59 0
-55 -77 0
-55 -72 0
-55 -70 0
-55 -62 0
-55 -59 0
-55 -58 0
-54 -76 0
-54 -74 0
-54 -64 0
-54 -59 0
-54 -58 0
-54 -55 0
-53 -79 0
-53 -77 0
-53 -75 0
-53 -73 0
-53 -68 0
-53 -58 0
-52 -61 0
-52 -56 0
-51 -63 0
-51 -56 0
-51 -52 0
-50 -79 0
-50 -75 0
-50 -68 0
-50 -58 0
-50 -56 0
-50 -53 0
-50 -52 0
-50 -51 0
-49 -80 0
-49 -78 0
-49 -75 0
-49 -73 0
-49 -72 0
-49 -64 0
-49 -63 0
-49 -59 0
-49 -56 0
-48 -77 0
-48 -73 0
-48 -61 0
-48 -53 0
-48 -52 0
-47 -70 0
-47 -68 0
-47 -67 0
-47 -57 0
-46 -80 0
-46 -78 0
-46 -73 0
-46 -62 0
-46 -59 0
-46 -57 0
-46 -56 0
-46 -49 0
-45 -69 0
-45 -66 0
-45 -56 0
-45 -52 0
-45 -51 0
-45 -50 0
-44 -63 0
-44 -59 0
-44 -58 0
-44 -55 0
-44 -54 0
-44 -51 0
-43 -76 0
-43 -74 0
-43 -64 0
-43 -62 0
-43 -57 0
-43 -54 0
-43 -46 0
-42 -80 0
-42 -78 0
-42 -74 0
-42 -73 0
-42 -69 0
-42 -59 0
-42 -56 0
-42 -49 0
-42 -46 0
-41 -75 0
-41 -72 0
-41 -67 0
-41 -64 0
-41 -63 0
-41 -57 0
-41 -49 0
-41 -47 0
-40 -74 0
-40 -69 0
-40 -61 0
-40 -52 0
-40 -48 0
-40 -42 0
-39 -70 0
-39 -68 0
-39 -63 0
-39 -51 0
-39 -47 0
-39 -44 0
-38 -79 0
-38 -75 0
-38 -74 0
-38 -69 0
-38 -68 0
-38 -58 0
-38 -53 0
-38 -50 0
-38 -42 0
-38 -40 0
-37 -70 0
-37 -69 0
-37 -68 0
-37 -66 0
-37 -47 0
-37 -45 0
-37 -39 0
-36 -62 0
-36 -61 0
-36 -57 0
-36 -52 0
-36 -48 0
-36 -46 0
-36 -43 0
-36 -40 0
-35 -81 0
-35 -71 0
-35 -65 0
-35 -60 0
-34 -74 0
-34 -69 0
-34 -67 0
-34 -57 0
-34 -47 0
-34 -42 0
-34 -41 0
-34 -40 0
-34 -38 0
-33 -75 0
-33 -72 0
-33 -69 0
-33 -66 0
-33 -64 0
-33 -63 0
-33 -49 0
-33 -45 0
-33 -41 0
-33 -37 0
-32 -69 0
-32 -66 0
-32 -62 0
-32 -57 0
-32 -46 0
-32 -45 0
-32 -43 0
-32 -37 0
-32 -36 0
-32 -33 0
-31 -63 0
-31 -62 0
-31 -57 0
-31 -51 0
-31 -46 0
-31 -44 0
-31 -43 0
-31 -39 0
-31 -36 0
-31 -32 0
-30 -77 0
-30 -73 0
-30 -67 0
-30 -57 0
-30 -53 0
-30 -48 0
-30 -47 0
-30 -41 0
-30 -34 0
-29 -80 0
-29 -76 0
-29 -67 0
-29 -66 0
-29 -57 0
-29 -47 0
-29 -41 0
-29 -34 0
-29 -30 0
-28 -80 0
-28 -76 0
-28 -66 0
-28 -63 0
-28 -51 0
-28 -44 0
-28 -39 0
-28 -31 0
-28 -29 0
-27 -67 0
-27 -57 0
-27 -56 0
-27 -52 0
-27 -51 0
-27 -50 0
-27 -47 0
-27 -45 0
-27 -41 0
-27 -34 0
-27 -30 0
-27 -29 0
-26 -77 0
-26 -73 0
-26 -69 0
-26 -66 0
-26 -53 0
-26 -48 0
-26 -45 0
-26 -37 0
-26 -33 0
-26 -32 0
-26 -30 0
-25 -81 0
-25 -71 0
-25 -65 0
-25 -60 0
-25 -35 0
-24 -75 0
-24 -72 0
-24 -64 0
-24 -63 0
-24 -61 0
-24 -52 0
-24 -49 0
-24 -48 0
-24 -41 0
-24 -40 0
-24 -36 0
-24 -33 0
-23 -81 0
-23 -71 0
-23 -65 0
-23 -60 0
-23 -35 0
-23 -25 0
-22 -80 0
-22 -79 0
-22 -76 0
-22 -75 0
-22 -68 0
-22 -66 0
-22 -58 0
-22 -53 0
-22 -50 0
-22 -38 0
-22 -29 0
-22 -28 0
-21 -79 0
-21 -75 0
-21 -68 0
-21 -62 0
-21 -58 0
-21 -57 0
-21 -53 0
-21 -50 0
-21 -46 0
-21 -43 0
-21 -38 0
-21 -36 0
-21 -32 0
-21 -31 0
-21 -22 0
-20 -80 0
-20 -76 0
-20 -66 0
-20 -61 0
-20 -52 0
-20 -48 0
-20 -40 0
-20 -36 0
-20 -29 0
-20 -28 0
-20 -24 0
-20 -22 0
-19 -79 0
-19 -78 0
-19 -76 0
-19 -74 0
-19 -67 0
-19 -64 0
-19 -61 0
-19 -54 0
-19 -43 0
-18 -80 0
-18 -78 0
-18 -73 0
-18 -70 0
-18 -68 0
-18 -59 0
-18 -56 0
-18 -49 0
-18 -47 0
-18 -46 0
-18 -42 0
-18 -39 0
-18 -37 0
-17 -77 0
-17 -74 0
-17 -72 0
-17 -70 0
-17 -69 0
-17 -62 0
-17 -55 0
-17 -42 0
-17 -40 0
-17 -38 0
-17 -34 0
-16 -67 0
-16 -59 0
-16 -58 0
-16 -57 0
-16 -55 0
-16 -54 0
-16 -47 0
-16 -44 0
-16 -41 0
-16 -34 0
-16 -30 0
-16 -29 0
-16 -27 0
-15 -79 0
-15 -78 0
-15 -69 0
-15 -67 0
-15 -66 0
-15 -61 0
-15 -45 0
-15 -37 0
-15 -33 0
-15 -32 0
-15 -26 0
-15 -19 0
-14 -79 0
-14 -78 0
-14 -77 0
-14 -72 0
-14 -70 0
-14 -67 0
-14 -62 0
-14 -61 0
-14 -55 0
-14 -19 0
-14 -17 0
-14 -15 0
-13 -81 0
-13 -71 0
-13 -65 0
-13 -60 0
-13 -35 0
-13 -25 0
-13 -23 0
-12 -76 0
-12 -74 0
-12 -64 0
-12 -56 0
-12 -54 0
-12 -52 0
-12 -51 0
-12 -50 0
-12 -45 0
-12 -43 0
-12 -27 0
-12 -19 0
-11 -80 0
-11 -77 0
-11 -76 0
-11 -72 0
-11 -70 0
-11 -66 0
-11 -62 0
-11 -55 0
-11 -29 0
-11 -28 0
-11 -22 0
-11 -20 0
-11 -17 0
-11 -14 0
-10 -69 0
-10 -66 0
-10 -59 0
-10 -58 0
-10 -55 0
-10 -54 0
-10 -45 0
-10 -44 0
-10 -37 0
-10 -33 0
-10 -32 0
-10 -26 0
-10 -16 0
-10 -15 0
-9 -74 0
-9 -69 0
-9 -63 0
-9 -51 0
-9 -44 0
-9 -42 0
-9 -40 0
-9 -39 0
-9 -38 0
-9 -34 0
-9 -31 0
-9 -28 0
-9 -17 0
-8 -77 0
-8 -76 0
-8 -74 0
-8 -73 0
-8 -64 0
-8 -54 0
-8 -53 0
-8 -48 0
-8 -43 0
-8 -30 0
-8 -26 0
-8 -19 0
-8 -12 0
-7 -77 0
-7 -72 0
-7 -70 0
-7 -62 0
-7 -56 0
-7 -55 0
-7 -52 0
-7 -51 0
-7 -50 0
-7 -45 0
-7 -27 0
-7 -17 0
-7 -14 0
-7 -12 0
-7 -11 0
-6 -79 0
-6 -78 0
-6 -67 0
-6 -63 0
-6 -61 0
-6 -51 0
-6 -44 0
-6 -39 0
-6 -31 0
-6 -28 0
-6 -19 0
-6 -15 0
-6 -14 0
-6 -9 0
-5 -70 0
-5 -68 0
-5 -61 0
-5 -52 0
-5 -48 0
-5 -47 0
-5 -40 0
-5 -39 0
-5 -37 0
-5 -36 0
-5 -24 0
-5 -20 0
-5 -18 0
-4 -76 0
-4 -74 0
-4 -70 0
-4 -68 0
-4 -64 0
-4 -54 0
-4 -47 0
-4 -43 0
-4 -39 0
-4 -37 0
-4 -19 0
-4 -18 0
-4 -12 0
-4 -8 0
-4 -5 0
-3 -81 0
-3 -71 0
-3 -65 0
-3 -60 0
-3 -35 0
-3 -25 0
-3 -23 0
-3 -13 0
-2 -61 0
-2 -59 0
-2 -58 0
-2 -55 0
-2 -54 0
-2 -52 0
-2 -48 0
-2 -44 0
-2 -40 0
-2 -36 0
-2 -24 0
-2 -20 0
-2 -16 0
-2 -10 0
-2 -5 0
-1 -77 0
-1 -73 0
-1 -63 0
-1 -53 0
-1 -51 0
-1 -48 0
-1 -44 0
-1 -39 0
-1 -31 0
-1 -30 0
-1 -28 0
-1 -26 0
-1 -9 0
-1 -8 0
-1 -6 0
1 8 26 30 35 48 53 73 77 0
2 10 16 44 54 55 58 59 60 0
3 24 33 41 49 63 64 72 75 0
4 5 18 25 37 39 47 68 70 0
6 14 15 19 61 65 67 78 79 0
7 12 27 45 50 51 52 56 71 0
9 13 17 34 38 40 42 69 74 0
11 20 22 28 29 66 76 80 81 0
21 23 31 32 36 43 46 57 62 0
