p cnf 81 585
-76 -80 0
-75 -79 0
-73 -80 0
-72 -76 0
-72 -74 0
-71 -74 0
-70 -73 0
-69 -77 0
-68 -71 0
-68 -70 0
-67 -78 0
-67 -74 0
-67 -71 0
-66 -79 0
-66 -75 0
-65 -79 0
-65 -75 0
-65 -66 0
-64 -77 0
-64 -74 0
-64 -71 0
-64 -67 0
-63 -74 0
-63 -73 0
-63 -71 0
-63 -70 0
-63 -67 0
-63 -64 0
-62 -80 0
-62 -76 0
-62 -74 0
-62 -71 0
-62 -67 0
-62 -64 0
-62 -63 0
-61 -78 0
-61 -74 0
-61 -72 0
-60 -81 0
-59 -81 0
-59 -77 0
-59 -64 0
-58 -78 0
-58 -73 0
-58 -70 0
-58 -63 0
-58 -61 0
-57 -78 0
-57 -67 0
-57 -60 0
-56 -74 0
-56 -72 0
-56 -61 0
-55 -74 0
-55 -71 0
-55 -69 0
-55 -67 0
-55 -64 0
-55 -63 0
-55 -62 0
-54 -81 0
-54 -80 0
-54 -76 0
-54 -62 0
-54 -59 0
-53 -80 0
-53 -73 0
-53 -69 0
-53 -55 0
-52 -76 0
-52 -72 0
-52 -71 0
-52 -68 0
-51 -78 0
-51 -77 0
-51 -64 0
-51 -61 0
-51 -59 0
-51 -58 0
-50 -69 0
-50 -56 0
-50 -55 0
-50 -53 0
-49 -78 0
-49 -77 0
-49 -69 0
-49 -67 0
-49 -57 0
-48 -81 0
-48 -78 0
-48 -61 0
-48 -60 0
-48 -58 0
-48 -51 0
-47 -70 0
-47 -69 0
-47 -68 0
-47 -55 0
-47 -53 0
-47 -50 0
-46 -73 0
-46 -70 0
-46 -63 0
-46 -58 0
-46 -56 0
-46 -50 0
-45 -76 0
-45 -72 0
-45 -69 0
-45 -55 0
-45 -53 0
-45 -52 0
-45 -50 0
-45 -47 0
-44 -69 0
-44 -60 0
-44 -57 0
-44 -55 0
-44 -53 0
-44 -50 0
-44 -47 0
-44 -45 0
-43 -74 0
-43 -72 0
-43 -70 0
-43 -68 0
-43 -61 0
-43 -56 0
-43 -47 0
-42 -81 0
-42 -78 0
-42 -67 0
-42 -59 0
-42 -57 0
-42 -54 0
-42 -49 0
-41 -77 0
-41 -74 0
-41 -72 0
-41 -69 0
-41 -61 0
-41 -56 0
-41 -49 0
-41 -43 0
-40 -81 0
-40 -73 0
-40 -70 0
-40 -63 0
-40 -59 0
-40 -58 0
-40 -54 0
-40 -46 0
-40 -42 0
-39 -73 0
-39 -70 0
-39 -63 0
-39 -60 0
-39 -58 0
-39 -57 0
-39 -46 0
-39 -44 0
-39 -40 0
-38 -79 0
-38 -75 0
-38 -66 0
-38 -65 0
-37 -81 0
-37 -80 0
-37 -73 0
-37 -60 0
-37 -53 0
-37 -48 0
-36 -77 0
-36 -70 0
-36 -68 0
-36 -64 0
-36 -59 0
-36 -51 0
-36 -47 0
-36 -43 0
-35 -80 0
-35 -78 0
-35 -73 0
-35 -67 0
-35 -57 0
-35 -53 0
-35 -49 0
-35 -42 0
-35 -37 0
-34 -81 0
-34 -70 0
-34 -68 0
-34 -60 0
-34 -48 0
-34 -47 0
-34 -43 0
-34 -37 0
-34 -36 0
-33 -80 0
-33 -76 0
-33 -70 0
-33 -68 0
-33 -62 0
-33 -54 0
-33 -47 0
-33 -43 0
-33 -36 0
-33 -34 0
-32 -80 0
-32 -78 0
-32 -76 0
-32 -62 0
-32 -61 0
-32 -58 0
-32 -54 0
-32 -51 0
-32 -48 0
-32 -33 0
-31 -79 0
-31 -75 0
-31 -66 0
-31 -65 0
-31 -38 0
-30 -80 0
-30 -74 0
-30 -73 0
-30 -72 0
-30 -61 0
-30 -56 0
-30 -53 0
-30 -43 0
-30 -41 0
-30 -37 0
-30 -35 0
-29 -80 0
-29 -77 0
-29 -76 0
-29 -69 0
-29 -62 0
-29 -54 0
-29 -49 0
-29 -41 0
-29 -33 0
-29 -32 0
-28 -81 0
-28 -71 0
-28 -68 0
-28 -59 0
-28 -54 0
-28 -52 0
-28 -42 0
-28 -40 0
-27 -77 0
-27 -64 0
-27 -59 0
-27 -56 0
-27 -51 0
-27 -50 0
-27 -46 0
-27 -36 0
-26 -78 0
-26 -71 0
-26 -68 0
-26 -61 0
-26 -58 0
-26 -52 0
-26 -51 0
-26 -48 0
-26 -32 0
-26 -28 0
-25 -81 0
-25 -76 0
-25 -72 0
-25 -60 0
-25 -52 0
-25 -48 0
-25 -45 0
-25 -37 0
-25 -34 0
-24 -79 0
-24 -75 0
-24 -66 0
-24 -65 0
-24 -38 0
-24 -31 0
-23 -77 0
-23 -76 0
-23 -72 0
-23 -64 0
-23 -59 0
-23 -52 0
-23 -51 0
-23 -45 0
-23 -36 0
-23 -27 0
-23 -25 0
-22 -74 0
-22 -72 0
-22 -61 0
-22 -60 0
-22 -57 0
-22 -56 0
-22 -44 0
-22 -43 0
-22 -41 0
-22 -39 0
-22 -30 0
-21 -81 0
-21 -74 0
-21 -71 0
-21 -67 0
-21 -64 0
-21 -63 0
-21 -62 0
-21 -60 0
-21 -55 0
-21 -48 0
-21 -37 0
-21 -34 0
-21 -25 0
-20 -71 0
-20 -68 0
-20 -60 0
-20 -57 0
-20 -52 0
-20 -44 0
-20 -39 0
-20 -28 0
-20 -26 0
-20 -22 0
-19 -80 0
-19 -76 0
-19 -62 0
-19 -56 0
-19 -54 0
-19 -50 0
-19 -46 0
-19 -33 0
-19 -32 0
-19 -29 0
-19 -27 0
-18 -81 0
-18 -60 0
-18 -56 0
-18 -50 0
-18 -48 0
-18 -46 0
-18 -37 0
-18 -34 0
-18 -27 0
-18 -25 0
-18 -21 0
-18 -19 0
-17 -78 0
-17 -76 0
-17 -72 0
-17 -67 0
-17 -57 0
-17 -52 0
-17 -49 0
-17 -45 0
-17 -42 0
-17 -35 0
-17 -25 0
-17 -23 0
-16 -78 0
-16 -69 0
-16 -61 0
-16 -58 0
-16 -55 0
-16 -53 0
-16 -51 0
-16 -50 0
-16 -48 0
-16 -47 0
-16 -45 0
-16 -44 0
-16 -32 0
-16 -26 0
-15 -77 0
-15 -64 0
-15 -60 0
-15 -59 0
-15 -57 0
-15 -51 0
-15 -44 0
-15 -39 0
-15 -36 0
-15 -27 0
-15 -23 0
-15 -22 0
-15 -20 0
-14 -76 0
-14 -73 0
-14 -72 0
-14 -70 0
-14 -63 0
-14 -58 0
-14 -52 0
-14 -46 0
-14 -45 0
-14 -40 0
-14 -39 0
-14 -25 0
-14 -23 0
-14 -17 0
-13 -79 0
-13 -75 0
-13 -66 0
-13 -65 0
-13 -38 0
-13 -31 0
-13 -24 0
-12 -77 0
-12 -73 0
-12 -70 0
-12 -69 0
-12 -63 0
-12 -58 0
-12 -49 0
-12 -46 0
-12 -41 0
-12 -40 0
-12 -39 0
-12 -29 0
-12 -14 0
-11 -80 0
-11 -77 0
-11 -73 0
-11 -64 0
-11 -59 0
-11 -53 0
-11 -51 0
-11 -37 0
-11 -36 0
-11 -35 0
-11 -30 0
-11 -27 0
-11 -23 0
-11 -15 0
-10 -81 0
-10 -77 0
-10 -69 0
-10 -60 0
-10 -49 0
-10 -48 0
-10 -41 0
-10 -37 0
-10 -34 0
-10 -29 0
-10 -25 0
-10 -21 0
-10 -18 0
-10 -12 0
-9 -80 0
-9 -76 0
-9 -62 0
-9 -60 0
-9 -57 0
-9 -54 0
-9 -44 0
-9 -39 0
-9 -33 0
-9 -32 0
-9 -29 0
-9 -22 0
-9 -20 0
-9 -19 0
-9 -15 0
-8 -79 0
-8 -75 0
-8 -66 0
-8 -65 0
-8 -38 0
-8 -31 0
-8 -24 0
-8 -13 0
-7 -81 0
-7 -69 0
-7 -59 0
-7 -55 0
-7 -54 0
-7 -53 0
-7 -50 0
-7 -47 0
-7 -45 0
-7 -44 0
-7 -42 0
-7 -40 0
-7 -28 0
-7 -16 0
-6 -71 0
-6 -68 0
-6 -56 0
-6 -52 0
-6 -50 0
-6 -46 0
-6 -28 0
-6 -27 0
-6 -26 0
-6 -20 0
-6 -19 0
-6 -18 0
-5 -80 0
-5 -73 0
-5 -71 0
-5 -68 0
-5 -53 0
-5 -52 0
-5 -37 0
-5 -35 0
-5 -30 0
-5 -28 0
-5 -26 0
-5 -20 0
-5 -11 0
-5 -6 0
-4 -78 0
-4 -67 0
-4 -57 0
-4 -56 0
-4 -50 0
-4 -49 0
-4 -46 0
-4 -42 0
-4 -35 0
-4 -27 0
-4 -19 0
-4 -18 0
-4 -17 0
-4 -6 0
-3 -78 0
-3 -70 0
-3 -68 0
-3 -67 0
-3 -57 0
-3 -49 0
-3 -47 0
-3 -43 0
-3 -42 0
-3 -36 0
-3 -35 0
-3 -34 0
-3 -33 0
-3 -17 0
-3 -4 0
-2 -77 0
-2 -71 0
-2 -69 0
-2 -68 0
-2 -52 0
-2 -49 0
-2 -41 0
-2 -29 0
-2 -28 0
-2 -26 0
-2 -20 0
-2 -12 0
-2 -10 0
-2 -6 0
-2 -5 0
-1 -81 0
-1 -74 0
-1 -72 0
-1 -61 0
-1 -59 0
-1 -56 0
-1 -54 0
-1 -43 0
-1 -42 0
-1 -41 0
-1 -40 0
-1 -30 0
-1 -28 0
-1 -22 0
-1 -7 0
1 7 28 40 42 54 59 79 81 0
2 10 12 29 41 49 65 69 77 0
3 8 33 34 36 43 47 68 70 0
4 6 18 19 27 38 46 50 56 0
5 11 24 30 35 37 53 73 80 0
9 15 20 22 39 44 57 60 75 0
13 16 26 32 48 51 58 61 78 0
14 17 23 25 31 45 52 72 76 0
21 55 62 63 64 66 67 71 74 0
