p cnf 81 585
-79 -80 0
-78 -81 0
-75 -77 0
-74 -81 0
-74 -77 0
-73 -77 0
-73 -74 0
-72 -78 0
-72 -77 0
-72 -74 0
-72 -73 0
-71 -81 0
-71 -78 0
-71 -73 0
-70 -77 0
-70 -76 0
-70 -75 0
-69 -77 0
-69 -75 0
-69 -70 0
-67 -81 0
-67 -78 0
-67 -71 0
-67 -68 0
-66 -76 0
-66 -69 0
-64 -78 0
-64 -76 0
-64 -72 0
-64 -70 0
-63 -76 0
-63 -70 0
-63 -64 0
-62 -79 0
-61 -65 0
-60 -69 0
-60 -66 0
-60 -63 0
-59 -73 0
-59 -71 0
-59 -68 0
-58 -81 0
-58 -80 0
-58 -79 0
-58 -74 0
-57 -80 0
-57 -79 0
-57 -68 0
-57 -67 0
-57 -58 0
-56 -79 0
-56 -76 0
-56 -70 0
-56 -64 0
-56 -63 0
-56 -62 0
-55 -68 0
-55 -67 0
-55 -62 0
-55 -57 0
-54 -80 0
-54 -69 0
-54 -66 0
-54 -60 0
-53 -80 0
-53 -79 0
-53 -78 0
-53 -72 0
-53 -64 0
-53 -58 0
-53 -57 0
-52 -76 0
-52 -68 0
-52 -66 0
-52 -59 0
-51 -73 0
-51 -71 0
-51 -62 0
-51 -59 0
-51 -55 0
-50 -81 0
-50 -80 0
-50 -78 0
-50 -71 0
-50 -67 0
-50 -54 0
-49 -76 0
-49 -66 0
-49 -62 0
-49 -55 0
-49 -52 0
-49 -51 0
-48 -77 0
-48 -75 0
-48 -70 0
-48 -69 0
-48 -68 0
-48 -59 0
-48 -52 0
-47 -76 0
-47 -73 0
-47 -71 0
-47 -70 0
-47 -64 0
-47 -63 0
-47 -59 0
-47 -56 0
-47 -51 0
-46 -81 0
-46 -78 0
-46 -77 0
-46 -75 0
-46 -71 0
-46 -70 0
-46 -69 0
-46 -67 0
-46 -50 0
-46 -48 0
-45 -65 0
-45 -61 0
-44 -81 0
-44 -74 0
-44 -68 0
-44 -59 0
-44 -58 0
-44 -52 0
-44 -48 0
-43 -80 0
-43 -68 0
-43 -59 0
-43 -54 0
-43 -52 0
-43 -50 0
-43 -48 0
-43 -44 0
-42 -79 0
-42 -69 0
-42 -66 0
-42 -62 0
-42 -60 0
-42 -56 0
-42 -54 0
-41 -65 0
-41 -61 0
-41 -45 0
-40 -65 0
-40 -61 0
-40 -45 0
-40 -41 0
-39 -81 0
-39 -74 0
-39 -62 0
-39 -58 0
-39 -55 0
-39 -51 0
-39 -49 0
-39 -44 0
-38 -73 0
-38 -71 0
-38 -69 0
-38 -66 0
-38 -60 0
-38 -59 0
-38 -54 0
-38 -51 0
-38 -47 0
-38 -42 0
-37 -76 0
-37 -70 0
-37 -68 0
-37 -67 0
-37 -64 0
-37 -63 0
-37 -57 0
-37 -56 0
-37 -55 0
-37 -47 0
-36 -78 0
-36 -75 0
-36 -72 0
-36 -64 0
-36 -53 0
-35 -80 0
-35 -79 0
-35 -77 0
-35 -75 0
-35 -70 0
-35 -69 0
-35 -58 0
-35 -57 0
-35 -53 0
-35 -48 0
-35 -46 0
-34 -78 0
-34 -72 0
-34 -64 0
-34 -62 0
-34 -55 0
-34 -53 0
-34 -51 0
-34 -49 0
-34 -39 0
-34 -36 0
-33 -77 0
-33 -76 0
-33 -74 0
-33 -73 0
-33 -72 0
-33 -66 0
-33 -52 0
-33 -49 0
-32 -63 0
-32 -62 0
-32 -60 0
-32 -55 0
-32 -51 0
-32 -49 0
-32 -39 0
-32 -34 0
-31 -80 0
-31 -76 0
-31 -70 0
-31 -64 0
-31 -63 0
-31 -56 0
-31 -54 0
-31 -50 0
-31 -47 0
-31 -43 0
-31 -37 0
-30 -77 0
-30 -74 0
-30 -73 0
-30 -72 0
-30 -68 0
-30 -67 0
-30 -57 0
-30 -55 0
-30 -37 0
-30 -33 0
-29 -68 0
-29 -63 0
-29 -60 0
-29 -59 0
-29 -52 0
-29 -48 0
-29 -44 0
-29 -43 0
-29 -32 0
-28 -79 0
-28 -75 0
-28 -62 0
-28 -56 0
-28 -42 0
-28 -36 0
-27 -80 0
-27 -77 0
-27 -74 0
-27 -73 0
-27 -72 0
-27 -54 0
-27 -50 0
-27 -43 0
-27 -33 0
-27 -31 0
-27 -30 0
-26 -80 0
-26 -75 0
-26 -54 0
-26 -50 0
-26 -43 0
-26 -36 0
-26 -31 0
-26 -28 0
-26 -27 0
-25 -75 0
-25 -73 0
-25 -71 0
-25 -59 0
-25 -51 0
-25 -47 0
-25 -38 0
-25 -36 0
-25 -28 0
-25 -26 0
-24 -77 0
-24 -75 0
-24 -70 0
-24 -69 0
-24 -62 0
-24 -55 0
-24 -51 0
-24 -49 0
-24 -48 0
-24 -46 0
-24 -39 0
-24 -35 0
-24 -34 0
-24 -32 0
-23 -81 0
-23 -75 0
-23 -74 0
-23 -58 0
-23 -44 0
-23 -39 0
-23 -36 0
-23 -28 0
-23 -26 0
-23 -25 0
-22 -78 0
-22 -72 0
-22 -68 0
-22 -64 0
-22 -59 0
-22 -53 0
-22 -52 0
-22 -48 0
-22 -44 0
-22 -43 0
-22 -36 0
-22 -34 0
-22 -29 0
-21 -65 0
-21 -61 0
-21 -45 0
-21 -41 0
-21 -40 0
-20 -80 0
-20 -79 0
-20 -63 0
-20 -60 0
-20 -58 0
-20 -57 0
-20 -53 0
-20 -35 0
-20 -32 0
-20 -29 0
-19 -65 0
-19 -61 0
-19 -45 0
-19 -41 0
-19 -40 0
-19 -21 0
-18 -80 0
-18 -62 0
-18 -55 0
-18 -54 0
-18 -51 0
-18 -50 0
-18 -49 0
-18 -43 0
-18 -39 0
-18 -34 0
-18 -32 0
-18 -31 0
-18 -27 0
-18 -26 0
-18 -24 0
-17 -81 0
-17 -74 0
-17 -69 0
-17 -66 0
-17 -60 0
-17 -58 0
-17 -54 0
-17 -44 0
-17 -42 0
-17 -39 0
-17 -38 0
-17 -23 0
-16 -65 0
-16 -61 0
-16 -45 0
-16 -41 0
-16 -40 0
-16 -21 0
-16 -19 0
-15 -81 0
-15 -76 0
-15 -74 0
-15 -70 0
-15 -64 0
-15 -63 0
-15 -58 0
-15 -56 0
-15 -47 0
-15 -44 0
-15 -39 0
-15 -37 0
-15 -31 0
-15 -23 0
-15 -17 0
-14 -78 0
-14 -72 0
-14 -69 0
-14 -66 0
-14 -64 0
-14 -60 0
-14 -54 0
-14 -53 0
-14 -42 0
-14 -38 0
-14 -36 0
-14 -34 0
-14 -22 0
-14 -17 0
-13 -81 0
-13 -79 0
-13 -78 0
-13 -71 0
-13 -67 0
-13 -62 0
-13 -56 0
-13 -50 0
-13 -46 0
-13 -42 0
-13 -28 0
-12 -81 0
-12 -78 0
-12 -76 0
-12 -71 0
-12 -67 0
-12 -66 0
-12 -52 0
-12 -50 0
-12 -49 0
-12 -46 0
-12 -33 0
-12 -13 0
-11 -75 0
-11 -63 0
-11 -60 0
-11 -36 0
-11 -32 0
-11 -29 0
-11 -28 0
-11 -26 0
-11 -25 0
-11 -23 0
-11 -20 0
-10 -81 0
-10 -78 0
-10 -71 0
-10 -67 0
-10 -63 0
-10 -60 0
-10 -50 0
-10 -46 0
-10 -32 0
-10 -29 0
-10 -20 0
-10 -13 0
-10 -12 0
-10 -11 0
-9 -77 0
-9 -74 0
-9 -73 0
-9 -72 0
-9 -63 0
-9 -60 0
-9 -33 0
-9 -32 0
-9 -30 0
-9 -29 0
-9 -27 0
-9 -20 0
-9 -11 0
-9 -10 0
-8 -76 0
-8 -75 0
-8 -66 0
-8 -52 0
-8 -49 0
-8 -36 0
-8 -33 0
-8 -28 0
-8 -26 0
-8 -25 0
-8 -23 0
-8 -12 0
-8 -11 0
-7 -79 0
-7 -77 0
-7 -74 0
-7 -73 0
-7 -72 0
-7 -62 0
-7 -56 0
-7 -42 0
-7 -33 0
-7 -30 0
-7 -28 0
-7 -27 0
-7 -13 0
-7 -9 0
-6 -79 0
-6 -68 0
-6 -62 0
-6 -59 0
-6 -56 0
-6 -52 0
-6 -48 0
-6 -44 0
-6 -43 0
-6 -42 0
-6 -29 0
-6 -28 0
-6 -22 0
-6 -13 0
-6 -7 0
-5 -65 0
-5 -61 0
-5 -45 0
-5 -41 0
-5 -40 0
-5 -21 0
-5 -19 0
-5 -16 0
-4 -75 0
-4 -68 0
-4 -67 0
-4 -57 0
-4 -55 0
-4 -37 0
-4 -36 0
-4 -30 0
-4 -28 0
-4 -26 0
-4 -25 0
-4 -23 0
-4 -11 0
-4 -8 0
-3 -69 0
-3 -68 0
-3 -67 0
-3 -66 0
-3 -60 0
-3 -57 0
-3 -55 0
-3 -54 0
-3 -42 0
-3 -38 0
-3 -37 0
-3 -30 0
-3 -17 0
-3 -14 0
-3 -4 0
-2 -80 0
-2 -79 0
-2 -76 0
-2 -66 0
-2 -58 0
-2 -57 0
-2 -53 0
-2 -52 0
-2 -49 0
-2 -35 0
-2 -33 0
-2 -20 0
-2 -12 0
-2 -8 0
-1 -80 0
-1 -79 0
-1 -73 0
-1 -71 0
-1 -59 0
-1 -58 0
-1 -57 0
-1 -53 0
-1 -51 0
-1 -47 0
-1 -38 0
-1 -35 0
-1 -25 0
-1 -20 0
-1 -2 0
1 25 38 47 51 59 65 71 73 0
2 5 8 12 33 49 52 66 76 0
3 4 21 30 37 55 57 67 68 0
6 7 13 28 42 45 56 62 79 0
9 10 11 16 20 29 32 60 63 0
14 22 34 36 53 61 64 72 78 0
15 17 19 23 39 44 58 74 81 0
18 26 27 31 40 43 50 54 80 0
24 35 41 46 48 69 70 75 77 0
