p cnf 36 156
-33 -34 0
-31 -36 0
-31 -33 0
-29 -36 0
-28 -35 0
-28 -32 0
-27 -36 0
-27 -31 0
-26 -35 0
-26 -29 0
-26 -28 0
-25 -33 0
-25 -32 0
-25 -31 0
-25 -28 0
-24 -32 0
-24 -29 0
-24 -26 0
-23 -35 0
-23 -32 0
-23 -24 0
-22 -36 0
-22 -34 0
-22 -33 0
-22 -29 0
-21 -36 0
-21 -35 0
-21 -29 0
-21 -23 0
-21 -22 0
-20 -30 0
-19 -34 0
-19 -32 0
-19 -28 0
-19 -25 0
-18 -30 0
-18 -20 0
-17 -35 0
-17 -27 0
-17 -23 0
-17 -21 0
-16 -30 0
-16 -20 0
-16 -18 0
-15 -33 0
-15 -31 0
-15 -29 0
-15 -26 0
-15 -25 0
-15 -24 0
-14 -35 0
-14 -34 0
-14 -33 0
-14 -28 0
-14 -26 0
-14 -22 0
-13 -30 0
-13 -20 0
-13 -18 0
-13 -16 0
-12 -36 0
-12 -32 0
-12 -31 0
-12 -27 0
-12 -24 0
-12 -23 0
-11 -29 0
-11 -27 0
-11 -26 0
-11 -24 0
-11 -17 0
-11 -15 0
-10 -30 0
-10 -20 0
-10 -18 0
-10 -16 0
-10 -13 0
-9 -36 0
-9 -32 0
-9 -29 0
-9 -28 0
-9 -25 0
-9 -22 0
-9 -21 0
-9 -19 0
-8 -32 0
-8 -28 0
-8 -27 0
-8 -25 0
-8 -19 0
-8 -17 0
-8 -11 0
-8 -9 0
-7 -36 0
-7 -34 0
-7 -31 0
-7 -27 0
-7 -19 0
-7 -12 0
-6 -34 0
-6 -29 0
-6 -26 0
-6 -24 0
-6 -19 0
-6 -15 0
-6 -11 0
-6 -7 0
-5 -36 0
-5 -35 0
-5 -31 0
-5 -28 0
-5 -27 0
-5 -26 0
-5 -14 0
-5 -12 0
-5 -7 0
-4 -35 0
-4 -34 0
-4 -23 0
-4 -21 0
-4 -19 0
-4 -17 0
-4 -7 0
-4 -6 0
-3 -34 0
-3 -33 0
-3 -27 0
-3 -22 0
-3 -17 0
-3 -14 0
-3 -11 0
-3 -8 0
-2 -34 0
-2 -33 0
-2 -32 0
-2 -24 0
-2 -23 0
-2 -22 0
-2 -14 0
-2 -12 0
-2 -3 0
-1 -35 0
-1 -33 0
-1 -31 0
-1 -25 0
-1 -23 0
-1 -21 0
-1 -17 0
-1 -15 0
-1 -4 0
1 10 15 25 31 33 0
2 12 13 23 24 32 0
3 8 11 17 27 30 0
4 6 7 19 20 34 0
5 14 18 26 28 35 0
9 16 21 22 29 36 0
