p cnf 49 259
-45 -49 0
-45 -48 0
-44 -49 0
-43 -47 0
-42 -48 0
-41 -49 0
-41 -44 0
-40 -42 0
-39 -46 0
-39 -44 0
-38 -48 0
-38 -45 0
-38 -41 0
-37 -48 0
-37 -42 0
-36 -40 0
-35 -40 0
-35 -36 0
-34 -48 0
-34 -42 0
-34 -37 0
-34 -35 0
-33 -44 0
-33 -39 0
-33 -35 0
-33 -34 0
-32 -49 0
-32 -45 0
-32 -35 0
-32 -34 0
-32 -33 0
-31 -46 0
-31 -36 0
-30 -49 0
-30 -44 0
-30 -41 0
-30 -40 0
-30 -36 0
-30 -35 0
-29 -49 0
-29 -48 0
-29 -44 0
-29 -42 0
-29 -41 0
-29 -37 0
-29 -34 0
-29 -30 0
-28 -47 0
-28 -43 0
-27 -44 0
-27 -39 0
-27 -36 0
-27 -33 0
-27 -31 0
-26 -47 0
-26 -43 0
-26 -28 0
-25 -44 0
-25 -39 0
-25 -37 0
-25 -33 0
-25 -27 0
-24 -49 0
-24 -46 0
-24 -44 0
-24 -41 0
-24 -31 0
-24 -30 0
-24 -29 0
-23 -49 0
-23 -46 0
-23 -45 0
-23 -39 0
-23 -32 0
-22 -41 0
-22 -38 0
-22 -36 0
-22 -31 0
-22 -27 0
-21 -42 0
-21 -41 0
-21 -40 0
-21 -38 0
-21 -22 0
-20 -46 0
-20 -42 0
-20 -40 0
-20 -31 0
-20 -24 0
-20 -21 0
-19 -41 0
-19 -38 0
-19 -37 0
-19 -25 0
-19 -22 0
-19 -21 0
-18 -48 0
-18 -42 0
-18 -37 0
-18 -36 0
-18 -34 0
-18 -31 0
-18 -29 0
-18 -27 0
-18 -22 0
-17 -47 0
-17 -43 0
-17 -28 0
-17 -26 0
-16 -46 0
-16 -35 0
-16 -34 0
-16 -33 0
-16 -32 0
-16 -31 0
-16 -24 0
-16 -20 0
-15 -49 0
-15 -45 0
-15 -42 0
-15 -40 0
-15 -32 0
-15 -23 0
-15 -21 0
-15 -20 0
-14 -46 0
-14 -37 0
-14 -31 0
-14 -25 0
-14 -24 0
-14 -20 0
-14 -19 0
-14 -16 0
-13 -41 0
-13 -38 0
-13 -35 0
-13 -34 0
-13 -33 0
-13 -32 0
-13 -22 0
-13 -21 0
-13 -19 0
-13 -16 0
-12 -44 0
-12 -42 0
-12 -40 0
-12 -39 0
-12 -33 0
-12 -27 0
-12 -25 0
-12 -21 0
-12 -20 0
-12 -15 0
-11 -49 0
-11 -45 0
-11 -36 0
-11 -32 0
-11 -31 0
-11 -27 0
-11 -23 0
-11 -22 0
-11 -18 0
-11 -15 0
-10 -46 0
-10 -40 0
-10 -39 0
-10 -36 0
-10 -35 0
-10 -30 0
-10 -23 0
-9 -48 0
-9 -46 0
-9 -45 0
-9 -38 0
-9 -31 0
-9 -24 0
-9 -20 0
-9 -16 0
-9 -14 0
-8 -47 0
-8 -43 0
-8 -28 0
-8 -26 0
-8 -17 0
-7 -40 0
-7 -37 0
-7 -36 0
-7 -35 0
-7 -30 0
-7 -25 0
-7 -19 0
-7 -14 0
-7 -10 0
-6 -49 0
-6 -45 0
-6 -37 0
-6 -32 0
-6 -25 0
-6 -23 0
-6 -19 0
-6 -15 0
-6 -14 0
-6 -11 0
-6 -7 0
-5 -48 0
-5 -45 0
-5 -40 0
-5 -38 0
-5 -36 0
-5 -35 0
-5 -30 0
-5 -10 0
-5 -9 0
-5 -7 0
-4 -47 0
-4 -43 0
-4 -28 0
-4 -26 0
-4 -17 0
-4 -8 0
-3 -46 0
-3 -41 0
-3 -39 0
-3 -38 0
-3 -23 0
-3 -22 0
-3 -21 0
-3 -19 0
-3 -13 0
-3 -10 0
-2 -48 0
-2 -46 0
-2 -42 0
-2 -39 0
-2 -37 0
-2 -34 0
-2 -29 0
-2 -23 0
-2 -18 0
-2 -10 0
-2 -3 0
-1 -48 0
-1 -45 0
-1 -44 0
-1 -39 0
-1 -38 0
-1 -33 0
-1 -27 0
-1 -25 0
-1 -12 0
-1 -9 0
-1 -5 0
1 4 5 9 38 45 48 0
2 3 10 23 39 43 46 0
6 7 14 17 19 25 37 0
8 12 15 20 21 40 42 0
11 18 22 27 31 36 47 0
13 16 26 32 33 34 35 0
24 28 29 30 41 44 49 0
