p cnf 49 259
-45 -46 0
-44 -48 0
-44 -46 0
-44 -45 0
-43 -48 0
-43 -45 0
-42 -49 0
-41 -46 0
-40 -48 0
-40 -44 0
-38 -42 0
-37 -45 0
-37 -43 0
-37 -40 0
-36 -49 0
-36 -41 0
-35 -47 0
-35 -41 0
-35 -36 0
-34 -49 0
-34 -40 0
-34 -37 0
-34 -36 0
-33 -49 0
-33 -46 0
-33 -45 0
-33 -44 0
-33 -36 0
-33 -34 0
-32 -42 0
-32 -40 0
-32 -38 0
-32 -37 0
-32 -34 0
-31 -47 0
-31 -45 0
-31 -43 0
-31 -37 0
-30 -42 0
-30 -41 0
-30 -38 0
-30 -36 0
-30 -35 0
-30 -32 0
-29 -47 0
-29 -40 0
-29 -37 0
-29 -35 0
-29 -34 0
-29 -32 0
-28 -49 0
-28 -48 0
-28 -44 0
-28 -42 0
-28 -40 0
-27 -49 0
-27 -48 0
-27 -43 0
-27 -36 0
-27 -34 0
-27 -33 0
-26 -39 0
-25 -39 0
-25 -26 0
-24 -48 0
-24 -47 0
-24 -43 0
-24 -35 0
-24 -29 0
-24 -27 0
-23 -45 0
-23 -43 0
-23 -38 0
-23 -37 0
-23 -31 0
-22 -47 0
-22 -46 0
-22 -41 0
-22 -31 0
-21 -39 0
-21 -26 0
-21 -25 0
-20 -47 0
-20 -38 0
-20 -35 0
-20 -29 0
-20 -24 0
-20 -23 0
-19 -39 0
-19 -26 0
-19 -25 0
-19 -21 0
-18 -46 0
-18 -41 0
-18 -38 0
-18 -23 0
-18 -22 0
-18 -20 0
-17 -49 0
-17 -46 0
-17 -42 0
-17 -41 0
-17 -28 0
-17 -22 0
-17 -18 0
-16 -49 0
-16 -38 0
-16 -36 0
-16 -34 0
-16 -33 0
-16 -27 0
-16 -23 0
-16 -20 0
-16 -18 0
-15 -49 0
-15 -47 0
-15 -42 0
-15 -35 0
-15 -29 0
-15 -28 0
-15 -24 0
-15 -20 0
-15 -17 0
-14 -49 0
-14 -47 0
-14 -36 0
-14 -34 0
-14 -33 0
-14 -31 0
-14 -27 0
-14 -22 0
-14 -16 0
-13 -47 0
-13 -46 0
-13 -45 0
-13 -44 0
-13 -35 0
-13 -33 0
-13 -29 0
-13 -24 0
-13 -20 0
-13 -15 0
-12 -39 0
-12 -26 0
-12 -25 0
-12 -21 0
-12 -19 0
-11 -48 0
-11 -43 0
-11 -42 0
-11 -38 0
-11 -32 0
-11 -30 0
-11 -27 0
-11 -24 0
-10 -49 0
-10 -45 0
-10 -43 0
-10 -42 0
-10 -37 0
-10 -31 0
-10 -28 0
-10 -23 0
-10 -17 0
-10 -15 0
-9 -48 0
-9 -47 0
-9 -44 0
-9 -40 0
-9 -31 0
-9 -28 0
-9 -22 0
-9 -14 0
-8 -39 0
-8 -26 0
-8 -25 0
-8 -21 0
-8 -19 0
-8 -12 0
-7 -48 0
-7 -44 0
-7 -41 0
-7 -40 0
-7 -36 0
-7 -35 0
-7 -30 0
-7 -28 0
-7 -9 0
-6 -46 0
-6 -41 0
-6 -40 0
-6 -37 0
-6 -34 0
-6 -32 0
-6 -29 0
-6 -22 0
-6 -18 0
-6 -17 0
-5 -46 0
-5 -45 0
-5 -44 0
-5 -42 0
-5 -38 0
-5 -33 0
-5 -32 0
-5 -30 0
-5 -13 0
-5 -11 0
-4 -48 0
-4 -46 0
-4 -43 0
-4 -41 0
-4 -27 0
-4 -24 0
-4 -22 0
-4 -18 0
-4 -17 0
-4 -11 0
-4 -6 0
-3 -48 0
-3 -44 0
-3 -40 0
-3 -38 0
-3 -28 0
-3 -23 0
-3 -20 0
-3 -18 0
-3 -16 0
-3 -9 0
-3 -7 0
-2 -45 0
-2 -43 0
-2 -41 0
-2 -37 0
-2 -36 0
-2 -35 0
-2 -31 0
-2 -30 0
-2 -23 0
-2 -10 0
-2 -7 0
-1 -47 0
-1 -42 0
-1 -38 0
-1 -32 0
-1 -31 0
-1 -30 0
-1 -22 0
-1 -14 0
-1 -11 0
-1 -9 0
-1 -5 0
1 9 14 21 22 31 47 0
2 7 26 30 35 36 41 0
3 16 18 19 20 23 38 0
4 11 24 25 27 43 48 0
5 12 13 33 44 45 46 0
6 29 32 34 37 39 40 0
8 10 15 17 28 42 49 0
