p cnf 100 820
-97 -99 0
-96 -98 0
-95 -98 0
-95 -96 0
-94 -99 0
-92 -100 0
-91 -98 0
-91 -96 0
-91 -95 0
-90 -99 0
-90 -97 0
-90 -93 0
-89 -94 0
-89 -93 0
-89 -90 0
-88 -99 0
-88 -94 0
-87 -93 0
-87 -90 0
-87 -89 0
-85 -97 0
-85 -86 0
-84 -86 0
-84 -85 0
-83 -100 0
-83 -86 0
-83 -85 0
-83 -84 0
-82 -97 0
-82 -93 0
-82 -85 0
-81 -86 0
-81 -85 0
-81 -84 0
-81 -83 0
-80 -100 0
-80 -93 0
-80 -92 0
-80 -90 0
-80 -89 0
-80 -87 0
-79 -100 0
-79 -92 0
-79 -86 0
-79 -80 0
-78 -94 0
-78 -89 0
-77 -87 0
-77 -86 0
-77 -79 0
-76 -93 0
-76 -86 0
-76 -82 0
-76 -79 0
-76 -77 0
-75 -100 0
-75 -92 0
-75 -81 0
-75 -80 0
-75 -79 0
-74 -93 0
-74 -82 0
-74 -78 0
-74 -76 0
-73 -98 0
-73 -96 0
-73 -95 0
-73 -91 0
-72 -98 0
-72 -96 0
-72 -95 0
-72 -91 0
-72 -73 0
-71 -84 0
-70 -99 0
-70 -97 0
-70 -90 0
-70 -84 0
-70 -71 0
-69 -99 0
-69 -97 0
-69 -90 0
-69 -70 0
-68 -97 0
-68 -87 0
-68 -85 0
-68 -82 0
-68 -77 0
-67 -100 0
-67 -99 0
-67 -94 0
-67 -92 0
-67 -88 0
-67 -80 0
-67 -79 0
-67 -75 0
-66 -69 0
-65 -100 0
-65 -83 0
-65 -71 0
-64 -71 0
-64 -69 0
-64 -66 0
-64 -65 0
-63 -98 0
-63 -96 0
-63 -95 0
-63 -91 0
-63 -73 0
-63 -72 0
-62 -93 0
-62 -90 0
-62 -89 0
-62 -87 0
-62 -80 0
-62 -71 0
-62 -65 0
-62 -64 0
-61 -88 0
-61 -69 0
-61 -66 0
-61 -64 0
-60 -92 0
-60 -71 0
-60 -65 0
-60 -64 0
-60 -62 0
-59 -100 0
-59 -99 0
-59 -97 0
-59 -90 0
-59 -83 0
-59 -70 0
-59 -69 0
-59 -65 0
-58 -87 0
-58 -78 0
-58 -77 0
-58 -74 0
-58 -68 0
-57 -99 0
-57 -97 0
-57 -90 0
-57 -81 0
-57 -75 0
-57 -70 0
-57 -69 0
-57 -59 0
-56 -93 0
-56 -90 0
-56 -89 0
-56 -87 0
-56 -86 0
-56 -85 0
-56 -84 0
-56 -83 0
-56 -81 0
-56 -80 0
-56 -62 0
-55 -94 0
-55 -89 0
-55 -81 0
-55 -78 0
-55 -75 0
-55 -57 0
-54 -92 0
-54 -88 0
-54 -61 0
-54 -60 0
-53 -93 0
-53 -90 0
-53 -89 0
-53 -87 0
-53 -80 0
-53 -66 0
-53 -62 0
-53 -56 0
-52 -86 0
-52 -79 0
-52 -77 0
-52 -76 0
-52 -66 0
-52 -53 0
-51 -87 0
-51 -81 0
-51 -77 0
-51 -75 0
-51 -68 0
-51 -58 0
-51 -57 0
-51 -55 0
-50 -87 0
-50 -84 0
-50 -77 0
-50 -71 0
-50 -70 0
-50 -68 0
-50 -58 0
-50 -51 0
-49 -93 0
-49 -82 0
-49 -76 0
-49 -74 0
-49 -69 0
-49 -66 0
-49 -64 0
-49 -61 0
-48 -78 0
-48 -74 0
-48 -66 0
-48 -58 0
-48 -53 0
-48 -52 0
-47 -94 0
-47 -89 0
-47 -78 0
-47 -69 0
-47 -66 0
-47 -64 0
-47 -61 0
-47 -55 0
-47 -49 0
-46 -93 0
-46 -90 0
-46 -89 0
-46 -88 0
-46 -87 0
-46 -80 0
-46 -62 0
-46 -61 0
-46 -56 0
-46 -54 0
-46 -53 0
-45 -100 0
-45 -83 0
-45 -66 0
-45 -65 0
-45 -59 0
-45 -53 0
-45 -52 0
-45 -48 0
-44 -99 0
-44 -97 0
-44 -90 0
-44 -78 0
-44 -74 0
-44 -70 0
-44 -69 0
-44 -59 0
-44 -58 0
-44 -57 0
-44 -48 0
-43 -78 0
-43 -74 0
-43 -71 0
-43 -65 0
-43 -64 0
-43 -62 0
-43 -60 0
-43 -58 0
-43 -48 0
-43 -44 0
-42 -86 0
-42 -85 0
-42 -84 0
-42 -83 0
-42 -81 0
-42 -69 0
-42 -66 0
-42 -64 0
-42 -61 0
-42 -56 0
-42 -49 0
-42 -47 0
-41 -97 0
-41 -88 0
-41 -85 0
-41 -82 0
-41 -68 0
-41 -61 0
-41 -54 0
-41 -46 0
-40 -100 0
-40 -93 0
-40 -83 0
-40 -82 0
-40 -76 0
-40 -74 0
-40 -65 0
-40 -59 0
-40 -49 0
-40 -45 0
-39 -94 0
-39 -92 0
-39 -89 0
-39 -78 0
-39 -60 0
-39 -55 0
-39 -54 0
-39 -47 0
-38 -81 0
-38 -75 0
-38 -71 0
-38 -65 0
-38 -64 0
-38 -62 0
-38 -60 0
-38 -57 0
-38 -55 0
-38 -51 0
-38 -43 0
-37 -94 0
-37 -89 0
-37 -86 0
-37 -79 0
-37 -78 0
-37 -77 0
-37 -76 0
-37 -55 0
-37 -52 0
-37 -47 0
-37 -39 0
-36 -98 0
-36 -96 0
-36 -95 0
-36 -91 0
-36 -73 0
-36 -72 0
-36 -63 0
-35 -93 0
-35 -92 0
-35 -82 0
-35 -76 0
-35 -74 0
-35 -60 0
-35 -54 0
-35 -49 0
-35 -40 0
-35 -39 0
-34 -88 0
-34 -86 0
-34 -79 0
-34 -77 0
-34 -76 0
-34 -61 0
-34 -54 0
-34 -52 0
-34 -46 0
-34 -41 0
-34 -37 0
-33 -87 0
-33 -77 0
-33 -69 0
-33 -68 0
-33 -66 0
-33 -64 0
-33 -61 0
-33 -58 0
-33 -51 0
-33 -50 0
-33 -49 0
-33 -47 0
-33 -42 0
-32 -84 0
-32 -71 0
-32 -70 0
-32 -66 0
-32 -53 0
-32 -52 0
-32 -50 0
-32 -48 0
-32 -45 0
-31 -99 0
-31 -97 0
-31 -92 0
-31 -90 0
-31 -70 0
-31 -69 0
-31 -60 0
-31 -59 0
-31 -57 0
-31 -54 0
-31 -44 0
-31 -39 0
-31 -35 0
-30 -88 0
-30 -78 0
-30 -74 0
-30 -61 0
-30 -58 0
-30 -54 0
-30 -48 0
-30 -46 0
-30 -44 0
-30 -43 0
-30 -41 0
-30 -34 0
-29 -92 0
-29 -86 0
-29 -85 0
-29 -84 0
-29 -83 0
-29 -81 0
-29 -60 0
-29 -56 0
-29 -54 0
-29 -42 0
-29 -39 0
-29 -35 0
-29 -31 0
-28 -100 0
-28 -94 0
-28 -89 0
-28 -83 0
-28 -78 0
-28 -65 0
-28 -59 0
-28 -55 0
-28 -47 0
-28 -45 0
-28 -40 0
-28 -39 0
-28 -37 0
-27 -81 0
-27 -75 0
-27 -66 0
-27 -57 0
-27 -55 0
-27 -53 0
-27 -52 0
-27 -51 0
-27 -48 0
-27 -45 0
-27 -38 0
-27 -32 0
-26 -86 0
-26 -79 0
-26 -77 0
-26 -76 0
-26 -71 0
-26 -65 0
-26 -64 0
-26 -62 0
-26 -60 0
-26 -52 0
-26 -43 0
-26 -38 0
-26 -37 0
-26 -34 0
-25 -99 0
-25 -94 0
-25 -88 0
-25 -87 0
-25 -77 0
-25 -68 0
-25 -67 0
-25 -58 0
-25 -51 0
-25 -50 0
-25 -33 0
-24 -98 0
-24 -96 0
-24 -95 0
-24 -91 0
-24 -73 0
-24 -72 0
-24 -63 0
-24 -36 0
-23 -88 0
-23 -81 0
-23 -75 0
-23 -61 0
-23 -57 0
-23 -55 0
-23 -54 0
-23 -51 0
-23 -46 0
-23 -41 0
-23 -38 0
-23 -34 0
-23 -30 0
-23 -27 0
-22 -99 0
-22 -94 0
-22 -88 0
-22 -71 0
-22 -67 0
-22 -65 0
-22 -64 0
-22 -62 0
-22 -60 0
-22 -43 0
-22 -38 0
-22 -26 0
-22 -25 0
-21 -99 0
-21 -94 0
-21 -93 0
-21 -88 0
-21 -82 0
-21 -76 0
-21 -74 0
-21 -67 0
-21 -49 0
-21 -40 0
-21 -35 0
-21 -25 0
-21 -22 0
-20 -97 0
-20 -94 0
-20 -89 0
-20 -85 0
-20 -82 0
-20 -78 0
-20 -68 0
-20 -55 0
-20 -47 0
-20 -41 0
-20 -39 0
-20 -37 0
-20 -28 0
-19 -98 0
-19 -96 0
-19 -95 0
-19 -91 0
-19 -73 0
-19 -72 0
-19 -63 0
-19 -36 0
-19 -24 0
-18 -88 0
-18 -84 0
-18 -71 0
-18 -70 0
-18 -61 0
-18 -54 0
-18 -50 0
-18 -46 0
-18 -41 0
-18 -34 0
-18 -32 0
-18 -30 0
-18 -23 0
-17 -92 0
-17 -87 0
-17 -77 0
-17 -68 0
-17 -60 0
-17 -58 0
-17 -54 0
-17 -51 0
-17 -50 0
-17 -39 0
-17 -35 0
-17 -33 0
-17 -31 0
-17 -29 0
-17 -25 0
-16 -99 0
-16 -94 0
-16 -88 0
-16 -67 0
-16 -66 0
-16 -53 0
-16 -52 0
-16 -48 0
-16 -45 0
-16 -32 0
-16 -27 0
-16 -25 0
-16 -22 0
-16 -21 0
-15 -86 0
-15 -85 0
-15 -84 0
-15 -83 0
-15 -81 0
-15 -78 0
-15 -74 0
-15 -58 0
-15 -56 0
-15 -48 0
-15 -44 0
-15 -43 0
-15 -42 0
-15 -30 0
-15 -29 0
-14 -100 0
-14 -88 0
-14 -83 0
-14 -65 0
-14 -61 0
-14 -59 0
-14 -54 0
-14 -46 0
-14 -45 0
-14 -41 0
-14 -40 0
-14 -34 0
-14 -30 0
-14 -28 0
-14 -23 0
-14 -18 0
-13 -100 0
-13 -92 0
-13 -84 0
-13 -80 0
-13 -79 0
-13 -75 0
-13 -71 0
-13 -70 0
-13 -67 0
-13 -50 0
-13 -32 0
-13 -18 0
-12 -97 0
-12 -85 0
-12 -82 0
-12 -68 0
-12 -66 0
-12 -53 0
-12 -52 0
-12 -48 0
-12 -45 0
-12 -41 0
-12 -32 0
-12 -27 0
-12 -20 0
-12 -16 0
-11 -94 0
-11 -89 0
-11 -84 0
-11 -78 0
-11 -71 0
-11 -70 0
-11 -55 0
-11 -50 0
-11 -47 0
-11 -39 0
-11 -37 0
-11 -32 0
-11 -28 0
-11 -20 0
-11 -18 0
-11 -13 0
-10 -100 0
-10 -87 0
-10 -83 0
-10 -77 0
-10 -68 0
-10 -65 0
-10 -59 0
-10 -58 0
-10 -51 0
-10 -50 0
-10 -45 0
-10 -40 0
-10 -33 0
-10 -28 0
-10 -25 0
-10 -17 0
-10 -14 0
-9 -99 0
-9 -97 0
-9 -90 0
-9 -86 0
-9 -79 0
-9 -77 0
-9 -76 0
-9 -70 0
-9 -69 0
-9 -59 0
-9 -57 0
-9 -52 0
-9 -44 0
-9 -37 0
-9 -34 0
-9 -31 0
-9 -26 0
-8 -93 0
-8 -82 0
-8 -81 0
-8 -76 0
-8 -75 0
-8 -74 0
-8 -57 0
-8 -55 0
-8 -51 0
-8 -49 0
-8 -40 0
-8 -38 0
-8 -35 0
-8 -27 0
-8 -23 0
-8 -21 0
-7 -93 0
-7 -84 0
-7 -82 0
-7 -76 0
-7 -74 0
-7 -71 0
-7 -70 0
-7 -50 0
-7 -49 0
-7 -40 0
-7 -35 0
-7 -32 0
-7 -21 0
-7 -18 0
-7 -13 0
-7 -11 0
-7 -8 0
-6 -100 0
-6 -92 0
-6 -80 0
-6 -79 0
-6 -75 0
-6 -69 0
-6 -67 0
-6 -66 0
-6 -64 0
-6 -61 0
-6 -49 0
-6 -47 0
-6 -42 0
-6 -33 0
-6 -13 0
-5 -100 0
-5 -92 0
-5 -80 0
-5 -79 0
-5 -78 0
-5 -75 0
-5 -74 0
-5 -67 0
-5 -58 0
-5 -48 0
-5 -44 0
-5 -43 0
-5 -30 0
-5 -15 0
-5 -13 0
-5 -6 0
-4 -99 0
-4 -94 0
-4 -88 0
-4 -86 0
-4 -85 0
-4 -84 0
-4 -83 0
-4 -81 0
-4 -67 0
-4 -56 0
-4 -42 0
-4 -29 0
-4 -25 0
-4 -22 0
-4 -21 0
-4 -16 0
-4 -15 0
-3 -97 0
-3 -85 0
-3 -82 0
-3 -71 0
-3 -68 0
-3 -65 0
-3 -64 0
-3 -62 0
-3 -60 0
-3 -43 0
-3 -41 0
-3 -38 0
-3 -26 0
-3 -22 0
-3 -20 0
-3 -12 0
-2 -100 0
-2 -97 0
-2 -92 0
-2 -85 0
-2 -82 0
-2 -80 0
-2 -79 0
-2 -75 0
-2 -68 0
-2 -67 0
-2 -41 0
-2 -20 0
-2 -13 0
-2 -12 0
-2 -6 0
-2 -5 0
-2 -3 0
-1 -92 0
-1 -66 0
-1 -60 0
-1 -54 0
-1 -53 0
-1 -52 0
-1 -48 0
-1 -45 0
-1 -39 0
-1 -35 0
-1 -32 0
-1 -31 0
-1 -29 0
-1 -27 0
-1 -17 0
-1 -16 0
-1 -12 0
1 17 29 31 35 39 54 60 92 96 0
2 3 12 20 41 68 82 85 97 98 0
4 16 21 22 25 63 67 88 94 99 0
5 15 30 43 44 48 58 74 78 95 0
6 33 42 47 49 61 64 66 69 72 0
7 11 13 18 24 32 50 70 71 84 0
8 23 27 38 51 55 57 73 75 81 0
9 26 34 36 37 52 76 77 79 86 0
10 14 28 40 45 59 65 83 91 100 0
19 46 53 56 62 80 87 89 90 93 0
