p cnf 36 156
-33 -35 0
-30 -34 0
-30 -31 0
-29 -33 0
-28 -36 0
-28 -34 0
-28 -30 0
-27 -31 0
-26 -32 0
-25 -36 0
-25 -31 0
-25 -28 0
-25 -27 0
-24 -34 0
-24 -30 0
-24 -28 0
-24 -27 0
-23 -35 0
-23 -34 0
-23 -30 0
-23 -28 0
-23 -24 0
-22 -36 0
-22 -27 0
-22 -24 0
-21 -36 0
-21 -33 0
-21 -29 0
-21 -22 0
-20 -36 0
-20 -35 0
-20 -33 0
-20 -28 0
-20 -25 0
-19 -35 0
-19 -33 0
-19 -27 0
-19 -24 0
-19 -22 0
-19 -20 0
-18 -29 0
-18 -27 0
-18 -24 0
-18 -22 0
-18 -19 0
-17 -33 0
-17 -31 0
-17 -29 0
-17 -27 0
-17 -25 0
-17 -21 0
-16 -36 0
-16 -34 0
-16 -22 0
-16 -21 0
-15 -34 0
-15 -31 0
-15 -27 0
-15 -25 0
-15 -17 0
-15 -16 0
-14 -35 0
-14 -29 0
-14 -23 0
-14 -18 0
-13 -36 0
-13 -29 0
-13 -28 0
-13 -25 0
-13 -20 0
-13 -18 0
-13 -14 0
-12 -35 0
-12 -34 0
-12 -33 0
-12 -20 0
-12 -19 0
-12 -16 0
-12 -15 0
-11 -32 0
-11 -26 0
-10 -31 0
-10 -30 0
-10 -29 0
-10 -18 0
-10 -14 0
-10 -13 0
-9 -35 0
-9 -31 0
-9 -27 0
-9 -25 0
-9 -23 0
-9 -17 0
-9 -15 0
-9 -14 0
-8 -32 0
-8 -26 0
-8 -11 0
-7 -32 0
-7 -26 0
-7 -11 0
-7 -8 0
-6 -34 0
-6 -29 0
-6 -18 0
-6 -16 0
-6 -15 0
-6 -14 0
-6 -13 0
-6 -12 0
-6 -10 0
-5 -32 0
-5 -26 0
-5 -11 0
-5 -8 0
-5 -7 0
-4 -35 0
-4 -33 0
-4 -31 0
-4 -30 0
-4 -20 0
-4 -19 0
-4 -12 0
-4 -10 0
-3 -36 0
-3 -31 0
-3 -30 0
-3 -22 0
-3 -21 0
-3 -16 0
-3 -10 0
-3 -4 0
-2 -36 0
-2 -35 0
-2 -23 0
-2 -22 0
-2 -21 0
-2 -16 0
-2 -14 0
-2 -9 0
-2 -3 0
-1 -34 0
-1 -33 0
-1 -30 0
-1 -29 0
-1 -28 0
-1 -24 0
-1 -23 0
-1 -21 0
-1 -17 0
1 11 17 21 29 33 0
2 8 9 14 23 35 0
3 4 10 26 30 31 0
5 6 12 15 16 34 0
7 18 19 22 24 27 0
13 20 25 28 32 36 0
