p cnf 36 156
-35 -36 0
-32 -34 0
-30 -33 0
-29 -35 0
-29 -33 0
-28 -32 0
-27 -36 0
-27 -28 0
-26 -32 0
-26 -30 0
-26 -28 0
-25 -34 0
-24 -35 0
-24 -29 0
-24 -28 0
-24 -27 0
-23 -31 0
-22 -32 0
-22 -28 0
-22 -26 0
-22 -25 0
-21 -31 0
-21 -23 0
-20 -31 0
-20 -23 0
-20 -21 0
-19 -35 0
-19 -30 0
-19 -29 0
-19 -26 0
-19 -24 0
-18 -33 0
-18 -32 0
-18 -29 0
-18 -28 0
-18 -26 0
-18 -22 0
-17 -34 0
-17 -30 0
-17 -26 0
-17 -25 0
-17 -19 0
-16 -33 0
-16 -30 0
-16 -28 0
-16 -27 0
-16 -24 0
-15 -35 0
-15 -29 0
-15 -25 0
-15 -24 0
-15 -22 0
-15 -19 0
-14 -36 0
-14 -27 0
-14 -25 0
-14 -22 0
-14 -15 0
-13 -36 0
-13 -33 0
-13 -29 0
-13 -27 0
-13 -18 0
-13 -14 0
-12 -35 0
-12 -34 0
-12 -32 0
-12 -29 0
-12 -24 0
-12 -19 0
-12 -15 0
-11 -33 0
-11 -30 0
-11 -25 0
-11 -22 0
-11 -16 0
-11 -15 0
-11 -14 0
-10 -34 0
-10 -28 0
-10 -27 0
-10 -25 0
-10 -24 0
-10 -17 0
-10 -16 0
-9 -34 0
-9 -33 0
-9 -29 0
-9 -25 0
-9 -18 0
-9 -17 0
-9 -13 0
-9 -10 0
-8 -34 0
-8 -33 0
-8 -32 0
-8 -30 0
-8 -16 0
-8 -12 0
-8 -11 0
-7 -36 0
-7 -34 0
-7 -32 0
-7 -27 0
-7 -14 0
-7 -13 0
-7 -12 0
-7 -8 0
-6 -36 0
-6 -35 0
-6 -32 0
-6 -28 0
-6 -26 0
-6 -22 0
-6 -18 0
-5 -36 0
-5 -30 0
-5 -27 0
-5 -26 0
-5 -19 0
-5 -17 0
-5 -14 0
-5 -13 0
-5 -7 0
-4 -31 0
-4 -23 0
-4 -21 0
-4 -20 0
-3 -31 0
-3 -23 0
-3 -21 0
-3 -20 0
-3 -4 0
-2 -36 0
-2 -35 0
-2 -34 0
-2 -25 0
-2 -17 0
-2 -10 0
-2 -9 0
-2 -6 0
-1 -36 0
-1 -35 0
-1 -33 0
-1 -30 0
-1 -16 0
-1 -11 0
-1 -8 0
-1 -6 0
-1 -2 0
1 2 6 31 35 36 0
3 5 17 19 26 30 0
4 7 8 12 32 34 0
9 13 18 21 29 33 0
10 16 20 24 27 28 0
11 14 15 22 23 25 0
