p cnf 36 156
-34 -36 0
-32 -33 0
-31 -35 0
-30 -35 0
-30 -31 0
-29 -34 0
-29 -33 0
-29 -32 0
-28 -35 0
-28 -31 0
-28 -30 0
-27 -36 0
-25 -36 0
-25 -27 0
-25 -26 0
-24 -33 0
-24 -32 0
-24 -29 0
-24 -26 0
-23 -33 0
-22 -33 0
-22 -27 0
-22 -23 0
-21 -34 0
-21 -29 0
-21 -26 0
-21 -25 0
-20 -26 0
-20 -24 0
-20 -23 0
-19 -34 0
-19 -29 0
-19 -23 0
-19 -21 0
-19 -20 0
-18 -36 0
-18 -27 0
-18 -25 0
-18 -23 0
-18 -20 0
-18 -19 0
-17 -32 0
-17 -23 0
-17 -20 0
-17 -19 0
-17 -18 0
-16 -34 0
-16 -29 0
-16 -27 0
-16 -22 0
-16 -21 0
-16 -19 0
-15 -36 0
-15 -33 0
-15 -32 0
-15 -29 0
-15 -27 0
-15 -25 0
-15 -24 0
-15 -18 0
-14 -36 0
-14 -34 0
-13 -27 0
-13 -26 0
-13 -24 0
-13 -22 0
-13 -20 0
-13 -16 0
-12 -36 0
-12 -34 0
-12 -33 0
-12 -23 0
-12 -22 0
-12 -14 0
-11 -26 0
-11 -25 0
-11 -21 0
-11 -14 0
-10 -32 0
-10 -27 0
-10 -22 0
-10 -17 0
-10 -16 0
-10 -13 0
-9 -33 0
-9 -32 0
-9 -29 0
-9 -24 0
-9 -15 0
-9 -14 0
-9 -11 0
-8 -35 0
-8 -31 0
-8 -30 0
-8 -28 0
-7 -36 0
-7 -34 0
-7 -26 0
-7 -24 0
-7 -20 0
-7 -14 0
-7 -13 0
-7 -12 0
-6 -32 0
-6 -26 0
-6 -25 0
-6 -21 0
-6 -17 0
-6 -11 0
-6 -10 0
-5 -23 0
-5 -20 0
-5 -19 0
-5 -18 0
-5 -17 0
-5 -14 0
-5 -11 0
-5 -9 0
-4 -35 0
-4 -31 0
-4 -30 0
-4 -28 0
-4 -8 0
-3 -27 0
-3 -22 0
-3 -16 0
-3 -14 0
-3 -13 0
-3 -11 0
-3 -10 0
-3 -9 0
-3 -5 0
-2 -33 0
-2 -26 0
-2 -25 0
-2 -23 0
-2 -22 0
-2 -21 0
-2 -12 0
-2 -11 0
-2 -6 0
-1 -36 0
-1 -34 0
-1 -32 0
-1 -17 0
-1 -14 0
-1 -12 0
-1 -10 0
-1 -7 0
-1 -6 0
1 6 10 17 30 32 0
2 12 22 23 28 33 0
3 5 9 11 14 35 0
4 15 18 25 27 36 0
7 13 20 24 26 31 0
8 16 19 21 29 34 0
