p cnf 100 820
-96 -100 0
-94 -97 0
-93 -99 0
-92 -98 0
-92 -97 0
-91 -95 0
-91 -94 0
-90 -97 0
-90 -94 0
-89 -97 0
-89 -92 0
-88 -96 0
-87 -98 0
-87 -92 0
-87 -88 0
-85 -95 0
-85 -91 0
-85 -88 0
-85 -87 0
-84 -98 0
-84 -92 0
-84 -87 0
-83 -100 0
-83 -96 0
-82 -98 0
-82 -95 0
-82 -92 0
-82 -87 0
-82 -84 0
-81 -84 0
-80 -88 0
-80 -87 0
-80 -85 0
-80 -81 0
-79 -100 0
-78 -99 0
-78 -93 0
-77 -96 0
-77 -95 0
-77 -88 0
-77 -82 0
-76 -100 0
-76 -90 0
-76 -79 0
-75 -96 0
-75 -88 0
-75 -84 0
-75 -81 0
-75 -77 0
-74 -90 0
-74 -83 0
-74 -76 0
-73 -100 0
-73 -97 0
-73 -96 0
-73 -94 0
-73 -90 0
-73 -83 0
-72 -97 0
-72 -95 0
-72 -94 0
-72 -90 0
-72 -82 0
-72 -77 0
-72 -73 0
-71 -94 0
-71 -91 0
-71 -83 0
-71 -74 0
-70 -100 0
-70 -97 0
-70 -92 0
-70 -89 0
-70 -79 0
-70 -76 0
-69 -98 0
-69 -96 0
-69 -88 0
-69 -77 0
-69 -75 0
-68 -100 0
-68 -88 0
-68 -87 0
-68 -85 0
-68 -80 0
-68 -79 0
-68 -76 0
-68 -70 0
-67 -100 0
-67 -96 0
-67 -95 0
-67 -91 0
-67 -85 0
-67 -83 0
-67 -73 0
-66 -98 0
-66 -92 0
-66 -87 0
-66 -84 0
-66 -82 0
-66 -79 0
-65 -98 0
-65 -83 0
-65 -74 0
-65 -71 0
-65 -69 0
-64 -96 0
-64 -90 0
-64 -88 0
-64 -77 0
-64 -76 0
-64 -75 0
-64 -74 0
-64 -69 0
-63 -98 0
-63 -86 0
-63 -69 0
-63 -65 0
-62 -99 0
-62 -93 0
-62 -78 0
-61 -95 0
-61 -91 0
-61 -90 0
-61 -85 0
-61 -76 0
-61 -74 0
-61 -67 0
-61 -64 0
-60 -99 0
-60 -93 0
-60 -78 0
-60 -62 0
-59 -94 0
-59 -91 0
-59 -89 0
-59 -71 0
-58 -86 0
-58 -84 0
-58 -81 0
-58 -75 0
-58 -63 0
-57 -98 0
-57 -94 0
-57 -92 0
-57 -91 0
-57 -87 0
-57 -84 0
-57 -82 0
-57 -71 0
-57 -66 0
-57 -59 0
-56 -97 0
-56 -92 0
-56 -89 0
-56 -86 0
-56 -70 0
-56 -63 0
-56 -58 0
-55 -98 0
-55 -89 0
-55 -69 0
-55 -65 0
-55 -63 0
-55 -59 0
-54 -95 0
-54 -91 0
-54 -86 0
-54 -85 0
-54 -67 0
-54 -61 0
-53 -98 0
-53 -95 0
-53 -91 0
-53 -85 0
-53 -69 0
-53 -67 0
-53 -65 0
-53 -63 0
-53 -61 0
-53 -55 0
-53 -54 0
-52 -99 0
-52 -93 0
-52 -78 0
-52 -62 0
-52 -60 0
-51 -90 0
-51 -81 0
-51 -80 0
-51 -76 0
-51 -74 0
-51 -64 0
-51 -61 0
-50 -95 0
-50 -89 0
-50 -82 0
-50 -77 0
-50 -72 0
-50 -59 0
-50 -55 0
-49 -97 0
-49 -92 0
-49 -89 0
-49 -83 0
-49 -74 0
-49 -71 0
-49 -70 0
-49 -65 0
-49 -56 0
-48 -100 0
-48 -98 0
-48 -79 0
-48 -76 0
-48 -70 0
-48 -69 0
-48 -68 0
-48 -65 0
-48 -63 0
-48 -55 0
-48 -53 0
-47 -97 0
-47 -94 0
-47 -90 0
-47 -86 0
-47 -73 0
-47 -72 0
-47 -54 0
-46 -100 0
-46 -94 0
-46 -91 0
-46 -79 0
-46 -76 0
-46 -71 0
-46 -70 0
-46 -68 0
-46 -59 0
-46 -57 0
-46 -48 0
-45 -86 0
-45 -81 0
-45 -80 0
-45 -54 0
-45 -51 0
-45 -47 0
-44 -95 0
-44 -86 0
-44 -82 0
-44 -77 0
-44 -72 0
-44 -63 0
-44 -58 0
-44 -56 0
-44 -50 0
-43 -95 0
-43 -91 0
-43 -85 0
-43 -79 0
-43 -67 0
-43 -66 0
-43 -61 0
-43 -54 0
-43 -53 0
-42 -97 0
-42 -92 0
-42 -89 0
-42 -81 0
-42 -80 0
-42 -70 0
-42 -56 0
-42 -51 0
-42 -49 0
-42 -45 0
-41 -88 0
-41 -87 0
-41 -85 0
-41 -83 0
-41 -80 0
-41 -74 0
-41 -71 0
-41 -68 0
-41 -65 0
-41 -49 0
-40 -97 0
-40 -95 0
-40 -92 0
-40 -91 0
-40 -89 0
-40 -85 0
-40 -70 0
-40 -67 0
-40 -61 0
-40 -56 0
-40 -54 0
-40 -53 0
-40 -49 0
-40 -43 0
-40 -42 0
-39 -90 0
-39 -89 0
-39 -76 0
-39 -74 0
-39 -64 0
-39 -61 0
-39 -59 0
-39 -55 0
-39 -51 0
-39 -50 0
-38 -83 0
-38 -79 0
-38 -74 0
-38 -71 0
-38 -66 0
-38 -65 0
-38 -49 0
-38 -43 0
-38 -41 0
-37 -100 0
-37 -98 0
-37 -96 0
-37 -92 0
-37 -87 0
-37 -84 0
-37 -83 0
-37 -82 0
-37 -73 0
-37 -67 0
-37 -66 0
-37 -57 0
-36 -95 0
-36 -83 0
-36 -82 0
-36 -77 0
-36 -74 0
-36 -72 0
-36 -71 0
-36 -65 0
-36 -50 0
-36 -49 0
-36 -44 0
-36 -41 0
-36 -38 0
-35 -90 0
-35 -86 0
-35 -76 0
-35 -74 0
-35 -64 0
-35 -63 0
-35 -61 0
-35 -58 0
-35 -56 0
-35 -51 0
-35 -44 0
-35 -39 0
-34 -89 0
-34 -88 0
-34 -87 0
-34 -85 0
-34 -80 0
-34 -68 0
-34 -59 0
-34 -55 0
-34 -50 0
-34 -41 0
-34 -39 0
-33 -98 0
-33 -92 0
-33 -90 0
-33 -87 0
-33 -84 0
-33 -82 0
-33 -76 0
-33 -74 0
-33 -66 0
-33 -64 0
-33 -61 0
-33 -57 0
-33 -51 0
-33 -39 0
-33 -37 0
-33 -35 0
-32 -86 0
-32 -79 0
-32 -66 0
-32 -63 0
-32 -58 0
-32 -56 0
-32 -44 0
-32 -43 0
-32 -38 0
-32 -35 0
-31 -94 0
-31 -91 0
-31 -81 0
-31 -80 0
-31 -71 0
-31 -59 0
-31 -57 0
-31 -51 0
-31 -46 0
-31 -45 0
-31 -42 0
-30 -95 0
-30 -91 0
-30 -85 0
-30 -84 0
-30 -81 0
-30 -75 0
-30 -67 0
-30 -61 0
-30 -58 0
-30 -54 0
-30 -53 0
-30 -43 0
-30 -40 0
-29 -100 0
-29 -96 0
-29 -89 0
-29 -83 0
-29 -73 0
-29 -67 0
-29 -59 0
-29 -55 0
-29 -50 0
-29 -39 0
-29 -37 0
-29 -34 0
-28 -99 0
-28 -93 0
-28 -78 0
-28 -62 0
-28 -60 0
-28 -52 0
-27 -89 0
-27 -79 0
-27 -66 0
-27 -59 0
-27 -55 0
-27 -50 0
-27 -43 0
-27 -39 0
-27 -38 0
-27 -34 0
-27 -32 0
-27 -29 0
-26 -98 0
-26 -81 0
-26 -80 0
-26 -69 0
-26 -65 0
-26 -63 0
-26 -55 0
-26 -53 0
-26 -51 0
-26 -48 0
-26 -45 0
-26 -42 0
-26 -31 0
-25 -99 0
-25 -93 0
-25 -78 0
-25 -62 0
-25 -60 0
-25 -52 0
-25 -28 0
-24 -100 0
-24 -86 0
-24 -79 0
-24 -76 0
-24 -70 0
-24 -68 0
-24 -54 0
-24 -48 0
-24 -47 0
-24 -46 0
-24 -45 0
-23 -97 0
-23 -94 0
-23 -90 0
-23 -88 0
-23 -87 0
-23 -85 0
-23 -80 0
-23 -73 0
-23 -72 0
-23 -68 0
-23 -47 0
-23 -41 0
-23 -34 0
-22 -100 0
-22 -96 0
-22 -86 0
-22 -83 0
-22 -73 0
-22 -67 0
-22 -63 0
-22 -58 0
-22 -56 0
-22 -44 0
-22 -37 0
-22 -35 0
-22 -32 0
-22 -29 0
-21 -96 0
-21 -88 0
-21 -79 0
-21 -77 0
-21 -75 0
-21 -69 0
-21 -66 0
-21 -64 0
-21 -43 0
-21 -38 0
-21 -32 0
-21 -27 0
-20 -97 0
-20 -94 0
-20 -90 0
-20 -79 0
-20 -73 0
-20 -72 0
-20 -66 0
-20 -47 0
-20 -43 0
-20 -38 0
-20 -32 0
-20 -27 0
-20 -23 0
-20 -21 0
-19 -95 0
-19 -82 0
-19 -81 0
-19 -80 0
-19 -77 0
-19 -72 0
-19 -51 0
-19 -50 0
-19 -45 0
-19 -44 0
-19 -42 0
-19 -36 0
-19 -31 0
-19 -26 0
-18 -97 0
-18 -94 0
-18 -90 0
-18 -84 0
-18 -81 0
-18 -75 0
-18 -73 0
-18 -72 0
-18 -58 0
-18 -47 0
-18 -30 0
-18 -23 0
-18 -20 0
-17 -96 0
-17 -94 0
-17 -91 0
-17 -88 0
-17 -77 0
-17 -75 0
-17 -71 0
-17 -69 0
-17 -64 0
-17 -59 0
-17 -57 0
-17 -46 0
-17 -31 0
-17 -21 0
-16 -86 0
-16 -83 0
-16 -74 0
-16 -71 0
-16 -65 0
-16 -54 0
-16 -49 0
-16 -47 0
-16 -45 0
-16 -41 0
-16 -38 0
-16 -36 0
-16 -24 0
-15 -99 0
-15 -93 0
-15 -78 0
-15 -62 0
-15 -60 0
-15 -52 0
-15 -28 0
-15 -25 0
-14 -97 0
-14 -96 0
-14 -92 0
-14 -89 0
-14 -88 0
-14 -77 0
-14 -75 0
-14 -70 0
-14 -69 0
-14 -64 0
-14 -56 0
-14 -49 0
-14 -42 0
-14 -40 0
-14 -21 0
-14 -17 0
-13 -88 0
-13 -87 0
-13 -86 0
-13 -85 0
-13 -80 0
-13 -68 0
-13 -63 0
-13 -58 0
-13 -56 0
-13 -44 0
-13 -41 0
-13 -35 0
-13 -34 0
-13 -32 0
-13 -23 0
-13 -22 0
-12 -89 0
-12 -86 0
-12 -59 0
-12 -55 0
-12 -54 0
-12 -50 0
-12 -47 0
-12 -45 0
-12 -39 0
-12 -34 0
-12 -29 0
-12 -27 0
-12 -24 0
-12 -16 0
-11 -100 0
-11 -95 0
-11 -82 0
-11 -79 0
-11 -77 0
-11 -76 0
-11 -72 0
-11 -70 0
-11 -68 0
-11 -50 0
-11 -48 0
-11 -46 0
-11 -44 0
-11 -36 0
-11 -24 0
-11 -19 0
-10 -84 0
-10 -83 0
-10 -81 0
-10 -75 0
-10 -74 0
-10 -71 0
-10 -65 0
-10 -58 0
-10 -49 0
-10 -41 0
-10 -38 0
-10 -36 0
-10 -30 0
-10 -18 0
-10 -16 0
-9 -98 0
-9 -92 0
-9 -87 0
-9 -86 0
-9 -84 0
-9 -82 0
-9 -66 0
-9 -57 0
-9 -54 0
-9 -47 0
-9 -45 0
-9 -37 0
-9 -33 0
-9 -24 0
-9 -16 0
-9 -12 0
-8 -99 0
-8 -93 0
-8 -78 0
-8 -62 0
-8 -60 0
-8 -52 0
-8 -28 0
-8 -25 0
-8 -15 0
-7 -89 0
-7 -84 0
-7 -81 0
-7 -75 0
-7 -59 0
-7 -58 0
-7 -55 0
-7 -50 0
-7 -39 0
-7 -34 0
-7 -30 0
-7 -29 0
-7 -27 0
-7 -18 0
-7 -12 0
-7 -10 0
-6 -81 0
-6 -80 0
-6 -79 0
-6 -66 0
-6 -51 0
-6 -45 0
-6 -43 0
-6 -42 0
-6 -38 0
-6 -32 0
-6 -31 0
-6 -27 0
-6 -26 0
-6 -21 0
-6 -20 0
-6 -19 0
-5 -96 0
-5 -88 0
-5 -86 0
-5 -77 0
-5 -75 0
-5 -69 0
-5 -64 0
-5 -54 0
-5 -47 0
-5 -45 0
-5 -24 0
-5 -21 0
-5 -17 0
-5 -16 0
-5 -14 0
-5 -12 0
-5 -9 0
-4 -98 0
-4 -97 0
-4 -94 0
-4 -90 0
-4 -73 0
-4 -72 0
-4 -69 0
-4 -65 0
-4 -63 0
-4 -55 0
-4 -53 0
-4 -48 0
-4 -47 0
-4 -26 0
-4 -23 0
-4 -20 0
-4 -18 0
-3 -100 0
-3 -96 0
-3 -83 0
-3 -81 0
-3 -80 0
-3 -73 0
-3 -67 0
-3 -51 0
-3 -45 0
-3 -42 0
-3 -37 0
-3 -31 0
-3 -29 0
-3 -26 0
-3 -22 0
-3 -19 0
-3 -6 0
-2 -100 0
-2 -84 0
-2 -81 0
-2 -79 0
-2 -76 0
-2 -75 0
-2 -70 0
-2 -68 0
-2 -58 0
-2 -48 0
-2 -46 0
-2 -30 0
-2 -24 0
-2 -18 0
-2 -11 0
-2 -10 0
-2 -7 0
-1 -94 0
-1 -91 0
-1 -86 0
-1 -71 0
-1 -63 0
-1 -59 0
-1 -58 0
-1 -57 0
-1 -56 0
-1 -46 0
-1 -44 0
-1 -35 0
-1 -32 0
-1 -31 0
-1 -22 0
-1 -17 0
-1 -13 0
1 17 31 46 52 57 59 71 91 94 0
2 7 10 18 28 30 58 75 81 84 0
3 22 29 37 62 67 73 83 96 100 0
4 8 26 48 53 55 63 65 69 98 0
5 9 12 16 24 45 47 54 60 86 0
6 20 21 27 32 38 43 66 79 93 0
11 19 36 44 50 72 77 78 82 95 0
13 23 25 34 41 68 80 85 87 88 0
14 40 42 49 56 70 89 92 97 99 0
15 33 35 39 51 61 64 74 76 90 0
