p cnf 49 259
-47 -48 0
-46 -48 0
-46 -47 0
-45 -49 0
-45 -48 0
-44 -49 0
-44 -47 0
-44 -45 0
-43 -49 0
-40 -46 0
-40 -41 0
-39 -49 0
-39 -45 0
-39 -44 0
-39 -41 0
-38 -49 0
-38 -45 0
-38 -44 0
-38 -39 0
-37 -49 0
-37 -43 0
-36 -48 0
-36 -45 0
-36 -41 0
-36 -40 0
-35 -41 0
-35 -39 0
-35 -37 0
-34 -41 0
-34 -40 0
-34 -36 0
-33 -42 0
-32 -46 0
-32 -40 0
-31 -48 0
-31 -45 0
-31 -37 0
-31 -36 0
-31 -35 0
-30 -47 0
-30 -44 0
-30 -32 0
-29 -47 0
-29 -44 0
-29 -41 0
-29 -40 0
-29 -36 0
-29 -34 0
-29 -30 0
-28 -48 0
-28 -45 0
-28 -43 0
-28 -36 0
-28 -31 0
-27 -46 0
-27 -40 0
-27 -37 0
-27 -35 0
-27 -32 0
-27 -31 0
-26 -42 0
-26 -33 0
-25 -49 0
-25 -43 0
-25 -37 0
-25 -32 0
-25 -30 0
-24 -49 0
-24 -46 0
-24 -45 0
-24 -44 0
-24 -40 0
-24 -39 0
-24 -38 0
-24 -32 0
-24 -27 0
-23 -49 0
-23 -45 0
-23 -44 0
-23 -39 0
-23 -38 0
-23 -34 0
-23 -24 0
-22 -48 0
-22 -47 0
-22 -46 0
-22 -34 0
-22 -23 0
-21 -42 0
-21 -33 0
-21 -26 0
-20 -38 0
-20 -32 0
-20 -30 0
-20 -25 0
-19 -47 0
-19 -44 0
-19 -37 0
-19 -35 0
-19 -31 0
-19 -30 0
-19 -29 0
-19 -27 0
-18 -48 0
-18 -47 0
-18 -46 0
-18 -41 0
-18 -39 0
-18 -35 0
-18 -22 0
-17 -46 0
-17 -43 0
-17 -40 0
-17 -32 0
-17 -28 0
-17 -27 0
-17 -24 0
-16 -41 0
-16 -39 0
-16 -35 0
-16 -32 0
-16 -30 0
-16 -25 0
-16 -20 0
-16 -18 0
-15 -34 0
-15 -32 0
-15 -30 0
-15 -25 0
-15 -23 0
-15 -22 0
-15 -20 0
-15 -16 0
-14 -38 0
-14 -37 0
-14 -35 0
-14 -31 0
-14 -27 0
-14 -20 0
-14 -19 0
-13 -42 0
-13 -33 0
-13 -26 0
-13 -21 0
-12 -42 0
-12 -33 0
-12 -26 0
-12 -21 0
-12 -13 0
-11 -37 0
-11 -35 0
-11 -34 0
-11 -31 0
-11 -27 0
-11 -23 0
-11 -22 0
-11 -19 0
-11 -15 0
-11 -14 0
-10 -43 0
-10 -41 0
-10 -39 0
-10 -35 0
-10 -28 0
-10 -18 0
-10 -17 0
-10 -16 0
-9 -48 0
-9 -45 0
-9 -36 0
-9 -32 0
-9 -31 0
-9 -30 0
-9 -28 0
-9 -25 0
-9 -20 0
-9 -16 0
-9 -15 0
-8 -43 0
-8 -38 0
-8 -28 0
-8 -20 0
-8 -17 0
-8 -14 0
-8 -10 0
-7 -42 0
-7 -33 0
-7 -26 0
-7 -21 0
-7 -13 0
-7 -12 0
-6 -48 0
-6 -47 0
-6 -46 0
-6 -38 0
-6 -22 0
-6 -20 0
-6 -18 0
-6 -14 0
-6 -8 0
-5 -43 0
-5 -34 0
-5 -28 0
-5 -23 0
-5 -22 0
-5 -17 0
-5 -15 0
-5 -11 0
-5 -10 0
-5 -8 0
-4 -47 0
-4 -44 0
-4 -43 0
-4 -30 0
-4 -29 0
-4 -28 0
-4 -19 0
-4 -17 0
-4 -10 0
-4 -8 0
-4 -5 0
-3 -49 0
-3 -48 0
-3 -47 0
-3 -46 0
-3 -43 0
-3 -37 0
-3 -25 0
-3 -22 0
-3 -18 0
-3 -6 0
-2 -49 0
-2 -43 0
-2 -41 0
-2 -40 0
-2 -37 0
-2 -36 0
-2 -34 0
-2 -29 0
-2 -25 0
-2 -3 0
-1 -41 0
-1 -40 0
-1 -38 0
-1 -36 0
-1 -34 0
-1 -29 0
-1 -20 0
-1 -14 0
-1 -8 0
-1 -6 0
-1 -2 0
1 6 8 14 20 21 38 0
2 3 12 25 37 43 49 0
4 19 29 30 42 44 47 0
5 11 13 15 22 23 34 0
7 10 16 18 35 39 41 0
9 26 28 31 36 45 48 0
17 24 27 32 33 40 46 0
