p cnf 49 259
-47 -49 0
-46 -49 0
-46 -48 0
-46 -47 0
-44 -48 0
-44 -47 0
-43 -48 0
-43 -44 0
-42 -49 0
-42 -47 0
-42 -46 0
-41 -43 0
-40 -49 0
-40 -47 0
-40 -46 0
-40 -42 0
-39 -42 0
-39 -41 0
-38 -48 0
-38 -46 0
-38 -41 0
-38 -39 0
-37 -49 0
-35 -45 0
-35 -41 0
-35 -39 0
-35 -38 0
-34 -36 0
-33 -49 0
-33 -47 0
-33 -46 0
-33 -43 0
-33 -42 0
-33 -41 0
-33 -40 0
-32 -48 0
-32 -44 0
-32 -43 0
-32 -40 0
-31 -41 0
-31 -40 0
-31 -39 0
-31 -38 0
-31 -35 0
-31 -32 0
-30 -49 0
-30 -47 0
-30 -46 0
-30 -45 0
-30 -42 0
-30 -40 0
-30 -35 0
-30 -33 0
-29 -40 0
-29 -32 0
-29 -31 0
-28 -45 0
-28 -40 0
-28 -32 0
-28 -31 0
-28 -29 0
-27 -36 0
-27 -34 0
-26 -47 0
-26 -44 0
-26 -29 0
-25 -45 0
-25 -43 0
-25 -41 0
-25 -33 0
-25 -28 0
-24 -48 0
-24 -46 0
-24 -45 0
-24 -38 0
-24 -28 0
-24 -25 0
-23 -45 0
-23 -35 0
-23 -30 0
-23 -29 0
-23 -26 0
-22 -48 0
-22 -46 0
-22 -38 0
-22 -37 0
-22 -24 0
-21 -36 0
-21 -34 0
-21 -27 0
-20 -49 0
-20 -41 0
-20 -39 0
-20 -38 0
-20 -37 0
-20 -35 0
-20 -31 0
-19 -49 0
-19 -45 0
-19 -37 0
-19 -28 0
-19 -25 0
-19 -24 0
-19 -20 0
-18 -49 0
-18 -37 0
-18 -29 0
-18 -26 0
-18 -23 0
-18 -20 0
-18 -19 0
-17 -40 0
-17 -37 0
-17 -32 0
-17 -31 0
-17 -29 0
-17 -28 0
-17 -22 0
-16 -42 0
-16 -39 0
-16 -29 0
-16 -26 0
-16 -23 0
-16 -18 0
-15 -36 0
-15 -34 0
-15 -27 0
-15 -21 0
-14 -48 0
-14 -45 0
-14 -44 0
-14 -43 0
-14 -35 0
-14 -32 0
-14 -30 0
-14 -23 0
-13 -42 0
-13 -39 0
-13 -37 0
-13 -22 0
-13 -17 0
-13 -16 0
-12 -48 0
-12 -44 0
-12 -43 0
-12 -42 0
-12 -39 0
-12 -32 0
-12 -16 0
-12 -14 0
-12 -13 0
-11 -43 0
-11 -41 0
-11 -37 0
-11 -33 0
-11 -25 0
-11 -22 0
-11 -17 0
-11 -13 0
-10 -45 0
-10 -37 0
-10 -35 0
-10 -30 0
-10 -23 0
-10 -22 0
-10 -17 0
-10 -14 0
-10 -13 0
-10 -11 0
-9 -36 0
-9 -34 0
-9 -27 0
-9 -21 0
-9 -15 0
-8 -36 0
-8 -34 0
-8 -27 0
-8 -21 0
-8 -15 0
-8 -9 0
-7 -47 0
-7 -44 0
-7 -37 0
-7 -26 0
-7 -22 0
-7 -17 0
-7 -13 0
-7 -11 0
-7 -10 0
-6 -43 0
-6 -41 0
-6 -33 0
-6 -29 0
-6 -26 0
-6 -25 0
-6 -23 0
-6 -18 0
-6 -16 0
-6 -11 0
-5 -45 0
-5 -42 0
-5 -39 0
-5 -28 0
-5 -25 0
-5 -24 0
-5 -19 0
-5 -16 0
-5 -13 0
-5 -12 0
-4 -47 0
-4 -45 0
-4 -44 0
-4 -28 0
-4 -26 0
-4 -25 0
-4 -24 0
-4 -19 0
-4 -7 0
-4 -5 0
-3 -49 0
-3 -48 0
-3 -44 0
-3 -43 0
-3 -37 0
-3 -32 0
-3 -20 0
-3 -19 0
-3 -18 0
-3 -14 0
-3 -12 0
-2 -48 0
-2 -46 0
-2 -38 0
-2 -29 0
-2 -26 0
-2 -24 0
-2 -23 0
-2 -22 0
-2 -18 0
-2 -16 0
-2 -6 0
-1 -47 0
-1 -44 0
-1 -41 0
-1 -39 0
-1 -38 0
-1 -35 0
-1 -31 0
-1 -26 0
-1 -20 0
-1 -7 0
-1 -4 0
1 4 7 26 36 44 47 0
2 22 24 27 38 46 48 0
3 8 18 19 20 37 49 0
5 12 13 16 21 39 42 0
6 11 25 33 34 41 43 0
9 10 14 23 30 35 45 0
15 17 28 29 31 32 40 0
