p cnf 64 400
-60 -63 0
-59 -62 0
-58 -62 0
-56 -60 0
-56 -58 0
-55 -62 0
-55 -61 0
-55 -59 0
-54 -59 0
-54 -57 0
-53 -62 0
-53 -59 0
-53 -55 0
-52 -53 0
-51 -62 0
-51 -58 0
-51 -52 0
-50 -63 0
-50 -60 0
-49 -61 0
-49 -59 0
-49 -54 0
-48 -52 0
-48 -51 0
-48 -50 0
-47 -62 0
-47 -60 0
-47 -59 0
-47 -56 0
-47 -55 0
-47 -53 0
-46 -63 0
-46 -61 0
-46 -60 0
-46 -55 0
-46 -50 0
-45 -61 0
-45 -55 0
-45 -52 0
-45 -51 0
-45 -48 0
-45 -46 0
-44 -57 0
-44 -52 0
-44 -51 0
-44 -48 0
-44 -45 0
-43 -62 0
-43 -58 0
-43 -51 0
-42 -59 0
-42 -58 0
-42 -56 0
-42 -54 0
-42 -49 0
-41 -57 0
-41 -54 0
-41 -50 0
-41 -48 0
-40 -64 0
-39 -60 0
-39 -56 0
-39 -47 0
-39 -43 0
-38 -59 0
-38 -54 0
-38 -52 0
-38 -51 0
-38 -49 0
-38 -48 0
-38 -45 0
-38 -44 0
-38 -42 0
-37 -64 0
-37 -40 0
-36 -63 0
-36 -60 0
-36 -57 0
-36 -50 0
-36 -46 0
-36 -44 0
-35 -62 0
-35 -61 0
-35 -58 0
-35 -51 0
-35 -49 0
-35 -43 0
-34 -64 0
-34 -40 0
-34 -37 0
-33 -58 0
-33 -56 0
-33 -50 0
-33 -48 0
-33 -42 0
-33 -41 0
-32 -62 0
-32 -58 0
-32 -57 0
-32 -54 0
-32 -51 0
-32 -43 0
-32 -41 0
-32 -35 0
-31 -60 0
-31 -57 0
-31 -56 0
-31 -54 0
-31 -47 0
-31 -41 0
-31 -39 0
-31 -32 0
-30 -62 0
-30 -59 0
-30 -57 0
-30 -55 0
-30 -53 0
-30 -47 0
-30 -44 0
-30 -36 0
-29 -64 0
-29 -40 0
-29 -37 0
-29 -34 0
-28 -58 0
-28 -56 0
-28 -53 0
-28 -52 0
-28 -42 0
-28 -33 0
-27 -58 0
-27 -57 0
-27 -56 0
-27 -44 0
-27 -42 0
-27 -36 0
-27 -33 0
-27 -30 0
-27 -28 0
-26 -61 0
-26 -58 0
-26 -56 0
-26 -55 0
-26 -46 0
-26 -45 0
-26 -42 0
-26 -33 0
-26 -28 0
-26 -27 0
-25 -61 0
-25 -57 0
-25 -55 0
-25 -54 0
-25 -46 0
-25 -45 0
-25 -41 0
-25 -32 0
-25 -31 0
-25 -26 0
-24 -61 0
-24 -60 0
-24 -56 0
-24 -49 0
-24 -47 0
-24 -39 0
-24 -35 0
-24 -31 0
-23 -61 0
-23 -50 0
-23 -49 0
-23 -48 0
-23 -41 0
-23 -35 0
-23 -33 0
-23 -24 0
-22 -63 0
-22 -62 0
-22 -60 0
-22 -58 0
-22 -51 0
-22 -50 0
-22 -46 0
-22 -43 0
-22 -36 0
-22 -35 0
-22 -32 0
-21 -50 0
-21 -48 0
-21 -43 0
-21 -41 0
-21 -39 0
-21 -33 0
-21 -23 0
-20 -63 0
-20 -60 0
-20 -59 0
-20 -54 0
-20 -50 0
-20 -49 0
-20 -46 0
-20 -42 0
-20 -38 0
-20 -36 0
-20 -22 0
-19 -63 0
-19 -60 0
-19 -53 0
-19 -52 0
-19 -50 0
-19 -46 0
-19 -36 0
-19 -28 0
-19 -22 0
-19 -20 0
-18 -63 0
-18 -58 0
-18 -56 0
-18 -42 0
-18 -33 0
-18 -28 0
-18 -27 0
-18 -26 0
-17 -64 0
-17 -40 0
-17 -37 0
-17 -34 0
-17 -29 0
-16 -61 0
-16 -57 0
-16 -49 0
-16 -44 0
-16 -36 0
-16 -35 0
-16 -30 0
-16 -27 0
-16 -24 0
-16 -23 0
-15 -63 0
-15 -62 0
-15 -59 0
-15 -55 0
-15 -53 0
-15 -47 0
-15 -30 0
-15 -18 0
-14 -64 0
-14 -40 0
-14 -37 0
-14 -34 0
-14 -29 0
-14 -17 0
-13 -64 0
-13 -40 0
-13 -37 0
-13 -34 0
-13 -29 0
-13 -17 0
-13 -14 0
-12 -63 0
-12 -57 0
-12 -54 0
-12 -41 0
-12 -32 0
-12 -31 0
-12 -25 0
-12 -18 0
-12 -15 0
-11 -59 0
-11 -54 0
-11 -49 0
-11 -43 0
-11 -42 0
-11 -39 0
-11 -38 0
-11 -21 0
-11 -20 0
-10 -61 0
-10 -55 0
-10 -46 0
-10 -45 0
-10 -43 0
-10 -39 0
-10 -26 0
-10 -25 0
-10 -21 0
-10 -11 0
-9 -63 0
-9 -52 0
-9 -51 0
-9 -48 0
-9 -45 0
-9 -44 0
-9 -38 0
-9 -18 0
-9 -15 0
-9 -12 0
-8 -57 0
-8 -54 0
-8 -53 0
-8 -52 0
-8 -41 0
-8 -32 0
-8 -31 0
-8 -28 0
-8 -25 0
-8 -19 0
-8 -12 0
-7 -63 0
-7 -43 0
-7 -39 0
-7 -21 0
-7 -18 0
-7 -15 0
-7 -12 0
-7 -11 0
-7 -10 0
-7 -9 0
-6 -60 0
-6 -56 0
-6 -52 0
-6 -51 0
-6 -48 0
-6 -47 0
-6 -45 0
-6 -44 0
-6 -39 0
-6 -38 0
-6 -31 0
-6 -24 0
-6 -9 0
-5 -53 0
-5 -52 0
-5 -43 0
-5 -39 0
-5 -28 0
-5 -21 0
-5 -19 0
-5 -11 0
-5 -10 0
-5 -8 0
-5 -7 0
-4 -63 0
-4 -61 0
-4 -49 0
-4 -35 0
-4 -24 0
-4 -23 0
-4 -18 0
-4 -16 0
-4 -15 0
-4 -12 0
-4 -9 0
-4 -7 0
-3 -62 0
-3 -59 0
-3 -55 0
-3 -53 0
-3 -50 0
-3 -48 0
-3 -47 0
-3 -41 0
-3 -33 0
-3 -30 0
-3 -23 0
-3 -21 0
-3 -15 0
-2 -57 0
-2 -44 0
-2 -43 0
-2 -39 0
-2 -36 0
-2 -30 0
-2 -27 0
-2 -21 0
-2 -16 0
-2 -11 0
-2 -10 0
-2 -7 0
-2 -5 0
-1 -61 0
-1 -53 0
-1 -52 0
-1 -49 0
-1 -35 0
-1 -28 0
-1 -24 0
-1 -23 0
-1 -19 0
-1 -16 0
-1 -8 0
-1 -5 0
-1 -4 0
1 5 8 19 28 52 53 64 0
2 13 16 27 30 36 44 57 0
3 21 23 33 34 41 48 50 0
4 7 9 12 14 15 18 63 0
6 24 29 31 39 47 56 60 0
10 17 25 26 45 46 55 61 0
11 20 38 40 42 49 54 59 0
22 32 35 37 43 51 58 62 0
