p cnf 36 156
-35 -36 0
-33 -34 0
-32 -35 0
-30 -32 0
-29 -36 0
-28 -35 0
-28 -32 0
-28 -29 0
-27 -31 0
-27 -29 0
-27 -28 0
-26 -32 0
-26 -31 0
-26 -30 0
-26 -27 0
-25 -35 0
-25 -32 0
-25 -31 0
-25 -28 0
-24 -36 0
-24 -31 0
-24 -29 0
-24 -25 0
-23 -32 0
-23 -30 0
-23 -26 0
-22 -23 0
-21 -31 0
-21 -27 0
-21 -26 0
-21 -22 0
-20 -29 0
-20 -28 0
-20 -27 0
-19 -34 0
-19 -33 0
-18 -36 0
-18 -29 0
-18 -24 0
-18 -22 0
-18 -21 0
-17 -36 0
-17 -35 0
-17 -31 0
-17 -27 0
-17 -26 0
-17 -21 0
-16 -34 0
-16 -33 0
-16 -19 0
-15 -36 0
-15 -35 0
-15 -20 0
-15 -17 0
-14 -22 0
-14 -21 0
-14 -20 0
-14 -18 0
-14 -15 0
-13 -35 0
-13 -32 0
-13 -28 0
-13 -25 0
-13 -22 0
-13 -21 0
-13 -18 0
-13 -14 0
-12 -34 0
-12 -33 0
-12 -19 0
-12 -16 0
-11 -31 0
-11 -25 0
-11 -24 0
-11 -20 0
-11 -15 0
-11 -14 0
-10 -36 0
-10 -35 0
-10 -30 0
-10 -17 0
-10 -15 0
-9 -30 0
-9 -29 0
-9 -28 0
-9 -27 0
-9 -20 0
-9 -10 0
-8 -36 0
-8 -32 0
-8 -30 0
-8 -29 0
-8 -26 0
-8 -24 0
-8 -23 0
-8 -18 0
-7 -29 0
-7 -28 0
-7 -27 0
-7 -23 0
-7 -22 0
-7 -20 0
-7 -9 0
-6 -36 0
-6 -35 0
-6 -23 0
-6 -22 0
-6 -17 0
-6 -15 0
-6 -10 0
-6 -7 0
-5 -31 0
-5 -25 0
-5 -24 0
-5 -23 0
-5 -22 0
-5 -11 0
-5 -7 0
-5 -6 0
-4 -34 0
-4 -33 0
-4 -19 0
-4 -16 0
-4 -12 0
-3 -30 0
-3 -22 0
-3 -21 0
-3 -18 0
-3 -14 0
-3 -13 0
-3 -10 0
-3 -9 0
-2 -31 0
-2 -30 0
-2 -25 0
-2 -24 0
-2 -11 0
-2 -10 0
-2 -9 0
-2 -5 0
-2 -3 0
-1 -32 0
-1 -30 0
-1 -26 0
-1 -23 0
-1 -20 0
-1 -15 0
-1 -14 0
-1 -11 0
-1 -8 0
1 11 14 15 20 33 0
2 3 9 10 30 34 0
4 13 25 28 32 35 0
5 6 7 12 22 23 0
8 18 19 24 29 36 0
16 17 21 26 27 31 0
