p cnf 36 156
-33 -36 0
-32 -35 0
-31 -34 0
-30 -34 0
-29 -35 0
-29 -32 0
-28 -30 0
-27 -34 0
-27 -31 0
-27 -28 0
-26 -31 0
-25 -36 0
-25 -33 0
-25 -26 0
-24 -34 0
-24 -31 0
-24 -27 0
-23 -30 0
-23 -28 0
-23 -24 0
-22 -26 0
-22 -25 0
-22 -24 0
-22 -23 0
-21 -36 0
-20 -36 0
-20 -34 0
-20 -30 0
-20 -21 0
-19 -28 0
-19 -27 0
-19 -26 0
-19 -25 0
-19 -22 0
-18 -35 0
-18 -32 0
-18 -29 0
-17 -34 0
-17 -31 0
-17 -27 0
-17 -24 0
-17 -21 0
-16 -31 0
-16 -30 0
-16 -28 0
-16 -26 0
-16 -23 0
-15 -36 0
-15 -34 0
-15 -33 0
-15 -31 0
-15 -27 0
-15 -25 0
-15 -24 0
-15 -17 0
-14 -34 0
-14 -30 0
-14 -26 0
-14 -25 0
-14 -22 0
-14 -20 0
-14 -19 0
-13 -34 0
-13 -33 0
-13 -30 0
-13 -20 0
-13 -14 0
-12 -35 0
-12 -32 0
-12 -29 0
-12 -18 0
-11 -36 0
-11 -28 0
-11 -27 0
-11 -21 0
-11 -20 0
-11 -19 0
-10 -35 0
-10 -32 0
-10 -29 0
-10 -18 0
-10 -12 0
-9 -36 0
-9 -31 0
-9 -26 0
-9 -21 0
-9 -20 0
-9 -16 0
-9 -11 0
-8 -33 0
-8 -31 0
-8 -26 0
-8 -16 0
-8 -13 0
-8 -9 0
-7 -30 0
-7 -28 0
-7 -23 0
-7 -21 0
-7 -17 0
-7 -16 0
-6 -33 0
-6 -24 0
-6 -23 0
-6 -22 0
-6 -13 0
-6 -8 0
-5 -36 0
-5 -33 0
-5 -30 0
-5 -28 0
-5 -25 0
-5 -23 0
-5 -16 0
-5 -15 0
-5 -7 0
-4 -26 0
-4 -25 0
-4 -22 0
-4 -21 0
-4 -19 0
-4 -17 0
-4 -14 0
-4 -7 0
-3 -33 0
-3 -21 0
-3 -17 0
-3 -13 0
-3 -8 0
-3 -7 0
-3 -6 0
-3 -4 0
-2 -36 0
-2 -24 0
-2 -23 0
-2 -22 0
-2 -21 0
-2 -20 0
-2 -11 0
-2 -9 0
-2 -6 0
-1 -33 0
-1 -28 0
-1 -27 0
-1 -19 0
-1 -13 0
-1 -11 0
-1 -8 0
-1 -6 0
-1 -3 0
1 11 18 19 27 28 0
2 6 22 23 24 32 0
3 4 7 12 17 21 0
5 10 15 25 33 36 0
8 9 16 26 29 31 0
13 14 20 30 34 35 0
