p cnf 100 820
-93 -95 0
-92 -97 0
-92 -96 0
-91 -97 0
-91 -94 0
-91 -92 0
-90 -95 0
-89 -99 0
-88 -99 0
-88 -97 0
-88 -92 0
-88 -91 0
-88 -89 0
-87 -99 0
-86 -95 0
-86 -90 0
-86 -87 0
-85 -98 0
-85 -97 0
-85 -92 0
-85 -91 0
-85 -88 0
-84 -96 0
-84 -93 0
-84 -92 0
-83 -98 0
-83 -96 0
-83 -92 0
-83 -84 0
-82 -96 0
-82 -94 0
-82 -91 0
-81 -95 0
-81 -90 0
-81 -86 0
-80 -89 0
-79 -100 0
-78 -96 0
-78 -95 0
-78 -92 0
-78 -90 0
-78 -86 0
-78 -84 0
-78 -83 0
-78 -81 0
-77 -98 0
-77 -89 0
-77 -85 0
-77 -80 0
-76 -96 0
-76 -92 0
-76 -89 0
-76 -84 0
-76 -83 0
-76 -80 0
-76 -78 0
-76 -77 0
-75 -95 0
-75 -94 0
-75 -91 0
-75 -90 0
-75 -86 0
-75 -82 0
-75 -81 0
-75 -78 0
-74 -96 0
-74 -90 0
-74 -82 0
-73 -100 0
-73 -79 0
-72 -97 0
-72 -93 0
-72 -84 0
-71 -93 0
-71 -87 0
-71 -86 0
-71 -84 0
-71 -72 0
-70 -97 0
-70 -96 0
-70 -82 0
-70 -74 0
-70 -72 0
-69 -97 0
-69 -92 0
-69 -91 0
-69 -88 0
-69 -85 0
-69 -80 0
-68 -100 0
-68 -79 0
-68 -73 0
-67 -98 0
-67 -95 0
-67 -90 0
-67 -86 0
-67 -85 0
-67 -81 0
-67 -78 0
-67 -77 0
-67 -75 0
-66 -95 0
-66 -93 0
-65 -98 0
-65 -83 0
-65 -80 0
-65 -69 0
-64 -94 0
-64 -91 0
-64 -82 0
-64 -75 0
-64 -66 0
-63 -89 0
-63 -81 0
-63 -80 0
-63 -77 0
-63 -76 0
-62 -99 0
-62 -98 0
-62 -89 0
-62 -88 0
-62 -83 0
-62 -65 0
-61 -98 0
-61 -93 0
-61 -85 0
-61 -84 0
-61 -77 0
-61 -72 0
-61 -71 0
-61 -67 0
-60 -94 0
-60 -80 0
-60 -69 0
-60 -65 0
-59 -97 0
-59 -89 0
-59 -80 0
-59 -77 0
-59 -76 0
-59 -72 0
-59 -70 0
-59 -63 0
-58 -97 0
-58 -95 0
-58 -93 0
-58 -92 0
-58 -91 0
-58 -88 0
-58 -85 0
-58 -69 0
-58 -66 0
-57 -100 0
-57 -79 0
-57 -73 0
-57 -68 0
-56 -99 0
-56 -93 0
-56 -89 0
-56 -88 0
-56 -84 0
-56 -72 0
-56 -71 0
-56 -62 0
-56 -61 0
-55 -96 0
-55 -95 0
-55 -93 0
-55 -82 0
-55 -74 0
-55 -70 0
-55 -66 0
-55 -58 0
-54 -97 0
-54 -72 0
-54 -70 0
-54 -66 0
-54 -64 0
-54 -59 0
-53 -98 0
-53 -83 0
-53 -81 0
-53 -65 0
-53 -63 0
-53 -62 0
-52 -97 0
-52 -92 0
-52 -91 0
-52 -88 0
-52 -87 0
-52 -86 0
-52 -85 0
-52 -71 0
-52 -69 0
-52 -58 0
-51 -89 0
-51 -87 0
-51 -86 0
-51 -80 0
-51 -77 0
-51 -76 0
-51 -71 0
-51 -63 0
-51 -59 0
-51 -52 0
-50 -98 0
-50 -85 0
-50 -77 0
-50 -67 0
-50 -66 0
-50 -64 0
-50 -61 0
-50 -54 0
-49 -98 0
-49 -96 0
-49 -85 0
-49 -82 0
-49 -77 0
-49 -74 0
-49 -70 0
-49 -67 0
-49 -61 0
-49 -55 0
-49 -50 0
-48 -99 0
-48 -96 0
-48 -92 0
-48 -87 0
-48 -84 0
-48 -83 0
-48 -78 0
-48 -76 0
-47 -99 0
-47 -94 0
-47 -91 0
-47 -87 0
-47 -82 0
-47 -75 0
-47 -64 0
-47 -48 0
-46 -97 0
-46 -92 0
-46 -91 0
-46 -90 0
-46 -88 0
-46 -85 0
-46 -74 0
-46 -69 0
-46 -58 0
-46 -52 0
-45 -93 0
-45 -84 0
-45 -81 0
-45 -72 0
-45 -71 0
-45 -63 0
-45 -61 0
-45 -56 0
-45 -53 0
-44 -98 0
-44 -97 0
-44 -83 0
-44 -72 0
-44 -70 0
-44 -65 0
-44 -62 0
-44 -59 0
-44 -54 0
-44 -53 0
-43 -98 0
-43 -95 0
-43 -93 0
-43 -83 0
-43 -66 0
-43 -65 0
-43 -62 0
-43 -58 0
-43 -55 0
-43 -53 0
-43 -44 0
-42 -94 0
-42 -90 0
-42 -74 0
-42 -60 0
-42 -46 0
-41 -94 0
-41 -91 0
-41 -89 0
-41 -82 0
-41 -80 0
-41 -77 0
-41 -76 0
-41 -75 0
-41 -64 0
-41 -63 0
-41 -59 0
-41 -51 0
-41 -47 0
-40 -100 0
-40 -79 0
-40 -73 0
-40 -68 0
-40 -57 0
-39 -95 0
-39 -94 0
-39 -93 0
-39 -66 0
-39 -60 0
-39 -58 0
-39 -55 0
-39 -43 0
-39 -42 0
-38 -99 0
-38 -89 0
-38 -88 0
-38 -66 0
-38 -64 0
-38 -62 0
-38 -56 0
-38 -54 0
-38 -50 0
-37 -99 0
-37 -97 0
-37 -87 0
-37 -72 0
-37 -70 0
-37 -59 0
-37 -54 0
-37 -48 0
-37 -47 0
-37 -44 0
-36 -90 0
-36 -74 0
-36 -66 0
-36 -64 0
-36 -54 0
-36 -50 0
-36 -46 0
-36 -42 0
-36 -38 0
-35 -93 0
-35 -84 0
-35 -80 0
-35 -72 0
-35 -71 0
-35 -69 0
-35 -65 0
-35 -61 0
-35 -60 0
-35 -56 0
-35 -45 0
-34 -93 0
-34 -90 0
-34 -84 0
-34 -74 0
-34 -72 0
-34 -71 0
-34 -61 0
-34 -56 0
-34 -46 0
-34 -45 0
-34 -42 0
-34 -36 0
-34 -35 0
-33 -100 0
-33 -79 0
-33 -73 0
-33 -68 0
-33 -57 0
-33 -40 0
-32 -94 0
-32 -81 0
-32 -63 0
-32 -60 0
-32 -53 0
-32 -45 0
-32 -42 0
-32 -39 0
-31 -80 0
-31 -69 0
-31 -66 0
-31 -65 0
-31 -64 0
-31 -60 0
-31 -54 0
-31 -50 0
-31 -38 0
-31 -36 0
-31 -35 0
-30 -99 0
-30 -90 0
-30 -87 0
-30 -74 0
-30 -48 0
-30 -47 0
-30 -46 0
-30 -42 0
-30 -37 0
-30 -36 0
-30 -34 0
-29 -98 0
-29 -90 0
-29 -83 0
-29 -74 0
-29 -65 0
-29 -62 0
-29 -53 0
-29 -46 0
-29 -44 0
-29 -43 0
-29 -42 0
-29 -36 0
-29 -34 0
-29 -30 0
-28 -100 0
-28 -79 0
-28 -73 0
-28 -68 0
-28 -57 0
-28 -40 0
-28 -33 0
-27 -99 0
-27 -87 0
-27 -80 0
-27 -69 0
-27 -65 0
-27 -60 0
-27 -48 0
-27 -47 0
-27 -37 0
-27 -35 0
-27 -31 0
-27 -30 0
-26 -100 0
-26 -79 0
-26 -73 0
-26 -68 0
-26 -57 0
-26 -40 0
-26 -33 0
-26 -28 0
-25 -100 0
-25 -79 0
-25 -73 0
-25 -68 0
-25 -57 0
-25 -40 0
-25 -33 0
-25 -28 0
-25 -26 0
-24 -95 0
-24 -90 0
-24 -86 0
-24 -81 0
-24 -80 0
-24 -78 0
-24 -75 0
-24 -69 0
-24 -67 0
-24 -65 0
-24 -60 0
-24 -35 0
-24 -31 0
-24 -27 0
-23 -87 0
-23 -86 0
-23 -71 0
-23 -66 0
-23 -64 0
-23 -54 0
-23 -52 0
-23 -51 0
-23 -50 0
-23 -38 0
-23 -36 0
-23 -31 0
-22 -96 0
-22 -92 0
-22 -84 0
-22 -83 0
-22 -78 0
-22 -76 0
-22 -66 0
-22 -64 0
-22 -54 0
-22 -50 0
-22 -48 0
-22 -38 0
-22 -36 0
-22 -31 0
-22 -23 0
-21 -99 0
-21 -95 0
-21 -93 0
-21 -87 0
-21 -66 0
-21 -58 0
-21 -55 0
-21 -48 0
-21 -47 0
-21 -43 0
-21 -39 0
-21 -37 0
-21 -30 0
-21 -27 0
-20 -99 0
-20 -98 0
-20 -87 0
-20 -85 0
-20 -77 0
-20 -67 0
-20 -61 0
-20 -50 0
-20 -49 0
-20 -48 0
-20 -47 0
-20 -37 0
-20 -30 0
-20 -27 0
-20 -21 0
-19 -96 0
-19 -82 0
-19 -80 0
-19 -74 0
-19 -70 0
-19 -69 0
-19 -65 0
-19 -60 0
-19 -55 0
-19 -49 0
-19 -35 0
-19 -31 0
-19 -27 0
-19 -24 0
-18 -96 0
-18 -87 0
-18 -86 0
-18 -82 0
-18 -74 0
-18 -71 0
-18 -70 0
-18 -55 0
-18 -52 0
-18 -51 0
-18 -49 0
-18 -23 0
-18 -19 0
-17 -94 0
-17 -87 0
-17 -86 0
-17 -71 0
-17 -60 0
-17 -52 0
-17 -51 0
-17 -42 0
-17 -39 0
-17 -32 0
-17 -23 0
-17 -18 0
-16 -99 0
-16 -87 0
-16 -81 0
-16 -63 0
-16 -53 0
-16 -48 0
-16 -47 0
-16 -45 0
-16 -37 0
-16 -32 0
-16 -30 0
-16 -27 0
-16 -21 0
-16 -20 0
-15 -99 0
-15 -94 0
-15 -89 0
-15 -88 0
-15 -62 0
-15 -60 0
-15 -56 0
-15 -42 0
-15 -39 0
-15 -38 0
-15 -32 0
-15 -17 0
-14 -97 0
-14 -95 0
-14 -90 0
-14 -86 0
-14 -81 0
-14 -78 0
-14 -75 0
-14 -72 0
-14 -70 0
-14 -67 0
-14 -59 0
-14 -54 0
-14 -44 0
-14 -37 0
-14 -24 0
-13 -90 0
-13 -89 0
-13 -80 0
-13 -77 0
-13 -76 0
-13 -74 0
-13 -63 0
-13 -59 0
-13 -51 0
-13 -46 0
-13 -42 0
-13 -41 0
-13 -36 0
-13 -34 0
-13 -30 0
-13 -29 0
-12 -98 0
-12 -94 0
-12 -85 0
-12 -77 0
-12 -67 0
-12 -61 0
-12 -60 0
-12 -50 0
-12 -49 0
-12 -42 0
-12 -39 0
-12 -32 0
-12 -20 0
-12 -17 0
-12 -15 0
-11 -96 0
-11 -94 0
-11 -92 0
-11 -84 0
-11 -83 0
-11 -78 0
-11 -76 0
-11 -60 0
-11 -48 0
-11 -42 0
-11 -39 0
-11 -32 0
-11 -22 0
-11 -17 0
-11 -15 0
-11 -12 0
-10 -99 0
-10 -96 0
-10 -89 0
-10 -88 0
-10 -82 0
-10 -74 0
-10 -70 0
-10 -62 0
-10 -56 0
-10 -55 0
-10 -49 0
-10 -38 0
-10 -19 0
-10 -18 0
-10 -15 0
-9 -98 0
-9 -94 0
-9 -91 0
-9 -83 0
-9 -82 0
-9 -75 0
-9 -65 0
-9 -64 0
-9 -62 0
-9 -53 0
-9 -47 0
-9 -44 0
-9 -43 0
-9 -41 0
-9 -29 0
-8 -97 0
-8 -94 0
-8 -72 0
-8 -70 0
-8 -60 0
-8 -59 0
-8 -54 0
-8 -44 0
-8 -42 0
-8 -39 0
-8 -37 0
-8 -32 0
-8 -17 0
-8 -15 0
-8 -14 0
-8 -12 0
-8 -11 0
-7 -81 0
-7 -66 0
-7 -64 0
-7 -63 0
-7 -54 0
-7 -53 0
-7 -50 0
-7 -45 0
-7 -38 0
-7 -36 0
-7 -32 0
-7 -31 0
-7 -23 0
-7 -22 0
-7 -16 0
-6 -98 0
-6 -87 0
-6 -86 0
-6 -83 0
-6 -71 0
-6 -65 0
-6 -62 0
-6 -53 0
-6 -52 0
-6 -51 0
-6 -44 0
-6 -43 0
-6 -29 0
-6 -23 0
-6 -18 0
-6 -17 0
-6 -9 0
-5 -96 0
-5 -82 0
-5 -81 0
-5 -74 0
-5 -70 0
-5 -63 0
-5 -55 0
-5 -53 0
-5 -49 0
-5 -45 0
-5 -32 0
-5 -19 0
-5 -18 0
-5 -16 0
-5 -10 0
-5 -7 0
-4 -97 0
-4 -92 0
-4 -91 0
-4 -88 0
-4 -85 0
-4 -81 0
-4 -69 0
-4 -63 0
-4 -58 0
-4 -53 0
-4 -52 0
-4 -46 0
-4 -45 0
-4 -32 0
-4 -16 0
-4 -7 0
-4 -5 0
-3 -95 0
-3 -93 0
-3 -89 0
-3 -80 0
-3 -77 0
-3 -76 0
-3 -66 0
-3 -63 0
-3 -59 0
-3 -58 0
-3 -55 0
-3 -51 0
-3 -43 0
-3 -41 0
-3 -39 0
-3 -21 0
-3 -13 0
-2 -99 0
-2 -95 0
-2 -90 0
-2 -89 0
-2 -88 0
-2 -86 0
-2 -81 0
-2 -78 0
-2 -75 0
-2 -67 0
-2 -62 0
-2 -56 0
-2 -38 0
-2 -24 0
-2 -15 0
-2 -14 0
-2 -10 0
-1 -94 0
-1 -93 0
-1 -91 0
-1 -84 0
-1 -82 0
-1 -75 0
-1 -72 0
-1 -71 0
-1 -64 0
-1 -61 0
-1 -56 0
-1 -47 0
-1 -45 0
-1 -41 0
-1 -35 0
-1 -34 0
-1 -9 0
1 9 26 41 47 64 75 82 91 94 0
2 10 15 38 56 57 62 88 89 99 0
3 21 39 43 55 58 66 68 93 95 0
4 5 7 16 28 32 45 53 63 81 0
6 17 18 23 33 51 52 71 86 87 0
8 14 37 44 54 59 70 72 97 100 0
11 22 40 48 76 78 83 84 92 96 0
12 20 49 50 61 67 73 77 85 98 0
13 29 30 34 36 42 46 74 79 90 0
19 24 25 27 31 35 60 65 69 80 0
