p cnf 81 585
-77 -79 0
-76 -80 0
-76 -77 0
-75 -81 0
-74 -75 0
-73 -75 0
-73 -74 0
-72 -80 0
-72 -78 0
-71 -77 0
-71 -76 0
-70 -80 0
-70 -76 0
-69 -79 0
-69 -77 0
-69 -74 0
-68 -81 0
-68 -79 0
-67 -79 0
-67 -68 0
-66 -75 0
-66 -74 0
-66 -73 0
-66 -70 0
-65 -81 0
-65 -78 0
-65 -75 0
-65 -72 0
-64 -81 0
-64 -70 0
-64 -68 0
-64 -66 0
-63 -67 0
-62 -73 0
-62 -67 0
-62 -63 0
-60 -80 0
-60 -76 0
-60 -70 0
-60 -63 0
-59 -61 0
-58 -63 0
-58 -60 0
-57 -80 0
-57 -72 0
-57 -58 0
-56 -74 0
-56 -69 0
-56 -67 0
-56 -63 0
-56 -62 0
-55 -77 0
-55 -76 0
-55 -71 0
-55 -67 0
-55 -63 0
-55 -62 0
-55 -56 0
-54 -78 0
-54 -73 0
-54 -72 0
-54 -65 0
-54 -62 0
-53 -61 0
-53 -59 0
-52 -81 0
-52 -68 0
-52 -64 0
-52 -63 0
-52 -60 0
-52 -58 0
-51 -78 0
-51 -58 0
-51 -57 0
-50 -79 0
-50 -78 0
-50 -72 0
-50 -68 0
-50 -67 0
-50 -65 0
-50 -54 0
-49 -80 0
-49 -76 0
-49 -74 0
-49 -70 0
-49 -69 0
-49 -60 0
-49 -56 0
-48 -79 0
-48 -78 0
-48 -77 0
-48 -69 0
-48 -51 0
-47 -71 0
-47 -63 0
-47 -60 0
-47 -58 0
-47 -52 0
-46 -81 0
-46 -78 0
-46 -68 0
-46 -64 0
-46 -52 0
-46 -51 0
-46 -48 0
-45 -81 0
-45 -73 0
-45 -68 0
-45 -64 0
-45 -62 0
-45 -54 0
-45 -52 0
-45 -46 0
-44 -79 0
-44 -68 0
-44 -67 0
-44 -58 0
-44 -57 0
-44 -51 0
-44 -50 0
-43 -78 0
-43 -77 0
-43 -76 0
-43 -72 0
-43 -71 0
-43 -65 0
-43 -55 0
-43 -54 0
-43 -50 0
-42 -79 0
-42 -77 0
-42 -70 0
-42 -69 0
-42 -66 0
-42 -64 0
-42 -48 0
-41 -78 0
-41 -72 0
-41 -65 0
-41 -63 0
-41 -60 0
-41 -58 0
-41 -54 0
-41 -52 0
-41 -50 0
-41 -47 0
-41 -43 0
-40 -81 0
-40 -75 0
-40 -71 0
-40 -65 0
-40 -47 0
-39 -78 0
-39 -71 0
-39 -51 0
-39 -48 0
-39 -47 0
-39 -46 0
-39 -40 0
-38 -78 0
-38 -67 0
-38 -63 0
-38 -62 0
-38 -56 0
-38 -55 0
-38 -51 0
-38 -48 0
-38 -46 0
-38 -39 0
-37 -81 0
-37 -79 0
-37 -77 0
-37 -75 0
-37 -69 0
-37 -65 0
-37 -48 0
-37 -42 0
-37 -40 0
-36 -61 0
-36 -59 0
-36 -53 0
-35 -61 0
-35 -59 0
-35 -53 0
-35 -36 0
-34 -61 0
-34 -59 0
-34 -53 0
-34 -36 0
-34 -35 0
-33 -81 0
-33 -74 0
-33 -69 0
-33 -68 0
-33 -64 0
-33 -56 0
-33 -52 0
-33 -49 0
-33 -46 0
-33 -45 0
-32 -79 0
-32 -77 0
-32 -69 0
-32 -63 0
-32 -60 0
-32 -58 0
-32 -52 0
-32 -48 0
-32 -47 0
-32 -42 0
-32 -41 0
-32 -37 0
-31 -61 0
-31 -59 0
-31 -53 0
-31 -36 0
-31 -35 0
-31 -34 0
-30 -73 0
-30 -62 0
-30 -58 0
-30 -57 0
-30 -54 0
-30 -51 0
-30 -45 0
-30 -44 0
-29 -70 0
-29 -67 0
-29 -66 0
-29 -64 0
-29 -63 0
-29 -62 0
-29 -56 0
-29 -55 0
-29 -42 0
-29 -38 0
-28 -80 0
-28 -75 0
-28 -74 0
-28 -73 0
-28 -72 0
-28 -66 0
-28 -57 0
-27 -77 0
-27 -76 0
-27 -75 0
-27 -74 0
-27 -73 0
-27 -71 0
-27 -66 0
-27 -55 0
-27 -43 0
-27 -28 0
-26 -78 0
-26 -75 0
-26 -74 0
-26 -73 0
-26 -66 0
-26 -51 0
-26 -48 0
-26 -46 0
-26 -39 0
-26 -38 0
-26 -28 0
-26 -27 0
-25 -61 0
-25 -59 0
-25 -53 0
-25 -36 0
-25 -35 0
-25 -34 0
-25 -31 0
-24 -81 0
-24 -75 0
-24 -67 0
-24 -65 0
-24 -63 0
-24 -62 0
-24 -56 0
-24 -55 0
-24 -40 0
-24 -38 0
-24 -37 0
-24 -29 0
-23 -81 0
-23 -77 0
-23 -76 0
-23 -71 0
-23 -68 0
-23 -64 0
-23 -55 0
-23 -52 0
-23 -46 0
-23 -45 0
-23 -43 0
-23 -33 0
-23 -27 0
-22 -73 0
-22 -71 0
-22 -62 0
-22 -54 0
-22 -47 0
-22 -45 0
-22 -40 0
-22 -39 0
-22 -30 0
-21 -77 0
-21 -76 0
-21 -71 0
-21 -58 0
-21 -57 0
-21 -55 0
-21 -51 0
-21 -44 0
-21 -43 0
-21 -30 0
-21 -27 0
-21 -23 0
-20 -61 0
-20 -59 0
-20 -53 0
-20 -36 0
-20 -35 0
-20 -34 0
-20 -31 0
-20 -25 0
-19 -74 0
-19 -69 0
-19 -58 0
-19 -57 0
-19 -56 0
-19 -51 0
-19 -49 0
-19 -44 0
-19 -33 0
-19 -30 0
-19 -21 0
-18 -71 0
-18 -70 0
-18 -66 0
-18 -64 0
-18 -47 0
-18 -42 0
-18 -40 0
-18 -39 0
-18 -29 0
-18 -22 0
-17 -81 0
-17 -80 0
-17 -76 0
-17 -75 0
-17 -70 0
-17 -65 0
-17 -60 0
-17 -49 0
-17 -40 0
-17 -37 0
-17 -24 0
-16 -79 0
-16 -77 0
-16 -73 0
-16 -69 0
-16 -62 0
-16 -54 0
-16 -48 0
-16 -45 0
-16 -42 0
-16 -37 0
-16 -32 0
-16 -30 0
-16 -22 0
-15 -75 0
-15 -74 0
-15 -73 0
-15 -66 0
-15 -63 0
-15 -60 0
-15 -58 0
-15 -52 0
-15 -47 0
-15 -41 0
-15 -32 0
-15 -28 0
-15 -27 0
-15 -26 0
-14 -80 0
-14 -79 0
-14 -77 0
-14 -72 0
-14 -69 0
-14 -57 0
-14 -48 0
-14 -42 0
-14 -37 0
-14 -32 0
-14 -28 0
-14 -16 0
-13 -74 0
-13 -71 0
-13 -69 0
-13 -56 0
-13 -49 0
-13 -47 0
-13 -40 0
-13 -39 0
-13 -33 0
-13 -22 0
-13 -19 0
-13 -18 0
-12 -80 0
-12 -79 0
-12 -76 0
-12 -70 0
-12 -68 0
-12 -67 0
-12 -60 0
-12 -50 0
-12 -49 0
-12 -44 0
-12 -17 0
-11 -70 0
-11 -66 0
-11 -64 0
-11 -58 0
-11 -57 0
-11 -51 0
-11 -44 0
-11 -42 0
-11 -30 0
-11 -29 0
-11 -21 0
-11 -19 0
-11 -18 0
-10 -78 0
-10 -74 0
-10 -72 0
-10 -69 0
-10 -65 0
-10 -56 0
-10 -54 0
-10 -50 0
-10 -49 0
-10 -43 0
-10 -41 0
-10 -33 0
-10 -19 0
-10 -13 0
-9 -80 0
-9 -78 0
-9 -76 0
-9 -70 0
-9 -60 0
-9 -51 0
-9 -49 0
-9 -48 0
-9 -46 0
-9 -39 0
-9 -38 0
-9 -26 0
-9 -17 0
-9 -12 0
-8 -81 0
-8 -75 0
-8 -65 0
-8 -58 0
-8 -57 0
-8 -51 0
-8 -44 0
-8 -40 0
-8 -37 0
-8 -30 0
-8 -24 0
-8 -21 0
-8 -19 0
-8 -17 0
-8 -11 0
-7 -80 0
-7 -72 0
-7 -67 0
-7 -63 0
-7 -62 0
-7 -57 0
-7 -56 0
-7 -55 0
-7 -38 0
-7 -29 0
-7 -28 0
-7 -24 0
-7 -14 0
-6 -78 0
-6 -72 0
-6 -70 0
-6 -66 0
-6 -65 0
-6 -64 0
-6 -54 0
-6 -50 0
-6 -43 0
-6 -42 0
-6 -41 0
-6 -29 0
-6 -18 0
-6 -11 0
-6 -10 0
-5 -80 0
-5 -72 0
-5 -71 0
-5 -57 0
-5 -47 0
-5 -40 0
-5 -39 0
-5 -28 0
-5 -22 0
-5 -18 0
-5 -14 0
-5 -13 0
-5 -7 0
-4 -79 0
-4 -75 0
-4 -74 0
-4 -73 0
-4 -68 0
-4 -67 0
-4 -66 0
-4 -50 0
-4 -44 0
-4 -28 0
-4 -27 0
-4 -26 0
-4 -15 0
-4 -12 0
-3 -80 0
-3 -76 0
-3 -73 0
-3 -70 0
-3 -62 0
-3 -60 0
-3 -54 0
-3 -49 0
-3 -45 0
-3 -30 0
-3 -22 0
-3 -17 0
-3 -16 0
-3 -12 0
-3 -9 0
-2 -81 0
-2 -80 0
-2 -72 0
-2 -68 0
-2 -64 0
-2 -57 0
-2 -52 0
-2 -46 0
-2 -45 0
-2 -33 0
-2 -28 0
-2 -23 0
-2 -14 0
-2 -7 0
-2 -5 0
-1 -79 0
-1 -71 0
-1 -68 0
-1 -67 0
-1 -50 0
-1 -47 0
-1 -44 0
-1 -40 0
-1 -39 0
-1 -22 0
-1 -18 0
-1 -13 0
-1 -12 0
-1 -5 0
-1 -4 0
1 4 12 34 44 50 67 68 79 0
2 5 7 14 28 57 59 72 80 0
3 16 20 22 30 45 54 62 73 0
6 11 18 29 31 42 64 66 70 0
8 17 24 35 37 40 65 75 81 0
9 25 26 38 39 46 48 51 78 0
10 13 19 33 49 53 56 69 74 0
15 32 36 41 47 52 58 60 63 0
21 23 27 43 55 61 71 76 77 0
