p cnf 64 400
-62 -64 0
-62 -63 0
-57 -63 0
-57 -61 0
-56 -58 0
-55 -64 0
-55 -61 0
-54 -61 0
-54 -58 0
-54 -56 0
-54 -55 0
-53 -59 0
-52 -64 0
-52 -63 0
-52 -57 0
-52 -55 0
-51 -64 0
-51 -56 0
-51 -55 0
-51 -52 0
-50 -64 0
-50 -62 0
-50 -58 0
-50 -56 0
-50 -54 0
-49 -64 0
-49 -59 0
-49 -55 0
-49 -53 0
-49 -52 0
-49 -51 0
-48 -60 0
-48 -59 0
-47 -61 0
-47 -55 0
-47 -54 0
-47 -53 0
-46 -64 0
-46 -62 0
-46 -61 0
-46 -57 0
-46 -50 0
-45 -63 0
-45 -62 0
-45 -59 0
-45 -53 0
-45 -49 0
-44 -61 0
-44 -58 0
-44 -57 0
-44 -46 0
-42 -64 0
-42 -55 0
-42 -52 0
-42 -51 0
-42 -49 0
-41 -63 0
-41 -62 0
-41 -58 0
-41 -45 0
-41 -44 0
-40 -63 0
-40 -62 0
-40 -60 0
-40 -48 0
-40 -45 0
-40 -41 0
-39 -43 0
-38 -61 0
-38 -57 0
-38 -46 0
-38 -44 0
-38 -42 0
-37 -64 0
-37 -62 0
-37 -59 0
-37 -50 0
-37 -48 0
-37 -46 0
-36 -61 0
-36 -59 0
-36 -57 0
-36 -53 0
-36 -49 0
-36 -46 0
-36 -45 0
-36 -44 0
-36 -38 0
-35 -64 0
-35 -62 0
-35 -60 0
-35 -50 0
-35 -46 0
-35 -37 0
-34 -63 0
-34 -58 0
-34 -57 0
-34 -56 0
-34 -54 0
-34 -52 0
-34 -50 0
-33 -63 0
-33 -62 0
-33 -61 0
-33 -55 0
-33 -54 0
-33 -47 0
-33 -45 0
-33 -41 0
-33 -40 0
-32 -61 0
-32 -59 0
-32 -55 0
-32 -54 0
-32 -48 0
-32 -47 0
-32 -37 0
-32 -33 0
-31 -59 0
-31 -58 0
-31 -56 0
-31 -54 0
-31 -53 0
-31 -50 0
-31 -49 0
-31 -45 0
-31 -36 0
-31 -34 0
-30 -64 0
-30 -62 0
-30 -53 0
-30 -50 0
-30 -47 0
-30 -46 0
-30 -37 0
-30 -35 0
-29 -61 0
-29 -60 0
-29 -55 0
-29 -54 0
-29 -47 0
-29 -35 0
-29 -33 0
-29 -32 0
-28 -63 0
-28 -62 0
-28 -56 0
-28 -51 0
-28 -45 0
-28 -41 0
-28 -40 0
-28 -33 0
-27 -63 0
-27 -57 0
-27 -53 0
-27 -52 0
-27 -47 0
-27 -34 0
-27 -30 0
-26 -43 0
-26 -39 0
-25 -43 0
-25 -39 0
-25 -26 0
-24 -61 0
-24 -60 0
-24 -57 0
-24 -48 0
-24 -46 0
-24 -44 0
-24 -40 0
-24 -38 0
-24 -36 0
-23 -58 0
-23 -56 0
-23 -54 0
-23 -50 0
-23 -42 0
-23 -38 0
-23 -34 0
-23 -31 0
-22 -60 0
-22 -58 0
-22 -44 0
-22 -41 0
-22 -35 0
-22 -29 0
-21 -43 0
-21 -39 0
-21 -26 0
-21 -25 0
-20 -60 0
-20 -59 0
-20 -53 0
-20 -49 0
-20 -45 0
-20 -36 0
-20 -35 0
-20 -31 0
-20 -29 0
-20 -22 0
-19 -43 0
-19 -39 0
-19 -26 0
-19 -25 0
-19 -21 0
-18 -64 0
-18 -60 0
-18 -55 0
-18 -52 0
-18 -51 0
-18 -49 0
-18 -48 0
-18 -42 0
-18 -40 0
-18 -24 0
-17 -59 0
-17 -56 0
-17 -51 0
-17 -48 0
-17 -37 0
-17 -32 0
-17 -28 0
-16 -43 0
-16 -39 0
-16 -26 0
-16 -25 0
-16 -21 0
-16 -19 0
-15 -60 0
-15 -56 0
-15 -51 0
-15 -35 0
-15 -29 0
-15 -28 0
-15 -22 0
-15 -20 0
-15 -17 0
-14 -63 0
-14 -62 0
-14 -45 0
-14 -42 0
-14 -41 0
-14 -40 0
-14 -38 0
-14 -33 0
-14 -28 0
-14 -23 0
-13 -60 0
-13 -42 0
-13 -38 0
-13 -35 0
-13 -29 0
-13 -23 0
-13 -22 0
-13 -20 0
-13 -15 0
-13 -14 0
-12 -43 0
-12 -39 0
-12 -26 0
-12 -25 0
-12 -21 0
-12 -19 0
-12 -16 0
-11 -63 0
-11 -60 0
-11 -57 0
-11 -52 0
-11 -35 0
-11 -34 0
-11 -29 0
-11 -27 0
-11 -22 0
-11 -20 0
-11 -15 0
-11 -13 0
-10 -56 0
-10 -53 0
-10 -51 0
-10 -47 0
-10 -30 0
-10 -28 0
-10 -27 0
-10 -17 0
-10 -15 0
-9 -60 0
-9 -58 0
-9 -56 0
-9 -54 0
-9 -50 0
-9 -48 0
-9 -40 0
-9 -34 0
-9 -31 0
-9 -24 0
-9 -23 0
-9 -18 0
-8 -61 0
-8 -57 0
-8 -56 0
-8 -51 0
-8 -46 0
-8 -44 0
-8 -38 0
-8 -36 0
-8 -28 0
-8 -24 0
-8 -17 0
-8 -15 0
-8 -10 0
-7 -64 0
-7 -58 0
-7 -55 0
-7 -52 0
-7 -51 0
-7 -49 0
-7 -44 0
-7 -42 0
-7 -41 0
-7 -22 0
-7 -18 0
-6 -58 0
-6 -53 0
-6 -47 0
-6 -44 0
-6 -41 0
-6 -30 0
-6 -27 0
-6 -22 0
-6 -10 0
-6 -7 0
-5 -53 0
-5 -47 0
-5 -42 0
-5 -38 0
-5 -30 0
-5 -27 0
-5 -23 0
-5 -14 0
-5 -13 0
-5 -10 0
-5 -6 0
-4 -63 0
-4 -59 0
-4 -57 0
-4 -52 0
-4 -48 0
-4 -37 0
-4 -34 0
-4 -32 0
-4 -27 0
-4 -17 0
-4 -11 0
-3 -59 0
-3 -48 0
-3 -42 0
-3 -38 0
-3 -37 0
-3 -32 0
-3 -23 0
-3 -17 0
-3 -14 0
-3 -13 0
-3 -5 0
-3 -4 0
-2 -60 0
-2 -53 0
-2 -48 0
-2 -47 0
-2 -40 0
-2 -30 0
-2 -27 0
-2 -24 0
-2 -18 0
-2 -10 0
-2 -9 0
-2 -6 0
-2 -5 0
-1 -59 0
-1 -58 0
-1 -48 0
-1 -44 0
-1 -41 0
-1 -37 0
-1 -32 0
-1 -22 0
-1 -17 0
-1 -7 0
-1 -6 0
-1 -4 0
-1 -3 0
1 6 7 22 26 41 44 58 0
2 9 18 21 24 40 48 60 0
3 5 13 14 23 38 39 42 0
4 11 25 27 34 52 57 63 0
8 10 15 16 17 28 51 56 0
12 20 31 36 45 49 53 59 0
19 30 35 37 46 50 62 64 0
29 32 33 43 47 54 55 61 0
