p cnf 64 400
-62 -64 0
-61 -63 0
-58 -61 0
-57 -60 0
-57 -59 0
-56 -61 0
-56 -58 0
-55 -59 0
-54 -60 0
-54 -57 0
-53 -55 0
-51 -61 0
-51 -58 0
-51 -56 0
-51 -52 0
-50 -60 0
-50 -52 0
-49 -63 0
-49 -60 0
-49 -50 0
-48 -60 0
-48 -50 0
-48 -49 0
-47 -59 0
-47 -55 0
-47 -52 0
-47 -51 0
-46 -53 0
-46 -52 0
-46 -51 0
-46 -47 0
-45 -63 0
-45 -61 0
-45 -60 0
-45 -57 0
-45 -54 0
-44 -64 0
-44 -62 0
-43 -63 0
-43 -59 0
-43 -57 0
-43 -49 0
-42 -59 0
-42 -57 0
-42 -48 0
-42 -43 0
-41 -59 0
-41 -57 0
-41 -53 0
-41 -46 0
-41 -43 0
-41 -42 0
-40 -63 0
-40 -55 0
-40 -53 0
-40 -49 0
-40 -43 0
-39 -64 0
-39 -62 0
-39 -44 0
-38 -58 0
-38 -53 0
-38 -46 0
-38 -41 0
-37 -60 0
-37 -57 0
-37 -55 0
-37 -54 0
-37 -53 0
-37 -45 0
-37 -40 0
-36 -64 0
-36 -62 0
-36 -44 0
-36 -39 0
-35 -63 0
-35 -61 0
-35 -59 0
-35 -55 0
-35 -47 0
-35 -45 0
-34 -56 0
-34 -48 0
-34 -42 0
-33 -60 0
-33 -57 0
-33 -56 0
-33 -54 0
-33 -45 0
-33 -37 0
-33 -34 0
-32 -56 0
-32 -53 0
-32 -46 0
-32 -41 0
-32 -38 0
-32 -34 0
-32 -33 0
-31 -54 0
-31 -53 0
-31 -46 0
-31 -41 0
-31 -38 0
-31 -32 0
-30 -60 0
-30 -53 0
-30 -50 0
-30 -49 0
-30 -48 0
-30 -46 0
-30 -41 0
-30 -38 0
-30 -32 0
-30 -31 0
-29 -58 0
-29 -48 0
-29 -42 0
-29 -38 0
-29 -34 0
-28 -52 0
-28 -51 0
-28 -48 0
-28 -47 0
-28 -46 0
-28 -42 0
-28 -34 0
-28 -29 0
-27 -63 0
-27 -52 0
-27 -51 0
-27 -49 0
-27 -47 0
-27 -46 0
-27 -43 0
-27 -40 0
-27 -28 0
-26 -59 0
-26 -56 0
-26 -55 0
-26 -47 0
-26 -35 0
-26 -34 0
-26 -33 0
-26 -32 0
-25 -60 0
-25 -57 0
-25 -54 0
-25 -52 0
-25 -51 0
-25 -47 0
-25 -46 0
-25 -45 0
-25 -37 0
-25 -33 0
-25 -28 0
-25 -27 0
-24 -64 0
-24 -62 0
-24 -44 0
-24 -39 0
-24 -36 0
-23 -54 0
-23 -48 0
-23 -42 0
-23 -34 0
-23 -31 0
-23 -29 0
-23 -28 0
-22 -56 0
-22 -52 0
-22 -50 0
-22 -34 0
-22 -33 0
-22 -32 0
-22 -26 0
-21 -58 0
-21 -52 0
-21 -50 0
-21 -38 0
-21 -29 0
-21 -22 0
-20 -64 0
-20 -62 0
-20 -44 0
-20 -39 0
-20 -36 0
-20 -24 0
-19 -59 0
-19 -57 0
-19 -52 0
-19 -50 0
-19 -43 0
-19 -42 0
-19 -41 0
-19 -22 0
-19 -21 0
-18 -61 0
-18 -60 0
-18 -58 0
-18 -56 0
-18 -51 0
-18 -50 0
-18 -49 0
-18 -48 0
-18 -30 0
-17 -55 0
-17 -53 0
-17 -48 0
-17 -42 0
-17 -40 0
-17 -37 0
-17 -34 0
-17 -29 0
-17 -28 0
-17 -23 0
-16 -64 0
-16 -62 0
-16 -44 0
-16 -39 0
-16 -36 0
-16 -24 0
-16 -20 0
-15 -61 0
-15 -58 0
-15 -56 0
-15 -54 0
-15 -51 0
-15 -31 0
-15 -23 0
-15 -18 0
-14 -60 0
-14 -59 0
-14 -55 0
-14 -50 0
-14 -49 0
-14 -48 0
-14 -47 0
-14 -35 0
-14 -30 0
-14 -26 0
-14 -18 0
-13 -61 0
-13 -58 0
-13 -56 0
-13 -55 0
-13 -53 0
-13 -51 0
-13 -40 0
-13 -37 0
-13 -18 0
-13 -17 0
-13 -15 0
-12 -63 0
-12 -58 0
-12 -49 0
-12 -43 0
-12 -40 0
-12 -38 0
-12 -29 0
-12 -27 0
-12 -21 0
-11 -61 0
-11 -59 0
-11 -58 0
-11 -57 0
-11 -56 0
-11 -51 0
-11 -43 0
-11 -42 0
-11 -41 0
-11 -19 0
-11 -18 0
-11 -15 0
-11 -13 0
-10 -54 0
-10 -52 0
-10 -50 0
-10 -31 0
-10 -23 0
-10 -22 0
-10 -21 0
-10 -19 0
-10 -15 0
-9 -63 0
-9 -56 0
-9 -49 0
-9 -43 0
-9 -40 0
-9 -34 0
-9 -33 0
-9 -32 0
-9 -27 0
-9 -26 0
-9 -22 0
-9 -12 0
-8 -63 0
-8 -61 0
-8 -48 0
-8 -45 0
-8 -42 0
-8 -35 0
-8 -34 0
-8 -29 0
-8 -28 0
-8 -23 0
-8 -17 0
-7 -63 0
-7 -61 0
-7 -52 0
-7 -50 0
-7 -45 0
-7 -35 0
-7 -22 0
-7 -21 0
-7 -19 0
-7 -10 0
-7 -8 0
-6 -63 0
-6 -61 0
-6 -53 0
-6 -46 0
-6 -45 0
-6 -41 0
-6 -38 0
-6 -35 0
-6 -32 0
-6 -31 0
-6 -30 0
-6 -8 0
-6 -7 0
-5 -63 0
-5 -54 0
-5 -49 0
-5 -43 0
-5 -40 0
-5 -31 0
-5 -27 0
-5 -23 0
-5 -15 0
-5 -12 0
-5 -10 0
-5 -9 0
-4 -59 0
-4 -58 0
-4 -55 0
-4 -47 0
-4 -38 0
-4 -35 0
-4 -29 0
-4 -26 0
-4 -21 0
-4 -14 0
-4 -12 0
-3 -55 0
-3 -53 0
-3 -52 0
-3 -50 0
-3 -40 0
-3 -37 0
-3 -22 0
-3 -21 0
-3 -19 0
-3 -17 0
-3 -13 0
-3 -10 0
-3 -7 0
-2 -60 0
-2 -58 0
-2 -57 0
-2 -54 0
-2 -45 0
-2 -38 0
-2 -37 0
-2 -33 0
-2 -29 0
-2 -25 0
-2 -21 0
-2 -12 0
-2 -4 0
-1 -59 0
-1 -55 0
-1 -54 0
-1 -47 0
-1 -35 0
-1 -31 0
-1 -26 0
-1 -23 0
-1 -15 0
-1 -14 0
-1 -10 0
-1 -5 0
-1 -4 0
1 5 10 15 23 31 36 54 0
2 4 12 21 29 38 58 62 0
3 13 17 24 37 40 53 55 0
6 7 8 35 44 45 61 63 0
9 16 22 26 32 33 34 56 0
11 19 20 41 42 43 57 59 0
14 18 30 48 49 50 60 64 0
25 27 28 39 46 47 51 52 0
