p cnf 64 400
-60 -62 0
-59 -64 0
-58 -60 0
-57 -61 0
-56 -59 0
-55 -56 0
-54 -60 0
-54 -58 0
-53 -62 0
-53 -60 0
-53 -59 0
-53 -56 0
-52 -64 0
-52 -63 0
-52 -59 0
-51 -59 0
-51 -58 0
-51 -56 0
-51 -53 0
-50 -58 0
-50 -51 0
-49 -62 0
-49 -54 0
-48 -50 0
-47 -62 0
-47 -49 0
-47 -48 0
-46 -61 0
-46 -57 0
-45 -64 0
-45 -62 0
-45 -59 0
-45 -52 0
-45 -49 0
-45 -47 0
-44 -59 0
-44 -56 0
-44 -54 0
-44 -53 0
-44 -51 0
-44 -49 0
-43 -56 0
-43 -55 0
-42 -63 0
-42 -60 0
-42 -58 0
-42 -54 0
-41 -61 0
-41 -57 0
-41 -46 0
-40 -64 0
-40 -54 0
-40 -49 0
-40 -44 0
-39 -63 0
-39 -58 0
-39 -52 0
-39 -51 0
-39 -50 0
-38 -61 0
-38 -57 0
-38 -46 0
-38 -41 0
-37 -63 0
-37 -50 0
-37 -48 0
-37 -42 0
-36 -63 0
-36 -52 0
-36 -48 0
-36 -47 0
-36 -39 0
-35 -64 0
-35 -62 0
-35 -60 0
-35 -53 0
-35 -40 0
-34 -48 0
-34 -47 0
-34 -43 0
-34 -36 0
-33 -60 0
-33 -58 0
-33 -56 0
-33 -55 0
-33 -54 0
-33 -43 0
-33 -42 0
-32 -63 0
-32 -55 0
-32 -42 0
-32 -37 0
-31 -61 0
-31 -57 0
-31 -46 0
-31 -41 0
-31 -38 0
-30 -64 0
-30 -56 0
-30 -55 0
-30 -43 0
-30 -40 0
-30 -35 0
-30 -33 0
-29 -62 0
-29 -60 0
-29 -53 0
-29 -50 0
-29 -48 0
-29 -37 0
-29 -35 0
-28 -56 0
-28 -55 0
-28 -50 0
-28 -48 0
-28 -43 0
-28 -37 0
-28 -33 0
-28 -30 0
-28 -29 0
-27 -58 0
-27 -51 0
-27 -50 0
-27 -43 0
-27 -39 0
-27 -34 0
-26 -62 0
-26 -58 0
-26 -51 0
-26 -50 0
-26 -49 0
-26 -47 0
-26 -45 0
-26 -39 0
-26 -27 0
-25 -55 0
-25 -48 0
-25 -47 0
-25 -36 0
-25 -34 0
-25 -32 0
-24 -54 0
-24 -49 0
-24 -44 0
-24 -43 0
-24 -40 0
-24 -34 0
-24 -27 0
-23 -62 0
-23 -56 0
-23 -55 0
-23 -49 0
-23 -47 0
-23 -45 0
-23 -43 0
-23 -33 0
-23 -30 0
-23 -28 0
-23 -26 0
-22 -64 0
-22 -59 0
-22 -52 0
-22 -45 0
-22 -43 0
-22 -34 0
-22 -27 0
-22 -24 0
-21 -54 0
-21 -50 0
-21 -49 0
-21 -48 0
-21 -44 0
-21 -40 0
-21 -37 0
-21 -29 0
-21 -28 0
-21 -24 0
-20 -63 0
-20 -43 0
-20 -42 0
-20 -37 0
-20 -34 0
-20 -32 0
-20 -27 0
-20 -24 0
-20 -22 0
-19 -64 0
-19 -60 0
-19 -59 0
-19 -58 0
-19 -54 0
-19 -52 0
-19 -45 0
-19 -42 0
-19 -33 0
-19 -22 0
-18 -64 0
-18 -48 0
-18 -47 0
-18 -40 0
-18 -36 0
-18 -35 0
-18 -34 0
-18 -30 0
-18 -25 0
-17 -64 0
-17 -63 0
-17 -42 0
-17 -40 0
-17 -37 0
-17 -35 0
-17 -32 0
-17 -30 0
-17 -20 0
-17 -18 0
-16 -64 0
-16 -59 0
-16 -52 0
-16 -50 0
-16 -48 0
-16 -45 0
-16 -37 0
-16 -29 0
-16 -28 0
-16 -22 0
-16 -21 0
-16 -19 0
-15 -63 0
-15 -56 0
-15 -55 0
-15 -52 0
-15 -43 0
-15 -39 0
-15 -36 0
-15 -33 0
-15 -30 0
-15 -28 0
-15 -23 0
-14 -62 0
-14 -60 0
-14 -55 0
-14 -53 0
-14 -35 0
-14 -32 0
-14 -29 0
-14 -25 0
-13 -59 0
-13 -56 0
-13 -53 0
-13 -51 0
-13 -48 0
-13 -47 0
-13 -44 0
-13 -36 0
-13 -34 0
-13 -25 0
-13 -18 0
-12 -61 0
-12 -57 0
-12 -46 0
-12 -41 0
-12 -38 0
-12 -31 0
-11 -63 0
-11 -62 0
-11 -49 0
-11 -47 0
-11 -45 0
-11 -42 0
-11 -37 0
-11 -32 0
-11 -26 0
-11 -23 0
-11 -20 0
-11 -17 0
-10 -63 0
-10 -54 0
-10 -52 0
-10 -49 0
-10 -44 0
-10 -40 0
-10 -39 0
-10 -36 0
-10 -24 0
-10 -21 0
-10 -15 0
-9 -63 0
-9 -59 0
-9 -56 0
-9 -53 0
-9 -51 0
-9 -44 0
-9 -42 0
-9 -37 0
-9 -32 0
-9 -20 0
-9 -17 0
-9 -13 0
-9 -11 0
-8 -63 0
-8 -62 0
-8 -60 0
-8 -53 0
-8 -52 0
-8 -39 0
-8 -36 0
-8 -35 0
-8 -29 0
-8 -15 0
-8 -14 0
-8 -10 0
-7 -60 0
-7 -58 0
-7 -54 0
-7 -48 0
-7 -47 0
-7 -42 0
-7 -36 0
-7 -34 0
-7 -33 0
-7 -25 0
-7 -19 0
-7 -18 0
-7 -13 0
-6 -64 0
-6 -59 0
-6 -55 0
-6 -52 0
-6 -45 0
-6 -32 0
-6 -25 0
-6 -22 0
-6 -19 0
-6 -16 0
-6 -14 0
-5 -64 0
-5 -58 0
-5 -51 0
-5 -50 0
-5 -40 0
-5 -39 0
-5 -35 0
-5 -30 0
-5 -27 0
-5 -26 0
-5 -18 0
-5 -17 0
-4 -61 0
-4 -57 0
-4 -46 0
-4 -41 0
-4 -38 0
-4 -31 0
-4 -12 0
-3 -55 0
-3 -54 0
-3 -49 0
-3 -44 0
-3 -40 0
-3 -32 0
-3 -25 0
-3 -24 0
-3 -21 0
-3 -14 0
-3 -10 0
-3 -6 0
-2 -62 0
-2 -60 0
-2 -53 0
-2 -43 0
-2 -35 0
-2 -34 0
-2 -29 0
-2 -27 0
-2 -24 0
-2 -22 0
-2 -20 0
-2 -14 0
-2 -8 0
-1 -58 0
-1 -55 0
-1 -51 0
-1 -50 0
-1 -39 0
-1 -32 0
-1 -27 0
-1 -26 0
-1 -25 0
-1 -14 0
-1 -6 0
-1 -5 0
-1 -3 0
1 3 6 14 25 32 38 55 0
2 20 22 24 27 34 43 46 0
4 16 21 28 29 37 48 50 0
5 17 18 30 35 40 61 64 0
7 19 31 33 42 54 58 60 0
8 10 12 15 36 39 52 63 0
9 13 41 44 51 53 56 59 0
11 23 26 45 47 49 57 62 0
