p cnf 81 585
-80 -81 0
-79 -80 0
-78 -81 0
-78 -80 0
-77 -78 0
-75 -81 0
-74 -77 0
-72 -79 0
-72 -73 0
-71 -75 0
-70 -73 0
-70 -72 0
-68 -79 0
-68 -72 0
-67 -81 0
-67 -80 0
-67 -78 0
-67 -71 0
-66 -76 0
-65 -68 0
-64 -79 0
-64 -78 0
-64 -77 0
-64 -72 0
-64 -68 0
-63 -75 0
-63 -71 0
-63 -68 0
-63 -65 0
-62 -69 0
-61 -70 0
-61 -68 0
-61 -65 0
-61 -63 0
-60 -81 0
-60 -80 0
-60 -78 0
-60 -67 0
-60 -66 0
-59 -69 0
-59 -62 0
-58 -80 0
-58 -79 0
-58 -75 0
-58 -71 0
-58 -63 0
-57 -77 0
-57 -74 0
-57 -73 0
-57 -72 0
-57 -70 0
-56 -81 0
-56 -80 0
-56 -78 0
-56 -68 0
-56 -67 0
-56 -65 0
-56 -63 0
-56 -61 0
-56 -60 0
-55 -80 0
-55 -79 0
-55 -65 0
-55 -58 0
-54 -75 0
-54 -74 0
-54 -71 0
-54 -63 0
-54 -58 0
-53 -74 0
-53 -65 0
-53 -55 0
-53 -54 0
-52 -69 0
-52 -62 0
-52 -59 0
-51 -76 0
-51 -75 0
-51 -71 0
-51 -63 0
-51 -58 0
-51 -54 0
-50 -81 0
-50 -75 0
-50 -70 0
-50 -61 0
-49 -80 0
-49 -79 0
-49 -77 0
-49 -74 0
-49 -58 0
-49 -57 0
-49 -55 0
-48 -81 0
-48 -80 0
-48 -78 0
-48 -74 0
-48 -67 0
-48 -60 0
-48 -56 0
-48 -54 0
-48 -53 0
-47 -81 0
-47 -80 0
-47 -78 0
-47 -76 0
-47 -67 0
-47 -60 0
-47 -56 0
-47 -51 0
-47 -48 0
-46 -76 0
-46 -73 0
-46 -51 0
-46 -47 0
-45 -77 0
-45 -74 0
-45 -68 0
-45 -65 0
-45 -63 0
-45 -61 0
-45 -57 0
-45 -56 0
-45 -49 0
-44 -79 0
-44 -72 0
-44 -68 0
-44 -66 0
-44 -64 0
-44 -60 0
-43 -69 0
-43 -62 0
-43 -59 0
-43 -52 0
-42 -76 0
-42 -70 0
-42 -61 0
-42 -51 0
-42 -50 0
-42 -47 0
-42 -46 0
-41 -78 0
-41 -77 0
-41 -75 0
-41 -71 0
-41 -64 0
-41 -63 0
-41 -58 0
-41 -54 0
-41 -51 0
-40 -69 0
-40 -62 0
-40 -59 0
-40 -52 0
-40 -43 0
-39 -81 0
-39 -80 0
-39 -78 0
-39 -73 0
-39 -72 0
-39 -70 0
-39 -67 0
-39 -60 0
-39 -57 0
-39 -56 0
-39 -48 0
-39 -47 0
-38 -77 0
-38 -74 0
-38 -71 0
-38 -67 0
-38 -57 0
-38 -49 0
-38 -45 0
-37 -79 0
-37 -74 0
-37 -72 0
-37 -68 0
-37 -64 0
-37 -54 0
-37 -53 0
-37 -48 0
-37 -44 0
-36 -76 0
-36 -68 0
-36 -66 0
-36 -65 0
-36 -63 0
-36 -61 0
-36 -56 0
-36 -45 0
-35 -73 0
-35 -66 0
-35 -60 0
-35 -46 0
-35 -44 0
-34 -78 0
-34 -77 0
-34 -65 0
-34 -64 0
-34 -55 0
-34 -53 0
-34 -41 0
-33 -79 0
-33 -72 0
-33 -71 0
-33 -68 0
-33 -67 0
-33 -64 0
-33 -44 0
-33 -38 0
-33 -37 0
-32 -69 0
-32 -62 0
-32 -59 0
-32 -52 0
-32 -43 0
-32 -40 0
-31 -76 0
-31 -71 0
-31 -67 0
-31 -66 0
-31 -38 0
-31 -36 0
-31 -33 0
-30 -79 0
-30 -76 0
-30 -72 0
-30 -68 0
-30 -64 0
-30 -51 0
-30 -47 0
-30 -46 0
-30 -44 0
-30 -42 0
-30 -37 0
-30 -33 0
-29 -80 0
-29 -79 0
-29 -76 0
-29 -66 0
-29 -58 0
-29 -55 0
-29 -49 0
-29 -36 0
-29 -31 0
-28 -80 0
-28 -79 0
-28 -70 0
-28 -61 0
-28 -58 0
-28 -55 0
-28 -50 0
-28 -49 0
-28 -42 0
-28 -29 0
-27 -81 0
-27 -77 0
-27 -75 0
-27 -74 0
-27 -57 0
-27 -50 0
-27 -49 0
-27 -45 0
-27 -38 0
-26 -66 0
-26 -65 0
-26 -60 0
-26 -55 0
-26 -53 0
-26 -44 0
-26 -35 0
-26 -34 0
-25 -78 0
-25 -77 0
-25 -70 0
-25 -64 0
-25 -61 0
-25 -50 0
-25 -42 0
-25 -41 0
-25 -34 0
-25 -28 0
-24 -76 0
-24 -73 0
-24 -72 0
-24 -70 0
-24 -66 0
-24 -57 0
-24 -39 0
-24 -36 0
-24 -31 0
-24 -29 0
-23 -81 0
-23 -75 0
-23 -65 0
-23 -55 0
-23 -53 0
-23 -50 0
-23 -34 0
-23 -27 0
-23 -26 0
-22 -71 0
-22 -70 0
-22 -67 0
-22 -61 0
-22 -50 0
-22 -42 0
-22 -38 0
-22 -33 0
-22 -31 0
-22 -28 0
-22 -25 0
-21 -71 0
-21 -67 0
-21 -65 0
-21 -55 0
-21 -53 0
-21 -38 0
-21 -34 0
-21 -33 0
-21 -31 0
-21 -26 0
-21 -23 0
-21 -22 0
-20 -75 0
-20 -71 0
-20 -66 0
-20 -63 0
-20 -60 0
-20 -58 0
-20 -54 0
-20 -51 0
-20 -44 0
-20 -41 0
-20 -35 0
-20 -26 0
-19 -69 0
-19 -62 0
-19 -59 0
-19 -52 0
-19 -43 0
-19 -40 0
-19 -32 0
-18 -81 0
-18 -79 0
-18 -75 0
-18 -72 0
-18 -68 0
-18 -64 0
-18 -50 0
-18 -44 0
-18 -37 0
-18 -33 0
-18 -30 0
-18 -27 0
-18 -23 0
-17 -77 0
-17 -74 0
-17 -66 0
-17 -60 0
-17 -57 0
-17 -49 0
-17 -45 0
-17 -44 0
-17 -38 0
-17 -35 0
-17 -27 0
-17 -26 0
-17 -20 0
-16 -69 0
-16 -62 0
-16 -59 0
-16 -52 0
-16 -43 0
-16 -40 0
-16 -32 0
-16 -19 0
-15 -75 0
-15 -73 0
-15 -72 0
-15 -71 0
-15 -70 0
-15 -63 0
-15 -58 0
-15 -57 0
-15 -54 0
-15 -51 0
-15 -41 0
-15 -39 0
-15 -24 0
-15 -20 0
-14 -74 0
-14 -73 0
-14 -54 0
-14 -53 0
-14 -48 0
-14 -46 0
-14 -37 0
-14 -35 0
-13 -80 0
-13 -79 0
-13 -73 0
-13 -58 0
-13 -55 0
-13 -49 0
-13 -46 0
-13 -35 0
-13 -29 0
-13 -28 0
-13 -14 0
-12 -74 0
-12 -70 0
-12 -61 0
-12 -54 0
-12 -53 0
-12 -50 0
-12 -48 0
-12 -42 0
-12 -37 0
-12 -28 0
-12 -25 0
-12 -22 0
-12 -14 0
-11 -70 0
-11 -66 0
-11 -61 0
-11 -60 0
-11 -50 0
-11 -44 0
-11 -42 0
-11 -35 0
-11 -28 0
-11 -26 0
-11 -25 0
-11 -22 0
-11 -20 0
-11 -17 0
-11 -12 0
-10 -73 0
-10 -72 0
-10 -70 0
-10 -65 0
-10 -57 0
-10 -55 0
-10 -53 0
-10 -39 0
-10 -34 0
-10 -26 0
-10 -24 0
-10 -23 0
-10 -21 0
-10 -15 0
-9 -76 0
-9 -65 0
-9 -55 0
-9 -53 0
-9 -51 0
-9 -47 0
-9 -46 0
-9 -42 0
-9 -34 0
-9 -30 0
-9 -26 0
-9 -23 0
-9 -21 0
-9 -10 0
-8 -78 0
-8 -77 0
-8 -76 0
-8 -66 0
-8 -64 0
-8 -41 0
-8 -36 0
-8 -34 0
-8 -31 0
-8 -29 0
-8 -25 0
-8 -24 0
-7 -76 0
-7 -74 0
-7 -66 0
-7 -54 0
-7 -53 0
-7 -48 0
-7 -37 0
-7 -36 0
-7 -31 0
-7 -29 0
-7 -24 0
-7 -14 0
-7 -12 0
-7 -8 0
-6 -81 0
-6 -76 0
-6 -75 0
-6 -66 0
-6 -50 0
-6 -36 0
-6 -31 0
-6 -29 0
-6 -27 0
-6 -24 0
-6 -23 0
-6 -18 0
-6 -8 0
-6 -7 0
-5 -73 0
-5 -71 0
-5 -67 0
-5 -46 0
-5 -38 0
-5 -35 0
-5 -33 0
-5 -31 0
-5 -22 0
-5 -21 0
-5 -14 0
-5 -13 0
-4 -78 0
-4 -77 0
-4 -73 0
-4 -64 0
-4 -46 0
-4 -41 0
-4 -35 0
-4 -34 0
-4 -25 0
-4 -14 0
-4 -13 0
-4 -8 0
-4 -5 0
-3 -77 0
-3 -76 0
-3 -74 0
-3 -57 0
-3 -51 0
-3 -49 0
-3 -47 0
-3 -46 0
-3 -45 0
-3 -42 0
-3 -38 0
-3 -30 0
-3 -27 0
-3 -17 0
-3 -9 0
-2 -81 0
-2 -75 0
-2 -73 0
-2 -50 0
-2 -46 0
-2 -35 0
-2 -27 0
-2 -23 0
-2 -18 0
-2 -14 0
-2 -13 0
-2 -6 0
-2 -5 0
-2 -4 0
-1 -73 0
-1 -68 0
-1 -65 0
-1 -63 0
-1 -61 0
-1 -56 0
-1 -46 0
-1 -45 0
-1 -36 0
-1 -35 0
-1 -14 0
-1 -13 0
-1 -5 0
-1 -4 0
-1 -2 0
1 36 40 45 56 61 63 65 68 0
2 6 18 23 27 43 50 75 81 0
3 9 30 32 42 46 47 51 76 0
4 8 19 25 34 41 64 77 78 0
5 21 22 31 33 38 67 69 71 0
7 12 14 37 48 53 54 59 74 0
10 15 24 39 57 62 70 72 73 0
11 16 17 20 26 35 44 60 66 0
13 28 29 49 52 55 58 79 80 0
